# vtk DataFile Version 3.0
vtk output
ASCII
DATASET UNSTRUCTURED_GRID
POINTS 17020 float
-0.18052	1.3078	0.334608	
-0.134745	1.19543	0.248773	
-0.0964049	1.37384	0.276475	
-0.0330822	1.21734	0.266884	
-0.00167925	1.31098	0.319981	
0.109201	1.35772	0.375246	
0.0814864	1.49332	0.347681	
-0.0552231	1.38907	0.38538	
0.164574	0.7464	0.211103	
0.121965	0.82524	0.342904	
0.206682	0.777113	0.400851	
0.215953	0.839226	0.238202	
-0.134745	1.19543	0.248773	
-0.156284	1.06551	0.149142	
-0.136328	1.19004	0.119282	
-0.0611059	1.11559	0.264866	
-0.0977967	0.509657	0.258774	
0.0452903	0.623513	0.25784	
-0.136534	0.645188	0.231761	
-0.039093	0.610067	0.388942	
0.0814864	1.49332	0.347681	
0.109201	1.35772	0.375246	
-0.00167925	1.31098	0.319981	
0.0196341	1.38361	0.225797	
-0.119993	1.24669	0	
-0.136328	1.19004	0.119282	
-0.0697093	1.32708	0.167311	
-0.153777	1.36779	0.103264	
-0.23296	0.961598	0.249877	
-0.193842	1.09373	0.257323	
-0.156284	1.06551	0.149142	
-0.256772	1.06769	0.100506	
0	1.25	0.5	
0.0902907	1.23506	0.376077	
-0.00173102	1.15684	0.347507	
-0.0850696	1.27829	0.394238	
-0.274228	1.15934	0.161857	
-0.279096	1.24359	0.272562	
-0.434698	1.24706	0.250499	
-0.364752	1.11394	0.23148	
-0.136534	0.645188	0.231761	
0.0452903	0.623513	0.25784	
0.00505532	0.706778	0.339312	
-0.039093	0.610067	0.388942	
-0.134745	1.19543	0.248773	
-0.0964049	1.37384	0.276475	
-0.0697093	1.32708	0.167311	
-0.193559	1.35773	0.245031	
-0.18052	1.3078	0.334608	
-0.0850696	1.27829	0.394238	
-0.134745	1.19543	0.248773	
-0.0330822	1.21734	0.266884	
0.209063	1.27717	0.342511	
0.109201	1.35772	0.375246	
0.25658	1.42915	0.33124	
0.212182	1.31459	0.219285	
-0.0697093	1.32708	0.167311	
-0.136328	1.19004	0.119282	
-0.119993	1.24669	0	
0.00439522	1.27731	0.103072	
-0.437078	1.24282	0.152991	
-0.434698	1.24706	0.250499	
-0.274228	1.15934	0.161857	
-0.279096	1.24359	0.272562	
-0.0697093	1.32708	0.167311	
-0.0964049	1.37384	0.276475	
-0.134745	1.19543	0.248773	
-0.0330822	1.21734	0.266884	
-0.138674	1.3238	0	
-0.119993	1.24669	0	
-0.0697093	1.32708	0.167311	
-0.153777	1.36779	0.103264	
0.164574	0.7464	0.211103	
0.121965	0.82524	0.342904	
0.151014	0.679593	0.343049	
0.206682	0.777113	0.400851	
0.388274	1.31503	0.420807	
0.281092	1.28109	0.5	
0.209063	1.27717	0.342511	
0.347642	1.19453	0.384775	
-0.23296	0.961598	0.249877	
-0.193842	1.09373	0.257323	
-0.256772	1.06769	0.100506	
-0.318838	1.02278	0.259668	
-0.18644	1.1823	0	
-0.136328	1.19004	0.119282	
-0.274228	1.15934	0.161857	
-0.256772	1.06769	0.100506	
-0.156284	1.06551	0.149142	
-0.0543483	1.10288	0.107179	
-0.136328	1.19004	0.119282	
-0.0611059	1.11559	0.264866	
-0.0555676	1.32557	0	
-0.138674	1.3238	0	
-0.119993	1.24669	0	
-0.0697093	1.32708	0.167311	
-0.00425413	1.131	0	
0.113965	1.18028	0.121768	
-0.00674902	1.18961	0.168493	
0.0593465	1.06716	0.10856	
-0.0697093	1.32708	0.167311	
-0.00674902	1.18961	0.168493	
-0.134745	1.19543	0.248773	
-0.136328	1.19004	0.119282	
0.226544	0.947552	0.250202	
0.325159	1.05851	0.165819	
0.208793	1.06331	0.266812	
0.378383	1.07129	0.271427	
-0.18052	1.3078	0.334608	
-0.0964049	1.37384	0.276475	
-0.0850696	1.27829	0.394238	
-0.0330822	1.21734	0.266884	
-0.26105	1.2034	0	
-0.257956	1.11632	0	
-0.18644	1.1823	0	
-0.274228	1.15934	0.161857	
-0.138674	1.3238	0	
-0.0697093	1.32708	0.167311	
-0.0555676	1.32557	0	
-0.153777	1.36779	0.103264	
-0.134745	1.19543	0.248773	
-0.136328	1.19004	0.119282	
-0.00674902	1.18961	0.168493	
-0.0611059	1.11559	0.264866	
-0.134745	1.19543	0.248773	
-0.0697093	1.32708	0.167311	
-0.210789	1.29041	0.168489	
-0.193559	1.35773	0.245031	
-0.5	1	0.3	
-0.382289	1.08918	0.382504	
-0.363598	0.972427	0.365583	
-0.318838	1.02278	0.259668	
-0.134745	1.19543	0.248773	
-0.18052	1.3078	0.334608	
-0.0964049	1.37384	0.276475	
-0.193559	1.35773	0.245031	
-0.00425413	1.131	0	
0.0651412	1.2001	0	
-0.00674902	1.18961	0.168493	
0.113965	1.18028	0.121768	
0.0461078	0.941573	0	
0.0712814	0.846848	0	
0.0937412	0.930011	0.154317	
-0.00436862	0.872297	0.154061	
-0.437078	1.24282	0.152991	
-0.274228	1.15934	0.161857	
-0.386792	1.31685	0.198616	
-0.279096	1.24359	0.272562	
-0.00425413	1.131	0	
0.0593465	1.06716	0.10856	
-0.00674902	1.18961	0.168493	
-0.0543483	1.10288	0.107179	
-0.0977967	0.509657	0.258774	
-0.136534	0.645188	0.231761	
-0.0297704	0.68077	0.178611	
-0.0982069	0.610875	0.136018	
-0.00173102	1.15684	0.347507	
0.125116	1.11613	0.369411	
0.0868435	1.13736	0.5	
-0.00748686	1.04315	0.386084	
-0.171353	0.530279	0.338334	
-0.0810399	0.506611	0.35285	
-0.136534	0.645188	0.231761	
-0.039093	0.610067	0.388942	
0.174678	1.4685	0.317109	
0.25658	1.42915	0.33124	
0.109201	1.35772	0.375246	
0.212182	1.31459	0.219285	
0.374193	1.33163	0.334643	
0.388274	1.31503	0.420807	
0.209063	1.27717	0.342511	
0.347642	1.19453	0.384775	
-0.5	1	0.2	
-0.5	1	0.3	
-0.37095	0.93253	0.240862	
-0.318838	1.02278	0.259668	
0.245477	0.808349	0	
0.296805	0.825729	0.165597	
0.232997	0.88938	0	
0.177224	0.838965	0.12521	
0.325159	1.05851	0.165819	
0.226544	0.947552	0.250202	
0.361351	0.935933	0.2197	
0.378383	1.07129	0.271427	
-0.18052	1.3078	0.334608	
-0.125823	1.17124	0.373805	
-0.134745	1.19543	0.248773	
-0.0850696	1.27829	0.394238	
-0.26105	1.2034	0	
-0.274228	1.15934	0.161857	
-0.18644	1.1823	0	
-0.277342	1.24516	0.0975038	
-0.134745	1.19543	0.248773	
-0.274228	1.15934	0.161857	
-0.136328	1.19004	0.119282	
-0.193842	1.09373	0.257323	
0.226544	0.947552	0.250202	
0.347602	0.985936	0.348343	
0.285177	0.816119	0.328962	
0.361351	0.935933	0.2197	
-0.136328	1.19004	0.119282	
-0.0543483	1.10288	0.107179	
-0.00674902	1.18961	0.168493	
-0.0611059	1.11559	0.264866	
0	1.25	0.5	
0.028723	1.17517	0.5	
-0.00173102	1.15684	0.347507	
0.0902907	1.23506	0.376077	
-0.156284	1.06551	0.149142	
-0.227254	0.962083	0.121579	
-0.23296	0.961598	0.249877	
-0.256772	1.06769	0.100506	
0	1.25	0.5	
-0.00167925	1.31098	0.319981	
0.0902907	1.23506	0.376077	
-0.0850696	1.27829	0.394238	
-0.00643767	0.847524	0.25115	
-0.00643767	0.847524	0.3797	
-0.144063	0.852748	0.341365	
-0.081357	0.751661	0.265055	
-0.0297704	0.68077	0.178611	
-0.136534	0.645188	0.231761	
-0.0977967	0.509657	0.258774	
0.0452903	0.623513	0.25784	
-0.274228	1.15934	0.161857	
-0.256772	1.06769	0.100506	
-0.193842	1.09373	0.257323	
-0.318838	1.02278	0.259668	
0.0712814	0.846848	0	
0.0541326	0.793785	0.132666	
0.0937412	0.930011	0.154317	
-0.00436862	0.872297	0.154061	
-0.0297704	0.68077	0.178611	
0.00505532	0.706778	0.339312	
-0.081357	0.751661	0.265055	
-0.136534	0.645188	0.231761	
0.0461078	0.941573	0	
0.0937412	0.930011	0.154317	
-0.0105385	0.962638	0.111113	
-0.00436862	0.872297	0.154061	
-0.274228	1.15934	0.161857	
-0.386792	1.31685	0.198616	
-0.279096	1.24359	0.272562	
-0.277342	1.24516	0.0975038	
0.285177	0.816119	0.328962	
0.347602	0.985936	0.348343	
0.226544	0.947552	0.250202	
0.211575	0.889225	0.384788	
0.109201	1.35772	0.375246	
0.0196341	1.38361	0.225797	
0.0854243	1.49265	0.251403	
0.105734	1.2948	0.276786	
0.285177	0.816119	0.328962	
0.361351	0.935933	0.2197	
0.347602	0.985936	0.348343	
0.358257	0.834187	0.252847	
-0.437078	1.24282	0.152991	
-0.274228	1.15934	0.161857	
-0.434698	1.24706	0.250499	
-0.364752	1.11394	0.23148	
0.0937412	0.930011	0.154317	
0.0541326	0.793785	0.132666	
0.0712814	0.846848	0	
0.177224	0.838965	0.12521	
-0.0977967	0.509657	0.258774	
-0.136534	0.645188	0.231761	
-0.0810399	0.506611	0.35285	
-0.039093	0.610067	0.388942	
-0.144063	0.852748	0.341365	
-0.23296	0.961598	0.249877	
-0.203766	0.963562	0.377533	
-0.140073	0.942584	0.309826	
0.164574	0.7464	0.211103	
0.278655	0.736565	0.241439	
0.215953	0.839226	0.238202	
0.260241	0.698507	0.343916	
0.226544	0.947552	0.250202	
0.208793	1.06331	0.266812	
0.347602	0.985936	0.348343	
0.378383	1.07129	0.271427	
-0.5	1	0.3	
-0.492649	1.08542	0.251403	
-0.382289	1.08918	0.382504	
-0.318838	1.02278	0.259668	
-0.144063	0.852748	0.341365	
-0.296327	0.833736	0.292179	
-0.189227	0.766031	0.208899	
-0.259603	0.71434	0.292274	
0.119419	1.18151	0.251425	
0.113965	1.18028	0.121768	
0.098462	1.32087	0.159093	
0.189162	1.24479	0.0938772	
-0.437078	1.24282	0.152991	
-0.386792	1.31685	0.198616	
-0.434698	1.24706	0.250499	
-0.279096	1.24359	0.272562	
-0.214341	1.27376	0	
-0.136328	1.19004	0.119282	
-0.119993	1.24669	0	
-0.153777	1.36779	0.103264	
-0.210789	1.29041	0.168489	
-0.136328	1.19004	0.119282	
-0.214341	1.27376	0	
-0.153777	1.36779	0.103264	
-0.115695	1.05029	0.334241	
-0.193842	1.09373	0.257323	
-0.203766	0.963562	0.377533	
-0.179827	1.088	0.408491	
-0.134745	1.19543	0.248773	
-0.00674902	1.18961	0.168493	
-0.0697093	1.32708	0.167311	
-0.0330822	1.21734	0.266884	
0.00505532	0.706778	0.339312	
-0.136534	0.645188	0.231761	
-0.0297704	0.68077	0.178611	
0.0452903	0.623513	0.25784	
-0.134745	1.19543	0.248773	
-0.0850696	1.27829	0.394238	
-0.125823	1.17124	0.373805	
-0.0330822	1.21734	0.266884	
0.119419	1.18151	0.251425	
0.22536	1.15058	0.40335	
0.125116	1.11613	0.369411	
0.219623	1.16199	0.240766	
-0.257956	1.11632	0	
-0.18644	1.1823	0	
-0.274228	1.15934	0.161857	
-0.256772	1.06769	0.100506	
-0.323938	0.619127	0.347739	
-0.317197	0.613495	0.431175	
-0.153774	0.693588	0.346551	
-0.289723	0.75771	0.393302	
-0.144063	0.852748	0.341365	
-0.296327	0.833736	0.292179	
-0.259603	0.71434	0.292274	
-0.289723	0.75771	0.393302	
0.109201	1.35772	0.375246	
0.212182	1.31459	0.219285	
0.209063	1.27717	0.342511	
0.105734	1.2948	0.276786	
-0.144063	0.852748	0.341365	
-0.239777	0.86007	0.398057	
-0.296327	0.833736	0.292179	
-0.289723	0.75771	0.393302	
0.164574	0.7464	0.211103	
0.215953	0.839226	0.238202	
0.206682	0.777113	0.400851	
0.260241	0.698507	0.343916	
0.245477	0.808349	0	
0.313791	0.845535	0	
0.232997	0.88938	0	
0.296805	0.825729	0.165597	
-0.0697093	1.32708	0.167311	
-0.134745	1.19543	0.248773	
-0.210789	1.29041	0.168489	
-0.136328	1.19004	0.119282	
0	1.25	0.5	
-0.00173102	1.15684	0.347507	
-0.0392044	1.16291	0.5	
-0.0850696	1.27829	0.394238	
-0.134745	1.19543	0.248773	
-0.193842	1.09373	0.257323	
-0.125823	1.17124	0.373805	
-0.234257	1.21312	0.375398	
-0.00425413	1.131	0	
0.0651412	1.2001	0	
-0.0295403	1.22514	0	
-0.00674902	1.18961	0.168493	
-0.274228	1.15934	0.161857	
-0.136328	1.19004	0.119282	
-0.18644	1.1823	0	
-0.277342	1.24516	0.0975038	
0.226544	0.947552	0.250202	
0.361351	0.935933	0.2197	
0.285177	0.816119	0.328962	
0.358257	0.834187	0.252847	
-0.0295403	1.22514	0	
-0.00674902	1.18961	0.168493	
-0.136328	1.19004	0.119282	
-0.0543483	1.10288	0.107179	
-0.0977967	0.509657	0.258774	
-0.0297704	0.68077	0.178611	
0	0.5	0.2	
-0.0982069	0.610875	0.136018	
-0.16685	1.08834	0	
-0.136328	1.19004	0.119282	
-0.18644	1.1823	0	
-0.256772	1.06769	0.100506	
-0.144063	0.852748	0.341365	
-0.259603	0.71434	0.292274	
-0.153774	0.693588	0.346551	
-0.289723	0.75771	0.393302	
-0.5	1	0.1	
-0.426463	1.04414	0	
-0.3474	1.01863	0.155865	
-0.390863	0.914451	0.0980906	
-0.5	1	0.2	
-0.492649	1.08542	0.251403	
-0.5	1	0.3	
-0.318838	1.02278	0.259668	
0.0854243	1.49265	0.251403	
0.0196341	1.38361	0.225797	
0.168734	1.47067	0.201781	
0.105734	1.2948	0.276786	
-0.426463	1.04414	0	
-0.495012	1.07045	0.0718447	
-0.5	1	0.1	
-0.3474	1.01863	0.155865	
-0.00173102	1.15684	0.347507	
-0.0392044	1.16291	0.5	
-0.0850696	1.27829	0.394238	
-0.0571477	1.11947	0.416349	
0.174678	1.4685	0.317109	
0.212182	1.31459	0.219285	
0.109201	1.35772	0.375246	
0.105734	1.2948	0.276786	
0.209063	1.27717	0.342511	
0.347642	1.19453	0.384775	
0.281092	1.28109	0.5	
0.22536	1.15058	0.40335	
0.325159	1.05851	0.165819	
0.168914	1.06767	0.155545	
0.226544	0.947552	0.250202	
0.208793	1.06331	0.266812	
-0.119993	1.24669	0	
-0.0555676	1.32557	0	
-0.0697093	1.32708	0.167311	
0.00439522	1.27731	0.103072	
0.14072	0.916025	0	
0.0937412	0.930011	0.154317	
0.0712814	0.846848	0	
0.177224	0.838965	0.12521	
-0.3474	1.01863	0.155865	
-0.23296	0.961598	0.249877	
-0.227254	0.962083	0.121579	
-0.256772	1.06769	0.100506	
0.168734	1.47067	0.201781	
0.0196341	1.38361	0.225797	
0.098462	1.32087	0.159093	
0.105734	1.2948	0.276786	
0.209063	1.27717	0.342511	
0.125116	1.11613	0.369411	
0.119419	1.18151	0.251425	
0.22536	1.15058	0.40335	
-0.144063	0.852748	0.341365	
-0.189227	0.766031	0.208899	
-0.153774	0.693588	0.346551	
-0.259603	0.71434	0.292274	
-0.134745	1.19543	0.248773	
-0.279096	1.24359	0.272562	
-0.274228	1.15934	0.161857	
-0.193842	1.09373	0.257323	
-0.156284	1.06551	0.149142	
-0.136328	1.19004	0.119282	
-0.274228	1.15934	0.161857	
-0.193842	1.09373	0.257323	
0.209063	1.27717	0.342511	
0.22536	1.15058	0.40335	
0.119419	1.18151	0.251425	
0.219623	1.16199	0.240766	
0.281092	1.28109	0.5	
0.3168	1.38683	0.395903	
0.388274	1.31503	0.420807	
0.209063	1.27717	0.342511	
-0.144063	0.852748	0.341365	
-0.296327	0.833736	0.292179	
-0.23296	0.961598	0.249877	
-0.170219	0.871655	0.235589	
-0.0977967	0.509657	0.258774	
-0.171353	0.530279	0.338334	
-0.0810399	0.506611	0.35285	
-0.136534	0.645188	0.231761	
0.347602	0.985936	0.348343	
0.361351	0.935933	0.2197	
0.226544	0.947552	0.250202	
0.378383	1.07129	0.271427	
-0.134745	1.19543	0.248773	
-0.210789	1.29041	0.168489	
-0.18052	1.3078	0.334608	
-0.193559	1.35773	0.245031	
-0.5	1	0.2	
-0.3474	1.01863	0.155865	
-0.364752	1.11394	0.23148	
-0.318838	1.02278	0.259668	
-0.134745	1.19543	0.248773	
-0.136328	1.19004	0.119282	
-0.156284	1.06551	0.149142	
-0.193842	1.09373	0.257323	
0.25658	0.570854	0.16876	
0.247079	0.718599	0.118367	
0.0999617	0.645199	0.138238	
0.15722	0.635104	0.236843	
-0.138674	1.3238	0	
-0.214341	1.27376	0	
-0.119993	1.24669	0	
-0.153777	1.36779	0.103264	
0.194604	0.628812	0	
0.0999617	0.645199	0.138238	
0.228991	0.555519	0.0919014	
0.247079	0.718599	0.118367	
-0.0392044	1.16291	0.5	
0	1.25	0.5	
0.028723	1.17517	0.5	
-0.00173102	1.15684	0.347507	
-0.23296	0.961598	0.249877	
-0.256772	1.06769	0.100506	
-0.3474	1.01863	0.155865	
-0.318838	1.02278	0.259668	
-0.00643767	0.847524	0.25115	
-0.144063	0.852748	0.341365	
-0.00643767	0.847524	0.3797	
-0.0821557	0.901585	0.243527	
0.174678	1.4685	0.317109	
0.109201	1.35772	0.375246	
0.0854243	1.49265	0.251403	
0.105734	1.2948	0.276786	
-0.176777	0.823223	0.5	
-0.144063	0.852748	0.341365	
-0.0862712	0.770823	0.389289	
-0.239777	0.86007	0.398057	
0.113965	1.18028	0.121768	
0.0593465	1.06716	0.10856	
0.0919908	1.06424	0.248206	
0.0323895	1.13978	0.258564	
-0.495012	1.07045	0.0718447	
-0.3474	1.01863	0.155865	
-0.426463	1.04414	0	
-0.357904	1.11593	0.101286	
-0.5	1	0.2	
-0.37095	0.93253	0.240862	
-0.3474	1.01863	0.155865	
-0.318838	1.02278	0.259668	
-0.23296	0.961598	0.249877	
-0.144063	0.852748	0.341365	
-0.203766	0.963562	0.377533	
-0.239777	0.86007	0.398057	
-0.156284	1.06551	0.149142	
-0.136328	1.19004	0.119282	
-0.16685	1.08834	0	
-0.256772	1.06769	0.100506	
0.121965	0.82524	0.342904	
0.164574	0.7464	0.211103	
0.151014	0.679593	0.343049	
0.0468326	0.745128	0.237913	
-0.144063	0.852748	0.341365	
-0.170219	0.871655	0.235589	
-0.23296	0.961598	0.249877	
-0.140073	0.942584	0.309826	
-0.134745	1.19543	0.248773	
-0.274228	1.15934	0.161857	
-0.210789	1.29041	0.168489	
-0.136328	1.19004	0.119282	
0.296805	0.825729	0.165597	
0.265828	0.94766	0.123486	
0.232997	0.88938	0	
0.177224	0.838965	0.12521	
-0.00643767	0.847524	0.25115	
-0.00643767	0.847524	0.3797	
-0.045108	0.948191	0.315425	
-0.0821557	0.901585	0.243527	
-0.134745	1.19543	0.248773	
-0.18052	1.3078	0.334608	
-0.210789	1.29041	0.168489	
-0.279096	1.24359	0.272562	
-0.189227	0.766031	0.208899	
-0.296327	0.833736	0.292179	
-0.144063	0.852748	0.341365	
-0.170219	0.871655	0.235589	
0.119419	1.18151	0.251425	
0.098462	1.32087	0.159093	
0.212182	1.31459	0.219285	
0.189162	1.24479	0.0938772	
-0.153774	0.693588	0.346551	
-0.136534	0.645188	0.231761	
0.00505532	0.706778	0.339312	
-0.039093	0.610067	0.388942	
-0.144063	0.852748	0.341365	
-0.045108	0.948191	0.315425	
-0.00643767	0.847524	0.3797	
-0.0821557	0.901585	0.243527	
0.232997	0.88938	0	
0.296805	0.825729	0.165597	
0.313791	0.845535	0	
0.355602	0.87751	0.0966392	
0	0.5	0.2	
-0.0297704	0.68077	0.178611	
-0.0977967	0.509657	0.258774	
0.0452903	0.623513	0.25784	
-0.232161	0.652547	0.5	
-0.153774	0.693588	0.346551	
-0.317197	0.613495	0.431175	
-0.289723	0.75771	0.393302	
0	1.25	0.5	
0.064316	1.32334	0.5	
-0.00167925	1.31098	0.319981	
-0.0850696	1.27829	0.394238	
-0.386792	1.31685	0.198616	
-0.274228	1.15934	0.161857	
-0.437078	1.24282	0.152991	
-0.277342	1.24516	0.0975038	
-0.189227	0.766031	0.208899	
-0.31578	0.863109	0.155248	
-0.296327	0.833736	0.292179	
-0.170219	0.871655	0.235589	
0.0728232	1.49467	0.426459	
0.109201	1.35772	0.375246	
8.18872e-17	1.39822	0.5	
-0.0552231	1.38907	0.38538	
0.151014	0.679593	0.343049	
0.164574	0.7464	0.211103	
0.206682	0.777113	0.400851	
0.260241	0.698507	0.343916	
0.119419	1.18151	0.251425	
0.212182	1.31459	0.219285	
0.260232	1.21075	0.160089	
0.189162	1.24479	0.0938772	
0	0.5	0.3	
0.0452903	0.623513	0.25784	
-0.0977967	0.509657	0.258774	
-0.039093	0.610067	0.388942	
0.347453	0.767839	0.5	
0.285177	0.816119	0.328962	
0.386505	0.682803	0.431175	
0.260241	0.698507	0.343916	
0.0461078	0.941573	0	
-0.0232782	0.872416	0	
0.0712814	0.846848	0	
-0.00436862	0.872297	0.154061	
-0.0295403	1.22514	0	
-0.00674902	1.18961	0.168493	
0.0651412	1.2001	0	
0.00439522	1.27731	0.103072	
-0.5	1	0.3	
-0.492649	1.08542	0.251403	
-0.493315	1.08149	0.347681	
-0.382289	1.08918	0.382504	
-0.134745	1.19543	0.248773	
-0.279096	1.24359	0.272562	
-0.193842	1.09373	0.257323	
-0.234257	1.21312	0.375398	
-0.183156	0.725887	0.5	
-0.0862712	0.770823	0.389289	
-0.153774	0.693588	0.346551	
-0.289723	0.75771	0.393302	
0.226544	0.947552	0.250202	
0.168914	1.06767	0.155545	
0.325159	1.05851	0.165819	
0.265828	0.94766	0.123486	
0.174678	1.4685	0.317109	
0.168734	1.47067	0.201781	
0.212182	1.31459	0.219285	
0.105734	1.2948	0.276786	
-0.117671	0.89803	0	
-0.227254	0.962083	0.121579	
-0.110633	0.921519	0.156892	
-0.10307	0.999921	0.0930669	
-0.00173102	1.15684	0.347507	
0.0902907	1.23506	0.376077	
-0.00167925	1.31098	0.319981	
-0.0850696	1.27829	0.394238	
-0.00167925	1.31098	0.319981	
-0.0850696	1.27829	0.394238	
-0.0964049	1.37384	0.276475	
-0.0330822	1.21734	0.266884	
-0.23296	0.961598	0.249877	
-0.296327	0.833736	0.292179	
-0.144063	0.852748	0.341365	
-0.239777	0.86007	0.398057	
0.361351	0.935933	0.2197	
0.387337	0.975471	0.113668	
0.325159	1.05851	0.165819	
0.378383	1.07129	0.271427	
0.25658	0.570854	0.16876	
0.228991	0.555519	0.0919014	
0.0999617	0.645199	0.138238	
0.247079	0.718599	0.118367	
-0.00167925	1.31098	0.319981	
-0.0850696	1.27829	0.394238	
0.064316	1.32334	0.5	
-0.0552231	1.38907	0.38538	
0.323338	0.935684	0.5	
0.25	1	0.5	
0.203143	1.00597	0.37146	
0.211575	0.889225	0.384788	
0.247057	1.4347	0.250499	
0.25658	1.42915	0.33124	
0.174678	1.4685	0.317109	
0.212182	1.31459	0.219285	
0.174678	1.4685	0.317109	
0.0854243	1.49265	0.251403	
0.168734	1.47067	0.201781	
0.105734	1.2948	0.276786	
0.119419	1.18151	0.251425	
0.260232	1.21075	0.160089	
0.113965	1.18028	0.121768	
0.189162	1.24479	0.0938772	
-0.00643767	0.847524	0.3797	
-0.144063	0.852748	0.341365	
-0.081357	0.751661	0.265055	
-0.0862712	0.770823	0.389289	
0.3168	1.38683	0.395903	
0.374193	1.33163	0.334643	
0.388274	1.31503	0.420807	
0.209063	1.27717	0.342511	
0.0999617	0.645199	0.138238	
0.247079	0.718599	0.118367	
0.194604	0.628812	0	
0.142608	0.739294	0.106454	
0.232997	0.88938	0	
0.265828	0.94766	0.123486	
0.296805	0.825729	0.165597	
0.355602	0.87751	0.0966392	
-0.134745	1.19543	0.248773	
-0.210789	1.29041	0.168489	
-0.274228	1.15934	0.161857	
-0.279096	1.24359	0.272562	
0.0919908	1.06424	0.248206	
0.0244505	0.94868	0.233905	
-0.0151696	1.04156	0.198031	
0.134932	0.977505	0.230093	
-0.0297704	0.68077	0.178611	
-0.189227	0.766031	0.208899	
-0.0726386	0.798943	0.15243	
-0.111014	0.733523	0.0849706	
0.0937412	0.930011	0.154317	
-0.0151696	1.04156	0.198031	
0.0244505	0.94868	0.233905	
0.134932	0.977505	0.230093	
-0.171353	0.530279	0.338334	
-0.136534	0.645188	0.231761	
-0.153774	0.693588	0.346551	
-0.039093	0.610067	0.388942	
0.0937412	0.930011	0.154317	
0.265828	0.94766	0.123486	
0.226544	0.947552	0.250202	
0.177224	0.838965	0.12521	
0.168734	1.47067	0.201781	
0.098462	1.32087	0.159093	
0.212182	1.31459	0.219285	
0.105734	1.2948	0.276786	
-0.364752	1.11394	0.23148	
-0.382289	1.08918	0.382504	
-0.492649	1.08542	0.251403	
-0.318838	1.02278	0.259668	
-0.0295403	1.22514	0	
-0.136328	1.19004	0.119282	
-0.00674902	1.18961	0.168493	
0.00439522	1.27731	0.103072	
-0.189227	0.766031	0.208899	
-0.0297704	0.68077	0.178611	
-0.0726386	0.798943	0.15243	
-0.081357	0.751661	0.265055	
0.0461078	0.941573	0	
-0.0105385	0.962638	0.111113	
-0.0232782	0.872416	0	
-0.00436862	0.872297	0.154061	
-0.153774	0.693588	0.346551	
-0.081357	0.751661	0.265055	
0.00505532	0.706778	0.339312	
-0.136534	0.645188	0.231761	
0.285177	0.816119	0.328962	
0.215953	0.839226	0.238202	
0.278655	0.736565	0.241439	
0.260241	0.698507	0.343916	
-0.189227	0.766031	0.208899	
-0.144063	0.852748	0.341365	
-0.153774	0.693588	0.346551	
-0.081357	0.751661	0.265055	
0.000305103	1.09462	0.5	
-0.00173102	1.15684	0.347507	
0.0868435	1.13736	0.5	
-0.00748686	1.04315	0.386084	
0.490343	0.902203	0.258774	
0.493389	0.91896	0.35285	
0.347602	0.985936	0.348343	
0.368617	0.876452	0.385763	
-0.0297704	0.68077	0.178611	
-0.136534	0.645188	0.231761	
-0.189227	0.766031	0.208899	
-0.111014	0.733523	0.0849706	
0.119419	1.18151	0.251425	
0.125116	1.11613	0.369411	
0.209063	1.27717	0.342511	
0.0902907	1.23506	0.376077	
0.4284	1.25782	0.295024	
0.470916	1.16804	0.300126	
0.347642	1.19453	0.384775	
0.334194	1.15432	0.215771	
0.103403	0.84471	0.5	
0.176777	0.823223	0.5	
0.0956709	0.76903	0.5	
0.0581157	0.769455	0.403061	
0.113965	1.18028	0.121768	
-0.00674902	1.18961	0.168493	
0.0593465	1.06716	0.10856	
0.0323895	1.13978	0.258564	
-0.243391	0.563238	0.403062	
-0.323938	0.619127	0.347739	
-0.317197	0.613495	0.431175	
-0.153774	0.693588	0.346551	
-0.117671	0.89803	0	
-0.110633	0.921519	0.156892	
-0.227254	0.962083	0.121579	
-0.196211	0.8458	0.119009	
-0.0295403	1.22514	0	
-0.00425413	1.131	0	
-0.00674902	1.18961	0.168493	
-0.0543483	1.10288	0.107179	
-0.323938	0.619127	0.347739	
-0.153774	0.693588	0.346551	
-0.259603	0.71434	0.292274	
-0.289723	0.75771	0.393302	
-0.273315	1.33496	0	
-0.214341	1.27376	0	
-0.153777	1.36779	0.103264	
-0.277342	1.24516	0.0975038	
0.386505	0.682803	0.431175	
0.285177	0.816119	0.328962	
0.380873	0.676062	0.347739	
0.260241	0.698507	0.343916	
0.317206	0.613502	0.200322	
0.278655	0.736565	0.241439	
0.247079	0.718599	0.118367	
0.15722	0.635104	0.236843	
0	1.25	0.5	
-0.00167925	1.31098	0.319981	
0.064316	1.32334	0.5	
0.0902907	1.23506	0.376077	
0.121965	0.82524	0.342904	
0.0468326	0.745128	0.237913	
0.151014	0.679593	0.343049	
0.0347483	0.794732	0.315425	
0.285177	0.816119	0.328962	
0.347602	0.985936	0.348343	
0.368617	0.876452	0.385763	
0.358257	0.834187	0.252847	
-0.0297704	0.68077	0.178611	
-0.081357	0.751661	0.265055	
-0.189227	0.766031	0.208899	
-0.136534	0.645188	0.231761	
-0.3474	1.01863	0.155865	
-0.256772	1.06769	0.100506	
-0.274228	1.15934	0.161857	
-0.318838	1.02278	0.259668	
-0.203766	0.963562	0.377533	
-0.179827	1.088	0.408491	
-0.193842	1.09373	0.257323	
-0.275403	1.0393	0.403336	
0.325159	1.05851	0.165819	
0.265828	0.94766	0.123486	
0.346509	1.02379	0	
0.387337	0.975471	0.113668	
0.184962	1.07993	0	
0.113965	1.18028	0.121768	
0.168914	1.06767	0.155545	
0.253711	1.11341	0.104023	
0.288623	1.13754	0.312711	
0.347642	1.19453	0.384775	
0.470916	1.16804	0.300126	
0.334194	1.15432	0.215771	
0.323338	0.935684	0.5	
0.203143	1.00597	0.37146	
0.347602	0.985936	0.348343	
0.211575	0.889225	0.384788	
-0.23296	0.961598	0.249877	
-0.296327	0.833736	0.292179	
-0.31578	0.863109	0.155248	
-0.170219	0.871655	0.235589	
-0.00674902	1.18961	0.168493	
0.113965	1.18028	0.121768	
0.0651412	1.2001	0	
0.00439522	1.27731	0.103072	
0.450285	0.782644	0.144698	
0.296805	0.825729	0.165597	
0.358257	0.834187	0.252847	
0.355602	0.87751	0.0966392	
0.317206	0.613502	0.200322	
0.247079	0.718599	0.118367	
0.25658	0.570854	0.16876	
0.15722	0.635104	0.236843	
0.386505	0.682803	0.431175	
0.347453	0.767839	0.5	
0.436762	0.756609	0.403062	
0.285177	0.816119	0.328962	
-0.0684459	1.49529	0.0685965	
-0.153777	1.36779	0.103264	
-0.0372406	1.41779	0	
0.0105232	1.38676	0.111861	
0.028723	1.17517	0.5	
0.0868435	1.13736	0.5	
0.000305103	1.09462	0.5	
-0.00173102	1.15684	0.347507	
-0.389036	1.20743	0	
-0.440961	1.2357	0.068569	
-0.357904	1.11593	0.101286	
-0.277342	1.24516	0.0975038	
-0.5	1	0.2	
-0.364752	1.11394	0.23148	
-0.492649	1.08542	0.251403	
-0.318838	1.02278	0.259668	
0.5	1	0.4	
0.495293	0.931554	0.431403	
0.398221	1	0.5	
0.347602	0.985936	0.348343	
0.0593465	1.06716	0.10856	
-0.0105385	0.962638	0.111113	
0.0461078	0.941573	0	
0.159132	0.984216	0.0920948	
0.285177	0.816119	0.328962	
0.206682	0.777113	0.400851	
0.215953	0.839226	0.238202	
0.260241	0.698507	0.343916	
0.226544	0.947552	0.250202	
0.265828	0.94766	0.123486	
0.0937412	0.930011	0.154317	
0.134932	0.977505	0.230093	
0.0461078	0.941573	0	
0.0712814	0.846848	0	
0.14072	0.916025	0	
0.0937412	0.930011	0.154317	
-0.144862	0.521445	0.421652	
-0.153774	0.693588	0.346551	
-0.152126	0.632735	0.5	
-0.039093	0.610067	0.388942	
0.0902907	1.23506	0.376077	
-0.0330822	1.21734	0.266884	
0.119419	1.18151	0.251425	
0.0323895	1.13978	0.258564	
0.374193	1.33163	0.334643	
0.347642	1.19453	0.384775	
0.209063	1.27717	0.342511	
0.295334	1.24597	0.26697	
-0.115695	1.05029	0.334241	
-0.193842	1.09373	0.257323	
-0.125823	1.17124	0.373805	
-0.0611059	1.11559	0.264866	
0.386505	0.682803	0.431175	
0.436762	0.756609	0.403062	
0.380873	0.676062	0.347739	
0.285177	0.816119	0.328962	
-0.210789	1.29041	0.168489	
-0.279096	1.24359	0.272562	
-0.386792	1.31685	0.198616	
-0.277342	1.24516	0.0975038	
0.0937412	0.930011	0.154317	
0.106858	0.844305	0.230248	
0.215953	0.839226	0.238202	
0.134932	0.977505	0.230093	
0.0728232	1.49467	0.426459	
8.18872e-17	1.39822	0.5	
0	1.5	0.4	
-0.0552231	1.38907	0.38538	
-0.0697093	1.32708	0.167311	
-0.136328	1.19004	0.119282	
-0.210789	1.29041	0.168489	
-0.153777	1.36779	0.103264	
0.0854243	1.49265	0.251403	
0.109201	1.35772	0.375246	
0.0814864	1.49332	0.347681	
0.0196341	1.38361	0.225797	
0.0937412	0.930011	0.154317	
0.177224	0.838965	0.12521	
0.226544	0.947552	0.250202	
0.215953	0.839226	0.238202	
-0.00643767	0.847524	0.25115	
-0.00643767	0.847524	0.3797	
-0.081357	0.751661	0.265055	
0.0347483	0.794732	0.315425	
-0.31578	0.863109	0.155248	
-0.3474	1.01863	0.155865	
-0.23296	0.961598	0.249877	
-0.227254	0.962083	0.121579	
0.347602	0.985936	0.348343	
0.211575	0.889225	0.384788	
0.285177	0.816119	0.328962	
0.368617	0.876452	0.385763	
-0.134745	1.19543	0.248773	
-0.125823	1.17124	0.373805	
-0.18052	1.3078	0.334608	
-0.234257	1.21312	0.375398	
0.276476	1.05355	0	
0.346509	1.02379	0	
0.325159	1.05851	0.165819	
0.265828	0.94766	0.123486	
-0.134745	1.19543	0.248773	
-0.193842	1.09373	0.257323	
-0.156284	1.06551	0.149142	
-0.0611059	1.11559	0.264866	
0.260232	1.21075	0.160089	
0.212182	1.31459	0.219285	
0.119419	1.18151	0.251425	
0.219623	1.16199	0.240766	
-0.00425413	1.131	0	
0.0651412	1.2001	0	
0.113965	1.18028	0.121768	
0.0593465	1.06716	0.10856	
-0.5	1	0.3	
-0.363598	0.972427	0.365583	
-0.37095	0.93253	0.240862	
-0.318838	1.02278	0.259668	
-0.0684459	1.49529	0.0685965	
-0.118932	1.39861	0	
-0.0372406	1.41779	0	
-0.153777	1.36779	0.103264	
0.347602	0.985936	0.348343	
0.203143	1.00597	0.37146	
0.226544	0.947552	0.250202	
0.211575	0.889225	0.384788	
-0.134745	1.19543	0.248773	
-0.125823	1.17124	0.373805	
-0.193842	1.09373	0.257323	
-0.0611059	1.11559	0.264866	
-0.285945	1.12176	0.325452	
-0.193842	1.09373	0.257323	
-0.125823	1.17124	0.373805	
-0.179827	1.088	0.408491	
-0.00173102	1.15684	0.347507	
-0.0330822	1.21734	0.266884	
0.0902907	1.23506	0.376077	
0.0323895	1.13978	0.258564	
0.260232	1.21075	0.160089	
0.119419	1.18151	0.251425	
0.113965	1.18028	0.121768	
0.219623	1.16199	0.240766	
-0.117671	0.89803	0	
-0.211369	0.923885	0	
-0.227254	0.962083	0.121579	
-0.10307	0.999921	0.0930669	
-0.243391	0.563238	0.403062	
-0.317197	0.613495	0.431175	
-0.232161	0.652547	0.5	
-0.153774	0.693588	0.346551	
-0.189227	0.766031	0.208899	
-0.296327	0.833736	0.292179	
-0.31578	0.863109	0.155248	
-0.332607	0.773484	0.222023	
-0.00173102	1.15684	0.347507	
0.125116	1.11613	0.369411	
0.00363562	1.02785	0.291568	
0.0323895	1.13978	0.258564	
0.265828	0.94766	0.123486	
0.159132	0.984216	0.0920948	
0.0937412	0.930011	0.154317	
0.134932	0.977505	0.230093	
0.0712814	0.846848	0	
-0.0232782	0.872416	0	
0.0541326	0.793785	0.132666	
-0.00436862	0.872297	0.154061	
0.0937412	0.930011	0.154317	
0.106858	0.844305	0.230248	
0.177224	0.838965	0.12521	
0.215953	0.839226	0.238202	
0.296805	0.825729	0.165597	
0.177224	0.838965	0.12521	
0.245477	0.808349	0	
0.247079	0.718599	0.118367	
-0.210789	1.29041	0.168489	
-0.279096	1.24359	0.272562	
-0.18052	1.3078	0.334608	
-0.193559	1.35773	0.245031	
-0.193842	1.09373	0.257323	
-0.10768	0.996359	0.238131	
-0.115695	1.05029	0.334241	
-0.140073	0.942584	0.309826	
0.5	1	0.2	
0.325159	1.05851	0.165819	
0.387337	0.975471	0.113668	
0.378383	1.07129	0.271427	
0.103403	0.84471	0.5	
0.101939	0.907787	0.403472	
0.121965	0.82524	0.342904	
0.0581157	0.769455	0.403061	
0.0937412	0.930011	0.154317	
0.215953	0.839226	0.238202	
0.226544	0.947552	0.250202	
0.134932	0.977505	0.230093	
-0.189227	0.766031	0.208899	
-0.136534	0.645188	0.231761	
-0.183989	0.672241	0.119932	
-0.111014	0.733523	0.0849706	
-0.0295403	1.22514	0	
-0.136328	1.19004	0.119282	
-0.0983601	1.15643	0	
-0.0543483	1.10288	0.107179	
-0.0810399	1.49339	0.14715	
-0.153777	1.36779	0.103264	
-0.0684459	1.49529	0.0685965	
0.0105232	1.38676	0.111861	
-0.00425413	1.131	0	
0.0903521	1.10545	0	
0.0651412	1.2001	0	
0.0593465	1.06716	0.10856	
0.0461078	0.941573	0	
0.115537	1.01075	0	
0.0593465	1.06716	0.10856	
0.159132	0.984216	0.0920948	
0.5	1	0.2	
0.387337	0.975471	0.113668	
0.325159	1.05851	0.165819	
0.40353	1.07301	0.105949	
0.119419	1.18151	0.251425	
0.113965	1.18028	0.121768	
0.0919908	1.06424	0.248206	
0.0323895	1.13978	0.258564	
-0.117671	0.89803	0	
-0.227254	0.962083	0.121579	
-0.211369	0.923885	0	
-0.196211	0.8458	0.119009	
-0.296327	0.833736	0.292179	
-0.363598	0.972427	0.365583	
-0.23296	0.961598	0.249877	
-0.37095	0.93253	0.240862	
0.450285	0.782644	0.144698	
0.358257	0.834187	0.252847	
0.470916	0.831957	0.199874	
0.355602	0.87751	0.0966392	
0.158056	1.17188	0	
0.113965	1.18028	0.121768	
0.184962	1.07993	0	
0.253711	1.11341	0.104023	
-0.16685	1.08834	0	
-0.136328	1.19004	0.119282	
-0.156284	1.06551	0.149142	
-0.0543483	1.10288	0.107179	
-0.00173102	1.15684	0.347507	
-0.0850696	1.27829	0.394238	
-0.125823	1.17124	0.373805	
-0.0571477	1.11947	0.416349	
-0.278713	0.85696	0	
-0.227254	0.962083	0.121579	
-0.31578	0.863109	0.155248	
-0.196211	0.8458	0.119009	
-0.285945	1.12176	0.325452	
-0.179827	1.088	0.408491	
-0.234257	1.21312	0.375398	
-0.275403	1.0393	0.403336	
0.0937412	0.930011	0.154317	
0.0461078	0.941573	0	
-0.0105385	0.962638	0.111113	
0.159132	0.984216	0.0920948	
-0.23296	0.961598	0.249877	
-0.31578	0.863109	0.155248	
-0.227254	0.962083	0.121579	
-0.170219	0.871655	0.235589	
0.0902907	1.23506	0.376077	
0.105734	1.2948	0.276786	
0.119419	1.18151	0.251425	
-0.0330822	1.21734	0.266884	
0.347642	1.19453	0.384775	
0.295334	1.24597	0.26697	
0.4284	1.25782	0.295024	
0.334194	1.15432	0.215771	
-0.444481	0.771009	0.0919014	
-0.356684	0.80649	0	
-0.31578	0.863109	0.155248	
-0.283151	0.746042	0.130367	
-0.0328721	0.629311	0	
-0.0982069	0.610875	0.136018	
0.00284042	0.609614	0.1018	
-0.00982582	0.726304	0.0884564	
-0.285945	1.12176	0.325452	
-0.193842	1.09373	0.257323	
-0.275403	1.0393	0.403336	
-0.318838	1.02278	0.259668	
-0.214341	1.27376	0	
-0.136328	1.19004	0.119282	
-0.210789	1.29041	0.168489	
-0.277342	1.24516	0.0975038	
-0.0151696	1.04156	0.198031	
0.0593465	1.06716	0.10856	
-0.00674902	1.18961	0.168493	
0.0323895	1.13978	0.258564	
-0.437078	1.24282	0.152991	
-0.274228	1.15934	0.161857	
-0.357904	1.11593	0.101286	
-0.277342	1.24516	0.0975038	
0.470916	1.16804	0.300126	
0.378383	1.07129	0.271427	
0.288623	1.13754	0.312711	
0.334194	1.15432	0.215771	
0.209063	1.27717	0.342511	
0.0902907	1.23506	0.376077	
0.125116	1.11613	0.369411	
0.22536	1.15058	0.40335	
0.0903521	1.10545	0	
0.113965	1.18028	0.121768	
0.0651412	1.2001	0	
0.0593465	1.06716	0.10856	
0.174678	1.4685	0.317109	
0.168734	1.47067	0.201781	
0.247057	1.4347	0.250499	
0.212182	1.31459	0.219285	
-0.0956709	1.23097	0.5	
-0.107214	1.16612	0.5	
-0.125823	1.17124	0.373805	
-0.0571477	1.11947	0.416349	
-0.16685	1.08834	0	
-0.156284	1.06551	0.149142	
-0.256772	1.06769	0.100506	
-0.10307	0.999921	0.0930669	
0.168914	1.06767	0.155545	
0.325159	1.05851	0.165819	
0.253711	1.11341	0.104023	
0.219623	1.16199	0.240766	
-0.0977967	1.49034	0.241226	
-0.0697093	1.32708	0.167311	
-0.0810399	1.49339	0.14715	
0.0196341	1.38361	0.225797	
-0.201912	1.36999	0	
-0.273315	1.33496	0	
-0.214341	1.27376	0	
-0.153777	1.36779	0.103264	
0.296805	0.825729	0.165597	
0.247079	0.718599	0.118367	
0.245477	0.808349	0	
0.341118	0.774271	0.0916023	
-0.00173102	1.15684	0.347507	
0.125116	1.11613	0.369411	
-0.00748686	1.04315	0.386084	
0.00363562	1.02785	0.291568	
-0.23296	0.961598	0.249877	
-0.227254	0.962083	0.121579	
-0.156284	1.06551	0.149142	
-0.10768	0.996359	0.238131	
0.168914	1.06767	0.155545	
0.0919908	1.06424	0.248206	
0.113965	1.18028	0.121768	
0.0593465	1.06716	0.10856	
0.325159	1.05851	0.165819	
0.378383	1.07129	0.271427	
0.5	1	0.2	
0.40353	1.07301	0.105949	
-0.0151696	1.04156	0.198031	
-0.0543483	1.10288	0.107179	
-0.156284	1.06551	0.149142	
-0.0611059	1.11559	0.264866	
0.064316	1.32334	0.5	
0.109201	1.35772	0.375246	
-0.00167925	1.31098	0.319981	
-0.0552231	1.38907	0.38538	
-0.278713	0.85696	0	
-0.302044	0.949354	0	
-0.31578	0.863109	0.155248	
-0.227254	0.962083	0.121579	
-0.5	1	0.4	
-0.397525	1	0.5	
-0.495012	0.929552	0.428155	
-0.363598	0.972427	0.365583	
0.0344957	0.828097	0.5	
0.101939	0.907787	0.403472	
0.103403	0.84471	0.5	
0.0581157	0.769455	0.403061	
0.347453	0.767839	0.5	
0.206682	0.777113	0.400851	
0.285177	0.816119	0.328962	
0.260241	0.698507	0.343916	
-0.23296	0.961598	0.249877	
-0.3474	1.01863	0.155865	
-0.31578	0.863109	0.155248	
-0.37095	0.93253	0.240862	
-0.0297704	0.68077	0.178611	
0.00284042	0.609614	0.1018	
0	0.5	0.2	
-0.0982069	0.610875	0.136018	
-0.0555676	1.32557	0	
-0.0372406	1.41779	0	
-0.118932	1.39861	0	
-0.153777	1.36779	0.103264	
-0.434698	1.24706	0.250499	
-0.364752	1.11394	0.23148	
-0.279096	1.24359	0.272562	
-0.343626	1.20201	0.373624	
0.168914	1.06767	0.155545	
0.208793	1.06331	0.266812	
0.325159	1.05851	0.165819	
0.219623	1.16199	0.240766	
0.0541326	0.793785	0.132666	
-0.00436862	0.872297	0.154061	
-0.0232782	0.872416	0	
-0.0724446	0.868744	0.084223	
-0.125823	1.17124	0.373805	
-0.193842	1.09373	0.257323	
-0.285945	1.12176	0.325452	
-0.234257	1.21312	0.375398	
0.5	1	0.2	
0.387337	0.975471	0.113668	
0.361351	0.935933	0.2197	
0.378383	1.07129	0.271427	
-0.0810399	1.49339	0.14715	
-0.0697093	1.32708	0.167311	
-0.153777	1.36779	0.103264	
0.0105232	1.38676	0.111861	
0.245477	0.808349	0	
0.313791	0.845535	0	
0.296805	0.825729	0.165597	
0.341118	0.774271	0.0916023	
-0.0151696	1.04156	0.198031	
-0.10768	0.996359	0.238131	
-0.110633	0.921519	0.156892	
0.0244505	0.94868	0.233905	
-0.401548	0.957663	0	
-0.3474	1.01863	0.155865	
-0.426463	1.04414	0	
-0.390863	0.914451	0.0980906	
0.470916	1.16804	0.300126	
0.347642	1.19453	0.384775	
0.288623	1.13754	0.312711	
0.378383	1.07129	0.271427	
0.265828	0.94766	0.123486	
0.177224	0.838965	0.12521	
0.0937412	0.930011	0.154317	
0.159132	0.984216	0.0920948	
-0.302044	0.949354	0	
-0.344127	0.887773	0	
-0.278713	0.85696	0	
-0.31578	0.863109	0.155248	
-0.274228	1.15934	0.161857	
-0.136328	1.19004	0.119282	
-0.156284	1.06551	0.149142	
-0.256772	1.06769	0.100506	
-0.0295403	1.22514	0	
-0.119993	1.24669	0	
-0.136328	1.19004	0.119282	
0.00439522	1.27731	0.103072	
-0.0810399	1.49339	0.14715	
0.0196341	1.38361	0.225797	
-0.0697093	1.32708	0.167311	
0.0105232	1.38676	0.111861	
-0.171353	1.46972	0.161666	
-0.0697093	1.32708	0.167311	
-0.0964049	1.37384	0.276475	
-0.193559	1.35773	0.245031	
0.208793	1.06331	0.266812	
0.378383	1.07129	0.271427	
0.288623	1.13754	0.312711	
0.284123	1.06741	0.387999	
-0.278713	0.85696	0	
-0.31578	0.863109	0.155248	
-0.356684	0.80649	0	
-0.283151	0.746042	0.130367	
-0.125823	1.17124	0.373805	
-0.0850696	1.27829	0.394238	
-0.00173102	1.15684	0.347507	
-0.0330822	1.21734	0.266884	
0.226544	0.947552	0.250202	
0.203143	1.00597	0.37146	
0.347602	0.985936	0.348343	
0.208793	1.06331	0.266812	
0.0937412	0.930011	0.154317	
-0.0105385	0.962638	0.111113	
0.0593465	1.06716	0.10856	
0.159132	0.984216	0.0920948	
-0.152126	0.632735	0.5	
-0.144862	0.521445	0.421652	
-0.243391	0.563238	0.403062	
-0.153774	0.693588	0.346551	
0.0919908	1.06424	0.248206	
0.00363562	1.02785	0.291568	
0.125116	1.11613	0.369411	
0.0323895	1.13978	0.258564	
-0.00674902	1.18961	0.168493	
-0.136328	1.19004	0.119282	
-0.0697093	1.32708	0.167311	
0.00439522	1.27731	0.103072	
-0.0956709	1.23097	0.5	
-0.125823	1.17124	0.373805	
-0.0850696	1.27829	0.394238	
-0.0571477	1.11947	0.416349	
0.23097	0.904329	0.5	
0.185939	0.963014	0.5	
0.25	1	0.5	
0.211575	0.889225	0.384788	
-0.0369856	0.814061	0.5	
-0.0862712	0.770823	0.389289	
-0.00643767	0.847524	0.3797	
0.0581157	0.769455	0.403061	
-0.144063	0.852748	0.341365	
-0.00643767	0.847524	0.25115	
-0.081357	0.751661	0.265055	
-0.0821557	0.901585	0.243527	
0.347602	0.985936	0.348343	
0.378383	1.07129	0.271427	
0.208793	1.06331	0.266812	
0.284123	1.06741	0.387999	
0.185939	0.963014	0.5	
0.203143	1.00597	0.37146	
0.25	1	0.5	
0.211575	0.889225	0.384788	
-0.168688	0.718299	0	
-0.283151	0.746042	0.130367	
-0.183989	0.672241	0.119932	
-0.111014	0.733523	0.0849706	
-0.0555676	1.32557	0	
-0.0372406	1.41779	0	
-0.153777	1.36779	0.103264	
0.0105232	1.38676	0.111861	
-0.0810399	1.49339	0.14715	
-0.0977967	1.49034	0.241226	
-0.171353	1.46972	0.161666	
-0.0697093	1.32708	0.167311	
-0.23296	0.961598	0.249877	
-0.110633	0.921519	0.156892	
-0.227254	0.962083	0.121579	
-0.10768	0.996359	0.238131	
-0.328716	1.37676	0.246468	
-0.386792	1.31685	0.198616	
-0.210789	1.29041	0.168489	
-0.279096	1.24359	0.272562	
0.00183684	0.777669	0	
0.0541326	0.793785	0.132666	
-0.0232782	0.872416	0	
-0.0724446	0.868744	0.084223	
0.028723	1.17517	0.5	
-0.00173102	1.15684	0.347507	
0.000305103	1.09462	0.5	
-0.0571477	1.11947	0.416349	
-0.168688	0.718299	0	
-0.196211	0.8458	0.119009	
-0.283151	0.746042	0.130367	
-0.111014	0.733523	0.0849706	
0.164574	0.7464	0.211103	
0.121965	0.82524	0.342904	
0.106858	0.844305	0.230248	
0.0468326	0.745128	0.237913	
-0.328307	1.16356	0	
-0.257956	1.11632	0	
-0.26105	1.2034	0	
-0.274228	1.15934	0.161857	
-0.171353	1.46972	0.161666	
-0.153777	1.36779	0.103264	
-0.0697093	1.32708	0.167311	
-0.193559	1.35773	0.245031	
-0.437078	1.24282	0.152991	
-0.274228	1.15934	0.161857	
-0.364752	1.11394	0.23148	
-0.357904	1.11593	0.101286	
-0.156284	1.06551	0.149142	
-0.227254	0.962083	0.121579	
-0.110633	0.921519	0.156892	
-0.10768	0.996359	0.238131	
0.203143	1.00597	0.37146	
0.211575	0.889225	0.384788	
0.185939	0.963014	0.5	
0.101939	0.907787	0.403472	
0.278087	0.721913	0.5	
0.347453	0.767839	0.5	
0.386505	0.682803	0.431175	
0.260241	0.698507	0.343916	
-0.493437	1.08075	0.154224	
-0.5	1	0.2	
-0.3474	1.01863	0.155865	
-0.364752	1.11394	0.23148	
-0.493315	0.918514	0.152319	
-0.5	1	0.1	
-0.5	1	0.2	
-0.3474	1.01863	0.155865	
-0.31578	0.863109	0.155248	
-0.196211	0.8458	0.119009	
-0.227254	0.962083	0.121579	
-0.170219	0.871655	0.235589	
0.5	1	0.4	
0.493389	0.91896	0.35285	
0.495293	0.931554	0.431403	
0.347602	0.985936	0.348343	
-0.31578	0.863109	0.155248	
-0.283151	0.746042	0.130367	
-0.278713	0.85696	0	
-0.196211	0.8458	0.119009	
0.168914	1.06767	0.155545	
0.113965	1.18028	0.121768	
0.260232	1.21075	0.160089	
0.253711	1.11341	0.104023	
0.164797	0.822415	0	
0.0712814	0.846848	0	
0.0541326	0.793785	0.132666	
0.177224	0.838965	0.12521	
0.347453	0.767839	0.5	
0.278087	0.721913	0.5	
0.206682	0.777113	0.400851	
0.260241	0.698507	0.343916	
-0.470668	0.831266	0.298219	
-0.37095	0.93253	0.240862	
-0.296327	0.833736	0.292179	
-0.332607	0.773484	0.222023	
0.288623	1.13754	0.312711	
0.295334	1.24597	0.26697	
0.347642	1.19453	0.384775	
0.334194	1.15432	0.215771	
-0.285945	1.12176	0.325452	
-0.193842	1.09373	0.257323	
-0.279096	1.24359	0.272562	
-0.234257	1.21312	0.375398	
-0.189227	0.766031	0.208899	
-0.196211	0.8458	0.119009	
-0.31578	0.863109	0.155248	
-0.170219	0.871655	0.235589	
-0.0151696	1.04156	0.198031	
-0.156284	1.06551	0.149142	
-0.10768	0.996359	0.238131	
-0.0611059	1.11559	0.264866	
-0.0151696	1.04156	0.198031	
-0.110633	0.921519	0.156892	
-0.0105385	0.962638	0.111113	
0.0244505	0.94868	0.233905	
-0.00167925	1.31098	0.319981	
0.109201	1.35772	0.375246	
0.064316	1.32334	0.5	
0.0902907	1.23506	0.376077	
0.4284	0.742176	0.204976	
0.450285	0.782644	0.144698	
0.415735	0.722215	0.134138	
0.341118	0.774271	0.0916023	
-0.493315	0.918514	0.152319	
-0.3474	1.01863	0.155865	
-0.5	1	0.2	
-0.37095	0.93253	0.240862	
0.276476	1.05355	0	
0.325159	1.05851	0.165819	
0.346509	1.02379	0	
0.40353	1.07301	0.105949	
0	0.5	0.3	
-0.0977967	0.509657	0.258774	
-0.0810399	0.506611	0.35285	
-0.039093	0.610067	0.388942	
-0.5	1	0.1	
-0.401548	0.957663	0	
-0.426463	1.04414	0	
-0.390863	0.914451	0.0980906	
-0.437078	1.24282	0.152991	
-0.357904	1.11593	0.101286	
-0.440961	1.2357	0.068569	
-0.277342	1.24516	0.0975038	
-0.493437	0.919252	0.345776	
-0.37095	0.93253	0.240862	
-0.363598	0.972427	0.365583	
-0.351645	0.874975	0.390413	
-0.0151696	1.04156	0.198031	
0.0919908	1.06424	0.248206	
0.0593465	1.06716	0.10856	
0.0323895	1.13978	0.258564	
0.436762	0.756609	0.403062	
0.285177	0.816119	0.328962	
0.347453	0.767839	0.5	
0.368617	0.876452	0.385763	
0.450285	1.21736	0.355302	
0.4284	1.25782	0.295024	
0.470916	1.16804	0.300126	
0.347642	1.19453	0.384775	
-0.31578	0.863109	0.155248	
-0.296327	0.833736	0.292179	
-0.23296	0.961598	0.249877	
-0.37095	0.93253	0.240862	
-0.302044	0.949354	0	
-0.3474	1.01863	0.155865	
-0.227254	0.962083	0.121579	
-0.256772	1.06769	0.100506	
-0.382289	1.08918	0.382504	
-0.275403	1.0393	0.403336	
-0.285945	1.12176	0.325452	
-0.343626	1.20201	0.373624	
0.325159	1.05851	0.165819	
0.276476	1.05355	0	
0.265828	0.94766	0.123486	
0.253711	1.11341	0.104023	
0.125116	1.11613	0.369411	
0.0761103	0.977349	0.33014	
-0.00748686	1.04315	0.386084	
0.00363562	1.02785	0.291568	
0.316847	1.38679	0.198616	
0.295334	1.24597	0.26697	
0.212182	1.31459	0.219285	
0.28898	1.28652	0.0949489	
0.260232	1.21075	0.160089	
0.113965	1.18028	0.121768	
0.168914	1.06767	0.155545	
0.219623	1.16199	0.240766	
-0.0638367	0.704239	0	
-0.0982069	0.610875	0.136018	
-0.0328721	0.629311	0	
-0.00982582	0.726304	0.0884564	
0.247079	0.718599	0.118367	
0.278655	0.736565	0.241439	
0.164574	0.7464	0.211103	
0.15722	0.635104	0.236843	
-0.134745	1.19543	0.248773	
-0.18052	1.3078	0.334608	
-0.279096	1.24359	0.272562	
-0.234257	1.21312	0.375398	
-0.257956	1.11632	0	
-0.16685	1.08834	0	
-0.18644	1.1823	0	
-0.256772	1.06769	0.100506	
-0.00643767	0.847524	0.3797	
-0.045108	0.948191	0.315425	
-0.144063	0.852748	0.341365	
-0.087284	0.884388	0.408402	
0.168914	1.06767	0.155545	
0.0593465	1.06716	0.10856	
0.184962	1.07993	0	
0.159132	0.984216	0.0920948	
-0.26105	1.2034	0	
-0.328307	1.16356	0	
-0.274228	1.15934	0.161857	
-0.277342	1.24516	0.0975038	
-0.23296	0.961598	0.249877	
-0.10768	0.996359	0.238131	
-0.193842	1.09373	0.257323	
-0.140073	0.942584	0.309826	
-0.243391	1.43676	0.0969381	
-0.273315	1.33496	0	
-0.201912	1.36999	0	
-0.153777	1.36779	0.103264	
0.125116	1.11613	0.369411	
0.0919908	1.06424	0.248206	
0.0761103	0.977349	0.33014	
0.00363562	1.02785	0.291568	
0.0344957	0.828097	0.5	
-0.00643767	0.847524	0.3797	
0.101939	0.907787	0.403472	
0.0581157	0.769455	0.403061	
-0.0392044	1.16291	0.5	
-0.00173102	1.15684	0.347507	
0.028723	1.17517	0.5	
-0.0571477	1.11947	0.416349	
0.228991	1.44448	0.408099	
0.209063	1.27717	0.342511	
0.232161	1.34745	0.5	
0.109201	1.35772	0.375246	
0.428195	1.25817	0.201755	
0.260232	1.21075	0.160089	
0.353151	1.15839	0.109095	
0.334194	1.15432	0.215771	
-0.227254	0.962083	0.121579	
-0.256772	1.06769	0.100506	
-0.156284	1.06551	0.149142	
-0.10307	0.999921	0.0930669	
-0.261345	0.769964	0	
-0.283151	0.746042	0.130367	
-0.168688	0.718299	0	
-0.196211	0.8458	0.119009	
-0.0977967	1.49034	0.241226	
-0.0964049	1.37384	0.276475	
-0.0697093	1.32708	0.167311	
0.0196341	1.38361	0.225797	
0.158056	1.17188	0	
0.0903521	1.10545	0	
0.184962	1.07993	0	
0.113965	1.18028	0.121768	
0.133074	1.2641	0	
0.113965	1.18028	0.121768	
0.098462	1.32087	0.159093	
0.00439522	1.27731	0.103072	
-0.110633	0.921519	0.156892	
0.0244505	0.94868	0.233905	
-0.10768	0.996359	0.238131	
-0.0821557	0.901585	0.243527	
0.247868	1.14631	0	
0.253711	1.11341	0.104023	
0.300884	1.19872	0	
0.189162	1.24479	0.0938772	
0.0814864	0.506685	0.152319	
0.0452903	0.623513	0.25784	
0.0999617	0.645199	0.138238	
0.00284042	0.609614	0.1018	
-0.176777	0.823223	0.5	
-0.0862712	0.770823	0.389289	
-0.144063	0.852748	0.341365	
-0.087284	0.884388	0.408402	
0.278655	0.736565	0.241439	
0.15722	0.635104	0.236843	
0.247057	0.565302	0.249501	
0.260241	0.698507	0.343916	
-0.00643767	0.847524	0.3797	
-0.0862712	0.770823	0.389289	
-0.081357	0.751661	0.265055	
0.0347483	0.794732	0.315425	
0.212182	1.31459	0.219285	
0.295334	1.24597	0.26697	
0.260232	1.21075	0.160089	
0.28898	1.28652	0.0949489	
0.119419	1.18151	0.251425	
0.113965	1.18028	0.121768	
0.168914	1.06767	0.155545	
0.0919908	1.06424	0.248206	
0.0712814	0.846848	0	
-0.0232782	0.872416	0	
0.00183684	0.777669	0	
0.0541326	0.793785	0.132666	
-0.117671	0.89803	0	
-0.110633	0.921519	0.156892	
-0.196211	0.8458	0.119009	
-0.0724446	0.868744	0.084223	
-0.16685	1.08834	0	
-0.0983601	1.15643	0	
-0.136328	1.19004	0.119282	
-0.0543483	1.10288	0.107179	
0.0344957	0.828097	0.5	
-0.00643767	0.847524	0.3797	
0.0634445	0.898618	0.5	
0.101939	0.907787	0.403472	
-0.0151696	1.04156	0.198031	
0.0593465	1.06716	0.10856	
0.0937412	0.930011	0.154317	
-0.0105385	0.962638	0.111113	
-0.274228	1.15934	0.161857	
-0.279096	1.24359	0.272562	
-0.285945	1.12176	0.325452	
-0.193842	1.09373	0.257323	
-0.125823	1.17124	0.373805	
-0.234257	1.21312	0.375398	
-0.285945	1.12176	0.325452	
-0.179827	1.088	0.408491	
0.228991	1.44448	0.408099	
0.25658	1.42915	0.33124	
0.209063	1.27717	0.342511	
0.109201	1.35772	0.375246	
-0.125823	1.17124	0.373805	
-0.193842	1.09373	0.257323	
-0.115695	1.05029	0.334241	
-0.179827	1.088	0.408491	
0.125116	1.11613	0.369411	
0.22536	1.15058	0.40335	
0.208793	1.06331	0.266812	
0.219623	1.16199	0.240766	
0.495293	0.931554	0.431403	
0.347602	0.985936	0.348343	
0.493389	0.91896	0.35285	
0.368617	0.876452	0.385763	
0.265828	0.94766	0.123486	
0.253711	1.11341	0.104023	
0.276476	1.05355	0	
0.159132	0.984216	0.0920948	
0	0.5	0.2	
-0.0297704	0.68077	0.178611	
0.0452903	0.623513	0.25784	
0.00284042	0.609614	0.1018	
0.235698	0.559039	0.431431	
0.153328	0.52409	0.40763	
0.152126	0.632735	0.5	
0.151014	0.679593	0.343049	
-0.317197	1.38651	0.0688254	
-0.273315	1.33496	0	
-0.243391	1.43676	0.0969381	
-0.153777	1.36779	0.103264	
-0.00173102	1.15684	0.347507	
-0.00748686	1.04315	0.386084	
0.000305103	1.09462	0.5	
-0.0571477	1.11947	0.416349	
-0.302044	0.949354	0	
-0.227254	0.962083	0.121579	
-0.3474	1.01863	0.155865	
-0.390863	0.914451	0.0980906	
-0.237047	1.02014	0	
-0.256772	1.06769	0.100506	
-0.227254	0.962083	0.121579	
-0.10307	0.999921	0.0930669	
-0.171353	1.46972	0.161666	
-0.0697093	1.32708	0.167311	
-0.0977967	1.49034	0.241226	
-0.0964049	1.37384	0.276475	
0.323338	0.935684	0.5	
0.211575	0.889225	0.384788	
0.347602	0.985936	0.348343	
0.368617	0.876452	0.385763	
-0.217356	1.45028	0.355302	
-0.277785	1.41573	0.365862	
-0.257824	1.4284	0.295024	
-0.18052	1.3078	0.334608	
0.317206	0.613502	0.200322	
0.247057	0.565302	0.249501	
0.278655	0.736565	0.241439	
0.15722	0.635104	0.236843	
-0.444481	0.771009	0.0919014	
-0.31578	0.863109	0.155248	
-0.429146	0.74342	0.16876	
-0.283151	0.746042	0.130367	
0.260232	1.21075	0.160089	
0.168914	1.06767	0.155545	
0.253711	1.11341	0.104023	
0.219623	1.16199	0.240766	
0.288623	1.13754	0.312711	
0.325159	1.05851	0.165819	
0.208793	1.06331	0.266812	
0.334194	1.15432	0.215771	
-0.193842	1.09373	0.257323	
-0.364752	1.11394	0.23148	
-0.274228	1.15934	0.161857	
-0.318838	1.02278	0.259668	
0.347602	0.985936	0.348343	
0.208793	1.06331	0.266812	
0.203143	1.00597	0.37146	
0.284123	1.06741	0.387999	
-0.171353	1.46972	0.161666	
-0.0810399	1.49339	0.14715	
-0.0697093	1.32708	0.167311	
-0.153777	1.36779	0.103264	
0.098462	1.32087	0.159093	
0.113965	1.18028	0.121768	
0.119419	1.18151	0.251425	
0.0143983	1.28276	0.204525	
0.168914	1.06767	0.155545	
0.159132	0.984216	0.0920948	
0.265828	0.94766	0.123486	
0.134932	0.977505	0.230093	
-0.117671	0.89803	0	
-0.142648	0.992859	0	
-0.211369	0.923885	0	
-0.10307	0.999921	0.0930669	
-0.144862	0.521445	0.421652	
-0.171353	0.530279	0.338334	
-0.153774	0.693588	0.346551	
-0.039093	0.610067	0.388942	
0.183156	1.27411	0.5	
0.176777	1.17678	0.5	
0.0902907	1.23506	0.376077	
0.22536	1.15058	0.40335	
0.164797	0.822415	0	
0.177224	0.838965	0.12521	
0.0541326	0.793785	0.132666	
0.142608	0.739294	0.106454	
-0.495012	1.07045	0.0718447	
-0.493437	1.08075	0.154224	
-0.5	1	0.1	
-0.3474	1.01863	0.155865	
-0.495012	1.07045	0.0718447	
-0.493437	1.08075	0.154224	
-0.3474	1.01863	0.155865	
-0.357904	1.11593	0.101286	
0.0712814	0.846848	0	
0.164797	0.822415	0	
0.0541326	0.793785	0.132666	
0.142608	0.739294	0.106454	
-0.00674902	1.18961	0.168493	
0.119419	1.18151	0.251425	
0.113965	1.18028	0.121768	
0.0143983	1.28276	0.204525	
0.0937412	0.930011	0.154317	
0.168914	1.06767	0.155545	
0.0593465	1.06716	0.10856	
0.134932	0.977505	0.230093	
-0.0555676	1.32557	0	
-0.153777	1.36779	0.103264	
-0.0697093	1.32708	0.167311	
0.0105232	1.38676	0.111861	
-0.356684	0.80649	0	
-0.386831	0.6832	0.104097	
-0.331361	0.727047	0	
-0.283151	0.746042	0.130367	
0.380873	1.32394	0.152261	
0.428195	1.25817	0.201755	
0.260232	1.21075	0.160089	
0.353151	1.15839	0.109095	
0.300884	1.19872	0	
0.253711	1.11341	0.104023	
0.260232	1.21075	0.160089	
0.189162	1.24479	0.0938772	
0.0919908	1.06424	0.248206	
0.208793	1.06331	0.266812	
0.0761103	0.977349	0.33014	
0.134932	0.977505	0.230093	
0.133074	1.2641	0	
0.098462	1.32087	0.159093	
0.113965	1.18028	0.121768	
0.189162	1.24479	0.0938772	
0.226544	0.947552	0.250202	
0.168914	1.06767	0.155545	
0.265828	0.94766	0.123486	
0.134932	0.977505	0.230093	
-0.142648	0.992859	0	
-0.237047	1.02014	0	
-0.227254	0.962083	0.121579	
-0.10307	0.999921	0.0930669	
-0.0964049	1.37384	0.276475	
-0.0330822	1.21734	0.266884	
-0.0697093	1.32708	0.167311	
0.0143983	1.28276	0.204525	
0.346509	1.02379	0	
0.325159	1.05851	0.165819	
0.387337	0.975471	0.113668	
0.40353	1.07301	0.105949	
-0.493315	0.918514	0.152319	
-0.5	1	0.1	
-0.3474	1.01863	0.155865	
-0.390863	0.914451	0.0980906	
-0.317197	1.38651	0.0688254	
-0.243391	1.43676	0.0969381	
-0.210789	1.29041	0.168489	
-0.153777	1.36779	0.103264	
0.361351	0.935933	0.2197	
0.215953	0.839226	0.238202	
0.296805	0.825729	0.165597	
0.358257	0.834187	0.252847	
0.450285	0.782644	0.144698	
0.296805	0.825729	0.165597	
0.4284	0.742176	0.204976	
0.358257	0.834187	0.252847	
-0.5	1	0.4	
-0.397525	1	0.5	
-0.363598	0.972427	0.365583	
-0.382289	1.08918	0.382504	
-0.356684	0.80649	0	
-0.444481	0.771009	0.0919014	
-0.31578	0.863109	0.155248	
-0.390863	0.914451	0.0980906	
0.316847	1.38679	0.198616	
0.380873	1.32394	0.152261	
0.295334	1.24597	0.26697	
0.28898	1.28652	0.0949489	
0.0868435	1.13736	0.5	
0.176777	1.17678	0.5	
0.125116	1.11613	0.369411	
0.0902907	1.23506	0.376077	
-0.156284	1.06551	0.149142	
-0.193842	1.09373	0.257323	
-0.274228	1.15934	0.161857	
-0.256772	1.06769	0.100506	
-0.278713	0.85696	0	
-0.344127	0.887773	0	
-0.356684	0.80649	0	
-0.31578	0.863109	0.155248	
0.325159	1.05851	0.165819	
0.288623	1.13754	0.312711	
0.208793	1.06331	0.266812	
0.378383	1.07129	0.271427	
-0.279096	1.24359	0.272562	
-0.193559	1.35773	0.245031	
-0.328716	1.37676	0.246468	
-0.263985	1.32297	0.375811	
0.0761103	0.977349	0.33014	
0.208793	1.06331	0.266812	
0.203143	1.00597	0.37146	
0.134932	0.977505	0.230093	
-0.470668	0.831266	0.298219	
-0.296327	0.833736	0.292179	
-0.37095	0.93253	0.240862	
-0.351645	0.874975	0.390413	
0.119419	1.18151	0.251425	
0.212182	1.31459	0.219285	
0.098462	1.32087	0.159093	
0.105734	1.2948	0.276786	
0.276476	1.05355	0	
0.253711	1.11341	0.104023	
0.325159	1.05851	0.165819	
0.40353	1.07301	0.105949	
0.0999617	0.645199	0.138238	
0.247079	0.718599	0.118367	
0.164574	0.7464	0.211103	
0.15722	0.635104	0.236843	
0.114055	1.37411	0	
0.098462	1.32087	0.159093	
0.153328	1.47591	0.0923699	
0.0105232	1.38676	0.111861	
0.0999617	0.645199	0.138238	
0.142608	0.739294	0.106454	
0.0248177	0.686626	0	
-0.00982582	0.726304	0.0884564	
0.325159	1.05851	0.165819	
0.265828	0.94766	0.123486	
0.168914	1.06767	0.155545	
0.253711	1.11341	0.104023	
0.490343	0.902203	0.258774	
0.493389	0.91896	0.35285	
0.5	1	0.3	
0.347602	0.985936	0.348343	
-0.363598	0.972427	0.365583	
-0.203766	0.963562	0.377533	
-0.23296	0.961598	0.249877	
-0.318838	1.02278	0.259668	
0	1.5	0.3	
0.0814864	1.49332	0.347681	
0	1.5	0.4	
-0.0552231	1.38907	0.38538	
0.296805	0.825729	0.165597	
0.341118	0.774271	0.0916023	
0.313791	0.845535	0	
0.355602	0.87751	0.0966392	
-0.23296	0.961598	0.249877	
-0.156284	1.06551	0.149142	
-0.193842	1.09373	0.257323	
-0.10768	0.996359	0.238131	
0.176777	1.17678	0.5	
0.125116	1.11613	0.369411	
0.0902907	1.23506	0.376077	
0.22536	1.15058	0.40335	
0.325159	1.05851	0.165819	
0.334194	1.15432	0.215771	
0.378383	1.07129	0.271427	
0.40353	1.07301	0.105949	
0.00183684	0.777669	0	
-0.00982582	0.726304	0.0884564	
0.0541326	0.793785	0.132666	
-0.0724446	0.868744	0.084223	
0.4284	0.742176	0.204976	
0.296805	0.825729	0.165597	
0.450285	0.782644	0.144698	
0.341118	0.774271	0.0916023	
-0.193842	1.09373	0.257323	
-0.10768	0.996359	0.238131	
-0.156284	1.06551	0.149142	
-0.0611059	1.11559	0.264866	
0.274113	1.18316	0.5	
0.281092	1.28109	0.5	
0.347642	1.19453	0.384775	
0.22536	1.15058	0.40335	
0.121965	0.82524	0.342904	
0.151014	0.679593	0.343049	
0.0581157	0.769455	0.403061	
0.0347483	0.794732	0.315425	
0.226544	0.947552	0.250202	
0.285177	0.816119	0.328962	
0.215953	0.839226	0.238202	
0.358257	0.834187	0.252847	
0.0815241	1.40985	0.5	
8.18872e-17	1.39822	0.5	
0.0728232	1.49467	0.426459	
0.109201	1.35772	0.375246	
0.428195	1.25817	0.201755	
0.295334	1.24597	0.26697	
0.260232	1.21075	0.160089	
0.334194	1.15432	0.215771	
0.208793	1.06331	0.266812	
0.22536	1.15058	0.40335	
0.288623	1.13754	0.312711	
0.219623	1.16199	0.240766	
0.0209546	1.03628	0	
0.0461078	0.941573	0	
0.0593465	1.06716	0.10856	
-0.0105385	0.962638	0.111113	
-0.493315	0.918514	0.152319	
-0.3474	1.01863	0.155865	
-0.37095	0.93253	0.240862	
-0.390863	0.914451	0.0980906	
-0.189227	0.766031	0.208899	
-0.144063	0.852748	0.341365	
-0.081357	0.751661	0.265055	
-0.170219	0.871655	0.235589	
0.226544	0.947552	0.250202	
0.296805	0.825729	0.165597	
0.361351	0.935933	0.2197	
0.215953	0.839226	0.238202	
0.0919908	1.06424	0.248206	
0.0593465	1.06716	0.10856	
0.168914	1.06767	0.155545	
0.134932	0.977505	0.230093	
0.5	1	0.4	
0.347602	0.985936	0.348343	
0.398221	1	0.5	
0.385098	1.08722	0.383771	
0.153328	1.47591	0.0923699	
0.098462	1.32087	0.159093	
0.0807477	1.49344	0.154224	
0.0105232	1.38676	0.111861	
0.152126	0.632735	0.5	
0.151014	0.679593	0.343049	
0.153328	0.52409	0.40763	
0.0738912	0.610829	0.388761	
0.268393	0.665699	0	
0.194604	0.628812	0	
0.228991	0.555519	0.0919014	
0.247079	0.718599	0.118367	
-0.211369	0.923885	0	
-0.227254	0.962083	0.121579	
-0.278713	0.85696	0	
-0.196211	0.8458	0.119009	
0.232161	0.652547	0.5	
0.235698	0.559039	0.431431	
0.151014	0.679593	0.343049	
0.260241	0.698507	0.343916	
0.0209546	1.03628	0	
-0.0105385	0.962638	0.111113	
-0.0543483	1.10288	0.107179	
-0.10307	0.999921	0.0930669	
-0.315029	0.611726	0.0791933	
-0.277785	0.584265	0.134138	
-0.183989	0.672241	0.119932	
-0.247852	0.673084	0.199607	
-0.323338	0.935684	0.5	
-0.363598	0.972427	0.365583	
-0.203766	0.963562	0.377533	
-0.351645	0.874975	0.390413	
-0.493437	0.919252	0.345776	
-0.470668	0.831266	0.298219	
-0.37095	0.93253	0.240862	
-0.351645	0.874975	0.390413	
-0.3474	1.01863	0.155865	
-0.274228	1.15934	0.161857	
-0.364752	1.11394	0.23148	
-0.318838	1.02278	0.259668	
0.14072	0.916025	0	
0.0937412	0.930011	0.154317	
0.177224	0.838965	0.12521	
0.159132	0.984216	0.0920948	
0.235698	0.559039	0.431431	
0.152126	0.632735	0.5	
0.232161	0.652547	0.5	
0.151014	0.679593	0.343049	
0.203143	1.00597	0.37146	
0.101939	0.907787	0.403472	
0.185939	0.963014	0.5	
0.113162	1.01769	0.414132	
-0.115695	1.05029	0.334241	
-0.0611059	1.11559	0.264866	
-0.125823	1.17124	0.373805	
-0.0571477	1.11947	0.416349	
-0.302044	0.949354	0	
-0.31578	0.863109	0.155248	
-0.227254	0.962083	0.121579	
-0.390863	0.914451	0.0980906	
0.5	1	0.3	
0.490343	0.902203	0.258774	
0.347602	0.985936	0.348343	
0.361351	0.935933	0.2197	
-0.389036	1.20743	0	
-0.357904	1.11593	0.101286	
-0.328307	1.16356	0	
-0.277342	1.24516	0.0975038	
0.316847	0.613208	0.301384	
0.278655	0.736565	0.241439	
0.247057	0.565302	0.249501	
0.260241	0.698507	0.343916	
0.115537	1.01075	0	
0.184962	1.07993	0	
0.0593465	1.06716	0.10856	
0.159132	0.984216	0.0920948	
0	0.75	0.5	
-0.0862712	0.770823	0.389289	
-0.0369856	0.814061	0.5	
0.0581157	0.769455	0.403061	
0.470916	0.831957	0.199874	
0.358257	0.834187	0.252847	
0.361351	0.935933	0.2197	
0.355602	0.87751	0.0966392	
0.0868435	1.13736	0.5	
0.0956709	1.23097	0.5	
0.176777	1.17678	0.5	
0.0902907	1.23506	0.376077	
-0.302044	0.949354	0	
-0.344127	0.887773	0	
-0.31578	0.863109	0.155248	
-0.390863	0.914451	0.0980906	
8.18872e-17	1.39822	0.5	
0.109201	1.35772	0.375246	
0.064316	1.32334	0.5	
-0.0552231	1.38907	0.38538	
0.380873	1.32394	0.152261	
0.260232	1.21075	0.160089	
0.295334	1.24597	0.26697	
0.28898	1.28652	0.0949489	
-0.142648	0.992859	0	
-0.227254	0.962083	0.121579	
-0.211369	0.923885	0	
-0.10307	0.999921	0.0930669	
-0.0297704	0.68077	0.178611	
0.0999617	0.645199	0.138238	
0.0541326	0.793785	0.132666	
0.0468326	0.745128	0.237913	
-0.0297704	0.68077	0.178611	
-0.183989	0.672241	0.119932	
-0.136534	0.645188	0.231761	
-0.111014	0.733523	0.0849706	
-0.00167925	1.31098	0.319981	
0.105734	1.2948	0.276786	
0.0902907	1.23506	0.376077	
-0.0330822	1.21734	0.266884	
0.323338	0.935684	0.5	
0.23097	0.904329	0.5	
0.25	1	0.5	
0.211575	0.889225	0.384788	
-0.274113	1.18316	0.5	
-0.363339	1.1505	0.5	
-0.382289	1.08918	0.382504	
-0.275403	1.0393	0.403336	
-0.274113	1.18316	0.5	
-0.275403	1.0393	0.403336	
-0.382289	1.08918	0.382504	
-0.343626	1.20201	0.373624	
0.0651412	1.2001	0	
0.113965	1.18028	0.121768	
0.133074	1.2641	0	
0.00439522	1.27731	0.103072	
-0.426463	1.04414	0	
-0.3474	1.01863	0.155865	
-0.337562	1.05476	0	
-0.357904	1.11593	0.101286	
0.168914	1.06767	0.155545	
0.253711	1.11341	0.104023	
0.265828	0.94766	0.123486	
0.159132	0.984216	0.0920948	
0.164574	0.7464	0.211103	
0.15722	0.635104	0.236843	
0.278655	0.736565	0.241439	
0.260241	0.698507	0.343916	
0.23097	1.09567	0.5	
0.203143	1.00597	0.37146	
0.157632	1.10533	0.5	
0.22536	1.15058	0.40335	
0.125573	0.58604	0	
0.0404524	0.58928	0	
0.0728232	0.505332	0.0735406	
0.0999617	0.645199	0.138238	
0.0634445	0.898618	0.5	
0.0344957	0.828097	0.5	
-0.0218546	0.89013	0.5	
-0.00643767	0.847524	0.3797	
-0.064316	1.32334	0.5	
0.064316	1.32334	0.5	
-0.0850696	1.27829	0.394238	
-0.0552231	1.38907	0.38538	
0	1.25	0.5	
-0.064316	1.32334	0.5	
0.064316	1.32334	0.5	
-0.0850696	1.27829	0.394238	
0.0209546	1.03628	0	
0.0461078	0.941573	0	
0.115537	1.01075	0	
0.0593465	1.06716	0.10856	
0.114055	1.37411	0	
0.153328	1.47591	0.0923699	
0.098462	1.32087	0.159093	
0.190875	1.34709	0.10503	
0.115537	1.01075	0	
0.184962	1.07993	0	
0.0903521	1.10545	0	
0.0593465	1.06716	0.10856	
0.380873	1.32394	0.152261	
0.353151	1.15839	0.109095	
0.260232	1.21075	0.160089	
0.28898	1.28652	0.0949489	
0.23097	1.09567	0.5	
0.163502	1.02984	0.5	
0.157632	1.10533	0.5	
0.203143	1.00597	0.37146	
-0.323338	0.935684	0.5	
-0.203766	0.963562	0.377533	
-0.239777	0.86007	0.398057	
-0.351645	0.874975	0.390413	
0.0854243	1.49265	0.251403	
0.174678	1.4685	0.317109	
0.0814864	1.49332	0.347681	
0.109201	1.35772	0.375246	
0.203143	1.00597	0.37146	
0.125116	1.11613	0.369411	
0.157632	1.10533	0.5	
0.22536	1.15058	0.40335	
-0.274113	1.18316	0.5	
-0.382289	1.08918	0.382504	
-0.363339	1.1505	0.5	
-0.343626	1.20201	0.373624	
-0.217356	1.45028	0.355302	
-0.277785	1.41573	0.365862	
-0.18052	1.3078	0.334608	
-0.166036	1.37976	0.398541	
-0.5	1	0.3	
-0.363598	0.972427	0.365583	
-0.493437	0.919252	0.345776	
-0.37095	0.93253	0.240862	
0.183156	1.27411	0.5	
0.0902907	1.23506	0.376077	
0.209063	1.27717	0.342511	
0.22536	1.15058	0.40335	
-0.00167925	1.31098	0.319981	
0.0196341	1.38361	0.225797	
-0.0964049	1.37384	0.276475	
-0.0552231	1.38907	0.38538	
0.0344957	0.828097	0.5	
0.0634445	0.898618	0.5	
0.103403	0.84471	0.5	
0.101939	0.907787	0.403472	
-0.00167925	1.31098	0.319981	
-0.0330822	1.21734	0.266884	
-0.0964049	1.37384	0.276475	
0.0143983	1.28276	0.204525	
0.325159	1.05851	0.165819	
0.288623	1.13754	0.312711	
0.378383	1.07129	0.271427	
0.334194	1.15432	0.215771	
-0.386792	1.31685	0.198616	
-0.323938	1.38087	0.152261	
-0.328716	1.37676	0.246468	
-0.210789	1.29041	0.168489	
0.183156	1.27411	0.5	
0.209063	1.27717	0.342511	
0.281092	1.28109	0.5	
0.22536	1.15058	0.40335	
-0.210789	1.29041	0.168489	
-0.153777	1.36779	0.103264	
-0.214341	1.27376	0	
-0.277342	1.24516	0.0975038	
-0.0956709	1.23097	0.5	
-0.0850696	1.27829	0.394238	
-0.0392044	1.16291	0.5	
-0.0571477	1.11947	0.416349	
-0.323938	0.619127	0.347739	
-0.153774	0.693588	0.346551	
-0.258165	0.571805	0.298245	
-0.259603	0.71434	0.292274	
-0.278713	0.85696	0	
-0.283151	0.746042	0.130367	
-0.261345	0.769964	0	
-0.196211	0.8458	0.119009	
0.288623	1.13754	0.312711	
0.22536	1.15058	0.40335	
0.209063	1.27717	0.342511	
0.219623	1.16199	0.240766	
0.5	1	0.3	
0.361351	0.935933	0.2197	
0.347602	0.985936	0.348343	
0.378383	1.07129	0.271427	
0	1.5	0.3	
-0.0964049	1.37384	0.276475	
0.0196341	1.38361	0.225797	
-0.0552231	1.38907	0.38538	
0.112799	0.66644	0	
0.125573	0.58604	0	
0.194604	0.628812	0	
0.0999617	0.645199	0.138238	
-0.193842	1.09373	0.257323	
-0.179827	1.088	0.408491	
-0.285945	1.12176	0.325452	
-0.275403	1.0393	0.403336	
0.226544	0.947552	0.250202	
0.215953	0.839226	0.238202	
0.361351	0.935933	0.2197	
0.358257	0.834187	0.252847	
0.325159	1.05851	0.165819	
0.361351	0.935933	0.2197	
0.226544	0.947552	0.250202	
0.265828	0.94766	0.123486	
0.0209546	1.03628	0	
-0.0543483	1.10288	0.107179	
-0.0734441	1.06169	0	
-0.10307	0.999921	0.0930669	
0.0807477	1.49344	0.154224	
0.098462	1.32087	0.159093	
0.168734	1.47067	0.201781	
0.0196341	1.38361	0.225797	
-0.214341	1.27376	0	
-0.18644	1.1823	0	
-0.136328	1.19004	0.119282	
-0.277342	1.24516	0.0975038	
-0.274228	1.15934	0.161857	
-0.279096	1.24359	0.272562	
-0.210789	1.29041	0.168489	
-0.277342	1.24516	0.0975038	
-0.0151696	1.04156	0.198031	
-0.0105385	0.962638	0.111113	
0.0937412	0.930011	0.154317	
0.0244505	0.94868	0.233905	
-0.0833019	0.506988	0.155211	
-0.0977967	0.509657	0.258774	
0	0.5	0.2	
-0.0982069	0.610875	0.136018	
0.164574	0.7464	0.211103	
0.247079	0.718599	0.118367	
0.0999617	0.645199	0.138238	
0.142608	0.739294	0.106454	
-0.493437	0.919252	0.345776	
-0.363598	0.972427	0.365583	
-0.495012	0.929552	0.428155	
-0.351645	0.874975	0.390413	
-0.401548	0.957663	0	
-0.337562	1.05476	0	
-0.426463	1.04414	0	
-0.3474	1.01863	0.155865	
-0.323338	0.935684	0.5	
-0.203766	0.963562	0.377533	
-0.363598	0.972427	0.365583	
-0.275403	1.0393	0.403336	
-0.00167925	1.31098	0.319981	
-0.00173102	1.15684	0.347507	
-0.0850696	1.27829	0.394238	
-0.0330822	1.21734	0.266884	
0.14072	0.916025	0	
0.177224	0.838965	0.12521	
0.232997	0.88938	0	
0.159132	0.984216	0.0920948	
0.119419	1.18151	0.251425	
0.212182	1.31459	0.219285	
0.209063	1.27717	0.342511	
0.219623	1.16199	0.240766	
0.450285	0.782644	0.144698	
0.341118	0.774271	0.0916023	
0.296805	0.825729	0.165597	
0.355602	0.87751	0.0966392	
-0.386792	1.31685	0.198616	
-0.323938	1.38087	0.152261	
-0.210789	1.29041	0.168489	
-0.277342	1.24516	0.0975038	
0.380873	1.32394	0.152261	
0.260232	1.21075	0.160089	
0.428195	1.25817	0.201755	
0.295334	1.24597	0.26697	
-0.125823	1.17124	0.373805	
-0.0611059	1.11559	0.264866	
-0.134745	1.19543	0.248773	
-0.0330822	1.21734	0.266884	
0.0541326	0.793785	0.132666	
0.0999617	0.645199	0.138238	
-0.0297704	0.68077	0.178611	
-0.00982582	0.726304	0.0884564	
0.0461078	0.941573	0	
0.0937412	0.930011	0.154317	
0.14072	0.916025	0	
0.159132	0.984216	0.0920948	
-0.257956	1.11632	0	
-0.256772	1.06769	0.100506	
-0.274228	1.15934	0.161857	
-0.357904	1.11593	0.101286	
-0.363598	0.972427	0.365583	
-0.275403	1.0393	0.403336	
-0.203766	0.963562	0.377533	
-0.318838	1.02278	0.259668	
-0.493437	1.08075	0.154224	
-0.492649	1.08542	0.251403	
-0.5	1	0.2	
-0.364752	1.11394	0.23148	
0.276476	1.05355	0	
0.346509	1.02379	0	
0.337634	1.11556	0	
0.40353	1.07301	0.105949	
0.226544	0.947552	0.250202	
0.177224	0.838965	0.12521	
0.265828	0.94766	0.123486	
0.215953	0.839226	0.238202	
-0.274113	1.18316	0.5	
-0.285945	1.12176	0.325452	
-0.275403	1.0393	0.403336	
-0.343626	1.20201	0.373624	
-0.16685	1.08834	0	
-0.0543483	1.10288	0.107179	
-0.156284	1.06551	0.149142	
-0.10307	0.999921	0.0930669	
-0.468495	0.825322	0.182891	
-0.37095	0.93253	0.240862	
-0.470668	0.831266	0.298219	
-0.332607	0.773484	0.222023	
-0.0726386	0.798943	0.15243	
-0.170219	0.871655	0.235589	
-0.081357	0.751661	0.265055	
-0.0821557	0.901585	0.243527	
0.4284	1.25782	0.295024	
0.460548	1.19467	0.23433	
0.470916	1.16804	0.300126	
0.334194	1.15432	0.215771	
0.112799	0.66644	0	
0.0999617	0.645199	0.138238	
0.194604	0.628812	0	
0.142608	0.739294	0.106454	
0.0814864	0.506685	0.152319	
0	0.5	0.2	
0.0452903	0.623513	0.25784	
0.00284042	0.609614	0.1018	
0.274113	0.816844	0.5	
0.211575	0.889225	0.384788	
0.23097	0.904329	0.5	
0.368617	0.876452	0.385763	
0	0.75	0.5	
0.00505532	0.706778	0.339312	
-0.0862712	0.770823	0.389289	
0.0581157	0.769455	0.403061	
0.0209546	1.03628	0	
-0.0105385	0.962638	0.111113	
0.0593465	1.06716	0.10856	
-0.0543483	1.10288	0.107179	
0.176777	0.823223	0.5	
0.103403	0.84471	0.5	
0.141405	0.904892	0.5	
0.101939	0.907787	0.403472	
-0.183156	1.27411	0.5	
-0.0850696	1.27829	0.394238	
-0.125823	1.17124	0.373805	
-0.234257	1.21312	0.375398	
-0.331632	1.37419	0.334643	
-0.328716	1.37676	0.246468	
-0.257824	1.4284	0.295024	
-0.193559	1.35773	0.245031	
-0.171353	0.530279	0.338334	
-0.243391	0.563238	0.403062	
-0.144862	0.521445	0.421652	
-0.153774	0.693588	0.346551	
0.415735	1.27779	0.365862	
0.347642	1.19453	0.384775	
0.374193	1.33163	0.334643	
0.295334	1.24597	0.26697	
0.470916	0.831957	0.199874	
0.361351	0.935933	0.2197	
0.493012	0.916698	0.155211	
0.355602	0.87751	0.0966392	
0.490343	0.902203	0.258774	
0.469721	0.828647	0.338334	
0.368617	0.876452	0.385763	
0.358257	0.834187	0.252847	
0.285177	0.816119	0.328962	
0.368617	0.876452	0.385763	
0.428195	0.741835	0.298245	
0.358257	0.834187	0.252847	
-0.495012	0.929552	0.428155	
-0.397525	1	0.5	
-0.409849	0.918476	0.5	
-0.363598	0.972427	0.365583	
0.317206	1.3865	0.299678	
0.209063	1.27717	0.342511	
0.25658	1.42915	0.33124	
0.212182	1.31459	0.219285	
-0.261345	0.769964	0	
-0.278713	0.85696	0	
-0.356684	0.80649	0	
-0.283151	0.746042	0.130367	
-0.331632	1.37419	0.334643	
-0.328716	1.37676	0.246468	
-0.193559	1.35773	0.245031	
-0.263985	1.32297	0.375811	
-0.328716	1.37676	0.246468	
-0.279096	1.24359	0.272562	
-0.210789	1.29041	0.168489	
-0.193559	1.35773	0.245031	
0.184962	1.07993	0	
0.276476	1.05355	0	
0.253711	1.11341	0.104023	
0.159132	0.984216	0.0920948	
-0.125823	1.17124	0.373805	
-0.0850696	1.27829	0.394238	
-0.18052	1.3078	0.334608	
-0.234257	1.21312	0.375398	
-0.429146	0.74342	0.16876	
-0.283151	0.746042	0.130367	
-0.31578	0.863109	0.155248	
-0.332607	0.773484	0.222023	
0.296805	0.825729	0.165597	
0.278655	0.736565	0.241439	
0.4284	0.742176	0.204976	
0.358257	0.834187	0.252847	
0.0248177	0.686626	0	
0.0999617	0.645199	0.138238	
0.112799	0.66644	0	
0.142608	0.739294	0.106454	
0.141405	0.904892	0.5	
0.185939	0.963014	0.5	
0.211575	0.889225	0.384788	
0.101939	0.907787	0.403472	
-0.00674902	1.18961	0.168493	
-0.0543483	1.10288	0.107179	
-0.0151696	1.04156	0.198031	
-0.0611059	1.11559	0.264866	
0.164574	0.7464	0.211103	
0.151014	0.679593	0.343049	
0.15722	0.635104	0.236843	
0.260241	0.698507	0.343916	
-0.157632	0.894674	0.5	
-0.239777	0.86007	0.398057	
-0.203766	0.963562	0.377533	
-0.087284	0.884388	0.408402	
-0.00674902	1.18961	0.168493	
0.0593465	1.06716	0.10856	
-0.0151696	1.04156	0.198031	
-0.0543483	1.10288	0.107179	
-0.0151696	1.04156	0.198031	
-0.110633	0.921519	0.156892	
-0.10768	0.996359	0.238131	
-0.10307	0.999921	0.0930669	
-0.144063	0.852748	0.341365	
-0.081357	0.751661	0.265055	
-0.170219	0.871655	0.235589	
-0.0821557	0.901585	0.243527	
0.203143	1.00597	0.37146	
0.208793	1.06331	0.266812	
0.125116	1.11613	0.369411	
0.22536	1.15058	0.40335	
-0.257956	1.11632	0	
-0.274228	1.15934	0.161857	
-0.328307	1.16356	0	
-0.357904	1.11593	0.101286	
0.125573	0.58604	0	
0.0728232	0.505332	0.0735406	
0.146853	0.522052	0.0840084	
0.0999617	0.645199	0.138238	
0.347642	1.19453	0.384775	
0.378383	1.07129	0.271427	
0.470916	1.16804	0.300126	
0.385098	1.08722	0.383771	
0.380873	0.676062	0.347739	
0.285177	0.816119	0.328962	
0.428195	0.741835	0.298245	
0.278655	0.736565	0.241439	
-0.176777	0.823223	0.5	
-0.144063	0.852748	0.341365	
-0.239777	0.86007	0.398057	
-0.087284	0.884388	0.408402	
0.288623	1.13754	0.312711	
0.347642	1.19453	0.384775	
0.209063	1.27717	0.342511	
0.22536	1.15058	0.40335	
-0.331632	1.37419	0.334643	
-0.193559	1.35773	0.245031	
-0.257824	1.4284	0.295024	
-0.263985	1.32297	0.375811	
0.300884	1.19872	0	
0.353151	1.15839	0.109095	
0.260232	1.21075	0.160089	
0.253711	1.11341	0.104023	
0.323338	0.935684	0.5	
0.23097	0.904329	0.5	
0.211575	0.889225	0.384788	
0.368617	0.876452	0.385763	
0.164574	0.7464	0.211103	
0.106858	0.844305	0.230248	
0.121965	0.82524	0.342904	
0.215953	0.839226	0.238202	
-0.0956709	1.23097	0.5	
-0.107214	1.16612	0.5	
-0.176777	1.17678	0.5	
-0.125823	1.17124	0.373805	
-0.110633	0.921519	0.156892	
-0.117671	0.89803	0	
-0.10307	0.999921	0.0930669	
-0.0724446	0.868744	0.084223	
0.0344957	0.828097	0.5	
-0.0369856	0.814061	0.5	
-0.00643767	0.847524	0.3797	
0.0581157	0.769455	0.403061	
0.428195	0.741835	0.298245	
0.285177	0.816119	0.328962	
0.436762	0.756609	0.403062	
0.368617	0.876452	0.385763	
0.4284	1.25782	0.295024	
0.347642	1.19453	0.384775	
0.415735	1.27779	0.365862	
0.295334	1.24597	0.26697	
0.152393	1.36791	0.5	
0.228991	1.44448	0.408099	
0.232161	1.34745	0.5	
0.109201	1.35772	0.375246	
-0.00173102	1.15684	0.347507	
-0.0611059	1.11559	0.264866	
-0.125823	1.17124	0.373805	
-0.0330822	1.21734	0.266884	
-0.3474	1.01863	0.155865	
-0.227254	0.962083	0.121579	
-0.31578	0.863109	0.155248	
-0.390863	0.914451	0.0980906	
0.232997	0.88938	0	
0.177224	0.838965	0.12521	
0.265828	0.94766	0.123486	
0.159132	0.984216	0.0920948	
-0.183156	1.27411	0.5	
-0.0956709	1.23097	0.5	
-0.125823	1.17124	0.373805	
-0.0850696	1.27829	0.394238	
0.0452903	0.623513	0.25784	
0.15722	0.635104	0.236843	
0.151014	0.679593	0.343049	
0.0738912	0.610829	0.388761	
0.203143	1.00597	0.37146	
0.125116	1.11613	0.369411	
0.0761103	0.977349	0.33014	
0.113162	1.01769	0.414132	
-0.258165	0.571805	0.298245	
-0.153774	0.693588	0.346551	
-0.194667	0.539452	0.26567	
-0.136534	0.645188	0.231761	
0.151014	0.679593	0.343049	
0.0468326	0.745128	0.237913	
0.00505532	0.706778	0.339312	
0.0347483	0.794732	0.315425	
-0.0422582	0.562527	0	
0.00284042	0.609614	0.1018	
-0.0328721	0.629311	0	
-0.0982069	0.610875	0.136018	
-0.18052	1.3078	0.334608	
-0.193559	1.35773	0.245031	
-0.217356	1.45028	0.355302	
-0.166036	1.37976	0.398541	
-0.285945	1.12176	0.325452	
-0.234257	1.21312	0.375398	
-0.274113	1.18316	0.5	
-0.275403	1.0393	0.403336	
0.276476	1.05355	0	
0.337634	1.11556	0	
0.253711	1.11341	0.104023	
0.40353	1.07301	0.105949	
0.158056	1.17188	0	
0.113965	1.18028	0.121768	
0.253711	1.11341	0.104023	
0.189162	1.24479	0.0938772	
0.296805	0.825729	0.165597	
0.226544	0.947552	0.250202	
0.361351	0.935933	0.2197	
0.265828	0.94766	0.123486	
-0.114443	1.01484	0.5	
-0.105137	0.975975	0.404942	
-0.117202	1.0938	0.5	
-0.0571477	1.11947	0.416349	
-0.323938	0.619127	0.347739	
-0.243391	0.563238	0.403062	
-0.258165	0.571805	0.298245	
-0.153774	0.693588	0.346551	
-0.115695	1.05029	0.334241	
-0.179827	1.088	0.408491	
-0.105137	0.975975	0.404942	
-0.0571477	1.11947	0.416349	
-0.0956709	1.23097	0.5	
0	1.25	0.5	
-0.0392044	1.16291	0.5	
-0.0850696	1.27829	0.394238	
0.247868	1.14631	0	
0.300884	1.19872	0	
0.231243	1.24169	0	
0.189162	1.24479	0.0938772	
0.490343	1.0978	0.241226	
0.469721	1.17135	0.161666	
0.493389	1.08104	0.14715	
0.40353	1.07301	0.105949	
-0.344127	0.887773	0	
-0.356684	0.80649	0	
-0.31578	0.863109	0.155248	
-0.390863	0.914451	0.0980906	
-0.468495	1.17468	0.317109	
-0.364752	1.11394	0.23148	
-0.434698	1.24706	0.250499	
-0.343626	1.20201	0.373624	
-0.493437	0.919252	0.345776	
-0.5	1	0.4	
-0.495012	0.929552	0.428155	
-0.363598	0.972427	0.365583	
-0.00674902	1.18961	0.168493	
-0.0697093	1.32708	0.167311	
-0.0330822	1.21734	0.266884	
0.0143983	1.28276	0.204525	
-0.31578	0.863109	0.155248	
-0.37095	0.93253	0.240862	
-0.468495	0.825322	0.182891	
-0.332607	0.773484	0.222023	
0.164574	0.7464	0.211103	
0.151014	0.679593	0.343049	
0.0468326	0.745128	0.237913	
0.15722	0.635104	0.236843	
0.119419	1.18151	0.251425	
-0.0330822	1.21734	0.266884	
0.105734	1.2948	0.276786	
0.0143983	1.28276	0.204525	
0.228991	1.44448	0.408099	
0.25658	1.42915	0.33124	
0.3168	1.38683	0.395903	
0.209063	1.27717	0.342511	
-0.285945	1.12176	0.325452	
-0.274228	1.15934	0.161857	
-0.193842	1.09373	0.257323	
-0.364752	1.11394	0.23148	
-0.0218546	0.89013	0.5	
0.0634445	0.898618	0.5	
-0.00643767	0.847524	0.3797	
0.00844098	0.944821	0.400532	
-0.302044	0.949354	0	
-0.337562	1.05476	0	
-0.3474	1.01863	0.155865	
-0.256772	1.06769	0.100506	
0.247079	0.718599	0.118367	
0.278655	0.736565	0.241439	
0.374193	0.668368	0.165357	
0.341118	0.774271	0.0916023	
0.490343	0.902203	0.258774	
0.469721	0.828647	0.338334	
0.493389	0.91896	0.35285	
0.368617	0.876452	0.385763	
0.325159	1.05851	0.165819	
0.208793	1.06331	0.266812	
0.334194	1.15432	0.215771	
0.219623	1.16199	0.240766	
-0.153774	0.693588	0.346551	
-0.136534	0.645188	0.231761	
-0.258165	0.571805	0.298245	
-0.259603	0.71434	0.292274	
0.157632	1.10533	0.5	
0.125116	1.11613	0.369411	
0.203143	1.00597	0.37146	
0.113162	1.01769	0.414132	
0.374193	1.33163	0.334643	
0.209063	1.27717	0.342511	
0.317206	1.3865	0.299678	
0.295334	1.24597	0.26697	
-0.5	1	0.2	
-0.5	1	0.1	
-0.493437	1.08075	0.154224	
-0.3474	1.01863	0.155865	
-0.00167925	1.31098	0.319981	
0.0196341	1.38361	0.225797	
0.109201	1.35772	0.375246	
0.105734	1.2948	0.276786	
0.0814864	0.506685	0.152319	
0.0999617	0.645199	0.138238	
0.0854243	0.507351	0.248597	
0.15722	0.635104	0.236843	
0.0937412	0.930011	0.154317	
0.0593465	1.06716	0.10856	
0.168914	1.06767	0.155545	
0.159132	0.984216	0.0920948	
0.164797	0.822415	0	
0.14072	0.916025	0	
0.0712814	0.846848	0	
0.177224	0.838965	0.12521	
0.380873	0.676062	0.347739	
0.436762	0.756609	0.403062	
0.428195	0.741835	0.298245	
0.285177	0.816119	0.328962	
-0.429146	1.25658	0.33124	
-0.434698	1.24706	0.250499	
-0.279096	1.24359	0.272562	
-0.343626	1.20201	0.373624	
0.121965	0.82524	0.342904	
0.211575	0.889225	0.384788	
0.215953	0.839226	0.238202	
0.148799	0.913537	0.303647	
-0.00167925	1.31098	0.319981	
0.0902907	1.23506	0.376077	
-0.00173102	1.15684	0.347507	
-0.0330822	1.21734	0.266884	
-0.0232782	0.872416	0	
-0.00436862	0.872297	0.154061	
-0.0105385	0.962638	0.111113	
-0.0724446	0.868744	0.084223	
-0.125823	1.17124	0.373805	
-0.0611059	1.11559	0.264866	
-0.00173102	1.15684	0.347507	
-0.0571477	1.11947	0.416349	
0.098462	1.32087	0.159093	
0.0105232	1.38676	0.111861	
0.0401436	1.2912	0	
0.00439522	1.27731	0.103072	
0.168914	1.06767	0.155545	
0.113965	1.18028	0.121768	
0.119419	1.18151	0.251425	
0.219623	1.16199	0.240766	
-0.302044	0.949354	0	
-0.3474	1.01863	0.155865	
-0.401548	0.957663	0	
-0.390863	0.914451	0.0980906	
0.316847	0.613208	0.301384	
0.317206	0.613502	0.200322	
0.247057	0.565302	0.249501	
0.278655	0.736565	0.241439	
0.119419	1.18151	0.251425	
0.209063	1.27717	0.342511	
0.212182	1.31459	0.219285	
0.105734	1.2948	0.276786	
0.428195	0.741835	0.298245	
0.278655	0.736565	0.241439	
0.285177	0.816119	0.328962	
0.358257	0.834187	0.252847	
-0.434698	0.752943	0.249501	
-0.468495	0.825322	0.182891	
-0.470668	0.831266	0.298219	
-0.332607	0.773484	0.222023	
0.157632	1.10533	0.5	
0.203143	1.00597	0.37146	
0.163502	1.02984	0.5	
0.113162	1.01769	0.414132	
0.325159	1.05851	0.165819	
0.334194	1.15432	0.215771	
0.253711	1.11341	0.104023	
0.219623	1.16199	0.240766	
0.210156	0.985203	0	
0.265828	0.94766	0.123486	
0.276476	1.05355	0	
0.159132	0.984216	0.0920948	
0.232161	1.34745	0.5	
0.3168	1.38683	0.395903	
0.281092	1.28109	0.5	
0.209063	1.27717	0.342511	
0.232161	1.34745	0.5	
0.228991	1.44448	0.408099	
0.3168	1.38683	0.395903	
0.209063	1.27717	0.342511	
-0.0151696	1.04156	0.198031	
-0.10768	0.996359	0.238131	
-0.156284	1.06551	0.149142	
-0.10307	0.999921	0.0930669	
-0.389036	1.20743	0	
-0.318983	1.26174	0	
-0.440961	1.2357	0.068569	
-0.277342	1.24516	0.0975038	
0.245477	0.808349	0	
0.247079	0.718599	0.118367	
0.177224	0.838965	0.12521	
0.142608	0.739294	0.106454	
0.176777	0.823223	0.5	
0.206682	0.777113	0.400851	
0.0956709	0.76903	0.5	
0.0581157	0.769455	0.403061	
0.0420691	1.42713	0	
0.114055	1.37411	0	
0.0704482	1.49501	0.0718447	
0.0105232	1.38676	0.111861	
0.0634445	0.898618	0.5	
0.101939	0.907787	0.403472	
-0.00643767	0.847524	0.3797	
0.00844098	0.944821	0.400532	
-0.495012	0.929552	0.428155	
-0.363598	0.972427	0.365583	
-0.409849	0.918476	0.5	
-0.351645	0.874975	0.390413	
-0.18052	1.3078	0.334608	
-0.193559	1.35773	0.245031	
-0.279096	1.24359	0.272562	
-0.263985	1.32297	0.375811	
0.260232	1.21075	0.160089	
0.28898	1.28652	0.0949489	
0.300884	1.19872	0	
0.189162	1.24479	0.0938772	
-0.110633	0.921519	0.156892	
-0.0151696	1.04156	0.198031	
-0.0105385	0.962638	0.111113	
-0.10307	0.999921	0.0930669	
0.4284	1.25782	0.295024	
0.415735	1.27779	0.365862	
0.374193	1.33163	0.334643	
0.295334	1.24597	0.26697	
0.0691997	1.04586	0.5	
0.000305103	1.09462	0.5	
0.0868435	1.13736	0.5	
-0.00748686	1.04315	0.386084	
0.25658	0.570854	0.16876	
0.0999617	0.645199	0.138238	
0.174678	0.531505	0.182891	
0.15722	0.635104	0.236843	
-0.176777	0.823223	0.5	
-0.239777	0.86007	0.398057	
-0.157632	0.894674	0.5	
-0.087284	0.884388	0.408402	
-0.331632	1.37419	0.334643	
-0.279096	1.24359	0.272562	
-0.328716	1.37676	0.246468	
-0.263985	1.32297	0.375811	
0.374193	1.33163	0.334643	
0.415735	1.27779	0.365862	
0.388274	1.31503	0.420807	
0.347642	1.19453	0.384775	
-0.064316	0.676662	0.5	
0	0.75	0.5	
0.00505532	0.706778	0.339312	
-0.0862712	0.770823	0.389289	
-0.00643767	0.847524	0.25115	
-0.0726386	0.798943	0.15243	
0.0541326	0.793785	0.132666	
0.0468326	0.745128	0.237913	
0.209063	1.27717	0.342511	
0.347642	1.19453	0.384775	
0.288623	1.13754	0.312711	
0.295334	1.24597	0.26697	
0.064316	0.676662	0.5	
0.00505532	0.706778	0.339312	
0	0.75	0.5	
0.0581157	0.769455	0.403061	
-0.0297704	0.68077	0.178611	
-0.136534	0.645188	0.231761	
-0.183989	0.672241	0.119932	
-0.0982069	0.610875	0.136018	
-0.258165	0.571805	0.298245	
-0.259603	0.71434	0.292274	
-0.136534	0.645188	0.231761	
-0.247852	0.673084	0.199607	
-0.110633	0.921519	0.156892	
-0.00436862	0.872297	0.154061	
0.0244505	0.94868	0.233905	
-0.0821557	0.901585	0.243527	
0.0761103	0.977349	0.33014	
0.203143	1.00597	0.37146	
0.148799	0.913537	0.303647	
0.134932	0.977505	0.230093	
0.0807477	1.49344	0.154224	
0.098462	1.32087	0.159093	
0.0196341	1.38361	0.225797	
0.0105232	1.38676	0.111861	
0.106858	0.844305	0.230248	
0.0468326	0.745128	0.237913	
0.121965	0.82524	0.342904	
0.0347483	0.794732	0.315425	
-0.0105385	0.962638	0.111113	
0.0244505	0.94868	0.233905	
-0.110633	0.921519	0.156892	
-0.00436862	0.872297	0.154061	
-0.152126	0.632735	0.5	
-0.243391	0.563238	0.403062	
-0.232161	0.652547	0.5	
-0.153774	0.693588	0.346551	
-0.168043	1.47092	0.300126	
-0.217356	1.45028	0.355302	
-0.193559	1.35773	0.245031	
-0.166036	1.37976	0.398541	
-0.23296	0.961598	0.249877	
-0.227254	0.962083	0.121579	
-0.110633	0.921519	0.156892	
-0.170219	0.871655	0.235589	
-0.171353	0.530279	0.338334	
-0.194667	0.539452	0.26567	
-0.153774	0.693588	0.346551	
-0.136534	0.645188	0.231761	
-0.114443	1.01484	0.5	
-0.117202	1.0938	0.5	
-0.105137	0.975975	0.404942	
-0.179827	1.088	0.408491	
0.153328	1.47591	0.0923699	
0.168734	1.47067	0.201781	
0.0807477	1.49344	0.154224	
0.098462	1.32087	0.159093	
0.235698	0.559039	0.431431	
0.242822	0.562922	0.347009	
0.151014	0.679593	0.343049	
0.260241	0.698507	0.343916	
0.0712814	0.846848	0	
0.0541326	0.793785	0.132666	
0.0943468	0.754666	0	
0.142608	0.739294	0.106454	
-0.315029	0.611726	0.0791933	
-0.331632	0.625807	0.165357	
-0.277785	0.584265	0.134138	
-0.247852	0.673084	0.199607	
0.0541326	0.793785	0.132666	
0.0468326	0.745128	0.237913	
0.0999617	0.645199	0.138238	
0.142608	0.739294	0.106454	
0.203143	1.00597	0.37146	
0.208793	1.06331	0.266812	
0.22536	1.15058	0.40335	
0.284123	1.06741	0.387999	
0.0814864	0.506685	0.152319	
0.0854243	0.507351	0.248597	
0.0999617	0.645199	0.138238	
0.0452903	0.623513	0.25784	
-0.317197	1.38651	0.0688254	
-0.210789	1.29041	0.168489	
-0.323938	1.38087	0.152261	
-0.277342	1.24516	0.0975038	
0.0728232	0.505332	0.0735406	
0.0999617	0.645199	0.138238	
0.0404524	0.58928	0	
0.00284042	0.609614	0.1018	
-0.386792	0.683153	0.301384	
-0.259603	0.71434	0.292274	
-0.296327	0.833736	0.292179	
-0.289723	0.75771	0.393302	
-0.107214	1.16612	0.5	
-0.179827	1.088	0.408491	
-0.125823	1.17124	0.373805	
-0.0571477	1.11947	0.416349	
0.168734	0.529332	0.298219	
0.151014	0.679593	0.343049	
0.15722	0.635104	0.236843	
0.0738912	0.610829	0.388761	
-0.0810399	1.49339	0.14715	
0	1.5	0.2	
0.0196341	1.38361	0.225797	
0.0105232	1.38676	0.111861	
0.296805	0.825729	0.165597	
0.265828	0.94766	0.123486	
0.177224	0.838965	0.12521	
0.215953	0.839226	0.238202	
0.119419	1.18151	0.251425	
0.0919908	1.06424	0.248206	
0.168914	1.06767	0.155545	
0.219623	1.16199	0.240766	
-0.0982069	0.610875	0.136018	
-0.00982582	0.726304	0.0884564	
-0.0638367	0.704239	0	
-0.111014	0.733523	0.0849706	
-0.323338	1.06432	0.5	
-0.382289	1.08918	0.382504	
-0.363339	1.1505	0.5	
-0.275403	1.0393	0.403336	
-0.16685	1.08834	0	
-0.0734441	1.06169	0	
-0.0543483	1.10288	0.107179	
-0.10307	0.999921	0.0930669	
-0.0956709	1.23097	0.5	
-0.0392044	1.16291	0.5	
-0.107214	1.16612	0.5	
-0.0571477	1.11947	0.416349	
-0.278713	0.85696	0	
-0.211369	0.923885	0	
-0.302044	0.949354	0	
-0.227254	0.962083	0.121579	
0.119419	1.18151	0.251425	
-0.00674902	1.18961	0.168493	
0.113965	1.18028	0.121768	
0.0323895	1.13978	0.258564	
0.125116	1.11613	0.369411	
-0.00748686	1.04315	0.386084	
0.0761103	0.977349	0.33014	
0.113162	1.01769	0.414132	
-0.386792	0.683153	0.301384	
-0.296327	0.833736	0.292179	
-0.437078	0.757178	0.347009	
-0.289723	0.75771	0.393302	
-0.468495	1.17468	0.317109	
-0.434698	1.24706	0.250499	
-0.429146	1.25658	0.33124	
-0.343626	1.20201	0.373624	
-0.279096	1.24359	0.272562	
-0.364752	1.11394	0.23148	
-0.285945	1.12176	0.325452	
-0.343626	1.20201	0.373624	
0.184962	1.07993	0	
0.253711	1.11341	0.104023	
0.168914	1.06767	0.155545	
0.159132	0.984216	0.0920948	
0.296805	0.825729	0.165597	
0.278655	0.736565	0.241439	
0.247079	0.718599	0.118367	
0.341118	0.774271	0.0916023	
0.119419	1.18151	0.251425	
-0.0330822	1.21734	0.266884	
0.0143983	1.28276	0.204525	
0.0323895	1.13978	0.258564	
-0.189227	0.766031	0.208899	
-0.081357	0.751661	0.265055	
-0.0726386	0.798943	0.15243	
-0.170219	0.871655	0.235589	
0.164574	0.7464	0.211103	
0.177224	0.838965	0.12521	
0.296805	0.825729	0.165597	
0.247079	0.718599	0.118367	
0.0541326	0.793785	0.132666	
-0.00982582	0.726304	0.0884564	
-0.0726386	0.798943	0.15243	
-0.0724446	0.868744	0.084223	
-0.183156	1.27411	0.5	
-0.0956709	1.23097	0.5	
-0.176777	1.17678	0.5	
-0.125823	1.17124	0.373805	
0.285177	0.816119	0.328962	
0.278655	0.736565	0.241439	
0.380873	0.676062	0.347739	
0.260241	0.698507	0.343916	
-0.328307	1.16356	0	
-0.357904	1.11593	0.101286	
-0.274228	1.15934	0.161857	
-0.277342	1.24516	0.0975038	
0.174678	0.531505	0.182891	
0.25658	0.570854	0.16876	
0.228991	0.555519	0.0919014	
0.0999617	0.645199	0.138238	
0.296805	0.825729	0.165597	
0.177224	0.838965	0.12521	
0.164574	0.7464	0.211103	
0.215953	0.839226	0.238202	
-0.0555676	1.32557	0	
0.0105232	1.38676	0.111861	
-0.0697093	1.32708	0.167311	
0.00439522	1.27731	0.103072	
0.0854243	0.507351	0.248597	
0.0999617	0.645199	0.138238	
0.0452903	0.623513	0.25784	
0.15722	0.635104	0.236843	
0.0919908	1.06424	0.248206	
0.208793	1.06331	0.266812	
0.168914	1.06767	0.155545	
0.219623	1.16199	0.240766	
-0.5	1	0.3	
-0.5	1	0.4	
-0.493437	0.919252	0.345776	
-0.363598	0.972427	0.365583	
-0.171353	0.530279	0.338334	
-0.194667	0.539452	0.26567	
-0.258165	0.571805	0.298245	
-0.153774	0.693588	0.346551	
-0.152694	0.523886	0.0975404	
-0.203173	0.626976	0	
-0.238488	0.560542	0.0756919	
-0.183989	0.672241	0.119932	
0.168734	0.529332	0.298219	
0.15722	0.635104	0.236843	
0.0452903	0.623513	0.25784	
0.0738912	0.610829	0.388761	
-0.493437	1.08075	0.154224	
-0.364752	1.11394	0.23148	
-0.3474	1.01863	0.155865	
-0.357904	1.11593	0.101286	
0.0704482	1.49501	0.0718447	
0.114055	1.37411	0	
0.153328	1.47591	0.0923699	
0.0105232	1.38676	0.111861	
-0.0726386	0.798943	0.15243	
-0.081357	0.751661	0.265055	
-0.00643767	0.847524	0.25115	
-0.0821557	0.901585	0.243527	
0.288623	1.13754	0.312711	
0.378383	1.07129	0.271427	
0.347642	1.19453	0.384775	
0.385098	1.08722	0.383771	
-0.110633	0.921519	0.156892	
-0.10768	0.996359	0.238131	
-0.23296	0.961598	0.249877	
-0.170219	0.871655	0.235589	
0.285177	0.816119	0.328962	
0.211575	0.889225	0.384788	
0.274113	0.816844	0.5	
0.368617	0.876452	0.385763	
-0.157632	0.894674	0.5	
-0.203766	0.963562	0.377533	
-0.105137	0.975975	0.404942	
-0.087284	0.884388	0.408402	
-0.285945	1.12176	0.325452	
-0.279096	1.24359	0.272562	
-0.274228	1.15934	0.161857	
-0.364752	1.11394	0.23148	
0.151014	0.679593	0.343049	
0.00505532	0.706778	0.339312	
0.0581157	0.769455	0.403061	
0.0347483	0.794732	0.315425	
-0.210789	1.29041	0.168489	
-0.136328	1.19004	0.119282	
-0.274228	1.15934	0.161857	
-0.277342	1.24516	0.0975038	
0.064316	0.676662	0.5	
0.0581157	0.769455	0.403061	
0.151014	0.679593	0.343049	
0.0738912	0.610829	0.388761	
-0.203766	0.963562	0.377533	
-0.239777	0.86007	0.398057	
-0.144063	0.852748	0.341365	
-0.087284	0.884388	0.408402	
0.168734	1.47067	0.201781	
0.212182	1.31459	0.219285	
0.098462	1.32087	0.159093	
0.190875	1.34709	0.10503	
-0.183156	1.27411	0.5	
-0.18052	1.3078	0.334608	
-0.0850696	1.27829	0.394238	
-0.234257	1.21312	0.375398	
0.0999617	0.645199	0.138238	
0.0468326	0.745128	0.237913	
0.164574	0.7464	0.211103	
0.142608	0.739294	0.106454	
0.245477	0.808349	0	
0.177224	0.838965	0.12521	
0.164797	0.822415	0	
0.142608	0.739294	0.106454	
-0.0297704	0.68077	0.178611	
-0.0982069	0.610875	0.136018	
-0.183989	0.672241	0.119932	
-0.111014	0.733523	0.0849706	
-0.315029	0.611726	0.0791933	
-0.263582	0.680587	0	
-0.331361	0.727047	0	
-0.283151	0.746042	0.130367	
-0.00643767	0.847524	0.25115	
-0.081357	0.751661	0.265055	
-0.0726386	0.798943	0.15243	
0.0468326	0.745128	0.237913	
0.0248177	0.686626	0	
0.00284042	0.609614	0.1018	
0.0999617	0.645199	0.138238	
-0.00982582	0.726304	0.0884564	
0.373926	1.19893	0	
0.353151	1.15839	0.109095	
0.436762	1.24339	0.0969381	
0.28898	1.28652	0.0949489	
-0.217356	0.549715	0.144698	
-0.136534	0.645188	0.231761	
-0.183989	0.672241	0.119932	
-0.247852	0.673084	0.199607	
-0.0295403	1.22514	0	
-0.0983601	1.15643	0	
-0.00425413	1.131	0	
-0.0543483	1.10288	0.107179	
0.0943468	0.754666	0	
0.0248177	0.686626	0	
0.142608	0.739294	0.106454	
-0.00982582	0.726304	0.0884564	
0.176777	0.823223	0.5	
0.141405	0.904892	0.5	
0.211575	0.889225	0.384788	
0.101939	0.907787	0.403472	
0.260232	1.21075	0.160089	
0.353151	1.15839	0.109095	
0.300884	1.19872	0	
0.28898	1.28652	0.0949489	
-0.189227	0.766031	0.208899	
-0.31578	0.863109	0.155248	
-0.283151	0.746042	0.130367	
-0.332607	0.773484	0.222023	
-0.0810399	1.49339	0.14715	
-0.144862	1.47856	0.0783483	
-0.0684459	1.49529	0.0685965	
-0.153777	1.36779	0.103264	
-0.257824	1.4284	0.295024	
-0.217356	1.45028	0.355302	
-0.18052	1.3078	0.334608	
-0.193559	1.35773	0.245031	
0.285177	0.816119	0.328962	
0.211575	0.889225	0.384788	
0.226544	0.947552	0.250202	
0.215953	0.839226	0.238202	
-0.0977967	1.49034	0.241226	
-0.0810399	1.49339	0.14715	
0	1.5	0.2	
0.0196341	1.38361	0.225797	
0.3168	1.38683	0.395903	
0.317206	1.3865	0.299678	
0.374193	1.33163	0.334643	
0.209063	1.27717	0.342511	
-0.317197	1.38651	0.0688254	
-0.243391	1.43676	0.0969381	
-0.323938	1.38087	0.152261	
-0.210789	1.29041	0.168489	
0.0814864	0.506685	0.152319	
0.174678	0.531505	0.182891	
0.0999617	0.645199	0.138238	
0.15722	0.635104	0.236843	
0.5	1	0.3	
0.5	1	0.2	
0.361351	0.935933	0.2197	
0.378383	1.07129	0.271427	
0.0401436	1.2912	0	
0.133074	1.2641	0	
0.098462	1.32087	0.159093	
0.00439522	1.27731	0.103072	
0.0401436	1.2912	0	
0.098462	1.32087	0.159093	
0.114055	1.37411	0	
0.0105232	1.38676	0.111861	
0.316847	1.38679	0.198616	
0.380873	1.32394	0.152261	
0.376757	1.32872	0.246468	
0.295334	1.24597	0.26697	
0.317206	0.613502	0.200322	
0.25658	0.570854	0.16876	
0.247057	0.565302	0.249501	
0.15722	0.635104	0.236843	
0.0868435	1.13736	0.5	
0.028723	1.17517	0.5	
0.0956709	1.23097	0.5	
0.0902907	1.23506	0.376077	
-0.114443	1.01484	0.5	
-0.0427935	1.02817	0.5	
-0.105137	0.975975	0.404942	
-0.0571477	1.11947	0.416349	
0.184962	1.07993	0	
0.210156	0.985203	0	
0.276476	1.05355	0	
0.159132	0.984216	0.0920948	
0.113965	1.18028	0.121768	
0.00439522	1.27731	0.103072	
-0.00674902	1.18961	0.168493	
0.0143983	1.28276	0.204525	
-0.048473	0.967143	0	
-0.0105385	0.962638	0.111113	
0.0209546	1.03628	0	
-0.10307	0.999921	0.0930669	
0.151014	0.679593	0.343049	
0.0452903	0.623513	0.25784	
0.0468326	0.745128	0.237913	
0.15722	0.635104	0.236843	
0.23097	1.09567	0.5	
0.203143	1.00597	0.37146	
0.22536	1.15058	0.40335	
0.284123	1.06741	0.387999	
0.373926	1.19893	0	
0.436762	1.24339	0.0969381	
0.328092	1.27024	0	
0.28898	1.28652	0.0949489	
-0.257824	1.4284	0.295024	
-0.18052	1.3078	0.334608	
-0.277785	1.41573	0.365862	
-0.263985	1.32297	0.375811	
0.119419	1.18151	0.251425	
0.105734	1.2948	0.276786	
0.098462	1.32087	0.159093	
0.0143983	1.28276	0.204525	
0.232161	0.652547	0.5	
0.151014	0.679593	0.343049	
0.206682	0.777113	0.400851	
0.260241	0.698507	0.343916	
-0.152126	0.632735	0.5	
-0.153774	0.693588	0.346551	
-0.064316	0.676662	0.5	
-0.039093	0.610067	0.388942	
0.183156	0.725887	0.5	
0.206682	0.777113	0.400851	
0.151014	0.679593	0.343049	
0.0581157	0.769455	0.403061	
-0.189227	0.766031	0.208899	
-0.283151	0.746042	0.130367	
-0.31578	0.863109	0.155248	
-0.196211	0.8458	0.119009	
-0.285945	1.12176	0.325452	
-0.364752	1.11394	0.23148	
-0.193842	1.09373	0.257323	
-0.318838	1.02278	0.259668	
0	0.5	0.2	
-0.0977967	0.509657	0.258774	
0	0.5	0.3	
0.0452903	0.623513	0.25784	
-0.444481	0.771009	0.0919014	
-0.386831	0.6832	0.104097	
-0.356684	0.80649	0	
-0.283151	0.746042	0.130367	
-0.323338	0.935684	0.5	
-0.203766	0.963562	0.377533	
-0.23097	0.904329	0.5	
-0.239777	0.86007	0.398057	
-0.134745	1.19543	0.248773	
-0.0611059	1.11559	0.264866	
-0.00674902	1.18961	0.168493	
-0.0330822	1.21734	0.266884	
0.296805	0.825729	0.165597	
0.226544	0.947552	0.250202	
0.265828	0.94766	0.123486	
0.215953	0.839226	0.238202	
-0.176777	1.17678	0.5	
-0.183156	1.27411	0.5	
-0.125823	1.17124	0.373805	
-0.234257	1.21312	0.375398	
0.153328	1.47591	0.0923699	
0.168734	1.47067	0.201781	
0.098462	1.32087	0.159093	
0.190875	1.34709	0.10503	
-0.214341	1.27376	0	
-0.18644	1.1823	0	
-0.119993	1.24669	0	
-0.136328	1.19004	0.119282	
0.268393	0.665699	0	
0.228991	0.555519	0.0919014	
0.3168	0.613169	0.104097	
0.247079	0.718599	0.118367	
-0.401548	0.957663	0	
-0.302044	0.949354	0	
-0.337562	1.05476	0	
-0.3474	1.01863	0.155865	
-0.194667	1.46055	0.23433	
-0.171353	1.46972	0.161666	
-0.0964049	1.37384	0.276475	
-0.193559	1.35773	0.245031	
-0.356684	0.80649	0	
-0.41072	0.87541	0	
-0.444481	0.771009	0.0919014	
-0.390863	0.914451	0.0980906	
0.164574	0.7464	0.211103	
0.0468326	0.745128	0.237913	
0.0999617	0.645199	0.138238	
0.15722	0.635104	0.236843	
0.183156	0.725887	0.5	
0.151014	0.679593	0.343049	
0.064316	0.676662	0.5	
0.0581157	0.769455	0.403061	
-0.064316	0.676662	0.5	
-0.039093	0.610067	0.388942	
-0.153774	0.693588	0.346551	
-0.0862712	0.770823	0.389289	
-0.176777	0.823223	0.5	
-0.0892911	0.866366	0.5	
-0.0862712	0.770823	0.389289	
-0.087284	0.884388	0.408402	
-0.315029	0.611726	0.0791933	
-0.183989	0.672241	0.119932	
-0.263582	0.680587	0	
-0.283151	0.746042	0.130367	
-0.437078	0.757178	0.347009	
-0.296327	0.833736	0.292179	
-0.386792	0.683153	0.301384	
-0.332607	0.773484	0.222023	
0.247057	1.4347	0.250499	
0.317206	1.3865	0.299678	
0.25658	1.42915	0.33124	
0.212182	1.31459	0.219285	
0.0712814	0.846848	0	
0.0943468	0.754666	0	
0.164797	0.822415	0	
0.142608	0.739294	0.106454	
0.00505532	0.706778	0.339312	
0.0468326	0.745128	0.237913	
0.151014	0.679593	0.343049	
0.0452903	0.623513	0.25784	
0.183156	1.27411	0.5	
0.109201	1.35772	0.375246	
0.209063	1.27717	0.342511	
0.0902907	1.23506	0.376077	
-0.386792	0.683153	0.301384	
-0.296327	0.833736	0.292179	
-0.259603	0.71434	0.292274	
-0.332607	0.773484	0.222023	
0	1.25	0.5	
0.0956709	1.23097	0.5	
0.028723	1.17517	0.5	
0.0902907	1.23506	0.376077	
-0.23296	0.961598	0.249877	
-0.3474	1.01863	0.155865	
-0.37095	0.93253	0.240862	
-0.318838	1.02278	0.259668	
-0.177191	1.03636	0.5	
-0.105137	0.975975	0.404942	
-0.203766	0.963562	0.377533	
-0.179827	1.088	0.408491	
-0.363598	0.972427	0.365583	
-0.37095	0.93253	0.240862	
-0.296327	0.833736	0.292179	
-0.351645	0.874975	0.390413	
0.0452903	0.623513	0.25784	
-0.039093	0.610067	0.388942	
0	0.5	0.3	
0.0738912	0.610829	0.388761	
-0.444481	0.771009	0.0919014	
-0.468495	0.825322	0.182891	
-0.429146	0.74342	0.16876	
-0.31578	0.863109	0.155248	
-0.186407	0.830549	0	
-0.261345	0.769964	0	
-0.168688	0.718299	0	
-0.196211	0.8458	0.119009	
-0.0638367	0.704239	0	
-0.114467	0.613668	0	
-0.0328721	0.629311	0	
-0.0982069	0.610875	0.136018	
-0.115695	1.05029	0.334241	
-0.10768	0.996359	0.238131	
-0.193842	1.09373	0.257323	
-0.0611059	1.11559	0.264866	
0.361351	0.935933	0.2197	
0.387337	0.975471	0.113668	
0.493012	0.916698	0.155211	
0.355602	0.87751	0.0966392	
-0.183989	0.672241	0.119932	
-0.136534	0.645188	0.231761	
-0.217356	0.549715	0.144698	
-0.0982069	0.610875	0.136018	
-0.048473	0.967143	0	
0.0209546	1.03628	0	
-0.0734441	1.06169	0	
-0.10307	0.999921	0.0930669	
0.119419	1.18151	0.251425	
0.0143983	1.28276	0.204525	
-0.00674902	1.18961	0.168493	
0.0323895	1.13978	0.258564	
-0.257824	0.5716	0.204976	
-0.136534	0.645188	0.231761	
-0.217356	0.549715	0.144698	
-0.247852	0.673084	0.199607	
-0.437078	0.757178	0.347009	
-0.296327	0.833736	0.292179	
-0.470668	0.831266	0.298219	
-0.351645	0.874975	0.390413	
0.347453	0.767839	0.5	
0.274113	0.816844	0.5	
0.285177	0.816119	0.328962	
0.206682	0.777113	0.400851	
-0.274113	1.18316	0.5	
-0.234257	1.21312	0.375398	
-0.285945	1.12176	0.325452	
-0.343626	1.20201	0.373624	
0.353151	1.15839	0.109095	
0.253711	1.11341	0.104023	
0.337634	1.11556	0	
0.40353	1.07301	0.105949	
0.231243	1.24169	0	
0.300884	1.19872	0	
0.28898	1.28652	0.0949489	
0.189162	1.24479	0.0938772	
-0.00643767	0.847524	0.25115	
0.0541326	0.793785	0.132666	
-0.0726386	0.798943	0.15243	
-0.00436862	0.872297	0.154061	
0.5	1	0.3	
0.347602	0.985936	0.348343	
0.5	1	0.4	
0.385098	1.08722	0.383771	
-0.25	1	0.5	
-0.23097	0.904329	0.5	
-0.323338	0.935684	0.5	
-0.203766	0.963562	0.377533	
0.121965	0.82524	0.342904	
0.101939	0.907787	0.403472	
-0.00643767	0.847524	0.3797	
0.0581157	0.769455	0.403061	
0.0541326	0.793785	0.132666	
-0.0726386	0.798943	0.15243	
-0.0297704	0.68077	0.178611	
0.0468326	0.745128	0.237913	
-0.363598	0.972427	0.365583	
-0.382289	1.08918	0.382504	
-0.397525	1	0.5	
-0.275403	1.0393	0.403336	
-0.0297704	0.68077	0.178611	
-0.081357	0.751661	0.265055	
0.00505532	0.706778	0.339312	
0.0468326	0.745128	0.237913	
-0.468495	1.17468	0.317109	
-0.382289	1.08918	0.382504	
-0.364752	1.11394	0.23148	
-0.343626	1.20201	0.373624	
0.064316	0.676662	0.5	
0.151014	0.679593	0.343049	
0.152126	0.632735	0.5	
0.0738912	0.610829	0.388761	
-0.064316	0.676662	0.5	
0.00505532	0.706778	0.339312	
-0.039093	0.610067	0.388942	
-0.0862712	0.770823	0.389289	
0.0541326	0.793785	0.132666	
0.164574	0.7464	0.211103	
0.0468326	0.745128	0.237913	
0.142608	0.739294	0.106454	
-0.0684459	1.49529	0.0685965	
-0.144862	1.47856	0.0783483	
-0.118932	1.39861	0	
-0.153777	1.36779	0.103264	
-0.0151696	1.04156	0.198031	
-0.00674902	1.18961	0.168493	
-0.0611059	1.11559	0.264866	
0.0323895	1.13978	0.258564	
0.158056	1.17188	0	
0.253711	1.11341	0.104023	
0.247868	1.14631	0	
0.189162	1.24479	0.0938772	
-0.183156	0.725887	0.5	
-0.153774	0.693588	0.346551	
-0.232161	0.652547	0.5	
-0.289723	0.75771	0.393302	
0.260232	1.21075	0.160089	
0.253711	1.11341	0.104023	
0.113965	1.18028	0.121768	
0.189162	1.24479	0.0938772	
-0.0295403	1.22514	0	
-0.119993	1.24669	0	
-0.0983601	1.15643	0	
-0.136328	1.19004	0.119282	
0.428195	0.741835	0.298245	
0.368617	0.876452	0.385763	
0.469721	0.828647	0.338334	
0.358257	0.834187	0.252847	
-0.5	1	0.4	
-0.494668	1.07282	0.426459	
-0.397525	1	0.5	
-0.382289	1.08918	0.382504	
0.347453	0.767839	0.5	
0.285177	0.816119	0.328962	
0.274113	0.816844	0.5	
0.368617	0.876452	0.385763	
-0.176777	1.17678	0.5	
-0.125823	1.17124	0.373805	
-0.107214	1.16612	0.5	
-0.179827	1.088	0.408491	
-0.153774	0.693588	0.346551	
-0.081357	0.751661	0.265055	
-0.144063	0.852748	0.341365	
-0.0862712	0.770823	0.389289	
0.183156	1.27411	0.5	
0.152393	1.36791	0.5	
0.232161	1.34745	0.5	
0.109201	1.35772	0.375246	
0.0814864	1.49332	0.347681	
0	1.5	0.3	
0.0854243	1.49265	0.251403	
0.0196341	1.38361	0.225797	
-0.16685	1.08834	0	
-0.0983601	1.15643	0	
-0.18644	1.1823	0	
-0.136328	1.19004	0.119282	
0.5	1	0.4	
0.5	1	0.3	
0.493389	0.91896	0.35285	
0.347602	0.985936	0.348343	
-0.064316	0.676662	0.5	
0	0.75	0.5	
0.064316	0.676662	0.5	
0.00505532	0.706778	0.339312	
0.164574	0.7464	0.211103	
0.247079	0.718599	0.118367	
0.296805	0.825729	0.165597	
0.278655	0.736565	0.241439	
0.361351	0.935933	0.2197	
0.358257	0.834187	0.252847	
0.296805	0.825729	0.165597	
0.355602	0.87751	0.0966392	
-0.114443	1.01484	0.5	
-0.105137	0.975975	0.404942	
-0.177191	1.03636	0.5	
-0.179827	1.088	0.408491	
-0.277785	1.41573	0.365862	
-0.263985	1.32297	0.375811	
-0.18052	1.3078	0.334608	
-0.166036	1.37976	0.398541	
0.4284	0.742176	0.204976	
0.278655	0.736565	0.241439	
0.376757	0.671284	0.253532	
0.358257	0.834187	0.252847	
0.317206	1.3865	0.299678	
0.209063	1.27717	0.342511	
0.212182	1.31459	0.219285	
0.295334	1.24597	0.26697	
0.314271	0.949812	0	
0.346509	1.02379	0	
0.265828	0.94766	0.123486	
0.387337	0.975471	0.113668	
-0.0964049	1.37384	0.276475	
-0.193559	1.35773	0.245031	
-0.18052	1.3078	0.334608	
-0.166036	1.37976	0.398541	
-0.258165	1.42819	0.201755	
-0.328716	1.37676	0.246468	
-0.210789	1.29041	0.168489	
-0.193559	1.35773	0.245031	
0.242822	0.562922	0.347009	
0.247057	0.565302	0.249501	
0.15722	0.635104	0.236843	
0.260241	0.698507	0.343916	
0.380873	0.676062	0.347739	
0.428195	0.741835	0.298245	
0.376757	0.671284	0.253532	
0.278655	0.736565	0.241439	
-0.153774	0.693588	0.346551	
-0.039093	0.610067	0.388942	
0.00505532	0.706778	0.339312	
-0.0862712	0.770823	0.389289	
-0.0151696	1.04156	0.198031	
-0.156284	1.06551	0.149142	
-0.0543483	1.10288	0.107179	
-0.10307	0.999921	0.0930669	
0.0704482	1.49501	0.0718447	
0.153328	1.47591	0.0923699	
0.0807477	1.49344	0.154224	
0.0105232	1.38676	0.111861	
0.163502	1.02984	0.5	
0.23097	1.09567	0.5	
0.25	1	0.5	
0.203143	1.00597	0.37146	
-0.00643767	0.847524	0.3797	
-0.0862712	0.770823	0.389289	
-0.0369856	0.814061	0.5	
-0.087284	0.884388	0.408402	
-0.23296	0.961598	0.249877	
-0.37095	0.93253	0.240862	
-0.363598	0.972427	0.365583	
-0.318838	1.02278	0.259668	
0.112799	0.66644	0	
0.0404524	0.58928	0	
0.125573	0.58604	0	
0.0999617	0.645199	0.138238	
-0.386498	1.31721	0.299678	
-0.343626	1.20201	0.373624	
-0.279096	1.24359	0.272562	
-0.263985	1.32297	0.375811	
-0.437078	0.757178	0.347009	
-0.289723	0.75771	0.393302	
-0.296327	0.833736	0.292179	
-0.351645	0.874975	0.390413	
0.226544	0.947552	0.250202	
0.215953	0.839226	0.238202	
0.211575	0.889225	0.384788	
0.148799	0.913537	0.303647	
0.347642	1.19453	0.384775	
0.385098	1.08722	0.383771	
0.369516	1.15306	0.5	
0.284123	1.06741	0.387999	
-0.25	1	0.5	
-0.203766	0.963562	0.377533	
-0.323338	0.935684	0.5	
-0.275403	1.0393	0.403336	
0.296805	0.825729	0.165597	
0.164574	0.7464	0.211103	
0.278655	0.736565	0.241439	
0.215953	0.839226	0.238202	
0.112799	0.66644	0	
0.0999617	0.645199	0.138238	
0.0248177	0.686626	0	
0.00284042	0.609614	0.1018	
0.168914	1.06767	0.155545	
0.226544	0.947552	0.250202	
0.208793	1.06331	0.266812	
0.134932	0.977505	0.230093	
0.098462	1.32087	0.159093	
0.00439522	1.27731	0.103072	
0.113965	1.18028	0.121768	
0.0143983	1.28276	0.204525	
0.064316	0.676662	0.5	
-0.039093	0.610067	0.388942	
0.00505532	0.706778	0.339312	
0.0738912	0.610829	0.388761	
-0.0726386	0.798943	0.15243	
-0.00436862	0.872297	0.154061	
0.0541326	0.793785	0.132666	
-0.0724446	0.868744	0.084223	
-0.0956709	0.76903	0.5	
-0.176777	0.823223	0.5	
-0.0892911	0.866366	0.5	
-0.0862712	0.770823	0.389289	
0.0244505	0.94868	0.233905	
0.0531758	0.885699	0.315425	
0.106858	0.844305	0.230248	
0.148799	0.913537	0.303647	
0.0541326	0.793785	0.132666	
0.177224	0.838965	0.12521	
0.0937412	0.930011	0.154317	
0.106858	0.844305	0.230248	
-0.110633	0.921519	0.156892	
-0.227254	0.962083	0.121579	
-0.156284	1.06551	0.149142	
-0.10307	0.999921	0.0930669	
-0.0218546	0.89013	0.5	
0.0344957	0.828097	0.5	
-0.0369856	0.814061	0.5	
-0.00643767	0.847524	0.3797	
-0.00643767	0.847524	0.25115	
-0.045108	0.948191	0.315425	
-0.00643767	0.847524	0.3797	
0.0531758	0.885699	0.315425	
-0.280403	1.2804	0.5	
-0.234257	1.21312	0.375398	
-0.343626	1.20201	0.373624	
-0.263985	1.32297	0.375811	
0.242822	0.562922	0.347009	
0.15722	0.635104	0.236843	
0.151014	0.679593	0.343049	
0.260241	0.698507	0.343916	
0.0401436	1.2912	0	
0.133074	1.2641	0	
0.114055	1.37411	0	
0.098462	1.32087	0.159093	
0.0401436	1.2912	0	
0.0651412	1.2001	0	
0.133074	1.2641	0	
0.00439522	1.27731	0.103072	
0.493012	1.0833	0.344789	
0.5	1	0.3	
0.5	1	0.4	
0.385098	1.08722	0.383771	
-0.280403	1.2804	0.5	
-0.343626	1.20201	0.373624	
-0.386831	1.3168	0.395903	
-0.263985	1.32297	0.375811	
-0.429146	1.25658	0.33124	
-0.434698	1.24706	0.250499	
-0.386498	1.31721	0.299678	
-0.279096	1.24359	0.272562	
-0.444481	0.771009	0.0919014	
-0.468495	0.825322	0.182891	
-0.31578	0.863109	0.155248	
-0.390863	0.914451	0.0980906	
0.183156	1.27411	0.5	
0.232161	1.34745	0.5	
0.209063	1.27717	0.342511	
0.109201	1.35772	0.375246	
-0.186407	0.830549	0	
-0.196211	0.8458	0.119009	
-0.168688	0.718299	0	
-0.111014	0.733523	0.0849706	
0.0956709	0.76903	0.5	
0.183156	0.725887	0.5	
0.064316	0.676662	0.5	
0.0581157	0.769455	0.403061	
0.164574	0.7464	0.211103	
0.177224	0.838965	0.12521	
0.0541326	0.793785	0.132666	
0.106858	0.844305	0.230248	
0.114055	1.37411	0	
0.098462	1.32087	0.159093	
0.133074	1.2641	0	
0.190875	1.34709	0.10503	
-0.364752	1.11394	0.23148	
-0.382289	1.08918	0.382504	
-0.285945	1.12176	0.325452	
-0.343626	1.20201	0.373624	
-0.468495	0.825322	0.182891	
-0.37095	0.93253	0.240862	
-0.31578	0.863109	0.155248	
-0.390863	0.914451	0.0980906	
-0.444481	0.771009	0.0919014	
-0.41072	0.87541	0	
-0.477948	0.853147	0.0840084	
-0.390863	0.914451	0.0980906	
-0.115695	1.05029	0.334241	
-0.0611059	1.11559	0.264866	
-0.00748686	1.04315	0.386084	
0.00363562	1.02785	0.291568	
0.0943468	0.754666	0	
0.0248177	0.686626	0	
0.112799	0.66644	0	
0.142608	0.739294	0.106454	
0.106675	0.966314	0.5	
0.185939	0.963014	0.5	
0.141405	0.904892	0.5	
0.101939	0.907787	0.403472	
0.450285	1.21736	0.355302	
0.347642	1.19453	0.384775	
0.470916	1.16804	0.300126	
0.385098	1.08722	0.383771	
-0.238488	0.560542	0.0756919	
-0.203173	0.626976	0	
-0.315029	0.611726	0.0791933	
-0.183989	0.672241	0.119932	
0.386505	0.682803	0.431175	
0.317233	0.613524	0.409527	
0.278087	0.721913	0.5	
0.260241	0.698507	0.343916	
0.5	1	0.4	
0.398221	1	0.5	
0.495101	1.06982	0.427621	
0.385098	1.08722	0.383771	
0.380873	1.32394	0.152261	
0.436762	1.24339	0.0969381	
0.428195	1.25817	0.201755	
0.353151	1.15839	0.109095	
-0.238488	0.560542	0.0756919	
-0.315029	0.611726	0.0791933	
-0.277785	0.584265	0.134138	
-0.183989	0.672241	0.119932	
-0.0850696	1.27829	0.394238	
-0.0964049	1.37384	0.276475	
-0.18052	1.3078	0.334608	
-0.0552231	1.38907	0.38538	
-0.440961	0.764302	0.431431	
-0.289723	0.75771	0.393302	
-0.437078	0.757178	0.347009	
-0.351645	0.874975	0.390413	
0.235698	0.559039	0.431431	
0.242822	0.562922	0.347009	
0.153328	0.52409	0.40763	
0.151014	0.679593	0.343049	
-0.183156	1.27411	0.5	
-0.0850696	1.27829	0.394238	
-0.18052	1.3078	0.334608	
-0.166036	1.37976	0.398541	
0.469721	1.17135	0.161666	
0.334194	1.15432	0.215771	
0.353151	1.15839	0.109095	
0.40353	1.07301	0.105949	
0.288623	1.13754	0.312711	
0.22536	1.15058	0.40335	
0.208793	1.06331	0.266812	
0.284123	1.06741	0.387999	
0.288623	1.13754	0.312711	
0.209063	1.27717	0.342511	
0.295334	1.24597	0.26697	
0.219623	1.16199	0.240766	
-0.437078	1.24282	0.152991	
-0.440961	1.2357	0.068569	
-0.386476	1.31723	0.0904728	
-0.277342	1.24516	0.0975038	
0.133074	1.2641	0	
0.190875	1.34709	0.10503	
0.098462	1.32087	0.159093	
0.189162	1.24479	0.0938772	
0.151014	0.679593	0.343049	
0.206682	0.777113	0.400851	
0.121965	0.82524	0.342904	
0.0581157	0.769455	0.403061	
-0.0297704	0.68077	0.178611	
-0.0726386	0.798943	0.15243	
-0.081357	0.751661	0.265055	
0.0468326	0.745128	0.237913	
-0.281585	0.718415	0.5	
-0.232161	0.652547	0.5	
-0.317197	0.613495	0.431175	
-0.289723	0.75771	0.393302	
-0.258165	0.571805	0.298245	
-0.243391	0.563238	0.403062	
-0.171353	0.530279	0.338334	
-0.153774	0.693588	0.346551	
0.119419	1.18151	0.251425	
0.0902907	1.23506	0.376077	
0.209063	1.27717	0.342511	
0.105734	1.2948	0.276786	
0.106675	0.966314	0.5	
0.185939	0.963014	0.5	
0.101939	0.907787	0.403472	
0.113162	1.01769	0.414132	
-0.176777	1.17678	0.5	
-0.234257	1.21312	0.375398	
-0.125823	1.17124	0.373805	
-0.179827	1.088	0.408491	
0.436762	1.24339	0.0969381	
0.353151	1.15839	0.109095	
0.380873	1.32394	0.152261	
0.28898	1.28652	0.0949489	
-0.177191	1.03636	0.5	
-0.157632	0.968645	0.5	
-0.203766	0.963562	0.377533	
-0.105137	0.975975	0.404942	
-0.115695	1.05029	0.334241	
-0.105137	0.975975	0.404942	
-0.00748686	1.04315	0.386084	
-0.0571477	1.11947	0.416349	
0.276476	1.05355	0	
0.314271	0.949812	0	
0.346509	1.02379	0	
0.265828	0.94766	0.123486	
-0.227254	0.962083	0.121579	
-0.196211	0.8458	0.119009	
-0.110633	0.921519	0.156892	
-0.170219	0.871655	0.235589	
0.0814864	0.506685	0.152319	
0.0854243	0.507351	0.248597	
0.174678	0.531505	0.182891	
0.15722	0.635104	0.236843	
-0.0297704	0.68077	0.178611	
0.0468326	0.745128	0.237913	
0.00505532	0.706778	0.339312	
0.0452903	0.623513	0.25784	
-0.064316	0.676662	0.5	
0.00505532	0.706778	0.339312	
0.064316	0.676662	0.5	
-0.039093	0.610067	0.388942	
0.0807477	0.506563	0.345776	
0.168734	0.529332	0.298219	
0.0452903	0.623513	0.25784	
0.0738912	0.610829	0.388761	
-0.189227	0.766031	0.208899	
-0.196211	0.8458	0.119009	
-0.0726386	0.798943	0.15243	
-0.111014	0.733523	0.0849706	
0.232161	0.652547	0.5	
0.317233	0.613524	0.409527	
0.235698	0.559039	0.431431	
0.260241	0.698507	0.343916	
0.428195	0.741835	0.298245	
0.376757	0.671284	0.253532	
0.278655	0.736565	0.241439	
0.358257	0.834187	0.252847	
-0.189227	0.766031	0.208899	
-0.136534	0.645188	0.231761	
-0.153774	0.693588	0.346551	
-0.259603	0.71434	0.292274	
0.0541326	0.793785	0.132666	
0.142608	0.739294	0.106454	
0.0999617	0.645199	0.138238	
-0.00982582	0.726304	0.0884564	
-0.119993	1.24669	0	
-0.0295403	1.22514	0	
-0.0555676	1.32557	0	
0.00439522	1.27731	0.103072	
-0.0833019	0.506988	0.155211	
0	0.5	0.2	
0.00284042	0.609614	0.1018	
-0.0982069	0.610875	0.136018	
0.328092	1.27024	0	
0.436762	1.24339	0.0969381	
0.386505	1.3172	0.0688254	
0.28898	1.28652	0.0949489	
-0.0369856	0.814061	0.5	
-0.0218546	0.89013	0.5	
-0.00643767	0.847524	0.3797	
-0.087284	0.884388	0.408402	
0.288623	1.13754	0.312711	
0.334194	1.15432	0.215771	
0.208793	1.06331	0.266812	
0.219623	1.16199	0.240766	
-0.105137	0.975975	0.404942	
-0.179827	1.088	0.408491	
-0.117202	1.0938	0.5	
-0.0571477	1.11947	0.416349	
-0.0726386	0.798943	0.15243	
-0.196211	0.8458	0.119009	
-0.189227	0.766031	0.208899	
-0.170219	0.871655	0.235589	
-0.356684	0.80649	0	
-0.331361	0.727047	0	
-0.261345	0.769964	0	
-0.283151	0.746042	0.130367	
0.0468326	0.745128	0.237913	
0.0452903	0.623513	0.25784	
0.0999617	0.645199	0.138238	
0.15722	0.635104	0.236843	
0.0344957	0.828097	0.5	
0	0.75	0.5	
-0.0369856	0.814061	0.5	
0.0581157	0.769455	0.403061	
-0.437078	1.24282	0.152991	
-0.364752	1.11394	0.23148	
-0.470668	1.16873	0.201781	
-0.357904	1.11593	0.101286	
0.0807477	1.49344	0.154224	
0.168734	1.47067	0.201781	
0.0854243	1.49265	0.251403	
0.0196341	1.38361	0.225797	
-0.315029	0.611726	0.0791933	
-0.183989	0.672241	0.119932	
-0.283151	0.746042	0.130367	
-0.247852	0.673084	0.199607	
0.212182	1.31459	0.219285	
0.295334	1.24597	0.26697	
0.209063	1.27717	0.342511	
0.219623	1.16199	0.240766	
0.0593465	1.06716	0.10856	
-0.0105385	0.962638	0.111113	
-0.0151696	1.04156	0.198031	
-0.0543483	1.10288	0.107179	
-0.168043	1.47092	0.300126	
-0.193559	1.35773	0.245031	
-0.0964049	1.37384	0.276475	
-0.166036	1.37976	0.398541	
0.194604	0.628812	0	
0.247079	0.718599	0.118367	
0.201164	0.726422	0	
0.142608	0.739294	0.106454	
-0.296327	0.833736	0.292179	
-0.37095	0.93253	0.240862	
-0.31578	0.863109	0.155248	
-0.332607	0.773484	0.222023	
-0.153774	0.693588	0.346551	
-0.189227	0.766031	0.208899	
-0.081357	0.751661	0.265055	
-0.136534	0.645188	0.231761	
-0.386476	1.31723	0.0904728	
-0.386792	1.31685	0.198616	
-0.437078	1.24282	0.152991	
-0.277342	1.24516	0.0975038	
0.183156	1.27411	0.5	
0.176777	1.17678	0.5	
0.0956709	1.23097	0.5	
0.0902907	1.23506	0.376077	
-0.274113	1.18316	0.5	
-0.323338	1.06432	0.5	
-0.363339	1.1505	0.5	
-0.275403	1.0393	0.403336	
0.5	1	0.3	
0.378383	1.07129	0.271427	
0.347602	0.985936	0.348343	
0.385098	1.08722	0.383771	
-0.277785	0.584265	0.134138	
-0.217356	0.549715	0.144698	
-0.183989	0.672241	0.119932	
-0.247852	0.673084	0.199607	
0.0999617	0.645199	0.138238	
0.0452903	0.623513	0.25784	
-0.0297704	0.68077	0.178611	
0.00284042	0.609614	0.1018	
-0.468495	0.825322	0.182891	
-0.429146	0.74342	0.16876	
-0.31578	0.863109	0.155248	
-0.332607	0.773484	0.222023	
0.0937412	0.930011	0.154317	
0.159132	0.984216	0.0920948	
0.168914	1.06767	0.155545	
0.134932	0.977505	0.230093	
0.0244505	0.94868	0.233905	
0.148799	0.913537	0.303647	
0.106858	0.844305	0.230248	
0.134932	0.977505	0.230093	
-0.468495	0.825322	0.182891	
-0.493315	0.918514	0.152319	
-0.37095	0.93253	0.240862	
-0.390863	0.914451	0.0980906	
-0.315029	0.611726	0.0791933	
-0.331361	0.727047	0	
-0.386831	0.6832	0.104097	
-0.283151	0.746042	0.130367	
0.0153159	1.36356	0	
0.0401436	1.2912	0	
0.114055	1.37411	0	
0.0105232	1.38676	0.111861	
0.0761103	0.977349	0.33014	
0.203143	1.00597	0.37146	
0.101939	0.907787	0.403472	
0.148799	0.913537	0.303647	
-0.210789	1.29041	0.168489	
-0.153777	1.36779	0.103264	
-0.258165	1.42819	0.201755	
-0.193559	1.35773	0.245031	
0.064316	0.676662	0.5	
0.183156	0.725887	0.5	
0.152126	0.632735	0.5	
0.151014	0.679593	0.343049	
-0.0422582	0.562527	0	
-0.0698189	0.504899	0.0723791	
0.00284042	0.609614	0.1018	
-0.0982069	0.610875	0.136018	
-0.110633	0.921519	0.156892	
-0.196211	0.8458	0.119009	
-0.0726386	0.798943	0.15243	
-0.170219	0.871655	0.235589	
0.3168	1.38683	0.395903	
0.25658	1.42915	0.33124	
0.317206	1.3865	0.299678	
0.209063	1.27717	0.342511	
-0.0422582	0.562527	0	
-0.0328721	0.629311	0	
-0.114467	0.613668	0	
-0.0982069	0.610875	0.136018	
0.151014	0.679593	0.343049	
0.0581157	0.769455	0.403061	
0.00505532	0.706778	0.339312	
0.0738912	0.610829	0.388761	
0.226544	0.947552	0.250202	
0.148799	0.913537	0.303647	
0.203143	1.00597	0.37146	
0.134932	0.977505	0.230093	
0.428195	0.741835	0.298245	
0.4284	0.742176	0.204976	
0.376757	0.671284	0.253532	
0.358257	0.834187	0.252847	
-0.00748686	1.04315	0.386084	
-0.0611059	1.11559	0.264866	
-0.00173102	1.15684	0.347507	
0.00363562	1.02785	0.291568	
-0.0850696	1.27829	0.394238	
-0.0552231	1.38907	0.38538	
-0.18052	1.3078	0.334608	
-0.166036	1.37976	0.398541	
-0.315029	0.611726	0.0791933	
-0.203173	0.626976	0	
-0.263582	0.680587	0	
-0.183989	0.672241	0.119932	
-0.210789	1.29041	0.168489	
-0.0697093	1.32708	0.167311	
-0.153777	1.36779	0.103264	
-0.193559	1.35773	0.245031	
0.323338	0.935684	0.5	
0.347602	0.985936	0.348343	
0.398221	1	0.5	
0.368617	0.876452	0.385763	
0.274113	1.18316	0.5	
0.347642	1.19453	0.384775	
0.369516	1.15306	0.5	
0.284123	1.06741	0.387999	
-0.183156	1.27411	0.5	
-0.18052	1.3078	0.334608	
-0.234257	1.21312	0.375398	
-0.263985	1.32297	0.375811	
-0.00643767	0.847524	0.3797	
0.101939	0.907787	0.403472	
0.121965	0.82524	0.342904	
0.0531758	0.885699	0.315425	
-0.115695	1.05029	0.334241	
-0.10768	0.996359	0.238131	
-0.0611059	1.11559	0.264866	
0.00363562	1.02785	0.291568	
-0.0964049	1.37384	0.276475	
-0.0552231	1.38907	0.38538	
-0.0833019	1.49301	0.344789	
-0.166036	1.37976	0.398541	
8.18872e-17	1.39822	0.5	
0.064316	1.32334	0.5	
-0.064316	1.32334	0.5	
-0.0552231	1.38907	0.38538	
-0.183156	1.27411	0.5	
-0.18052	1.3078	0.334608	
-0.263985	1.32297	0.375811	
-0.166036	1.37976	0.398541	
0.25	1	0.5	
0.203143	1.00597	0.37146	
0.23097	1.09567	0.5	
0.284123	1.06741	0.387999	
-0.0815241	0.590151	0.5	
-0.144862	0.521445	0.421652	
-0.152126	0.632735	0.5	
-0.039093	0.610067	0.388942	
-0.168043	0.529084	0.199874	
-0.217356	0.549715	0.144698	
-0.136534	0.645188	0.231761	
-0.0982069	0.610875	0.136018	
-0.156284	1.06551	0.149142	
-0.10768	0.996359	0.238131	
-0.110633	0.921519	0.156892	
-0.10307	0.999921	0.0930669	
-0.440961	1.2357	0.068569	
-0.318983	1.26174	0	
-0.386476	1.31723	0.0904728	
-0.277342	1.24516	0.0975038	
-0.302044	0.949354	0	
-0.227254	0.962083	0.121579	
-0.237047	1.02014	0	
-0.256772	1.06769	0.100506	
0.470916	0.831957	0.199874	
0.476114	0.847306	0.0975404	
0.450285	0.782644	0.144698	
0.355602	0.87751	0.0966392	
-0.0925337	0.803549	0	
-0.196211	0.8458	0.119009	
-0.111014	0.733523	0.0849706	
-0.0724446	0.868744	0.084223	
0.201164	0.726422	0	
0.247079	0.718599	0.118367	
0.245477	0.808349	0	
0.142608	0.739294	0.106454	
0.490343	1.0978	0.241226	
0.460548	1.19467	0.23433	
0.469721	1.17135	0.161666	
0.334194	1.15432	0.215771	
0.374193	0.668368	0.165357	
0.247079	0.718599	0.118367	
0.317206	0.613502	0.200322	
0.278655	0.736565	0.241439	
0.428195	1.25817	0.201755	
0.4284	1.25782	0.295024	
0.295334	1.24597	0.26697	
0.334194	1.15432	0.215771	
-0.114467	0.613668	0	
-0.203173	0.626976	0	
-0.152694	0.523886	0.0975404	
-0.183989	0.672241	0.119932	
0.064316	0.676662	0.5	
0.00505532	0.706778	0.339312	
0.0581157	0.769455	0.403061	
0.0738912	0.610829	0.388761	
0.212182	1.31459	0.219285	
0.190875	1.34709	0.10503	
0.316847	1.38679	0.198616	
0.28898	1.28652	0.0949489	
-0.00643767	0.847524	0.25115	
0.0244505	0.94868	0.233905	
0.106858	0.844305	0.230248	
-0.00436862	0.872297	0.154061	
0.0807477	0.506563	0.345776	
0.0452903	0.623513	0.25784	
0	0.5	0.3	
0.0738912	0.610829	0.388761	
-0.5	1	0.3	
-0.493437	0.919252	0.345776	
-0.492649	0.914576	0.248597	
-0.37095	0.93253	0.240862	
0.226544	0.947552	0.250202	
0.203143	1.00597	0.37146	
0.208793	1.06331	0.266812	
0.134932	0.977505	0.230093	
-0.00982582	0.726304	0.0884564	
-0.111014	0.733523	0.0849706	
-0.0726386	0.798943	0.15243	
-0.0724446	0.868744	0.084223	
0.493012	1.0833	0.344789	
0.378383	1.07129	0.271427	
0.5	1	0.3	
0.385098	1.08722	0.383771	
0.112799	0.66644	0	
0.0404524	0.58928	0	
0.0999617	0.645199	0.138238	
0.00284042	0.609614	0.1018	
0.380873	1.32394	0.152261	
0.428195	1.25817	0.201755	
0.376757	1.32872	0.246468	
0.295334	1.24597	0.26697	
-0.317197	1.38651	0.0688254	
-0.318983	1.26174	0	
-0.273315	1.33496	0	
-0.277342	1.24516	0.0975038	
-0.243391	1.43676	0.0969381	
-0.258165	1.42819	0.201755	
-0.210789	1.29041	0.168489	
-0.153777	1.36779	0.103264	
-0.16685	1.08834	0	
-0.0734441	1.06169	0	
-0.0983601	1.15643	0	
-0.0543483	1.10288	0.107179	
0.0956709	0.76903	0.5	
0.206682	0.777113	0.400851	
0.183156	0.725887	0.5	
0.0581157	0.769455	0.403061	
-0.168043	1.47092	0.300126	
-0.0964049	1.37384	0.276475	
-0.0833019	1.49301	0.344789	
-0.166036	1.37976	0.398541	
-0.0892911	0.866366	0.5	
-0.0369856	0.814061	0.5	
-0.0862712	0.770823	0.389289	
-0.087284	0.884388	0.408402	
0.490343	1.0978	0.241226	
0.378383	1.07129	0.271427	
0.460548	1.19467	0.23433	
0.334194	1.15432	0.215771	
-0.0297704	0.68077	0.178611	
0.0999617	0.645199	0.138238	
0.0468326	0.745128	0.237913	
0.0452903	0.623513	0.25784	
0.323338	0.935684	0.5	
0.274113	0.816844	0.5	
0.23097	0.904329	0.5	
0.368617	0.876452	0.385763	
-0.157632	0.894674	0.5	
-0.203766	0.963562	0.377533	
-0.157632	0.968645	0.5	
-0.105137	0.975975	0.404942	
-0.257824	0.5716	0.204976	
-0.258165	0.571805	0.298245	
-0.136534	0.645188	0.231761	
-0.247852	0.673084	0.199607	
-0.404541	1.12695	0	
-0.389036	1.20743	0	
-0.440961	1.2357	0.068569	
-0.357904	1.11593	0.101286	
0	0.5	0.4	
0	0.5	0.3	
-0.039093	0.610067	0.388942	
0.0738912	0.610829	0.388761	
0.469721	0.828647	0.338334	
0.428195	0.741835	0.298245	
0.436762	0.756609	0.403062	
0.368617	0.876452	0.385763	
0.325159	1.05851	0.165819	
0.253711	1.11341	0.104023	
0.353151	1.15839	0.109095	
0.40353	1.07301	0.105949	
-0.0833019	1.49301	0.344789	
-0.0964049	1.37384	0.276475	
0	1.5	0.3	
-0.0552231	1.38907	0.38538	
-0.18052	1.3078	0.334608	
-0.0552231	1.38907	0.38538	
-0.0964049	1.37384	0.276475	
-0.166036	1.37976	0.398541	
-0.00674902	1.18961	0.168493	
0.0143983	1.28276	0.204525	
-0.0330822	1.21734	0.266884	
0.0323895	1.13978	0.258564	
0.228991	1.44448	0.408099	
0.174678	1.4685	0.317109	
0.25658	1.42915	0.33124	
0.109201	1.35772	0.375246	
-0.00643767	0.847524	0.25115	
0.0541326	0.793785	0.132666	
0.106858	0.844305	0.230248	
0.0468326	0.745128	0.237913	
-0.470668	1.16873	0.201781	
-0.364752	1.11394	0.23148	
-0.493437	1.08075	0.154224	
-0.357904	1.11593	0.101286	
-0.258165	1.42819	0.201755	
-0.328716	1.37676	0.246468	
-0.323938	1.38087	0.152261	
-0.210789	1.29041	0.168489	
-0.25	1	0.5	
-0.177191	1.03636	0.5	
-0.203766	0.963562	0.377533	
-0.275403	1.0393	0.403336	
-0.110633	0.921519	0.156892	
-0.170219	0.871655	0.235589	
-0.0726386	0.798943	0.15243	
-0.0821557	0.901585	0.243527	
-0.0151696	1.04156	0.198031	
-0.0543483	1.10288	0.107179	
-0.0105385	0.962638	0.111113	
-0.10307	0.999921	0.0930669	
0.317206	1.3865	0.299678	
0.316847	1.38679	0.198616	
0.376757	1.32872	0.246468	
0.295334	1.24597	0.26697	
-0.0297704	0.68077	0.178611	
-0.0726386	0.798943	0.15243	
0.0541326	0.793785	0.132666	
-0.00982582	0.726304	0.0884564	
-0.177191	1.03636	0.5	
-0.179827	1.088	0.408491	
-0.203766	0.963562	0.377533	
-0.275403	1.0393	0.403336	
0.470916	0.831957	0.199874	
0.493012	0.916698	0.155211	
0.476114	0.847306	0.0975404	
0.355602	0.87751	0.0966392	
-0.00643767	0.847524	0.25115	
0.106858	0.844305	0.230248	
0.0541326	0.793785	0.132666	
-0.00436862	0.872297	0.154061	
0.232161	0.652547	0.5	
0.151014	0.679593	0.343049	
0.183156	0.725887	0.5	
0.206682	0.777113	0.400851	
-0.0726386	0.798943	0.15243	
-0.111014	0.733523	0.0849706	
-0.196211	0.8458	0.119009	
-0.0724446	0.868744	0.084223	
-0.171353	0.530279	0.338334	
-0.0977967	0.509657	0.258774	
-0.194667	0.539452	0.26567	
-0.136534	0.645188	0.231761	
0	0.5	0.4	
0.0807477	0.506563	0.345776	
0	0.5	0.3	
0.0738912	0.610829	0.388761	
-0.347453	0.767839	0.5	
-0.289723	0.75771	0.393302	
-0.440961	0.764302	0.431431	
-0.351645	0.874975	0.390413	
-0.495012	1.07045	0.0718447	
-0.426463	1.04414	0	
-0.404541	1.12695	0	
-0.357904	1.11593	0.101286	
0.388274	1.31503	0.420807	
0.347453	1.23216	0.5	
0.281092	1.28109	0.5	
0.347642	1.19453	0.384775	
0.274113	1.18316	0.5	
0.22536	1.15058	0.40335	
0.347642	1.19453	0.384775	
0.284123	1.06741	0.387999	
0.274113	1.18316	0.5	
0.183156	1.27411	0.5	
0.281092	1.28109	0.5	
0.22536	1.15058	0.40335	
0.106858	0.844305	0.230248	
0.0244505	0.94868	0.233905	
0.0937412	0.930011	0.154317	
-0.00436862	0.872297	0.154061	
0.274113	0.816844	0.5	
0.211575	0.889225	0.384788	
0.285177	0.816119	0.328962	
0.206682	0.777113	0.400851	
0.245477	0.808349	0	
0.164797	0.822415	0	
0.201164	0.726422	0	
0.142608	0.739294	0.106454	
0.388274	0.684971	0.0791933	
0.314857	0.742551	0	
0.268393	0.665699	0	
0.247079	0.718599	0.118367	
0.373926	1.19893	0	
0.414183	1.13115	0	
0.478555	1.14486	0.0783483	
0.353151	1.15839	0.109095	
-0.429146	1.25658	0.33124	
-0.279096	1.24359	0.272562	
-0.386498	1.31721	0.299678	
-0.343626	1.20201	0.373624	
0.317206	1.3865	0.299678	
0.212182	1.31459	0.219285	
0.316847	1.38679	0.198616	
0.295334	1.24597	0.26697	
-0.114467	0.613668	0	
-0.183989	0.672241	0.119932	
-0.152694	0.523886	0.0975404	
-0.0982069	0.610875	0.136018	
-0.257824	0.5716	0.204976	
-0.168043	0.529084	0.199874	
-0.217356	0.549715	0.144698	
-0.136534	0.645188	0.231761	
0.153328	0.52409	0.40763	
0.151014	0.679593	0.343049	
0.168734	0.529332	0.298219	
0.0738912	0.610829	0.388761	
-0.274228	1.15934	0.161857	
-0.256772	1.06769	0.100506	
-0.3474	1.01863	0.155865	
-0.357904	1.11593	0.101286	
0.260232	1.21075	0.160089	
0.253711	1.11341	0.104023	
0.334194	1.15432	0.215771	
0.219623	1.16199	0.240766	
-0.115695	1.05029	0.334241	
-0.045108	0.948191	0.315425	
-0.10768	0.996359	0.238131	
0.00363562	1.02785	0.291568	
0.388274	0.684971	0.0791933	
0.268393	0.665699	0	
0.3168	0.613169	0.104097	
0.247079	0.718599	0.118367	
0.0209546	1.03628	0	
0.0593465	1.06716	0.10856	
-0.00425413	1.131	0	
-0.0543483	1.10288	0.107179	
0.323338	1.06432	0.5	
0.398221	1	0.5	
0.347602	0.985936	0.348343	
0.385098	1.08722	0.383771	
0.119419	1.18151	0.251425	
0.0919908	1.06424	0.248206	
0.125116	1.11613	0.369411	
0.0323895	1.13978	0.258564	
-0.183156	0.725887	0.5	
-0.064316	0.676662	0.5	
-0.153774	0.693588	0.346551	
-0.0862712	0.770823	0.389289	
-0.257824	1.4284	0.295024	
-0.193559	1.35773	0.245031	
-0.18052	1.3078	0.334608	
-0.263985	1.32297	0.375811	
-0.274113	0.816844	0.5	
-0.239777	0.86007	0.398057	
-0.176777	0.823223	0.5	
-0.289723	0.75771	0.393302	
0.0541326	0.793785	0.132666	
0.106858	0.844305	0.230248	
0.0937412	0.930011	0.154317	
-0.00436862	0.872297	0.154061	
0.112799	0.66644	0	
0.0248177	0.686626	0	
0.0404524	0.58928	0	
0.00284042	0.609614	0.1018	
0.228991	1.44448	0.408099	
0.152393	1.36791	0.5	
0.146853	1.47795	0.415992	
0.109201	1.35772	0.375246	
0.470916	1.16804	0.300126	
0.460548	1.19467	0.23433	
0.378383	1.07129	0.271427	
0.334194	1.15432	0.215771	
-0.257824	0.5716	0.204976	
-0.258165	0.571805	0.298245	
-0.194667	0.539452	0.26567	
-0.136534	0.645188	0.231761	
-0.444481	0.771009	0.0919014	
-0.429146	0.74342	0.16876	
-0.386831	0.6832	0.104097	
-0.283151	0.746042	0.130367	
-0.00167925	1.31098	0.319981	
0.105734	1.2948	0.276786	
-0.0330822	1.21734	0.266884	
0.0143983	1.28276	0.204525	
0.0814864	0.506685	0.152319	
0.0999617	0.645199	0.138238	
0.0728232	0.505332	0.0735406	
0.00284042	0.609614	0.1018	
0.376757	0.671284	0.253532	
0.4284	0.742176	0.204976	
0.374193	0.668368	0.165357	
0.278655	0.736565	0.241439	
-0.189227	0.766031	0.208899	
-0.259603	0.71434	0.292274	
-0.296327	0.833736	0.292179	
-0.332607	0.773484	0.222023	
-0.136534	0.645188	0.231761	
-0.259603	0.71434	0.292274	
-0.189227	0.766031	0.208899	
-0.247852	0.673084	0.199607	
0.347453	0.767839	0.5	
0.278087	0.721913	0.5	
0.274113	0.816844	0.5	
0.206682	0.777113	0.400851	
-0.152694	0.523886	0.0975404	
-0.238488	0.560542	0.0756919	
-0.217356	0.549715	0.144698	
-0.183989	0.672241	0.119932	
0.158056	1.17188	0	
0.184962	1.07993	0	
0.247868	1.14631	0	
0.253711	1.11341	0.104023	
-0.434698	0.752943	0.249501	
-0.437078	0.757178	0.347009	
-0.386792	0.683153	0.301384	
-0.332607	0.773484	0.222023	
-0.363339	1.1505	0.5	
-0.382289	1.08918	0.382504	
-0.477948	1.14685	0.415992	
-0.343626	1.20201	0.373624	
0.00183684	0.777669	0	
-0.0925337	0.803549	0	
-0.00982582	0.726304	0.0884564	
-0.0724446	0.868744	0.084223	
0.183156	0.725887	0.5	
0.232161	0.652547	0.5	
0.152126	0.632735	0.5	
0.151014	0.679593	0.343049	
0.168734	1.47067	0.201781	
0.242822	1.43708	0.152991	
0.212182	1.31459	0.219285	
0.190875	1.34709	0.10503	
-0.045108	0.948191	0.315425	
0.0244505	0.94868	0.233905	
-0.10768	0.996359	0.238131	
0.00363562	1.02785	0.291568	
-0.0892911	0.866366	0.5	
-0.0369856	0.814061	0.5	
-0.0956709	0.76903	0.5	
-0.0862712	0.770823	0.389289	
0.428195	1.25817	0.201755	
0.460548	1.19467	0.23433	
0.4284	1.25782	0.295024	
0.334194	1.15432	0.215771	
-0.114467	0.613668	0	
-0.0982069	0.610875	0.136018	
-0.0638367	0.704239	0	
-0.111014	0.733523	0.0849706	
0.226544	0.947552	0.250202	
0.211575	0.889225	0.384788	
0.203143	1.00597	0.37146	
0.148799	0.913537	0.303647	
0.211575	0.889225	0.384788	
0.101939	0.907787	0.403472	
0.203143	1.00597	0.37146	
0.148799	0.913537	0.303647	
-0.144862	0.521445	0.421652	
-0.0810399	0.506611	0.35285	
-0.171353	0.530279	0.338334	
-0.039093	0.610067	0.388942	
-0.194667	1.46055	0.23433	
-0.171353	1.46972	0.161666	
-0.0977967	1.49034	0.241226	
-0.0964049	1.37384	0.276475	
0.0761103	0.977349	0.33014	
0.0531758	0.885699	0.315425	
0.0244505	0.94868	0.233905	
0.148799	0.913537	0.303647	
0.0943468	0.754666	0	
0.142608	0.739294	0.106454	
0.0541326	0.793785	0.132666	
-0.00982582	0.726304	0.0884564	
-0.0697093	1.32708	0.167311	
0.0196341	1.38361	0.225797	
-0.0964049	1.37384	0.276475	
0.0143983	1.28276	0.204525	
-0.315029	0.611726	0.0791933	
-0.283151	0.746042	0.130367	
-0.331632	0.625807	0.165357	
-0.247852	0.673084	0.199607	
-0.157632	0.894674	0.5	
-0.23097	0.904329	0.5	
-0.203766	0.963562	0.377533	
-0.239777	0.86007	0.398057	
-0.344127	0.887773	0	
-0.41072	0.87541	0	
-0.356684	0.80649	0	
-0.390863	0.914451	0.0980906	
0.14072	0.916025	0	
0.164797	0.822415	0	
0.232997	0.88938	0	
0.177224	0.838965	0.12521	
0.164574	0.7464	0.211103	
0.0541326	0.793785	0.132666	
0.177224	0.838965	0.12521	
0.142608	0.739294	0.106454	
-0.045108	0.948191	0.315425	
-0.00748686	1.04315	0.386084	
-0.115695	1.05029	0.334241	
-0.105137	0.975975	0.404942	
0.00505532	0.706778	0.339312	
-0.081357	0.751661	0.265055	
-0.0862712	0.770823	0.389289	
0.0347483	0.794732	0.315425	
-0.3474	1.01863	0.155865	
-0.364752	1.11394	0.23148	
-0.274228	1.15934	0.161857	
-0.357904	1.11593	0.101286	
0.164574	0.7464	0.211103	
0.106858	0.844305	0.230248	
0.0541326	0.793785	0.132666	
0.0468326	0.745128	0.237913	
-0.323338	0.935684	0.5	
-0.363598	0.972427	0.365583	
-0.397525	1	0.5	
-0.275403	1.0393	0.403336	
-0.25	1	0.5	
-0.177191	1.03636	0.5	
-0.157632	0.968645	0.5	
-0.203766	0.963562	0.377533	
0.25658	0.570854	0.16876	
0.3168	0.613169	0.104097	
0.228991	0.555519	0.0919014	
0.247079	0.718599	0.118367	
0.00505532	0.706778	0.339312	
-0.00643767	0.847524	0.3797	
0.0581157	0.769455	0.403061	
0.0347483	0.794732	0.315425	
-0.0964049	1.37384	0.276475	
0.0196341	1.38361	0.225797	
-0.00167925	1.31098	0.319981	
0.0143983	1.28276	0.204525	
-0.258165	1.42819	0.201755	
-0.323938	1.38087	0.152261	
-0.243391	1.43676	0.0969381	
-0.210789	1.29041	0.168489	
0.317233	1.38648	0.0904728	
0.316847	1.38679	0.198616	
0.190875	1.34709	0.10503	
0.28898	1.28652	0.0949489	
0.0761103	0.977349	0.33014	
0.101939	0.907787	0.403472	
0.203143	1.00597	0.37146	
0.113162	1.01769	0.414132	
0.141405	0.904892	0.5	
0.185939	0.963014	0.5	
0.23097	0.904329	0.5	
0.211575	0.889225	0.384788	
0.064316	1.32334	0.5	
0.183156	1.27411	0.5	
0.0956709	1.23097	0.5	
0.0902907	1.23506	0.376077	
-0.00643767	0.847524	0.3797	
-0.0862712	0.770823	0.389289	
0.00505532	0.706778	0.339312	
0.0581157	0.769455	0.403061	
-0.5	1	0.2	
-0.5	1	0.3	
-0.492649	0.914576	0.248597	
-0.37095	0.93253	0.240862	
-0.386831	1.3168	0.395903	
-0.343626	1.20201	0.373624	
-0.386498	1.31721	0.299678	
-0.263985	1.32297	0.375811	
-0.00748686	1.04315	0.386084	
-0.105137	0.975975	0.404942	
-0.0427935	1.02817	0.5	
-0.0571477	1.11947	0.416349	
-0.31578	0.863109	0.155248	
-0.37095	0.93253	0.240862	
-0.3474	1.01863	0.155865	
-0.390863	0.914451	0.0980906	
-0.144063	0.852748	0.341365	
-0.0862712	0.770823	0.389289	
-0.00643767	0.847524	0.3797	
-0.087284	0.884388	0.408402	
-0.277785	0.584265	0.134138	
-0.257824	0.5716	0.204976	
-0.217356	0.549715	0.144698	
-0.247852	0.673084	0.199607	
-0.363339	1.1505	0.5	
-0.477948	1.14685	0.415992	
-0.444481	1.22899	0.408099	
-0.343626	1.20201	0.373624	
-0.183156	0.725887	0.5	
-0.064316	0.676662	0.5	
-0.152126	0.632735	0.5	
-0.153774	0.693588	0.346551	
0.00505532	0.706778	0.339312	
-0.0862712	0.770823	0.389289	
-0.00643767	0.847524	0.3797	
0.0347483	0.794732	0.315425	
0.00505532	0.706778	0.339312	
-0.081357	0.751661	0.265055	
-0.153774	0.693588	0.346551	
-0.0862712	0.770823	0.389289	
-0.183156	0.725887	0.5	
-0.176777	0.823223	0.5	
-0.0956709	0.76903	0.5	
-0.0862712	0.770823	0.389289	
-0.214341	1.27376	0	
-0.26105	1.2034	0	
-0.18644	1.1823	0	
-0.277342	1.24516	0.0975038	
0.261819	1.31903	0	
0.235698	1.44096	0.068569	
0.202324	1.37852	0	
0.190875	1.34709	0.10503	
0.450285	0.782644	0.144698	
0.4284	0.742176	0.204976	
0.470916	0.831957	0.199874	
0.358257	0.834187	0.252847	
0.323338	1.06432	0.5	
0.347602	0.985936	0.348343	
0.323338	0.935684	0.5	
0.284123	1.06741	0.387999	
-0.437078	1.24282	0.152991	
-0.434698	1.24706	0.250499	
-0.470668	1.16873	0.201781	
-0.364752	1.11394	0.23148	
0.163502	1.02984	0.5	
0.25	1	0.5	
0.185939	0.963014	0.5	
0.203143	1.00597	0.37146	
0.439458	0.761512	0.0756919	
0.341118	0.774271	0.0916023	
0.450285	0.782644	0.144698	
0.355602	0.87751	0.0966392	
0.296805	0.825729	0.165597	
0.265828	0.94766	0.123486	
0.361351	0.935933	0.2197	
0.355602	0.87751	0.0966392	
0.323338	1.06432	0.5	
0.398221	1	0.5	
0.323338	0.935684	0.5	
0.347602	0.985936	0.348343	
0.00505532	0.706778	0.339312	
0.0452903	0.623513	0.25784	
0.151014	0.679593	0.343049	
0.0738912	0.610829	0.388761	
0.347602	0.985936	0.348343	
0.323338	1.06432	0.5	
0.385098	1.08722	0.383771	
0.284123	1.06741	0.387999	
-0.386498	1.31721	0.299678	
-0.434698	1.24706	0.250499	
-0.386792	1.31685	0.198616	
-0.279096	1.24359	0.272562	
0.064316	1.32334	0.5	
0.109201	1.35772	0.375246	
0.183156	1.27411	0.5	
0.0902907	1.23506	0.376077	
-0.386792	1.31685	0.198616	
-0.386476	1.31723	0.0904728	
-0.323938	1.38087	0.152261	
-0.277342	1.24516	0.0975038	
-0.10768	0.996359	0.238131	
0.0244505	0.94868	0.233905	
-0.045108	0.948191	0.315425	
-0.0821557	0.901585	0.243527	
0.25	1	0.5	
0.323338	1.06432	0.5	
0.323338	0.935684	0.5	
0.284123	1.06741	0.387999	
0.5	1	0.3	
0.5	1	0.2	
0.490343	0.902203	0.258774	
0.361351	0.935933	0.2197	
0.0937412	0.930011	0.154317	
0.0244505	0.94868	0.233905	
0.106858	0.844305	0.230248	
0.134932	0.977505	0.230093	
-0.10768	0.996359	0.238131	
0.0244505	0.94868	0.233905	
-0.0151696	1.04156	0.198031	
0.00363562	1.02785	0.291568	
-0.258165	1.42819	0.201755	
-0.153777	1.36779	0.103264	
-0.171353	1.46972	0.161666	
-0.193559	1.35773	0.245031	
-0.0925337	0.803549	0	
-0.111014	0.733523	0.0849706	
-0.00982582	0.726304	0.0884564	
-0.0724446	0.868744	0.084223	
-0.217356	0.549715	0.144698	
-0.238488	0.560542	0.0756919	
-0.277785	0.584265	0.134138	
-0.183989	0.672241	0.119932	
-0.176777	1.17678	0.5	
-0.274113	1.18316	0.5	
-0.234257	1.21312	0.375398	
-0.179827	1.088	0.408491	
0.323338	0.935684	0.5	
0.398221	1	0.5	
0.409849	0.918476	0.5	
0.368617	0.876452	0.385763	
-0.168043	0.529084	0.199874	
-0.136534	0.645188	0.231761	
-0.0977967	0.509657	0.258774	
-0.0982069	0.610875	0.136018	
0.176777	1.17678	0.5	
0.157632	1.10533	0.5	
0.0868435	1.13736	0.5	
0.125116	1.11613	0.369411	
-0.386498	1.31721	0.299678	
-0.279096	1.24359	0.272562	
-0.331632	1.37419	0.334643	
-0.263985	1.32297	0.375811	
-0.23296	0.961598	0.249877	
-0.170219	0.871655	0.235589	
-0.10768	0.996359	0.238131	
-0.140073	0.942584	0.309826	
0.314271	0.949812	0	
0.265828	0.94766	0.123486	
0.232997	0.88938	0	
0.355602	0.87751	0.0966392	
0	1.5	0.3	
-0.0964049	1.37384	0.276475	
-0.0977967	1.49034	0.241226	
0.0196341	1.38361	0.225797	
-3.15026e-17	0.601779	0.5	
0.0704482	0.504988	0.428155	
0	0.5	0.4	
0.0738912	0.610829	0.388761	
0.235698	0.559039	0.431431	
0.317233	0.613524	0.409527	
0.242822	0.562922	0.347009	
0.260241	0.698507	0.343916	
0.146853	0.522052	0.0840084	
0.174678	0.531505	0.182891	
0.228991	0.555519	0.0919014	
0.0999617	0.645199	0.138238	
0.242822	0.562922	0.347009	
0.168734	0.529332	0.298219	
0.153328	0.52409	0.40763	
0.151014	0.679593	0.343049	
-0.257824	1.4284	0.295024	
-0.168043	1.47092	0.300126	
-0.217356	1.45028	0.355302	
-0.193559	1.35773	0.245031	
-0.115695	1.05029	0.334241	
-0.00748686	1.04315	0.386084	
-0.045108	0.948191	0.315425	
0.00363562	1.02785	0.291568	
0.232161	1.34745	0.5	
0.281092	1.28109	0.5	
0.183156	1.27411	0.5	
0.209063	1.27717	0.342511	
-0.203766	0.963562	0.377533	
-0.144063	0.852748	0.341365	
-0.140073	0.942584	0.309826	
-0.087284	0.884388	0.408402	
-0.144063	0.852748	0.341365	
-0.140073	0.942584	0.309826	
-0.045108	0.948191	0.315425	
-0.0821557	0.901585	0.243527	
-0.3474	1.01863	0.155865	
-0.256772	1.06769	0.100506	
-0.337562	1.05476	0	
-0.357904	1.11593	0.101286	
-0.492649	0.914576	0.248597	
-0.493437	0.919252	0.345776	
-0.470668	0.831266	0.298219	
-0.37095	0.93253	0.240862	
-0.203766	0.963562	0.377533	
-0.140073	0.942584	0.309826	
-0.105137	0.975975	0.404942	
-0.087284	0.884388	0.408402	
-0.331632	1.37419	0.334643	
-0.386498	1.31721	0.299678	
-0.328716	1.37676	0.246468	
-0.279096	1.24359	0.272562	
0.428195	1.25817	0.201755	
0.353151	1.15839	0.109095	
0.469721	1.17135	0.161666	
0.334194	1.15432	0.215771	
0.232161	0.652547	0.5	
0.206682	0.777113	0.400851	
0.278087	0.721913	0.5	
0.260241	0.698507	0.343916	
-0.177191	1.03636	0.5	
-0.114443	1.01484	0.5	
-0.157632	0.968645	0.5	
-0.105137	0.975975	0.404942	
0.353151	1.15839	0.109095	
0.334194	1.15432	0.215771	
0.325159	1.05851	0.165819	
0.40353	1.07301	0.105949	
-0.114467	0.613668	0	
-0.183989	0.672241	0.119932	
-0.0982069	0.610875	0.136018	
-0.111014	0.733523	0.0849706	
0.493012	0.916698	0.155211	
0.361351	0.935933	0.2197	
0.5	1	0.2	
0.387337	0.975471	0.113668	
-0.214341	1.27376	0	
-0.138674	1.3238	0	
-0.201912	1.36999	0	
-0.153777	1.36779	0.103264	
0.106675	0.966314	0.5	
0.101939	0.907787	0.403472	
0.00844098	0.944821	0.400532	
0.113162	1.01769	0.414132	
0.361351	0.935933	0.2197	
0.265828	0.94766	0.123486	
0.325159	1.05851	0.165819	
0.387337	0.975471	0.113668	
-0.0297704	0.68077	0.178611	
0.00284042	0.609614	0.1018	
-0.0982069	0.610875	0.136018	
-0.00982582	0.726304	0.0884564	
0.0712814	0.846848	0	
0.00183684	0.777669	0	
0.0943468	0.754666	0	
0.0541326	0.793785	0.132666	
0.0761103	0.977349	0.33014	
0.148799	0.913537	0.303647	
0.0244505	0.94868	0.233905	
0.134932	0.977505	0.230093	
-0.0151696	1.04156	0.198031	
-0.0611059	1.11559	0.264866	
-0.10768	0.996359	0.238131	
0.00363562	1.02785	0.291568	
-0.203766	0.963562	0.377533	
-0.105137	0.975975	0.404942	
-0.115695	1.05029	0.334241	
-0.179827	1.088	0.408491	
-0.444481	0.771009	0.0919014	
-0.477948	0.853147	0.0840084	
-0.468495	0.825322	0.182891	
-0.390863	0.914451	0.0980906	
-0.183156	0.725887	0.5	
-0.0956709	0.76903	0.5	
-0.064316	0.676662	0.5	
-0.0862712	0.770823	0.389289	
-0.152694	0.523886	0.0975404	
-0.183989	0.672241	0.119932	
-0.217356	0.549715	0.144698	
-0.0982069	0.610875	0.136018	
-0.280403	1.2804	0.5	
-0.347453	1.23216	0.5	
-0.386831	1.3168	0.395903	
-0.343626	1.20201	0.373624	
-0.328716	0.623243	0.253532	
-0.386498	0.682794	0.200322	
-0.332607	0.773484	0.222023	
-0.247852	0.673084	0.199607	
0.247868	1.14631	0	
0.337634	1.11556	0	
0.300884	1.19872	0	
0.253711	1.11341	0.104023	
-0.389036	1.20743	0	
-0.328307	1.16356	0	
-0.318983	1.26174	0	
-0.277342	1.24516	0.0975038	
-3.15026e-17	0.601779	0.5	
0	0.5	0.4	
-0.039093	0.610067	0.388942	
0.0738912	0.610829	0.388761	
0.242822	0.562922	0.347009	
0.316847	0.613208	0.301384	
0.247057	0.565302	0.249501	
0.260241	0.698507	0.343916	
0.0461078	0.941573	0	
0.14072	0.916025	0	
0.115537	1.01075	0	
0.159132	0.984216	0.0920948	
0.0999617	0.645199	0.138238	
0.00284042	0.609614	0.1018	
-0.0297704	0.68077	0.178611	
-0.00982582	0.726304	0.0884564	
-0.0422582	0.562527	0	
-0.114467	0.613668	0	
-0.0698189	0.504899	0.0723791	
-0.0982069	0.610875	0.136018	
0.0956709	1.23097	0.5	
0	1.25	0.5	
0.064316	1.32334	0.5	
0.0902907	1.23506	0.376077	
0.439458	0.761512	0.0756919	
0.476114	0.847306	0.0975404	
0.380207	0.80292	0	
0.355602	0.87751	0.0966392	
0.201164	0.726422	0	
0.194604	0.628812	0	
0.268393	0.665699	0	
0.247079	0.718599	0.118367	
-0.00167925	1.31098	0.319981	
-0.0964049	1.37384	0.276475	
-0.0850696	1.27829	0.394238	
-0.0552231	1.38907	0.38538	
-0.0925337	0.803549	0	
-0.196211	0.8458	0.119009	
-0.186407	0.830549	0	
-0.111014	0.733523	0.0849706	
0.337634	1.11556	0	
0.353151	1.15839	0.109095	
0.300884	1.19872	0	
0.253711	1.11341	0.104023	
0.121965	0.82524	0.342904	
0.215953	0.839226	0.238202	
0.106858	0.844305	0.230248	
0.148799	0.913537	0.303647	
-0.47591	0.846672	0.40763	
-0.493437	0.919252	0.345776	
-0.495012	0.929552	0.428155	
-0.351645	0.874975	0.390413	
-0.285945	1.12176	0.325452	
-0.382289	1.08918	0.382504	
-0.364752	1.11394	0.23148	
-0.318838	1.02278	0.259668	
-0.152126	0.632735	0.5	
-0.232161	0.652547	0.5	
-0.183156	0.725887	0.5	
-0.153774	0.693588	0.346551	
-0.00173102	1.15684	0.347507	
0.00363562	1.02785	0.291568	
-0.0611059	1.11559	0.264866	
0.0323895	1.13978	0.258564	
0.439458	0.761512	0.0756919	
0.380207	0.80292	0	
0.341118	0.774271	0.0916023	
0.355602	0.87751	0.0966392	
-0.328716	0.623243	0.253532	
-0.332607	0.773484	0.222023	
-0.259603	0.71434	0.292274	
-0.247852	0.673084	0.199607	
0.0691997	1.04586	0.5	
0.00844098	0.944821	0.400532	
-0.00748686	1.04315	0.386084	
0.113162	1.01769	0.414132	
0.112799	0.66644	0	
0.194604	0.628812	0	
0.201164	0.726422	0	
0.142608	0.739294	0.106454	
-0.157632	0.894674	0.5	
-0.23097	0.904329	0.5	
-0.157632	0.968645	0.5	
-0.203766	0.963562	0.377533	
0	0.75	0.5	
-0.0956709	0.76903	0.5	
-0.0369856	0.814061	0.5	
-0.0862712	0.770823	0.389289	
0.0728232	0.505332	0.0735406	
0.0814864	0.506685	0.152319	
0.146853	0.522052	0.0840084	
0.0999617	0.645199	0.138238	
-0.107214	1.16612	0.5	
-0.117202	1.0938	0.5	
-0.179827	1.088	0.408491	
-0.0571477	1.11947	0.416349	
0.314271	0.949812	0	
0.232997	0.88938	0	
0.313791	0.845535	0	
0.355602	0.87751	0.0966392	
0.0165433	0.957567	0.5	
-0.00748686	1.04315	0.386084	
0.0691997	1.04586	0.5	
0.00844098	0.944821	0.400532	
-0.186407	0.830549	0	
-0.196211	0.8458	0.119009	
-0.0925337	0.803549	0	
-0.0724446	0.868744	0.084223	
0.00505532	0.706778	0.339312	
-0.039093	0.610067	0.388942	
0.0452903	0.623513	0.25784	
0.0738912	0.610829	0.388761	
-0.0218546	0.89013	0.5	
0.00844098	0.944821	0.400532	
-0.00643767	0.847524	0.3797	
-0.087284	0.884388	0.408402	
-0.0297704	0.68077	0.178611	
-0.00982582	0.726304	0.0884564	
-0.0982069	0.610875	0.136018	
-0.111014	0.733523	0.0849706	
-0.323338	1.06432	0.5	
-0.397525	1	0.5	
-0.382289	1.08918	0.382504	
-0.275403	1.0393	0.403336	
0.490343	0.902203	0.258774	
0.460548	0.805333	0.26567	
0.469721	0.828647	0.338334	
0.358257	0.834187	0.252847	
-0.302044	0.949354	0	
-0.237047	1.02014	0	
-0.337562	1.05476	0	
-0.256772	1.06769	0.100506	
-0.048473	0.967143	0	
-0.10307	0.999921	0.0930669	
-0.117671	0.89803	0	
-0.0724446	0.868744	0.084223	
0.5	1	0.2	
0.493389	1.08104	0.14715	
0.5	1	0.1	
0.40353	1.07301	0.105949	
-0.281585	0.718415	0.5	
-0.183156	0.725887	0.5	
-0.232161	0.652547	0.5	
-0.289723	0.75771	0.393302	
0.0165433	0.957567	0.5	
0.106675	0.966314	0.5	
0.0634445	0.898618	0.5	
0.101939	0.907787	0.403472	
-0.142648	0.992859	0	
-0.237047	1.02014	0	
-0.211369	0.923885	0	
-0.227254	0.962083	0.121579	
0	1.5	0.1	
-0.0372406	1.41779	0	
0.0420691	1.42713	0	
0.0105232	1.38676	0.111861	
0.277785	1.41573	0	
0.261819	1.31903	0	
0.235698	1.44096	0.068569	
0.202324	1.37852	0	
-0.125823	1.17124	0.373805	
-0.179827	1.088	0.408491	
-0.115695	1.05029	0.334241	
-0.0571477	1.11947	0.416349	
0.164797	0.822415	0	
0.245477	0.808349	0	
0.232997	0.88938	0	
0.177224	0.838965	0.12521	
0.476114	1.15269	0.40246	
0.369516	1.15306	0.5	
0.439458	1.23849	0.424308	
0.347642	1.19453	0.384775	
-3.15026e-17	0.601779	0.5	
-0.039093	0.610067	0.388942	
0.064316	0.676662	0.5	
0.0738912	0.610829	0.388761	
0.296805	0.825729	0.165597	
0.215953	0.839226	0.238202	
0.278655	0.736565	0.241439	
0.358257	0.834187	0.252847	
0.232161	0.652547	0.5	
0.278087	0.721913	0.5	
0.317233	0.613524	0.409527	
0.260241	0.698507	0.343916	
-0.048473	0.967143	0	
-0.0105385	0.962638	0.111113	
-0.10307	0.999921	0.0930669	
-0.0724446	0.868744	0.084223	
0.157632	1.10533	0.5	
0.0868435	1.13736	0.5	
0.125116	1.11613	0.369411	
0.113162	1.01769	0.414132	
-0.0698189	1.4951	0.427621	
0	1.5	0.4	
8.18872e-17	1.39822	0.5	
-0.0552231	1.38907	0.38538	
-0.157632	0.968645	0.5	
-0.23097	0.904329	0.5	
-0.25	1	0.5	
-0.203766	0.963562	0.377533	
-0.138674	1.3238	0	
-0.0555676	1.32557	0	
-0.118932	1.39861	0	
-0.153777	1.36779	0.103264	
0.380873	0.676062	0.347739	
0.278655	0.736565	0.241439	
0.376757	0.671284	0.253532	
0.260241	0.698507	0.343916	
-0.045108	0.948191	0.315425	
-0.140073	0.942584	0.309826	
-0.144063	0.852748	0.341365	
-0.087284	0.884388	0.408402	
-0.493315	0.918514	0.152319	
-0.5	1	0.2	
-0.492649	0.914576	0.248597	
-0.37095	0.93253	0.240862	
-0.00643767	0.847524	0.25115	
0.106858	0.844305	0.230248	
0.0244505	0.94868	0.233905	
0.0531758	0.885699	0.315425	
-0.263582	0.680587	0	
-0.261345	0.769964	0	
-0.331361	0.727047	0	
-0.283151	0.746042	0.130367	
0.242822	0.562922	0.347009	
0.168734	0.529332	0.298219	
0.151014	0.679593	0.343049	
0.15722	0.635104	0.236843	
-0.00643767	0.847524	0.25115	
-0.00436862	0.872297	0.154061	
-0.0726386	0.798943	0.15243	
-0.0821557	0.901585	0.243527	
-0.409849	0.918476	0.5	
-0.397525	1	0.5	
-0.323338	0.935684	0.5	
-0.363598	0.972427	0.365583	
0.0943468	0.754666	0	
0.0541326	0.793785	0.132666	
0.00183684	0.777669	0	
-0.00982582	0.726304	0.0884564	
-0.281585	0.718415	0.5	
-0.317197	0.613495	0.431175	
-0.386476	0.682767	0.409527	
-0.289723	0.75771	0.393302	
0.0807477	0.506563	0.345776	
0.168734	0.529332	0.298219	
0.0854243	0.507351	0.248597	
0.0452903	0.623513	0.25784	
-0.10768	0.996359	0.238131	
-0.170219	0.871655	0.235589	
-0.110633	0.921519	0.156892	
-0.0821557	0.901585	0.243527	
0.232997	0.88938	0	
0.265828	0.94766	0.123486	
0.210156	0.985203	0	
0.159132	0.984216	0.0920948	
-0.176777	1.17678	0.5	
-0.23097	1.09567	0.5	
-0.274113	1.18316	0.5	
-0.179827	1.088	0.408491	
-0.00674902	1.18961	0.168493	
0.00439522	1.27731	0.103072	
-0.0697093	1.32708	0.167311	
0.0143983	1.28276	0.204525	
0.5	1	0.1	
0.414991	1.04951	0	
0.387337	0.975471	0.113668	
0.40353	1.07301	0.105949	
-0.285945	1.12176	0.325452	
-0.363598	0.972427	0.365583	
-0.382289	1.08918	0.382504	
-0.318838	1.02278	0.259668	
-0.47591	1.15333	0.0923699	
-0.470668	1.16873	0.201781	
-0.493437	1.08075	0.154224	
-0.357904	1.11593	0.101286	
0.5	1	0.2	
0.5	1	0.1	
0.387337	0.975471	0.113668	
0.40353	1.07301	0.105949	
0.314857	0.742551	0	
0.247079	0.718599	0.118367	
0.388274	0.684971	0.0791933	
0.341118	0.774271	0.0916023	
-0.328716	1.37676	0.246468	
-0.386498	1.31721	0.299678	
-0.386792	1.31685	0.198616	
-0.279096	1.24359	0.272562	
0.260232	1.21075	0.160089	
0.212182	1.31459	0.219285	
0.28898	1.28652	0.0949489	
0.189162	1.24479	0.0938772	
-0.117671	0.89803	0	
-0.211369	0.923885	0	
-0.186407	0.830549	0	
-0.196211	0.8458	0.119009	
-0.168043	0.529084	0.199874	
-0.0977967	0.509657	0.258774	
-0.0833019	0.506988	0.155211	
-0.0982069	0.610875	0.136018	
-0.186407	0.830549	0	
-0.278713	0.85696	0	
-0.261345	0.769964	0	
-0.196211	0.8458	0.119009	
-0.0810399	1.49339	0.14715	
0	1.5	0.1	
0	1.5	0.2	
0.0105232	1.38676	0.111861	
-0.323938	0.619127	0.347739	
-0.259603	0.71434	0.292274	
-0.386792	0.683153	0.301384	
-0.289723	0.75771	0.393302	
-0.0684459	1.49529	0.0685965	
0	1.5	0.1	
-0.0810399	1.49339	0.14715	
0.0105232	1.38676	0.111861	
0.157632	1.10533	0.5	
0.125116	1.11613	0.369411	
0.176777	1.17678	0.5	
0.22536	1.15058	0.40335	
-0.0734441	1.06169	0	
0.0209546	1.03628	0	
-0.00425413	1.131	0	
-0.0543483	1.10288	0.107179	
0.0761103	0.977349	0.33014	
0.0244505	0.94868	0.233905	
0.0919908	1.06424	0.248206	
0.134932	0.977505	0.230093	
0.317206	0.613502	0.200322	
0.3168	0.613169	0.104097	
0.25658	0.570854	0.16876	
0.247079	0.718599	0.118367	
-0.317197	1.38651	0.0688254	
-0.386476	1.31723	0.0904728	
-0.318983	1.26174	0	
-0.277342	1.24516	0.0975038	
0.374193	0.668368	0.165357	
0.388274	0.684971	0.0791933	
0.247079	0.718599	0.118367	
0.341118	0.774271	0.0916023	
8.18872e-17	1.39822	0.5	
0.0815241	1.40985	0.5	
0.064316	1.32334	0.5	
0.109201	1.35772	0.375246	
0.4284	1.25782	0.295024	
0.450285	1.21736	0.355302	
0.415735	1.27779	0.365862	
0.347642	1.19453	0.384775	
0.0651412	1.2001	0	
0.0903521	1.10545	0	
0.158056	1.17188	0	
0.113965	1.18028	0.121768	
-0.0726386	0.798943	0.15243	
-0.00436862	0.872297	0.154061	
-0.110633	0.921519	0.156892	
-0.0821557	0.901585	0.243527	
0.23097	0.904329	0.5	
0.176777	0.823223	0.5	
0.141405	0.904892	0.5	
0.211575	0.889225	0.384788	
-0.117671	0.89803	0	
-0.196211	0.8458	0.119009	
-0.186407	0.830549	0	
-0.0724446	0.868744	0.084223	
-0.081357	0.751661	0.265055	
0.0468326	0.745128	0.237913	
-0.00643767	0.847524	0.25115	
0.0347483	0.794732	0.315425	
-0.363339	0.8495	0.5	
-0.347453	0.767839	0.5	
-0.440961	0.764302	0.431431	
-0.351645	0.874975	0.390413	
0.163502	1.02984	0.5	
0.203143	1.00597	0.37146	
0.185939	0.963014	0.5	
0.113162	1.01769	0.414132	
-0.386831	1.3168	0.395903	
-0.315029	1.38827	0.420807	
-0.280403	1.2804	0.5	
-0.263985	1.32297	0.375811	
0.0153159	1.36356	0	
0.0401436	1.2912	0	
0.0105232	1.38676	0.111861	
0.00439522	1.27731	0.103072	
0.190875	1.34709	0.10503	
0.28898	1.28652	0.0949489	
0.212182	1.31459	0.219285	
0.189162	1.24479	0.0938772	
0.0761103	0.977349	0.33014	
0.0919908	1.06424	0.248206	
0.0244505	0.94868	0.233905	
0.00363562	1.02785	0.291568	
-0.353553	1.35355	0	
-0.317197	1.38651	0.0688254	
-0.318983	1.26174	0	
-0.273315	1.33496	0	
-0.0773947	0.947213	0.5	
0.00844098	0.944821	0.400532	
-0.0218546	0.89013	0.5	
-0.087284	0.884388	0.408402	
0.274113	1.18316	0.5	
0.23097	1.09567	0.5	
0.22536	1.15058	0.40335	
0.284123	1.06741	0.387999	
0.5	1	0.1	
0.414991	1.04951	0	
0.409478	0.967053	0	
0.387337	0.975471	0.113668	
0.260232	1.21075	0.160089	
0.295334	1.24597	0.26697	
0.212182	1.31459	0.219285	
0.219623	1.16199	0.240766	
0.365104	0.848769	0.5	
0.347453	0.767839	0.5	
0.274113	0.816844	0.5	
0.368617	0.876452	0.385763	
0.439458	0.761512	0.0756919	
0.450285	0.782644	0.144698	
0.476114	0.847306	0.0975404	
0.355602	0.87751	0.0966392	
0.106675	0.966314	0.5	
0.101939	0.907787	0.403472	
0.0165433	0.957567	0.5	
0.00844098	0.944821	0.400532	
-0.0726386	0.798943	0.15243	
-0.196211	0.8458	0.119009	
-0.110633	0.921519	0.156892	
-0.0724446	0.868744	0.084223	
0.323338	1.06432	0.5	
0.369516	1.15306	0.5	
0.385098	1.08722	0.383771	
0.284123	1.06741	0.387999	
0.476114	0.847306	0.0975404	
0.387337	0.975471	0.113668	
0.495101	0.930181	0.0723791	
0.355602	0.87751	0.0966392	
0.242822	1.43708	0.152991	
0.316847	1.38679	0.198616	
0.212182	1.31459	0.219285	
0.190875	1.34709	0.10503	
0.365104	0.848769	0.5	
0.436762	0.756609	0.403062	
0.347453	0.767839	0.5	
0.368617	0.876452	0.385763	
0.0165433	0.957567	0.5	
0.101939	0.907787	0.403472	
0.0634445	0.898618	0.5	
0.00844098	0.944821	0.400532	
-0.386792	0.683153	0.301384	
-0.259603	0.71434	0.292274	
-0.328716	0.623243	0.253532	
-0.332607	0.773484	0.222023	
-0.409849	0.918476	0.5	
-0.363598	0.972427	0.365583	
-0.323338	0.935684	0.5	
-0.351645	0.874975	0.390413	
0.106675	0.966314	0.5	
0.00844098	0.944821	0.400532	
0.0165433	0.957567	0.5	
0.113162	1.01769	0.414132	
-0.386498	0.682794	0.200322	
-0.386792	0.683153	0.301384	
-0.328716	0.623243	0.253532	
-0.332607	0.773484	0.222023	
-0.440961	0.764302	0.431431	
-0.386476	0.682767	0.409527	
-0.437078	0.757178	0.347009	
-0.289723	0.75771	0.393302	
-0.189227	0.766031	0.208899	
-0.259603	0.71434	0.292274	
-0.332607	0.773484	0.222023	
-0.247852	0.673084	0.199607	
0.0165433	0.957567	0.5	
0.00844098	0.944821	0.400532	
0.0691997	1.04586	0.5	
0.113162	1.01769	0.414132	
0.490343	0.902203	0.258774	
0.361351	0.935933	0.2197	
0.470916	0.831957	0.199874	
0.358257	0.834187	0.252847	
-0.470668	0.831266	0.298219	
-0.493437	0.919252	0.345776	
-0.47591	0.846672	0.40763	
-0.351645	0.874975	0.390413	
-0.274113	1.18316	0.5	
-0.280403	1.2804	0.5	
-0.234257	1.21312	0.375398	
-0.343626	1.20201	0.373624	
-0.0232782	0.872416	0	
0.0461078	0.941573	0	
-0.048473	0.967143	0	
-0.0105385	0.962638	0.111113	
-0.183156	1.27411	0.5	
-0.234257	1.21312	0.375398	
-0.280403	1.2804	0.5	
-0.263985	1.32297	0.375811	
-0.183156	1.27411	0.5	
-0.151231	1.3651	0.5	
-0.0850696	1.27829	0.394238	
-0.166036	1.37976	0.398541	
0.476114	1.15269	0.40246	
0.369516	1.15306	0.5	
0.347642	1.19453	0.384775	
0.385098	1.08722	0.383771	
-0.323338	1.06432	0.5	
-0.274113	1.18316	0.5	
-0.23097	1.09567	0.5	
-0.275403	1.0393	0.403336	
0.153328	1.47591	0.0923699	
0.202324	1.37852	0	
0.235698	1.44096	0.068569	
0.190875	1.34709	0.10503	
0.470916	0.831957	0.199874	
0.490343	0.902203	0.258774	
0.493012	0.916698	0.155211	
0.361351	0.935933	0.2197	
-0.064316	0.676662	0.5	
0.064316	0.676662	0.5	
-3.15026e-17	0.601779	0.5	
-0.039093	0.610067	0.388942	
0.242822	1.43708	0.152991	
0.317233	1.38648	0.0904728	
0.316847	1.38679	0.198616	
0.190875	1.34709	0.10503	
-0.00643767	0.847524	0.3797	
0.0531758	0.885699	0.315425	
0.121965	0.82524	0.342904	
0.0347483	0.794732	0.315425	
0.476114	0.847306	0.0975404	
0.493012	0.916698	0.155211	
0.387337	0.975471	0.113668	
0.355602	0.87751	0.0966392	
-0.0427935	1.02817	0.5	
-0.105137	0.975975	0.404942	
-0.00748686	1.04315	0.386084	
0.00844098	0.944821	0.400532	
-0.048473	0.967143	0	
-0.0232782	0.872416	0	
-0.0105385	0.962638	0.111113	
-0.0724446	0.868744	0.084223	
-0.183989	0.672241	0.119932	
-0.136534	0.645188	0.231761	
-0.189227	0.766031	0.208899	
-0.247852	0.673084	0.199607	
0.0814864	0.506685	0.152319	
0	0.5	0.2	
0.0854243	0.507351	0.248597	
0.0452903	0.623513	0.25784	
0.314271	0.949812	0	
0.276476	1.05355	0	
0.210156	0.985203	0	
0.265828	0.94766	0.123486	
-0.0427935	1.02817	0.5	
-0.0773947	0.947213	0.5	
-0.105137	0.975975	0.404942	
0.00844098	0.944821	0.400532	
-0.274113	0.816844	0.5	
-0.176777	0.823223	0.5	
-0.183156	0.725887	0.5	
-0.289723	0.75771	0.393302	
0.278655	0.736565	0.241439	
0.215953	0.839226	0.238202	
0.285177	0.816119	0.328962	
0.358257	0.834187	0.252847	
-0.0684459	1.49529	0.0685965	
-0.0372406	1.41779	0	
0	1.5	0.1	
0.0105232	1.38676	0.111861	
0.0420691	1.42713	0	
0.0153159	1.36356	0	
0.114055	1.37411	0	
0.0105232	1.38676	0.111861	
-0.285945	1.12176	0.325452	
-0.275403	1.0393	0.403336	
-0.363598	0.972427	0.365583	
-0.318838	1.02278	0.259668	
-0.468495	0.825322	0.182891	
-0.493315	0.918514	0.152319	
-0.492649	0.914576	0.248597	
-0.37095	0.93253	0.240862	
-0.189227	0.766031	0.208899	
-0.332607	0.773484	0.222023	
-0.283151	0.746042	0.130367	
-0.247852	0.673084	0.199607	
-0.152694	1.47611	0.40246	
-0.168043	1.47092	0.300126	
-0.0833019	1.49301	0.344789	
-0.166036	1.37976	0.398541	
-0.409849	1.08152	0.5	
-0.397525	1	0.5	
-0.494668	1.07282	0.426459	
-0.382289	1.08918	0.382504	
0.314857	0.742551	0	
0.245477	0.808349	0	
0.247079	0.718599	0.118367	
0.341118	0.774271	0.0916023	
-0.00643767	0.847524	0.25115	
0.0244505	0.94868	0.233905	
-0.045108	0.948191	0.315425	
0.0531758	0.885699	0.315425	
0.0807477	1.49344	0.154224	
0.0196341	1.38361	0.225797	
0	1.5	0.2	
0.0105232	1.38676	0.111861	
0.098462	1.32087	0.159093	
0.190875	1.34709	0.10503	
0.212182	1.31459	0.219285	
0.189162	1.24479	0.0938772	
-0.386498	0.682794	0.200322	
-0.283151	0.746042	0.130367	
-0.429146	0.74342	0.16876	
-0.332607	0.773484	0.222023	
-0.0151696	1.04156	0.198031	
0.0244505	0.94868	0.233905	
0.0919908	1.06424	0.248206	
0.00363562	1.02785	0.291568	
0.164574	0.7464	0.211103	
0.177224	0.838965	0.12521	
0.247079	0.718599	0.118367	
0.142608	0.739294	0.106454	
-0.00643767	0.847524	0.3797	
0.121965	0.82524	0.342904	
0.0581157	0.769455	0.403061	
0.0347483	0.794732	0.315425	
0.0761103	0.977349	0.33014	
-0.045108	0.948191	0.315425	
0.0244505	0.94868	0.233905	
0.0531758	0.885699	0.315425	
0.476114	0.847306	0.0975404	
0.493012	0.916698	0.155211	
0.495101	0.930181	0.0723791	
0.387337	0.975471	0.113668	
-0.404541	1.12695	0	
-0.440961	1.2357	0.068569	
-0.47591	1.15333	0.0923699	
-0.357904	1.11593	0.101286	
0.476114	1.15269	0.40246	
0.450285	1.21736	0.355302	
0.470916	1.16804	0.300126	
0.385098	1.08722	0.383771	
-0.317197	1.38651	0.0688254	
-0.323938	1.38087	0.152261	
-0.386476	1.31723	0.0904728	
-0.277342	1.24516	0.0975038	
-0.437078	1.24282	0.152991	
-0.470668	1.16873	0.201781	
-0.47591	1.15333	0.0923699	
-0.357904	1.11593	0.101286	
-0.0328721	0.629311	0	
0.00284042	0.609614	0.1018	
0.0248177	0.686626	0	
-0.00982582	0.726304	0.0884564	
0.274113	1.18316	0.5	
0.369516	1.15306	0.5	
0.323338	1.06432	0.5	
0.284123	1.06741	0.387999	
0.436762	0.756609	0.403062	
0.365104	0.848769	0.5	
0.478555	0.855138	0.421652	
0.368617	0.876452	0.385763	
0.114055	1.37411	0	
0.202324	1.37852	0	
0.153328	1.47591	0.0923699	
0.190875	1.34709	0.10503	
0.5	1	0.1	
0.495293	1.06845	0.0685965	
0.414991	1.04951	0	
0.40353	1.07301	0.105949	
-0.279096	1.24359	0.272562	
-0.343626	1.20201	0.373624	
-0.234257	1.21312	0.375398	
-0.263985	1.32297	0.375811	
-0.045108	0.948191	0.315425	
0.00844098	0.944821	0.400532	
-0.00643767	0.847524	0.3797	
0.0531758	0.885699	0.315425	
-0.386476	0.682767	0.409527	
-0.386792	0.683153	0.301384	
-0.437078	0.757178	0.347009	
-0.289723	0.75771	0.393302	
0.478555	1.14486	0.0783483	
0.373926	1.19893	0	
0.46194	1.19134	0	
0.414183	1.13115	0	
-0.0773947	0.947213	0.5	
-0.105137	0.975975	0.404942	
0.00844098	0.944821	0.400532	
-0.087284	0.884388	0.408402	
0.152393	1.36791	0.5	
0.183156	1.27411	0.5	
0.064316	1.32334	0.5	
0.109201	1.35772	0.375246	
-0.437078	1.24282	0.152991	
-0.47591	1.15333	0.0923699	
-0.440961	1.2357	0.068569	
-0.357904	1.11593	0.101286	
-0.115695	1.05029	0.334241	
-0.10768	0.996359	0.238131	
-0.045108	0.948191	0.315425	
-0.140073	0.942584	0.309826	
-0.045108	0.948191	0.315425	
-0.00643767	0.847524	0.3797	
0.00844098	0.944821	0.400532	
-0.087284	0.884388	0.408402	
-0.0833019	0.506988	0.155211	
0	0.5	0.2	
0	0.5	0.1	
0.00284042	0.609614	0.1018	
0.177224	0.838965	0.12521	
0.106858	0.844305	0.230248	
0.164574	0.7464	0.211103	
0.215953	0.839226	0.238202	
-0.285945	1.12176	0.325452	
-0.382289	1.08918	0.382504	
-0.363598	0.972427	0.365583	
-0.275403	1.0393	0.403336	
0.394936	0.880197	0	
0.380207	0.80292	0	
0.476114	0.847306	0.0975404	
0.355602	0.87751	0.0966392	
0	1.5	0.3	
-0.0977967	1.49034	0.241226	
0	1.5	0.2	
0.0196341	1.38361	0.225797	
-0.10768	0.996359	0.238131	
-0.140073	0.942584	0.309826	
-0.170219	0.871655	0.235589	
-0.0821557	0.901585	0.243527	
0.158056	1.17188	0	
0.247868	1.14631	0	
0.231243	1.24169	0	
0.189162	1.24479	0.0938772	
-0.064316	1.32334	0.5	
-0.0552231	1.38907	0.38538	
-0.0850696	1.27829	0.394238	
-0.166036	1.37976	0.398541	
-0.492649	0.914576	0.248597	
-0.470668	0.831266	0.298219	
-0.468495	0.825322	0.182891	
-0.37095	0.93253	0.240862	
0.261819	1.31903	0	
0.317233	1.38648	0.0904728	
0.235698	1.44096	0.068569	
0.190875	1.34709	0.10503	
-0.283151	0.746042	0.130367	
-0.332607	0.773484	0.222023	
-0.386498	0.682794	0.200322	
-0.247852	0.673084	0.199607	
-0.238488	0.560542	0.0756919	
-0.152694	0.523886	0.0975404	
-0.191342	0.53806	0	
-0.203173	0.626976	0	
-3.15026e-17	0.601779	0.5	
0	0.5	0.4	
-0.0684459	0.504707	0.431403	
-0.039093	0.610067	0.388942	
-0.0892911	0.866366	0.5	
-0.176777	0.823223	0.5	
-0.157632	0.894674	0.5	
-0.087284	0.884388	0.408402	
0.373926	1.19893	0	
0.478555	1.14486	0.0783483	
0.436762	1.24339	0.0969381	
0.353151	1.15839	0.109095	
0.493012	0.916698	0.155211	
0.490343	0.902203	0.258774	
0.5	1	0.2	
0.361351	0.935933	0.2197	
-0.00167925	1.31098	0.319981	
0.109201	1.35772	0.375246	
0.0902907	1.23506	0.376077	
0.105734	1.2948	0.276786	
0.168734	1.47067	0.201781	
0.242822	1.43708	0.152991	
0.247057	1.4347	0.250499	
0.212182	1.31459	0.219285	
-0.211369	0.923885	0	
-0.278713	0.85696	0	
-0.186407	0.830549	0	
-0.196211	0.8458	0.119009	
-0.152694	1.47611	0.40246	
-0.0833019	1.49301	0.344789	
-0.0552231	1.38907	0.38538	
-0.166036	1.37976	0.398541	
0.376757	1.32872	0.246468	
0.428195	1.25817	0.201755	
0.4284	1.25782	0.295024	
0.295334	1.24597	0.26697	
-0.00748686	1.04315	0.386084	
-0.105137	0.975975	0.404942	
-0.045108	0.948191	0.315425	
0.00844098	0.944821	0.400532	
-0.115695	1.05029	0.334241	
-0.045108	0.948191	0.315425	
-0.105137	0.975975	0.404942	
-0.140073	0.942584	0.309826	
0	0.5	0.1	
0.0404524	0.58928	0	
-0.0422582	0.562527	0	
0.00284042	0.609614	0.1018	
0.114055	1.37411	0	
0.133074	1.2641	0	
0.189613	1.31366	0	
0.190875	1.34709	0.10503	
-0.386476	0.682767	0.409527	
-0.323938	0.619127	0.347739	
-0.386792	0.683153	0.301384	
-0.289723	0.75771	0.393302	
0.0814864	1.49332	0.347681	
0.146853	1.47795	0.415992	
0.0728232	1.49467	0.426459	
0.109201	1.35772	0.375246	
-0.114443	1.01484	0.5	
-0.117202	1.0938	0.5	
-0.0427935	1.02817	0.5	
-0.0571477	1.11947	0.416349	
-0.331632	0.625807	0.165357	
-0.283151	0.746042	0.130367	
-0.386498	0.682794	0.200322	
-0.247852	0.673084	0.199607	
0.133074	1.2641	0	
0.0651412	1.2001	0	
0.158056	1.17188	0	
0.113965	1.18028	0.121768	
0	0.5	0.2	
0.0814864	0.506685	0.152319	
0	0.5	0.1	
0.00284042	0.609614	0.1018	
0.265828	0.94766	0.123486	
0.387337	0.975471	0.113668	
0.361351	0.935933	0.2197	
0.355602	0.87751	0.0966392	
0.277785	0.584265	0	
0.194604	0.628812	0	
0.228991	0.555519	0.0919014	
0.268393	0.665699	0	
0.14072	0.916025	0	
0.232997	0.88938	0	
0.210156	0.985203	0	
0.159132	0.984216	0.0920948	
-0.328716	0.623243	0.253532	
-0.259603	0.71434	0.292274	
-0.258165	0.571805	0.298245	
-0.247852	0.673084	0.199607	
0.386505	1.3172	0.0688254	
0.436762	1.24339	0.0969381	
0.380873	1.32394	0.152261	
0.28898	1.28652	0.0949489	
-0.0555676	1.32557	0	
0.0153159	1.36356	0	
-0.0372406	1.41779	0	
0.0105232	1.38676	0.111861	
0.0903521	1.10545	0	
-0.00425413	1.131	0	
0.0209546	1.03628	0	
0.0593465	1.06716	0.10856	
0.194604	0.628812	0	
0.191342	0.53806	0	
0.228991	0.555519	0.0919014	
0.125573	0.58604	0	
0.0761103	0.977349	0.33014	
-0.045108	0.948191	0.315425	
0.00844098	0.944821	0.400532	
0.00363562	1.02785	0.291568	
0.146853	0.522052	0.0840084	
0.0814864	0.506685	0.152319	
0.174678	0.531505	0.182891	
0.0999617	0.645199	0.138238	
0.428195	1.25817	0.201755	
0.469721	1.17135	0.161666	
0.460548	1.19467	0.23433	
0.334194	1.15432	0.215771	
0.176777	1.17678	0.5	
0.183156	1.27411	0.5	
0.274113	1.18316	0.5	
0.22536	1.15058	0.40335	
-0.0833019	1.49301	0.344789	
-0.0977967	1.49034	0.241226	
0	1.5	0.3	
-0.0964049	1.37384	0.276475	
-0.468495	1.17468	0.317109	
-0.477948	1.14685	0.415992	
-0.382289	1.08918	0.382504	
-0.343626	1.20201	0.373624	
-0.495012	1.07045	0.0718447	
-0.47591	1.15333	0.0923699	
-0.493437	1.08075	0.154224	
-0.357904	1.11593	0.101286	
0.495101	1.06982	0.427621	
0.398221	1	0.5	
0.409849	1.08152	0.5	
0.385098	1.08722	0.383771	
-0.317197	0.613495	0.431175	
-0.323938	0.619127	0.347739	
-0.386476	0.682767	0.409527	
-0.289723	0.75771	0.393302	
0.103403	0.84471	0.5	
0.0956709	0.76903	0.5	
0.0344957	0.828097	0.5	
0.0581157	0.769455	0.403061	
-0.363339	0.8495	0.5	
-0.440961	0.764302	0.431431	
-0.47591	0.846672	0.40763	
-0.351645	0.874975	0.390413	
-0.0734441	1.06169	0	
-0.16685	1.08834	0	
-0.142648	0.992859	0	
-0.10307	0.999921	0.0930669	
0.0153159	1.36356	0	
0.0105232	1.38676	0.111861	
-0.0555676	1.32557	0	
0.00439522	1.27731	0.103072	
0.0937412	0.930011	0.154317	
0.0244505	0.94868	0.233905	
-0.0105385	0.962638	0.111113	
-0.00436862	0.872297	0.154061	
-0.401548	0.957663	0	
-0.5	1	0.1	
-0.494668	0.927177	0.0735406	
-0.390863	0.914451	0.0980906	
-0.00643767	0.847524	0.25115	
0.0244505	0.94868	0.233905	
-0.00436862	0.872297	0.154061	
-0.0821557	0.901585	0.243527	
0.0209546	1.03628	0	
-0.048473	0.967143	0	
0.0461078	0.941573	0	
-0.0105385	0.962638	0.111113	
0.374193	1.33163	0.334643	
0.317206	1.3865	0.299678	
0.376757	1.32872	0.246468	
0.295334	1.24597	0.26697	
0.314271	0.949812	0	
0.387337	0.975471	0.113668	
0.265828	0.94766	0.123486	
0.355602	0.87751	0.0966392	
-0.47591	1.15333	0.0923699	
-0.495012	1.07045	0.0718447	
-0.404541	1.12695	0	
-0.357904	1.11593	0.101286	
0.476114	0.847306	0.0975404	
0.495101	0.930181	0.0723791	
0.394936	0.880197	0	
0.355602	0.87751	0.0966392	
0.470916	1.16804	0.300126	
0.378383	1.07129	0.271427	
0.493012	1.0833	0.344789	
0.385098	1.08722	0.383771	
-0.0369856	0.814061	0.5	
-0.0892911	0.866366	0.5	
-0.0218546	0.89013	0.5	
-0.087284	0.884388	0.408402	
0.209063	1.27717	0.342511	
0.0902907	1.23506	0.376077	
0.109201	1.35772	0.375246	
0.105734	1.2948	0.276786	
0.476114	1.15269	0.40246	
0.347642	1.19453	0.384775	
0.450285	1.21736	0.355302	
0.385098	1.08722	0.383771	
0.0854243	0.507351	0.248597	
0.0452903	0.623513	0.25784	
0.168734	0.529332	0.298219	
0.15722	0.635104	0.236843	
0.323338	0.935684	0.5	
0.365104	0.848769	0.5	
0.274113	0.816844	0.5	
0.368617	0.876452	0.385763	
0.228991	1.44448	0.408099	
0.146853	1.47795	0.415992	
0.174678	1.4685	0.317109	
0.109201	1.35772	0.375246	
0.0761103	0.977349	0.33014	
0.00844098	0.944821	0.400532	
-0.045108	0.948191	0.315425	
0.0531758	0.885699	0.315425	
0.325159	1.05851	0.165819	
0.353151	1.15839	0.109095	
0.253711	1.11341	0.104023	
0.334194	1.15432	0.215771	
-0.0983601	1.15643	0	
-0.119993	1.24669	0	
-0.18644	1.1823	0	
-0.136328	1.19004	0.119282	
-0.0833019	0.506988	0.155211	
0.00284042	0.609614	0.1018	
-0.0698189	0.504899	0.0723791	
-0.0982069	0.610875	0.136018	
-0.045108	0.948191	0.315425	
-0.105137	0.975975	0.404942	
-0.140073	0.942584	0.309826	
-0.087284	0.884388	0.408402	
0.317206	0.613502	0.200322	
0.374193	0.668368	0.165357	
0.3168	0.613169	0.104097	
0.247079	0.718599	0.118367	
-0.331632	1.37419	0.334643	
-0.257824	1.4284	0.295024	
-0.277785	1.41573	0.365862	
-0.263985	1.32297	0.375811	
-0.064316	0.676662	0.5	
-0.0956709	0.76903	0.5	
0	0.75	0.5	
-0.0862712	0.770823	0.389289	
0.376757	0.671284	0.253532	
0.317206	0.613502	0.200322	
0.316847	0.613208	0.301384	
0.278655	0.736565	0.241439	
-0.157632	0.894674	0.5	
-0.105137	0.975975	0.404942	
-0.0773947	0.947213	0.5	
-0.087284	0.884388	0.408402	
0.00505532	0.706778	0.339312	
0.0468326	0.745128	0.237913	
-0.081357	0.751661	0.265055	
0.0347483	0.794732	0.315425	
0.0728232	1.49467	0.426459	
0.146853	1.47795	0.415992	
0.0815241	1.40985	0.5	
0.109201	1.35772	0.375246	
-0.00643767	0.847524	0.25115	
-0.045108	0.948191	0.315425	
0.0244505	0.94868	0.233905	
-0.0821557	0.901585	0.243527	
0.152393	1.36791	0.5	
0.0815241	1.40985	0.5	
0.146853	1.47795	0.415992	
0.109201	1.35772	0.375246	
-0.468495	1.17468	0.317109	
-0.444481	1.22899	0.408099	
-0.477948	1.14685	0.415992	
-0.343626	1.20201	0.373624	
-0.386831	0.6832	0.104097	
-0.429146	0.74342	0.16876	
-0.386498	0.682794	0.200322	
-0.283151	0.746042	0.130367	
-0.0372406	1.41779	0	
0	1.5	0	
0	1.5	0.1	
0.0420691	1.42713	0	
-0.064316	1.32334	0.5	
-0.0850696	1.27829	0.394238	
-0.151231	1.3651	0.5	
-0.166036	1.37976	0.398541	
0.274113	0.816844	0.5	
0.176777	0.823223	0.5	
0.23097	0.904329	0.5	
0.211575	0.889225	0.384788	
-0.00643767	0.847524	0.3797	
0.00844098	0.944821	0.400532	
0.101939	0.907787	0.403472	
0.0531758	0.885699	0.315425	
0.469721	1.17135	0.161666	
0.428195	1.25817	0.201755	
0.436762	1.24339	0.0969381	
0.353151	1.15839	0.109095	
0.347642	1.19453	0.384775	
0.22536	1.15058	0.40335	
0.288623	1.13754	0.312711	
0.284123	1.06741	0.387999	
0.0704482	1.49501	0.0718447	
0	1.5	0.1	
0.0420691	1.42713	0	
0.0105232	1.38676	0.111861	
0.316847	0.613208	0.301384	
0.376757	0.671284	0.253532	
0.278655	0.736565	0.241439	
0.260241	0.698507	0.343916	
-0.46194	0.808658	0	
-0.444481	0.771009	0.0919014	
-0.356684	0.80649	0	
-0.41072	0.87541	0	
0.388274	0.684971	0.0791933	
0.3168	0.613169	0.104097	
0.374193	0.668368	0.165357	
0.247079	0.718599	0.118367	
0.316847	1.38679	0.198616	
0.317206	1.3865	0.299678	
0.247057	1.4347	0.250499	
0.212182	1.31459	0.219285	
-0.115695	1.05029	0.334241	
-0.105137	0.975975	0.404942	
-0.203766	0.963562	0.377533	
-0.140073	0.942584	0.309826	
0.168914	1.06767	0.155545	
0.208793	1.06331	0.266812	
0.0919908	1.06424	0.248206	
0.134932	0.977505	0.230093	
-0.045108	0.948191	0.315425	
0.00844098	0.944821	0.400532	
-0.105137	0.975975	0.404942	
-0.087284	0.884388	0.408402	
0.414183	1.13115	0	
0.353151	1.15839	0.109095	
0.337634	1.11556	0	
0.40353	1.07301	0.105949	
-0.00748686	1.04315	0.386084	
0.00844098	0.944821	0.400532	
-0.045108	0.948191	0.315425	
0.00363562	1.02785	0.291568	
0.228991	0.555519	0.0919014	
0.191342	0.53806	0	
0.146853	0.522052	0.0840084	
0.125573	0.58604	0	
0.133074	1.2641	0	
0.113965	1.18028	0.121768	
0.158056	1.17188	0	
0.189162	1.24479	0.0938772	
0.277785	1.41573	0	
0.261819	1.31903	0	
0.317233	1.38648	0.0904728	
0.235698	1.44096	0.068569	
-0.0833019	0.506988	0.155211	
0	0.5	0.1	
-0.0698189	0.504899	0.0723791	
0.00284042	0.609614	0.1018	
-0.5	1	0.4	
-0.493315	1.08149	0.347681	
-0.494668	1.07282	0.426459	
-0.382289	1.08918	0.382504	
0.460548	0.805333	0.26567	
0.428195	0.741835	0.298245	
0.469721	0.828647	0.338334	
0.358257	0.834187	0.252847	
-0.386831	1.3168	0.395903	
-0.386498	1.31721	0.299678	
-0.331632	1.37419	0.334643	
-0.263985	1.32297	0.375811	
-0.171353	1.46972	0.161666	
-0.144862	1.47856	0.0783483	
-0.0810399	1.49339	0.14715	
-0.153777	1.36779	0.103264	
-0.168688	0.718299	0	
-0.183989	0.672241	0.119932	
-0.114467	0.613668	0	
-0.111014	0.733523	0.0849706	
0.414183	1.13115	0	
0.478555	1.14486	0.0783483	
0.353151	1.15839	0.109095	
0.40353	1.07301	0.105949	
-0.440961	0.764302	0.431431	
-0.347453	0.767839	0.5	
-0.386476	0.682767	0.409527	
-0.289723	0.75771	0.393302	
-0.189227	0.766031	0.208899	
-0.283151	0.746042	0.130367	
-0.183989	0.672241	0.119932	
-0.247852	0.673084	0.199607	
0.260232	1.21075	0.160089	
0.253711	1.11341	0.104023	
0.353151	1.15839	0.109095	
0.334194	1.15432	0.215771	
-0.183156	1.27411	0.5	
-0.263985	1.32297	0.375811	
-0.232161	1.34745	0.5	
-0.166036	1.37976	0.398541	
-0.0151696	1.04156	0.198031	
-0.0611059	1.11559	0.264866	
0.00363562	1.02785	0.291568	
0.0323895	1.13978	0.258564	
0.478555	0.855138	0.421652	
0.495293	0.931554	0.431403	
0.493389	0.91896	0.35285	
0.368617	0.876452	0.385763	
0.376757	0.671284	0.253532	
0.374193	0.668368	0.165357	
0.317206	0.613502	0.200322	
0.278655	0.736565	0.241439	
0	0.5	0.3	
-0.0810399	0.506611	0.35285	
0	0.5	0.4	
-0.039093	0.610067	0.388942	
-0.064316	1.32334	0.5	
-0.151231	1.3651	0.5	
-0.0552231	1.38907	0.38538	
-0.166036	1.37976	0.398541	
-0.47591	0.846672	0.40763	
-0.495012	0.929552	0.428155	
-0.409849	0.918476	0.5	
-0.351645	0.874975	0.390413	
0.374193	1.33163	0.334643	
0.376757	1.32872	0.246468	
0.4284	1.25782	0.295024	
0.295334	1.24597	0.26697	
0.414991	1.04951	0	
0.5	1	0	
0.5	1	0.1	
0.409478	0.967053	0	
0.0761103	0.977349	0.33014	
0.0244505	0.94868	0.233905	
-0.045108	0.948191	0.315425	
0.00363562	1.02785	0.291568	
0.157632	1.10533	0.5	
0.0691997	1.04586	0.5	
0.0868435	1.13736	0.5	
0.113162	1.01769	0.414132	
-0.437078	0.757178	0.347009	
-0.470668	0.831266	0.298219	
-0.47591	0.846672	0.40763	
-0.351645	0.874975	0.390413	
0.274113	1.18316	0.5	
0.281092	1.28109	0.5	
0.347453	1.23216	0.5	
0.347642	1.19453	0.384775	
-0.401548	0.957663	0	
-0.5	1	0	
-0.5	1	0.1	
-0.426463	1.04414	0	
0.0807477	1.49344	0.154224	
0	1.5	0.2	
0	1.5	0.1	
0.0105232	1.38676	0.111861	
-0.0833019	1.49301	0.344789	
0	1.5	0.3	
0	1.5	0.4	
-0.0552231	1.38907	0.38538	
-0.440961	0.764302	0.431431	
-0.437078	0.757178	0.347009	
-0.47591	0.846672	0.40763	
-0.351645	0.874975	0.390413	
0.0903521	1.10545	0	
0.0209546	1.03628	0	
0.115537	1.01075	0	
0.0593465	1.06716	0.10856	
-0.274113	1.18316	0.5	
-0.347453	1.23216	0.5	
-0.280403	1.2804	0.5	
-0.343626	1.20201	0.373624	
-0.279096	1.24359	0.272562	
-0.234257	1.21312	0.375398	
-0.18052	1.3078	0.334608	
-0.263985	1.32297	0.375811	
0.476114	0.847306	0.0975404	
0.380207	0.80292	0	
0.46194	0.808658	0	
0.439458	0.761512	0.0756919	
0.153328	1.47591	0.0923699	
0.242822	1.43708	0.152991	
0.168734	1.47067	0.201781	
0.190875	1.34709	0.10503	
0.346509	1.02379	0	
0.387337	0.975471	0.113668	
0.414991	1.04951	0	
0.40353	1.07301	0.105949	
-0.243391	1.43676	0.0969381	
-0.171353	1.46972	0.161666	
-0.258165	1.42819	0.201755	
-0.153777	1.36779	0.103264	
-0.0815241	0.590151	0.5	
-0.152126	0.632735	0.5	
-0.064316	0.676662	0.5	
-0.039093	0.610067	0.388942	
-0.176777	1.17678	0.5	
-0.107214	1.16612	0.5	
-0.117202	1.0938	0.5	
-0.179827	1.088	0.408491	
-0.114467	0.613668	0	
-0.152694	0.523886	0.0975404	
-0.0698189	0.504899	0.0723791	
-0.0982069	0.610875	0.136018	
0.242822	0.562922	0.347009	
0.247057	0.565302	0.249501	
0.168734	0.529332	0.298219	
0.15722	0.635104	0.236843	
-0.168688	0.718299	0	
-0.203173	0.626976	0	
-0.114467	0.613668	0	
-0.183989	0.672241	0.119932	
-0.0151696	1.04156	0.198031	
0.00363562	1.02785	0.291568	
0.0919908	1.06424	0.248206	
0.0323895	1.13978	0.258564	
-0.444481	0.771009	0.0919014	
-0.46194	0.808658	0	
-0.477948	0.853147	0.0840084	
-0.41072	0.87541	0	
-0.257824	0.5716	0.204976	
-0.194667	0.539452	0.26567	
-0.168043	0.529084	0.199874	
-0.136534	0.645188	0.231761	
0.174678	1.4685	0.317109	
0.146853	1.47795	0.415992	
0.0814864	1.49332	0.347681	
0.109201	1.35772	0.375246	
-0.110633	0.921519	0.156892	
-0.10307	0.999921	0.0930669	
-0.0105385	0.962638	0.111113	
-0.0724446	0.868744	0.084223	
0.288623	1.13754	0.312711	
0.378383	1.07129	0.271427	
0.385098	1.08722	0.383771	
0.284123	1.06741	0.387999	
-0.00674902	1.18961	0.168493	
-0.0330822	1.21734	0.266884	
-0.0611059	1.11559	0.264866	
0.0323895	1.13978	0.258564	
-0.00748686	1.04315	0.386084	
0.00844098	0.944821	0.400532	
0.0761103	0.977349	0.33014	
0.113162	1.01769	0.414132	
-0.470668	1.16873	0.201781	
-0.434698	1.24706	0.250499	
-0.468495	1.17468	0.317109	
-0.364752	1.11394	0.23148	
0.0761103	0.977349	0.33014	
0.00844098	0.944821	0.400532	
-0.00748686	1.04315	0.386084	
0.00363562	1.02785	0.291568	
-0.0698189	0.504899	0.0723791	
0	0.5	0.1	
-0.0422582	0.562527	0	
0.00284042	0.609614	0.1018	
-0.302044	0.949354	0	
-0.211369	0.923885	0	
-0.237047	1.02014	0	
-0.227254	0.962083	0.121579	
-0.00643767	0.847524	0.25115	
0.0468326	0.745128	0.237913	
0.106858	0.844305	0.230248	
0.0347483	0.794732	0.315425	
-0.114443	1.01484	0.5	
-0.177191	1.03636	0.5	
-0.117202	1.0938	0.5	
-0.179827	1.088	0.408491	
0.268393	0.665699	0	
0.228991	0.555519	0.0919014	
0.277785	0.584265	0	
0.3168	0.613169	0.104097	
-0.389036	1.20743	0	
-0.46194	1.19134	0	
-0.404541	1.12695	0	
-0.440961	1.2357	0.068569	
0.261819	1.31903	0	
0.317233	1.38648	0.0904728	
0.190875	1.34709	0.10503	
0.28898	1.28652	0.0949489	
0.490343	1.0978	0.241226	
0.470916	1.16804	0.300126	
0.460548	1.19467	0.23433	
0.378383	1.07129	0.271427	
0.386505	0.682803	0.431175	
0.380873	0.676062	0.347739	
0.317233	0.613524	0.409527	
0.260241	0.698507	0.343916	
0.409478	0.967053	0	
0.387337	0.975471	0.113668	
0.314271	0.949812	0	
0.355602	0.87751	0.0966392	
-0.0422582	0.562527	0	
0	0.5	0.1	
0	0.5	0	
0.0404524	0.58928	0	
0.5	1	0.3	
0.490343	1.0978	0.241226	
0.5	1	0.2	
0.378383	1.07129	0.271427	
0.133074	1.2641	0	
0.189613	1.31366	0	
0.190875	1.34709	0.10503	
0.189162	1.24479	0.0938772	
0.353553	0.646447	0	
0.388274	0.684971	0.0791933	
0.268393	0.665699	0	
0.3168	0.613169	0.104097	
0.106858	0.844305	0.230248	
0.121965	0.82524	0.342904	
0.0531758	0.885699	0.315425	
0.0347483	0.794732	0.315425	
0.121965	0.82524	0.342904	
0.101939	0.907787	0.403472	
0.211575	0.889225	0.384788	
0.148799	0.913537	0.303647	
0.347602	0.985936	0.348343	
0.385098	1.08722	0.383771	
0.378383	1.07129	0.271427	
0.284123	1.06741	0.387999	
-0.142648	0.992859	0	
-0.117671	0.89803	0	
-0.048473	0.967143	0	
-0.10307	0.999921	0.0930669	
-0.353553	0.646447	0	
-0.315029	0.611726	0.0791933	
-0.263582	0.680587	0	
-0.331361	0.727047	0	
-0.353553	1.35355	0	
-0.317197	1.38651	0.0688254	
-0.386476	1.31723	0.0904728	
-0.318983	1.26174	0	
0.0807477	0.506563	0.345776	
0.0854243	0.507351	0.248597	
0	0.5	0.3	
0.0452903	0.623513	0.25784	
0.274113	0.816844	0.5	
0.176777	0.823223	0.5	
0.211575	0.889225	0.384788	
0.206682	0.777113	0.400851	
-0.468495	0.825322	0.182891	
-0.434698	0.752943	0.249501	
-0.429146	0.74342	0.16876	
-0.332607	0.773484	0.222023	
-0.238488	1.43946	0.424308	
-0.263985	1.32297	0.375811	
-0.277785	1.41573	0.365862	
-0.166036	1.37976	0.398541	
0.232161	0.652547	0.5	
0.183156	0.725887	0.5	
0.278087	0.721913	0.5	
0.206682	0.777113	0.400851	
0.210156	0.985203	0	
0.232997	0.88938	0	
0.314271	0.949812	0	
0.265828	0.94766	0.123486	
0.409478	0.967053	0	
0.495101	0.930181	0.0723791	
0.5	1	0.1	
0.387337	0.975471	0.113668	
-0.168688	0.718299	0	
-0.263582	0.680587	0	
-0.203173	0.626976	0	
-0.183989	0.672241	0.119932	
-0.157632	0.894674	0.5	
-0.157632	0.968645	0.5	
-0.0773947	0.947213	0.5	
-0.105137	0.975975	0.404942	
0.274113	1.18316	0.5	
0.323338	1.06432	0.5	
0.23097	1.09567	0.5	
0.284123	1.06741	0.387999	
-0.00643767	0.847524	0.25115	
0.0531758	0.885699	0.315425	
-0.00643767	0.847524	0.3797	
0.0347483	0.794732	0.315425	
-0.238488	0.560542	0.0756919	
-0.277785	0.584265	0	
-0.315029	0.611726	0.0791933	
-0.203173	0.626976	0	
0.460548	0.805333	0.26567	
0.490343	0.902203	0.258774	
0.470916	0.831957	0.199874	
0.358257	0.834187	0.252847	
0.439458	1.23849	0.424308	
0.388274	1.31503	0.420807	
0.415735	1.27779	0.365862	
0.347642	1.19453	0.384775	
-0.152694	0.523886	0.0975404	
-0.114467	0.613668	0	
-0.191342	0.53806	0	
-0.203173	0.626976	0	
0.374193	0.668368	0.165357	
0.415735	0.722215	0.134138	
0.388274	0.684971	0.0791933	
0.341118	0.774271	0.0916023	
0.201164	0.726422	0	
0.314857	0.742551	0	
0.245477	0.808349	0	
0.247079	0.718599	0.118367	
-0.0427935	1.02817	0.5	
0.0165433	0.957567	0.5	
-0.0773947	0.947213	0.5	
0.00844098	0.944821	0.400532	
-0.323338	1.06432	0.5	
-0.323338	0.935684	0.5	
-0.397525	1	0.5	
-0.275403	1.0393	0.403336	
-0.0815241	1.40985	0.5	
-0.0552231	1.38907	0.38538	
-0.151231	1.3651	0.5	
-0.166036	1.37976	0.398541	
-0.353553	1.35355	0.5	
-0.280403	1.2804	0.5	
-0.386831	1.3168	0.395903	
-0.315029	1.38827	0.420807	
-0.00167925	1.31098	0.319981	
0.0196341	1.38361	0.225797	
0.105734	1.2948	0.276786	
0.0143983	1.28276	0.204525	
-0.0427935	1.02817	0.5	
-0.00748686	1.04315	0.386084	
0.0165433	0.957567	0.5	
0.00844098	0.944821	0.400532	
-0.0925337	0.803549	0	
0.00183684	0.777669	0	
-0.0232782	0.872416	0	
-0.0724446	0.868744	0.084223	
-0.239777	0.86007	0.398057	
-0.289723	0.75771	0.393302	
-0.274113	0.816844	0.5	
-0.351645	0.874975	0.390413	
0.495293	1.06845	0.0685965	
0.5	1	0	
0.5	1	0.1	
0.414991	1.04951	0	
-0.315029	0.611726	0.0791933	
-0.386831	0.6832	0.104097	
-0.331632	0.625807	0.165357	
-0.283151	0.746042	0.130367	
-0.00643767	0.847524	0.25115	
0.106858	0.844305	0.230248	
0.0531758	0.885699	0.315425	
0.0347483	0.794732	0.315425	
-0.353553	0.646447	0	
-0.315029	0.611726	0.0791933	
-0.331361	0.727047	0	
-0.386831	0.6832	0.104097	
0.0807477	0.506563	0.345776	
0.153328	0.52409	0.40763	
0.168734	0.529332	0.298219	
0.0738912	0.610829	0.388761	
0.3168	1.38683	0.395903	
0.353553	1.35355	0.5	
0.281092	1.28109	0.5	
0.388274	1.31503	0.420807	
-0.0697093	1.32708	0.167311	
0.0105232	1.38676	0.111861	
0.0196341	1.38361	0.225797	
0.0143983	1.28276	0.204525	
-0.0726386	0.798943	0.15243	
-0.00982582	0.726304	0.0884564	
-0.0297704	0.68077	0.178611	
-0.111014	0.733523	0.0849706	
0.261819	1.31903	0	
0.189613	1.31366	0	
0.231243	1.24169	0	
0.189162	1.24479	0.0938772	
0.0691997	1.04586	0.5	
0.0165433	0.957567	0.5	
-0.0427935	1.02817	0.5	
-0.00748686	1.04315	0.386084	
0.493012	1.0833	0.344789	
0.5	1	0.4	
0.495101	1.06982	0.427621	
0.385098	1.08722	0.383771	
-0.257956	1.11632	0	
-0.337562	1.05476	0	
-0.256772	1.06769	0.100506	
-0.357904	1.11593	0.101286	
-0.191342	1.46194	0	
-0.201912	1.36999	0	
-0.118932	1.39861	0	
-0.153777	1.36779	0.103264	
0.353553	0.646447	0	
0.388274	0.684971	0.0791933	
0.314857	0.742551	0	
0.268393	0.665699	0	
0.380207	0.80292	0	
0.46194	0.808658	0	
0.394936	0.880197	0	
0.476114	0.847306	0.0975404	
0.346509	1.02379	0	
0.414991	1.04951	0	
0.337634	1.11556	0	
0.40353	1.07301	0.105949	
0.478555	0.855138	0.421652	
0.436762	0.756609	0.403062	
0.46194	0.808658	0.5	
0.365104	0.848769	0.5	
-0.0734441	1.06169	0	
-0.00425413	1.131	0	
-0.0983601	1.15643	0	
-0.0543483	1.10288	0.107179	
-0.470668	1.16873	0.201781	
-0.492649	1.08542	0.251403	
-0.493437	1.08075	0.154224	
-0.364752	1.11394	0.23148	
-0.0697093	1.32708	0.167311	
0.00439522	1.27731	0.103072	
0.0105232	1.38676	0.111861	
0.0143983	1.28276	0.204525	
0	0.5	0.1	
0.0728232	0.505332	0.0735406	
0.0404524	0.58928	0	
0.00284042	0.609614	0.1018	
0.0704482	1.49501	0.0718447	
0.0420691	1.42713	0	
0.0975452	1.49039	0	
0.114055	1.37411	0	
-0.404541	1.12695	0	
-0.328307	1.16356	0	
-0.389036	1.20743	0	
-0.357904	1.11593	0.101286	
0.0761103	0.977349	0.33014	
0.00844098	0.944821	0.400532	
0.101939	0.907787	0.403472	
0.113162	1.01769	0.414132	
-0.232161	1.34745	0.5	
-0.263985	1.32297	0.375811	
-0.238488	1.43946	0.424308	
-0.166036	1.37976	0.398541	
0.0815241	0.590151	0.5	
0.0704482	0.504988	0.428155	
-3.15026e-17	0.601779	0.5	
0.0738912	0.610829	0.388761	
0.337634	1.11556	0	
0.414183	1.13115	0	
0.373926	1.19893	0	
0.353151	1.15839	0.109095	
-0.243391	0.563238	0.403062	
-0.152126	0.632735	0.5	
-0.191342	0.53806	0.5	
-0.144862	0.521445	0.421652	
-0.194667	1.46055	0.23433	
-0.258165	1.42819	0.201755	
-0.171353	1.46972	0.161666	
-0.193559	1.35773	0.245031	
0	0.5	0.1	
0.0814864	0.506685	0.152319	
0.0728232	0.505332	0.0735406	
0.00284042	0.609614	0.1018	
-0.144862	0.521445	0.421652	
-0.0684459	0.504707	0.431403	
-0.0810399	0.506611	0.35285	
-0.039093	0.610067	0.388942	
0.46194	1.19134	0	
0.373926	1.19893	0	
0.478555	1.14486	0.0783483	
0.436762	1.24339	0.0969381	
0.414183	1.13115	0	
0.414991	1.04951	0	
0.495293	1.06845	0.0685965	
0.40353	1.07301	0.105949	
0.346509	1.02379	0	
0.409478	0.967053	0	
0.414991	1.04951	0	
0.387337	0.975471	0.113668	
-0.426463	1.04414	0	
-0.337562	1.05476	0	
-0.404541	1.12695	0	
-0.357904	1.11593	0.101286	
-0.0773947	0.947213	0.5	
0.0165433	0.957567	0.5	
-0.0218546	0.89013	0.5	
0.00844098	0.944821	0.400532	
0.106858	0.844305	0.230248	
0.0531758	0.885699	0.315425	
0.121965	0.82524	0.342904	
0.148799	0.913537	0.303647	
0.414183	1.13115	0	
0.337634	1.11556	0	
0.414991	1.04951	0	
0.40353	1.07301	0.105949	
-0.0218546	0.89013	0.5	
0.0165433	0.957567	0.5	
0.0634445	0.898618	0.5	
0.00844098	0.944821	0.400532	
-0.263582	0.680587	0	
-0.315029	0.611726	0.0791933	
-0.277785	0.584265	0	
-0.203173	0.626976	0	
0.316847	0.613208	0.301384	
0.380873	0.676062	0.347739	
0.376757	0.671284	0.253532	
0.260241	0.698507	0.343916	
-0.0698189	1.4951	0.427621	
8.18872e-17	1.39822	0.5	
-0.0815241	1.40985	0.5	
-0.0552231	1.38907	0.38538	
0.347642	1.19453	0.384775	
0.288623	1.13754	0.312711	
0.385098	1.08722	0.383771	
0.284123	1.06741	0.387999	
0.0196341	1.38361	0.225797	
0.0105232	1.38676	0.111861	
0.098462	1.32087	0.159093	
0.0143983	1.28276	0.204525	
0.106675	0.966314	0.5	
0.0165433	0.957567	0.5	
0.0691997	1.04586	0.5	
0.113162	1.01769	0.414132	
0.098462	1.32087	0.159093	
0.105734	1.2948	0.276786	
0.0196341	1.38361	0.225797	
0.0143983	1.28276	0.204525	
0.152126	0.632735	0.5	
0.153328	0.52409	0.40763	
0.0815241	0.590151	0.5	
0.0738912	0.610829	0.388761	
0.5	1	0.1	
0.493012	0.916698	0.155211	
0.5	1	0.2	
0.387337	0.975471	0.113668	
0.261819	1.31903	0	
0.231243	1.24169	0	
0.28898	1.28652	0.0949489	
0.189162	1.24479	0.0938772	
-0.363339	1.1505	0.5	
-0.444481	1.22899	0.408099	
-0.347453	1.23216	0.5	
-0.343626	1.20201	0.373624	
0.0105232	1.38676	0.111861	
0.00439522	1.27731	0.103072	
0.098462	1.32087	0.159093	
0.0143983	1.28276	0.204525	
-0.328716	0.623243	0.253532	
-0.331632	0.625807	0.165357	
-0.386498	0.682794	0.200322	
-0.247852	0.673084	0.199607	
-0.409849	1.08152	0.5	
-0.477948	1.14685	0.415992	
-0.363339	1.1505	0.5	
-0.382289	1.08918	0.382504	
-0.176777	0.823223	0.5	
-0.23097	0.904329	0.5	
-0.157632	0.894674	0.5	
-0.239777	0.86007	0.398057	
-0.117671	0.89803	0	
-0.186407	0.830549	0	
-0.0925337	0.803549	0	
-0.0724446	0.868744	0.084223	
-0.429146	1.25658	0.33124	
-0.386498	1.31721	0.299678	
-0.386831	1.3168	0.395903	
-0.343626	1.20201	0.373624	
-0.257824	0.5716	0.204976	
-0.328716	0.623243	0.253532	
-0.258165	0.571805	0.298245	
-0.247852	0.673084	0.199607	
0.478555	0.855138	0.421652	
0.409849	0.918476	0.5	
0.495293	0.931554	0.431403	
0.368617	0.876452	0.385763	
-0.0815241	1.40985	0.5	
-0.152694	1.47611	0.40246	
-0.0552231	1.38907	0.38538	
-0.166036	1.37976	0.398541	
-0.183156	0.725887	0.5	
-0.281585	0.718415	0.5	
-0.274113	0.816844	0.5	
-0.289723	0.75771	0.393302	
-0.194667	0.539452	0.26567	
-0.0977967	0.509657	0.258774	
-0.168043	0.529084	0.199874	
-0.136534	0.645188	0.231761	
0.450285	1.21736	0.355302	
0.476114	1.15269	0.40246	
0.439458	1.23849	0.424308	
0.347642	1.19453	0.384775	
0.46194	1.19134	0.5	
0.439458	1.23849	0.424308	
0.476114	1.15269	0.40246	
0.369516	1.15306	0.5	
0.476114	1.15269	0.40246	
0.409849	1.08152	0.5	
0.369516	1.15306	0.5	
0.385098	1.08722	0.383771	
-0.238488	1.43946	0.424308	
-0.315029	1.38827	0.420807	
-0.277785	1.41573	0.365862	
-0.263985	1.32297	0.375811	
0.317233	0.613524	0.409527	
0.278087	0.721913	0.5	
0.353553	0.646447	0.5	
0.386505	0.682803	0.431175	
-0.23097	1.09567	0.5	
-0.179827	1.088	0.408491	
-0.177191	1.03636	0.5	
-0.275403	1.0393	0.403336	
0.235698	1.44096	0.068569	
0.153328	1.47591	0.0923699	
0.191342	1.46194	0	
0.202324	1.37852	0	
0.373926	1.19893	0	
0.300884	1.19872	0	
0.337634	1.11556	0	
0.353151	1.15839	0.109095	
-0.493315	0.918514	0.152319	
-0.494668	0.927177	0.0735406	
-0.5	1	0.1	
-0.390863	0.914451	0.0980906	
-0.110633	0.921519	0.156892	
-0.00436862	0.872297	0.154061	
-0.0726386	0.798943	0.15243	
-0.0724446	0.868744	0.084223	
0.394936	0.880197	0	
0.409478	0.967053	0	
0.314271	0.949812	0	
0.355602	0.87751	0.0966392	
-0.323338	0.935684	0.5	
-0.239777	0.86007	0.398057	
-0.274113	0.816844	0.5	
-0.351645	0.874975	0.390413	
0.0401436	1.2912	0	
-0.0295403	1.22514	0	
0.0651412	1.2001	0	
0.00439522	1.27731	0.103072	
-0.144862	0.521445	0.421652	
-0.0815241	0.590151	0.5	
-0.0684459	0.504707	0.431403	
-0.039093	0.610067	0.388942	
-0.386831	0.6832	0.104097	
-0.386498	0.682794	0.200322	
-0.331632	0.625807	0.165357	
-0.283151	0.746042	0.130367	
0.268393	0.665699	0	
0.314857	0.742551	0	
0.201164	0.726422	0	
0.247079	0.718599	0.118367	
-0.0684459	0.504707	0.431403	
0	0.5	0.5	
0	0.5	0.4	
-3.15026e-17	0.601779	0.5	
-0.494668	1.07282	0.426459	
-0.5	1	0.5	
-0.5	1	0.4	
-0.397525	1	0.5	
-0.0328721	0.629311	0	
0.0404524	0.58928	0	
0.0248177	0.686626	0	
0.00284042	0.609614	0.1018	
-0.495012	0.929552	0.428155	
-0.5	1	0.4	
-0.5	1	0.5	
-0.397525	1	0.5	
-0.201912	1.36999	0	
-0.191342	1.46194	0	
-0.243391	1.43676	0.0969381	
-0.153777	1.36779	0.103264	
0.495293	0.931554	0.431403	
0.5	1	0.5	
0.5	1	0.4	
0.398221	1	0.5	
0.0807477	1.49344	0.154224	
0.0854243	1.49265	0.251403	
0	1.5	0.2	
0.0196341	1.38361	0.225797	
0.314271	0.949812	0	
0.409478	0.967053	0	
0.346509	1.02379	0	
0.387337	0.975471	0.113668	
0	0.5	0.5	
0	0.5	0.4	
-3.15026e-17	0.601779	0.5	
0.0704482	0.504988	0.428155	
0	1.5	0.4	
0	1.5	0.5	
8.18872e-17	1.39822	0.5	
0.0728232	1.49467	0.426459	
-0.25	1	0.5	
-0.23097	1.09567	0.5	
-0.177191	1.03636	0.5	
-0.275403	1.0393	0.403336	
-0.296327	0.833736	0.292179	
-0.289723	0.75771	0.393302	
-0.239777	0.86007	0.398057	
-0.351645	0.874975	0.390413	
0.495101	1.06982	0.427621	
0.5	1	0.4	
0.5	1	0.5	
0.398221	1	0.5	
-0.0698189	1.4951	0.427621	
0	1.5	0.4	
0	1.5	0.5	
8.18872e-17	1.39822	0.5	
-0.328716	0.623243	0.253532	
-0.323938	0.619127	0.347739	
-0.258165	0.571805	0.298245	
-0.259603	0.71434	0.292274	
-0.285945	1.12176	0.325452	
-0.234257	1.21312	0.375398	
-0.279096	1.24359	0.272562	
-0.343626	1.20201	0.373624	
0.114055	1.37411	0	
0.191342	1.46194	0	
0.153328	1.47591	0.0923699	
0.202324	1.37852	0	
-0.274113	0.816844	0.5	
-0.323338	0.935684	0.5	
-0.23097	0.904329	0.5	
-0.239777	0.86007	0.398057	
-0.477948	1.14685	0.415992	
-0.46194	1.19134	0.5	
-0.363339	1.1505	0.5	
-0.444481	1.22899	0.408099	
-0.170219	0.871655	0.235589	
-0.140073	0.942584	0.309826	
-0.144063	0.852748	0.341365	
-0.0821557	0.901585	0.243527	
-0.152694	1.47611	0.40246	
-0.0698189	1.4951	0.427621	
-0.0815241	1.40985	0.5	
-0.0552231	1.38907	0.38538	
-0.0105385	0.962638	0.111113	
-0.00436862	0.872297	0.154061	
-0.110633	0.921519	0.156892	
-0.0724446	0.868744	0.084223	
0.141405	0.904892	0.5	
0.103403	0.84471	0.5	
0.0634445	0.898618	0.5	
0.101939	0.907787	0.403472	
0.0807477	1.49344	0.154224	
0	1.5	0.1	
0.0704482	1.49501	0.0718447	
0.0105232	1.38676	0.111861	
-0.238488	1.43946	0.424308	
-0.232161	1.34745	0.5	
-0.315029	1.38827	0.420807	
-0.263985	1.32297	0.375811	
-0.191342	1.46194	0	
-0.118932	1.39861	0	
-0.144862	1.47856	0.0783483	
-0.153777	1.36779	0.103264	
0.478555	1.14486	0.0783483	
0.414183	1.13115	0	
0.495293	1.06845	0.0685965	
0.40353	1.07301	0.105949	
-0.183156	1.27411	0.5	
-0.280403	1.2804	0.5	
-0.232161	1.34745	0.5	
-0.263985	1.32297	0.375811	
0.121965	0.82524	0.342904	
0.0531758	0.885699	0.315425	
0.101939	0.907787	0.403472	
0.148799	0.913537	0.303647	
-0.409849	0.918476	0.5	
-0.363339	0.8495	0.5	
-0.47591	0.846672	0.40763	
-0.351645	0.874975	0.390413	
-0.347453	0.767839	0.5	
-0.281585	0.718415	0.5	
-0.386476	0.682767	0.409527	
-0.289723	0.75771	0.393302	
-0.0638367	0.704239	0	
0.00183684	0.777669	0	
-0.0925337	0.803549	0	
-0.00982582	0.726304	0.0884564	
-0.0328721	0.629311	0	
0.0248177	0.686626	0	
-0.0638367	0.704239	0	
-0.00982582	0.726304	0.0884564	
-0.317197	0.613495	0.431175	
-0.386476	0.682767	0.409527	
-0.353553	0.646447	0.5	
-0.281585	0.718415	0.5	
-0.0372406	1.41779	0	
0	1.5	0.1	
0	1.5	0	
-0.0684459	1.49529	0.0685965	
-0.493315	0.918514	0.152319	
-0.468495	0.825322	0.182891	
-0.477948	0.853147	0.0840084	
-0.390863	0.914451	0.0980906	
-0.168043	1.47092	0.300126	
-0.194667	1.46055	0.23433	
-0.0964049	1.37384	0.276475	
-0.193559	1.35773	0.245031	
0.439458	0.761512	0.0756919	
0.415735	0.722215	0.134138	
0.450285	0.782644	0.144698	
0.341118	0.774271	0.0916023	
-0.257956	1.11632	0	
-0.237047	1.02014	0	
-0.16685	1.08834	0	
-0.256772	1.06769	0.100506	
0.0761103	0.977349	0.33014	
0.101939	0.907787	0.403472	
0.00844098	0.944821	0.400532	
0.0531758	0.885699	0.315425	
-0.183156	1.27411	0.5	
-0.274113	1.18316	0.5	
-0.280403	1.2804	0.5	
-0.234257	1.21312	0.375398	
0.493012	1.0833	0.344789	
0.490343	1.0978	0.241226	
0.5	1	0.3	
0.378383	1.07129	0.271427	
-0.401548	0.957663	0	
-0.5	1	0.1	
-0.5	1	0	
-0.494668	0.927177	0.0735406	
-0.26105	1.2034	0	
-0.318983	1.26174	0	
-0.328307	1.16356	0	
-0.277342	1.24516	0.0975038	
0.0956709	0.76903	0.5	
0.176777	0.823223	0.5	
0.183156	0.725887	0.5	
0.206682	0.777113	0.400851	
0.470916	1.16804	0.300126	
0.490343	1.0978	0.241226	
0.493012	1.0833	0.344789	
0.378383	1.07129	0.271427	
0.0943468	0.754666	0	
0.00183684	0.777669	0	
0.0248177	0.686626	0	
-0.00982582	0.726304	0.0884564	
0.495101	0.930181	0.0723791	
0.5	1	0.1	
0.5	1	0	
0.409478	0.967053	0	
0.439458	1.23849	0.424308	
0.369516	1.15306	0.5	
0.347453	1.23216	0.5	
0.347642	1.19453	0.384775	
0.439458	1.23849	0.424308	
0.347453	1.23216	0.5	
0.388274	1.31503	0.420807	
0.347642	1.19453	0.384775	
0.242822	1.43708	0.152991	
0.316847	1.38679	0.198616	
0.247057	1.4347	0.250499	
0.212182	1.31459	0.219285	
0	0.5	0.3	
0.0854243	0.507351	0.248597	
0	0.5	0.2	
0.0452903	0.623513	0.25784	
-0.468495	1.17468	0.317109	
-0.492649	1.08542	0.251403	
-0.470668	1.16873	0.201781	
-0.364752	1.11394	0.23148	
-0.176777	1.17678	0.5	
-0.274113	1.18316	0.5	
-0.183156	1.27411	0.5	
-0.234257	1.21312	0.375398	
-0.217356	1.45028	0.355302	
-0.168043	1.47092	0.300126	
-0.152694	1.47611	0.40246	
-0.166036	1.37976	0.398541	
-0.444481	1.22899	0.408099	
-0.386831	1.3168	0.395903	
-0.347453	1.23216	0.5	
-0.343626	1.20201	0.373624	
-0.183156	1.27411	0.5	
-0.151231	1.3651	0.5	
-0.064316	1.32334	0.5	
-0.0850696	1.27829	0.394238	
0.228991	1.44448	0.408099	
0.152393	1.36791	0.5	
0.191342	1.46194	0.5	
0.146853	1.47795	0.415992	
-0.0372406	1.41779	0	
0.0153159	1.36356	0	
0.0420691	1.42713	0	
0.0105232	1.38676	0.111861	
-0.217356	1.45028	0.355302	
-0.238488	1.43946	0.424308	
-0.277785	1.41573	0.365862	
-0.166036	1.37976	0.398541	
-0.152694	0.523886	0.0975404	
-0.217356	0.549715	0.144698	
-0.168043	0.529084	0.199874	
-0.0982069	0.610875	0.136018	
-0.0638367	0.704239	0	
-0.00982582	0.726304	0.0884564	
-0.0925337	0.803549	0	
-0.111014	0.733523	0.0849706	
-3.15026e-17	0.601779	0.5	
-0.0684459	0.504707	0.431403	
-0.0815241	0.590151	0.5	
-0.039093	0.610067	0.388942	
-0.258165	1.42819	0.201755	
-0.257824	1.4284	0.295024	
-0.328716	1.37676	0.246468	
-0.193559	1.35773	0.245031	
-0.064316	1.32334	0.5	
-0.151231	1.3651	0.5	
-0.0815241	1.40985	0.5	
-0.0552231	1.38907	0.38538	
-0.118932	1.39861	0	
-0.0372406	1.41779	0	
-0.0975452	1.49039	0	
-0.0684459	1.49529	0.0685965	
-0.0815241	1.40985	0.5	
-0.151231	1.3651	0.5	
-0.152694	1.47611	0.40246	
-0.166036	1.37976	0.398541	
0.0761103	0.977349	0.33014	
0.101939	0.907787	0.403472	
0.0531758	0.885699	0.315425	
0.148799	0.913537	0.303647	
0.476114	1.15269	0.40246	
0.470916	1.16804	0.300126	
0.493012	1.0833	0.344789	
0.385098	1.08722	0.383771	
-0.0392044	1.16291	0.5	
0.028723	1.17517	0.5	
0.000305103	1.09462	0.5	
-0.0571477	1.11947	0.416349	
0.163502	1.02984	0.5	
0.185939	0.963014	0.5	
0.106675	0.966314	0.5	
0.113162	1.01769	0.414132	
-0.273315	1.33496	0	
-0.318983	1.26174	0	
-0.214341	1.27376	0	
-0.277342	1.24516	0.0975038	
-0.048473	0.967143	0	
-0.117671	0.89803	0	
-0.0232782	0.872416	0	
-0.0724446	0.868744	0.084223	
0.380873	1.32394	0.152261	
0.316847	1.38679	0.198616	
0.317233	1.38648	0.0904728	
0.28898	1.28652	0.0949489	
0.0704482	1.49501	0.0718447	
0.0975452	1.49039	0	
0.153328	1.47591	0.0923699	
0.114055	1.37411	0	
0.469721	1.17135	0.161666	
0.353151	1.15839	0.109095	
0.478555	1.14486	0.0783483	
0.40353	1.07301	0.105949	
0.288623	1.13754	0.312711	
0.295334	1.24597	0.26697	
0.334194	1.15432	0.215771	
0.219623	1.16199	0.240766	
0.0728232	0.505332	0.0735406	
0	0.5	0	
0	0.5	0.1	
0.0404524	0.58928	0	
-0.0833019	1.49301	0.344789	
-0.168043	1.47092	0.300126	
-0.0977967	1.49034	0.241226	
-0.0964049	1.37384	0.276475	
-0.315029	1.38827	0.420807	
-0.232161	1.34745	0.5	
-0.280403	1.2804	0.5	
-0.263985	1.32297	0.375811	
-0.440961	1.2357	0.068569	
-0.46194	1.19134	0	
-0.404541	1.12695	0	
-0.47591	1.15333	0.0923699	
-0.257956	1.11632	0	
-0.328307	1.16356	0	
-0.337562	1.05476	0	
-0.357904	1.11593	0.101286	
-0.323338	0.935684	0.5	
-0.274113	0.816844	0.5	
-0.363339	0.8495	0.5	
-0.351645	0.874975	0.390413	
-0.440961	0.764302	0.431431	
-0.46194	0.808658	0.5	
-0.363339	0.8495	0.5	
-0.47591	0.846672	0.40763	
0.247868	1.14631	0	
0.184962	1.07993	0	
0.276476	1.05355	0	
0.253711	1.11341	0.104023	
0.247868	1.14631	0	
0.276476	1.05355	0	
0.337634	1.11556	0	
0.253711	1.11341	0.104023	
0.261819	1.31903	0	
0.202324	1.37852	0	
0.189613	1.31366	0	
0.190875	1.34709	0.10503	
0.260232	1.21075	0.160089	
0.334194	1.15432	0.215771	
0.295334	1.24597	0.26697	
0.219623	1.16199	0.240766	
0.0854243	0.507351	0.248597	
0.168734	0.529332	0.298219	
0.174678	0.531505	0.182891	
0.15722	0.635104	0.236843	
0.495293	1.06845	0.0685965	
0.414183	1.13115	0	
0.490393	1.09755	0	
0.414991	1.04951	0	
0.313791	0.845535	0	
0.341118	0.774271	0.0916023	
0.380207	0.80292	0	
0.355602	0.87751	0.0966392	
-0.191342	1.46194	0	
-0.144862	1.47856	0.0783483	
-0.243391	1.43676	0.0969381	
-0.153777	1.36779	0.103264	
-0.323338	0.935684	0.5	
-0.323338	1.06432	0.5	
-0.25	1	0.5	
-0.275403	1.0393	0.403336	
-0.064316	1.32334	0.5	
0	1.25	0.5	
-0.0956709	1.23097	0.5	
-0.0850696	1.27829	0.394238	
0.439458	0.761512	0.0756919	
0.380207	0.80292	0	
0.415735	0.722215	0	
0.341118	0.774271	0.0916023	
-0.152694	1.47611	0.40246	
-0.151231	1.3651	0.5	
-0.191342	1.46194	0.5	
-0.166036	1.37976	0.398541	
-0.168043	1.47092	0.300126	
-0.194667	1.46055	0.23433	
-0.0977967	1.49034	0.241226	
-0.0964049	1.37384	0.276475	
-0.0422582	0.562527	0	
0.0404524	0.58928	0	
-0.0328721	0.629311	0	
0.00284042	0.609614	0.1018	
-0.00173102	1.15684	0.347507	
-0.0611059	1.11559	0.264866	
-0.0330822	1.21734	0.266884	
0.0323895	1.13978	0.258564	
-0.064316	1.32334	0.5	
-0.0956709	1.23097	0.5	
-0.183156	1.27411	0.5	
-0.0850696	1.27829	0.394238	
0.470916	0.831957	0.199874	
0.4284	0.742176	0.204976	
0.460548	0.805333	0.26567	
0.358257	0.834187	0.252847	
0.115537	1.01075	0	
0.210156	0.985203	0	
0.184962	1.07993	0	
0.159132	0.984216	0.0920948	
-0.386831	1.3168	0.395903	
-0.280403	1.2804	0.5	
-0.353553	1.35355	0.5	
-0.347453	1.23216	0.5	
0.0420691	1.42713	0	
0	1.5	0	
0	1.5	0.1	
0.0704482	1.49501	0.0718447	
0.152126	0.632735	0.5	
0.191342	0.53806	0.5	
0.153328	0.52409	0.40763	
0.235698	0.559039	0.431431	
0.231243	1.24169	0	
0.300884	1.19872	0	
0.328092	1.27024	0	
0.28898	1.28652	0.0949489	
0	0.5	0.4	
0.0704482	0.504988	0.428155	
0.0807477	0.506563	0.345776	
0.0738912	0.610829	0.388761	
-0.493315	1.08149	0.347681	
-0.468495	1.17468	0.317109	
-0.477948	1.14685	0.415992	
-0.382289	1.08918	0.382504	
0.0344957	0.828097	0.5	
0.0956709	0.76903	0.5	
0	0.75	0.5	
0.0581157	0.769455	0.403061	
0.232161	1.34745	0.5	
0.353553	1.35355	0.5	
0.281092	1.28109	0.5	
0.3168	1.38683	0.395903	
-0.323938	0.619127	0.347739	
-0.328716	0.623243	0.253532	
-0.386792	0.683153	0.301384	
-0.259603	0.71434	0.292274	
0.25	1	0.5	
0.23097	1.09567	0.5	
0.323338	1.06432	0.5	
0.284123	1.06741	0.387999	
0.164797	0.822415	0	
0.0943468	0.754666	0	
0.201164	0.726422	0	
0.142608	0.739294	0.106454	
0.478555	0.855138	0.421652	
0.365104	0.848769	0.5	
0.409849	0.918476	0.5	
0.368617	0.876452	0.385763	
0	1.5	0.3	
0	1.5	0.2	
0.0854243	1.49265	0.251403	
0.0196341	1.38361	0.225797	
-0.0925337	0.803549	0	
-0.186407	0.830549	0	
-0.168688	0.718299	0	
-0.111014	0.733523	0.0849706	
-0.168688	0.718299	0	
-0.114467	0.613668	0	
-0.0638367	0.704239	0	
-0.111014	0.733523	0.0849706	
0.469721	0.828647	0.338334	
0.478555	0.855138	0.421652	
0.493389	0.91896	0.35285	
0.368617	0.876452	0.385763	
-0.323338	1.06432	0.5	
-0.397525	1	0.5	
-0.409849	1.08152	0.5	
-0.382289	1.08918	0.382504	
0.495101	0.930181	0.0723791	
0.493012	0.916698	0.155211	
0.5	1	0.1	
0.387337	0.975471	0.113668	
0.0153159	1.36356	0	
-0.0555676	1.32557	0	
0.0401436	1.2912	0	
0.00439522	1.27731	0.103072	
0.0634445	0.898618	0.5	
0.106675	0.966314	0.5	
0.141405	0.904892	0.5	
0.101939	0.907787	0.403472	
-0.0975452	0.509607	0	
-0.0422582	0.562527	0	
-0.114467	0.613668	0	
-0.0698189	0.504899	0.0723791	
-0.0427935	1.02817	0.5	
-0.0773947	0.947213	0.5	
-0.114443	1.01484	0.5	
-0.105137	0.975975	0.404942	
-0.495012	1.07045	0.0718447	
-0.5	1	0.1	
-0.5	1	0	
-0.426463	1.04414	0	
0.353553	1.35355	0	
0.317233	1.38648	0.0904728	
0.261819	1.31903	0	
0.28898	1.28652	0.0949489	
0.439458	1.23849	0.424308	
0.415735	1.27779	0.365862	
0.450285	1.21736	0.355302	
0.347642	1.19453	0.384775	
0.245477	0.808349	0	
0.314857	0.742551	0	
0.313791	0.845535	0	
0.341118	0.774271	0.0916023	
-0.468495	1.17468	0.317109	
-0.429146	1.25658	0.33124	
-0.444481	1.22899	0.408099	
-0.343626	1.20201	0.373624	
0.114055	1.37411	0	
0.189613	1.31366	0	
0.202324	1.37852	0	
0.190875	1.34709	0.10503	
0.469721	0.828647	0.338334	
0.436762	0.756609	0.403062	
0.478555	0.855138	0.421652	
0.368617	0.876452	0.385763	
0.328092	1.27024	0	
0.353553	1.35355	0	
0.261819	1.31903	0	
0.28898	1.28652	0.0949489	
0.365104	0.848769	0.5	
0.436762	0.756609	0.403062	
0.46194	0.808658	0.5	
0.347453	0.767839	0.5	
-0.0892911	0.866366	0.5	
-0.157632	0.894674	0.5	
-0.0773947	0.947213	0.5	
-0.087284	0.884388	0.408402	
0.247057	0.565302	0.249501	
0.25658	0.570854	0.16876	
0.174678	0.531505	0.182891	
0.15722	0.635104	0.236843	
-0.41072	0.87541	0	
-0.494668	0.927177	0.0735406	
-0.477948	0.853147	0.0840084	
-0.390863	0.914451	0.0980906	
-0.490393	1.09755	0	
-0.495012	1.07045	0.0718447	
-0.426463	1.04414	0	
-0.404541	1.12695	0	
-0.191342	0.53806	0.5	
-0.152126	0.632735	0.5	
-0.243391	0.563238	0.403062	
-0.232161	0.652547	0.5	
-0.0684459	1.49529	0.0685965	
-0.0975452	1.49039	0	
-0.118932	1.39861	0	
-0.144862	1.47856	0.0783483	
0.323338	1.06432	0.5	
0.409849	1.08152	0.5	
0.398221	1	0.5	
0.385098	1.08722	0.383771	
0.428195	0.741835	0.298245	
0.460548	0.805333	0.26567	
0.4284	0.742176	0.204976	
0.358257	0.834187	0.252847	
-0.10768	0.996359	0.238131	
-0.045108	0.948191	0.315425	
-0.140073	0.942584	0.309826	
-0.0821557	0.901585	0.243527	
-0.0734441	1.06169	0	
-0.142648	0.992859	0	
-0.048473	0.967143	0	
-0.10307	0.999921	0.0930669	
-0.0698189	0.504899	0.0723791	
-0.114467	0.613668	0	
-0.0975452	0.509607	0	
-0.152694	0.523886	0.0975404	
0.478555	1.14486	0.0783483	
0.469721	1.17135	0.161666	
0.436762	1.24339	0.0969381	
0.353151	1.15839	0.109095	
-0.0295403	1.22514	0	
0.0401436	1.2912	0	
-0.0555676	1.32557	0	
0.00439522	1.27731	0.103072	
0.0975452	0.509607	0	
0.0728232	0.505332	0.0735406	
0.125573	0.58604	0	
0.0404524	0.58928	0	
-0.232161	1.34745	0.5	
-0.238488	1.43946	0.424308	
-0.151231	1.3651	0.5	
-0.166036	1.37976	0.398541	
-0.168043	1.47092	0.300126	
-0.257824	1.4284	0.295024	
-0.194667	1.46055	0.23433	
-0.193559	1.35773	0.245031	
0.0956709	0.76903	0.5	
0.064316	0.676662	0.5	
0	0.75	0.5	
0.0581157	0.769455	0.403061	
-0.41072	0.87541	0	
-0.401548	0.957663	0	
-0.494668	0.927177	0.0735406	
-0.390863	0.914451	0.0980906	
0.476114	1.15269	0.40246	
0.495101	1.06982	0.427621	
0.409849	1.08152	0.5	
0.385098	1.08722	0.383771	
0.414183	1.13115	0	
0.490393	1.09755	0	
0.478555	1.14486	0.0783483	
0.495293	1.06845	0.0685965	
0.316847	0.613208	0.301384	
0.242822	0.562922	0.347009	
0.317233	0.613524	0.409527	
0.260241	0.698507	0.343916	
-0.302044	0.949354	0	
-0.401548	0.957663	0	
-0.344127	0.887773	0	
-0.390863	0.914451	0.0980906	
0.0943468	0.754666	0	
0.112799	0.66644	0	
0.201164	0.726422	0	
0.142608	0.739294	0.106454	
-0.0698189	1.4951	0.427621	
-0.0833019	1.49301	0.344789	
0	1.5	0.4	
-0.0552231	1.38907	0.38538	
0.000305103	1.09462	0.5	
0.0691997	1.04586	0.5	
-0.0427935	1.02817	0.5	
-0.00748686	1.04315	0.386084	
-0.238488	1.43946	0.424308	
-0.191342	1.46194	0.5	
-0.151231	1.3651	0.5	
-0.166036	1.37976	0.398541	
0.328092	1.27024	0	
0.386505	1.3172	0.0688254	
0.353553	1.35355	0	
0.28898	1.28652	0.0949489	
-0.0815241	1.40985	0.5	
-0.191342	1.46194	0.5	
-0.152694	1.47611	0.40246	
-0.151231	1.3651	0.5	
-0.386792	0.683153	0.301384	
-0.386498	0.682794	0.200322	
-0.434698	0.752943	0.249501	
-0.332607	0.773484	0.222023	
0.153328	1.47591	0.0923699	
0.235698	1.44096	0.068569	
0.242822	1.43708	0.152991	
0.190875	1.34709	0.10503	
-0.232161	1.34745	0.5	
-0.151231	1.3651	0.5	
-0.183156	1.27411	0.5	
-0.166036	1.37976	0.398541	
-0.257956	1.11632	0	
-0.337562	1.05476	0	
-0.237047	1.02014	0	
-0.256772	1.06769	0.100506	
-0.477948	1.14685	0.415992	
-0.409849	1.08152	0.5	
-0.494668	1.07282	0.426459	
-0.382289	1.08918	0.382504	
-0.363339	1.1505	0.5	
-0.347453	1.23216	0.5	
-0.274113	1.18316	0.5	
-0.343626	1.20201	0.373624	
0.476114	1.15269	0.40246	
0.409849	1.08152	0.5	
0.46194	1.19134	0.5	
0.369516	1.15306	0.5	
0.490393	0.902455	0	
0.495101	0.930181	0.0723791	
0.394936	0.880197	0	
0.476114	0.847306	0.0975404	
0.242822	1.43708	0.152991	
0.235698	1.44096	0.068569	
0.317233	1.38648	0.0904728	
0.190875	1.34709	0.10503	
0.380207	0.80292	0	
0.314857	0.742551	0	
0.415735	0.722215	0	
0.341118	0.774271	0.0916023	
0.228991	1.44448	0.408099	
0.277785	1.41573	0.5	
0.232161	1.34745	0.5	
0.3168	1.38683	0.395903	
-0.444481	1.22899	0.408099	
-0.386831	1.3168	0.395903	
-0.415735	1.27779	0.5	
-0.347453	1.23216	0.5	
0.386505	1.3172	0.0688254	
0.317233	1.38648	0.0904728	
0.353553	1.35355	0	
0.28898	1.28652	0.0949489	
0	0.5	0.4	
-0.0810399	0.506611	0.35285	
-0.0684459	0.504707	0.431403	
-0.039093	0.610067	0.388942	
-0.152694	1.47611	0.40246	
-0.0833019	1.49301	0.344789	
-0.0698189	1.4951	0.427621	
-0.0552231	1.38907	0.38538	
0.439458	0.761512	0.0756919	
0.415735	0.722215	0	
0.388274	0.684971	0.0791933	
0.341118	0.774271	0.0916023	
0.394936	0.880197	0	
0.495101	0.930181	0.0723791	
0.490393	0.902455	0	
0.409478	0.967053	0	
0.0704482	0.504988	0.428155	
0.0815241	0.590151	0.5	
0.153328	0.52409	0.40763	
0.0738912	0.610829	0.388761	
0.152393	1.36791	0.5	
0.064316	1.32334	0.5	
0.0815241	1.40985	0.5	
0.109201	1.35772	0.375246	
-0.118932	1.39861	0	
-0.201912	1.36999	0	
-0.138674	1.3238	0	
-0.153777	1.36779	0.103264	
-0.444481	1.22899	0.408099	
-0.46194	1.19134	0.5	
-0.363339	1.1505	0.5	
-0.347453	1.23216	0.5	
-0.0892911	0.866366	0.5	
-0.0773947	0.947213	0.5	
-0.0218546	0.89013	0.5	
-0.087284	0.884388	0.408402	
-0.318983	1.26174	0	
-0.26105	1.2034	0	
-0.214341	1.27376	0	
-0.277342	1.24516	0.0975038	
0.278087	0.721913	0.5	
0.353553	0.646447	0.5	
0.232161	0.652547	0.5	
0.317233	0.613524	0.409527	
0.232161	1.34745	0.5	
0.152393	1.36791	0.5	
0.191342	1.46194	0.5	
0.228991	1.44448	0.408099	
0.0691997	1.04586	0.5	
0.157632	1.10533	0.5	
0.163502	1.02984	0.5	
0.113162	1.01769	0.414132	
0.394936	0.880197	0	
0.314271	0.949812	0	
0.313791	0.845535	0	
0.355602	0.87751	0.0966392	
-0.0422582	0.562527	0	
0	0.5	0	
0	0.5	0.1	
-0.0698189	0.504899	0.0723791	
0.157632	1.10533	0.5	
0.176777	1.17678	0.5	
0.23097	1.09567	0.5	
0.22536	1.15058	0.40335	
-0.281585	0.718415	0.5	
-0.386476	0.682767	0.409527	
-0.353553	0.646447	0.5	
-0.347453	0.767839	0.5	
-0.41072	0.87541	0	
-0.401548	0.957663	0	
-0.490393	0.902455	0	
-0.494668	0.927177	0.0735406	
-0.409849	0.918476	0.5	
-0.363339	0.8495	0.5	
-0.46194	0.808658	0.5	
-0.47591	0.846672	0.40763	
0.247057	0.565302	0.249501	
0.174678	0.531505	0.182891	
0.168734	0.529332	0.298219	
0.15722	0.635104	0.236843	
0.469721	1.17135	0.161666	
0.478555	1.14486	0.0783483	
0.493389	1.08104	0.14715	
0.40353	1.07301	0.105949	
0.0728232	0.505332	0.0735406	
0.146853	0.522052	0.0840084	
0.0975452	0.509607	0	
0.125573	0.58604	0	
0.000305103	1.09462	0.5	
-0.00748686	1.04315	0.386084	
-0.0427935	1.02817	0.5	
-0.0571477	1.11947	0.416349	
0.388274	0.684971	0.0791933	
0.415735	0.722215	0	
0.314857	0.742551	0	
0.341118	0.774271	0.0916023	
-0.257824	0.5716	0.204976	
-0.277785	0.584265	0.134138	
-0.331632	0.625807	0.165357	
-0.247852	0.673084	0.199607	
-0.477948	1.14685	0.415992	
-0.363339	1.1505	0.5	
-0.46194	1.19134	0.5	
-0.409849	1.08152	0.5	
0.191342	0.53806	0.5	
0.0815241	0.590151	0.5	
0.152126	0.632735	0.5	
0.153328	0.52409	0.40763	
-0.114443	1.01484	0.5	
-0.0773947	0.947213	0.5	
-0.157632	0.968645	0.5	
-0.105137	0.975975	0.404942	
-0.5	1	0.5	
-0.494668	1.07282	0.426459	
-0.409849	1.08152	0.5	
-0.397525	1	0.5	
0.353553	1.35355	0	
0.277785	1.41573	0	
0.261819	1.31903	0	
0.317233	1.38648	0.0904728	
0.317233	0.613524	0.409527	
0.380873	0.676062	0.347739	
0.316847	0.613208	0.301384	
0.260241	0.698507	0.343916	
-0.490393	1.09755	0	
-0.495012	1.07045	0.0718447	
-0.404541	1.12695	0	
-0.47591	1.15333	0.0923699	
-0.274113	0.816844	0.5	
-0.23097	0.904329	0.5	
-0.176777	0.823223	0.5	
-0.239777	0.86007	0.398057	
0.064316	0.676662	0.5	
0.152126	0.632735	0.5	
0.0815241	0.590151	0.5	
0.0738912	0.610829	0.388761	
0.0815241	1.40985	0.5	
8.18872e-17	1.39822	0.5	
0	1.5	0.5	
0.0728232	1.49467	0.426459	
0.133074	1.2641	0	
0.158056	1.17188	0	
0.231243	1.24169	0	
0.189162	1.24479	0.0938772	
0.394936	0.880197	0	
0.313791	0.845535	0	
0.380207	0.80292	0	
0.355602	0.87751	0.0966392	
0.409849	1.08152	0.5	
0.323338	1.06432	0.5	
0.369516	1.15306	0.5	
0.385098	1.08722	0.383771	
-0.0833019	0.506988	0.155211	
-0.152694	0.523886	0.0975404	
-0.168043	0.529084	0.199874	
-0.0982069	0.610875	0.136018	
-0.328307	1.16356	0	
-0.404541	1.12695	0	
-0.337562	1.05476	0	
-0.357904	1.11593	0.101286	
0.347453	1.23216	0.5	
0.369516	1.15306	0.5	
0.274113	1.18316	0.5	
0.347642	1.19453	0.384775	
-0.490393	0.902455	0	
-0.477948	0.853147	0.0840084	
-0.41072	0.87541	0	
-0.494668	0.927177	0.0735406	
0.152393	1.36791	0.5	
0.0815241	1.40985	0.5	
0.191342	1.46194	0.5	
0.146853	1.47795	0.415992	
0.5	1	0.1	
0.493389	1.08104	0.14715	
0.495293	1.06845	0.0685965	
0.40353	1.07301	0.105949	
-0.5	1	0.5	
-0.409849	0.918476	0.5	
-0.495012	0.929552	0.428155	
-0.397525	1	0.5	
-0.444481	0.771009	0.0919014	
-0.415735	0.722215	0	
-0.46194	0.808658	0	
-0.356684	0.80649	0	
0.153328	1.47591	0.0923699	
0.0975452	1.49039	0	
0.191342	1.46194	0	
0.114055	1.37411	0	
0.5	1	0.5	
0.409849	1.08152	0.5	
0.495101	1.06982	0.427621	
0.398221	1	0.5	
-0.0815241	1.40985	0.5	
-0.0698189	1.4951	0.427621	
0	1.5	0.5	
8.18872e-17	1.39822	0.5	
-0.191342	0.53806	0	
-0.0975452	0.509607	0	
-0.114467	0.613668	0	
-0.152694	0.523886	0.0975404	
0.0815241	0.590151	0.5	
0	0.5	0.5	
-3.15026e-17	0.601779	0.5	
0.0704482	0.504988	0.428155	
-0.493315	1.08149	0.347681	
-0.477948	1.14685	0.415992	
-0.494668	1.07282	0.426459	
-0.382289	1.08918	0.382504	
-0.277785	1.41573	0.5	
-0.315029	1.38827	0.420807	
-0.238488	1.43946	0.424308	
-0.232161	1.34745	0.5	
0.14072	0.916025	0	
0.210156	0.985203	0	
0.115537	1.01075	0	
0.159132	0.984216	0.0920948	
0.328092	1.27024	0	
0.261819	1.31903	0	
0.231243	1.24169	0	
0.28898	1.28652	0.0949489	
-0.23097	1.09567	0.5	
-0.176777	1.17678	0.5	
-0.117202	1.0938	0.5	
-0.179827	1.088	0.408491	
-0.232161	1.34745	0.5	
-0.238488	1.43946	0.424308	
-0.191342	1.46194	0.5	
-0.151231	1.3651	0.5	
-3.15026e-17	0.601779	0.5	
0.064316	0.676662	0.5	
0.0815241	0.590151	0.5	
0.0738912	0.610829	0.388761	
0.277785	1.41573	0.5	
0.353553	1.35355	0.5	
0.232161	1.34745	0.5	
0.3168	1.38683	0.395903	
-0.353553	1.35355	0.5	
-0.415735	1.27779	0.5	
-0.386831	1.3168	0.395903	
-0.347453	1.23216	0.5	
-0.0684459	0.504707	0.431403	
-0.0815241	0.590151	0.5	
0	0.5	0.5	
-3.15026e-17	0.601779	0.5	
0.495293	0.931554	0.431403	
0.409849	0.918476	0.5	
0.5	1	0.5	
0.398221	1	0.5	
-0.0815241	1.40985	0.5	
8.18872e-17	1.39822	0.5	
-0.064316	1.32334	0.5	
-0.0552231	1.38907	0.38538	
-0.415735	1.27779	0	
-0.353553	1.35355	0	
-0.386476	1.31723	0.0904728	
-0.318983	1.26174	0	
-0.243391	0.563238	0.403062	
-0.277785	0.584265	0.5	
-0.191342	0.53806	0.5	
-0.232161	0.652547	0.5	
0.436762	0.756609	0.403062	
0.415735	0.722215	0.5	
0.46194	0.808658	0.5	
0.347453	0.767839	0.5	
-0.238488	1.43946	0.424308	
-0.152694	1.47611	0.40246	
-0.191342	1.46194	0.5	
-0.166036	1.37976	0.398541	
-0.444481	1.22899	0.408099	
-0.429146	1.25658	0.33124	
-0.386831	1.3168	0.395903	
-0.343626	1.20201	0.373624	
0.439458	1.23849	0.424308	
0.46194	1.19134	0.5	
0.347453	1.23216	0.5	
0.369516	1.15306	0.5	
-0.0833019	0.506988	0.155211	
-0.0698189	0.504899	0.0723791	
-0.152694	0.523886	0.0975404	
-0.0982069	0.610875	0.136018	
-0.353553	1.35355	0.5	
-0.280403	1.2804	0.5	
-0.315029	1.38827	0.420807	
-0.232161	1.34745	0.5	
0.394936	0.880197	0	
0.46194	0.808658	0	
0.490393	0.902455	0	
0.476114	0.847306	0.0975404	
-0.317197	0.613495	0.431175	
-0.277785	0.584265	0.5	
-0.243391	0.563238	0.403062	
-0.232161	0.652547	0.5	
0.347453	0.767839	0.5	
0.436762	0.756609	0.403062	
0.415735	0.722215	0.5	
0.386505	0.682803	0.431175	
0.347453	1.23216	0.5	
0.281092	1.28109	0.5	
0.353553	1.35355	0.5	
0.388274	1.31503	0.420807	
-0.409849	1.08152	0.5	
-0.363339	1.1505	0.5	
-0.323338	1.06432	0.5	
-0.382289	1.08918	0.382504	
0.313791	0.845535	0	
0.314857	0.742551	0	
0.380207	0.80292	0	
0.341118	0.774271	0.0916023	
0.495101	1.06982	0.427621	
0.409849	1.08152	0.5	
0.490393	1.09755	0.5	
0.476114	1.15269	0.40246	
-0.0975452	1.49039	0.5	
-0.152694	1.47611	0.40246	
-0.0698189	1.4951	0.427621	
-0.0815241	1.40985	0.5	
0.439458	1.23849	0.424308	
0.347453	1.23216	0.5	
0.415735	1.27779	0.5	
0.388274	1.31503	0.420807	
0.373926	1.19893	0	
0.46194	1.19134	0	
0.415735	1.27779	0	
0.436762	1.24339	0.0969381	
-0.243391	1.43676	0.0969381	
-0.144862	1.47856	0.0783483	
-0.171353	1.46972	0.161666	
-0.153777	1.36779	0.103264	
-0.328716	0.623243	0.253532	
-0.257824	0.5716	0.204976	
-0.331632	0.625807	0.165357	
-0.247852	0.673084	0.199607	
-0.331361	0.727047	0	
-0.415735	0.722215	0	
-0.353553	0.646447	0	
-0.386831	0.6832	0.104097	
0.409849	0.918476	0.5	
0.365104	0.848769	0.5	
0.323338	0.935684	0.5	
0.368617	0.876452	0.385763	
-0.23097	1.09567	0.5	
-0.117202	1.0938	0.5	
-0.177191	1.03636	0.5	
-0.179827	1.088	0.408491	
-0.347453	0.767839	0.5	
-0.386476	0.682767	0.409527	
-0.415735	0.722215	0.5	
-0.440961	0.764302	0.431431	
0.235698	0.559039	0.431431	
0.232161	0.652547	0.5	
0.277785	0.584265	0.5	
0.317233	0.613524	0.409527	
0.176777	0.823223	0.5	
0.274113	0.816844	0.5	
0.183156	0.725887	0.5	
0.206682	0.777113	0.400851	
0.409849	1.08152	0.5	
0.46194	1.19134	0.5	
0.490393	1.09755	0.5	
0.476114	1.15269	0.40246	
-0.0975452	1.49039	0.5	
-0.191342	1.46194	0.5	
-0.152694	1.47611	0.40246	
-0.0815241	1.40985	0.5	
0.478555	0.855138	0.421652	
0.46194	0.808658	0.5	
0.409849	0.918476	0.5	
0.365104	0.848769	0.5	
0.0704482	0.504988	0.428155	
0.153328	0.52409	0.40763	
0.0807477	0.506563	0.345776	
0.0738912	0.610829	0.388761	
-0.201912	1.36999	0	
-0.191342	1.46194	0	
-0.277785	1.41573	0	
-0.243391	1.43676	0.0969381	
0.274113	1.18316	0.5	
0.23097	1.09567	0.5	
0.176777	1.17678	0.5	
0.22536	1.15058	0.40335	
-0.386831	1.3168	0.395903	
-0.331632	1.37419	0.334643	
-0.315029	1.38827	0.420807	
-0.263985	1.32297	0.375811	
0.388274	0.684971	0.0791933	
0.415735	0.722215	0.134138	
0.439458	0.761512	0.0756919	
0.341118	0.774271	0.0916023	
-0.144862	0.521445	0.421652	
-0.152126	0.632735	0.5	
-0.191342	0.53806	0.5	
-0.0815241	0.590151	0.5	
0.194604	0.628812	0	
0.191342	0.53806	0	
0.277785	0.584265	0	
0.228991	0.555519	0.0919014	
0.274113	0.816844	0.5	
0.278087	0.721913	0.5	
0.183156	0.725887	0.5	
0.206682	0.777113	0.400851	
-0.46194	1.19134	0.5	
-0.490393	1.09755	0.5	
-0.477948	1.14685	0.415992	
-0.409849	1.08152	0.5	
-0.434698	0.752943	0.249501	
-0.386498	0.682794	0.200322	
-0.429146	0.74342	0.16876	
-0.332607	0.773484	0.222023	
0.00183684	0.777669	0	
-0.0638367	0.704239	0	
0.0248177	0.686626	0	
-0.00982582	0.726304	0.0884564	
0.476114	1.15269	0.40246	
0.493012	1.0833	0.344789	
0.495101	1.06982	0.427621	
0.385098	1.08722	0.383771	
0.268393	0.665699	0	
0.277785	0.584265	0	
0.353553	0.646447	0	
0.3168	0.613169	0.104097	
0.0704482	0.504988	0.428155	
0.0815241	0.590151	0.5	
0.0975452	0.509607	0.5	
0.153328	0.52409	0.40763	
-0.495012	0.929552	0.428155	
-0.409849	0.918476	0.5	
-0.490393	0.902455	0.5	
-0.47591	0.846672	0.40763	
-0.401548	0.957663	0	
-0.41072	0.87541	0	
-0.344127	0.887773	0	
-0.390863	0.914451	0.0980906	
-0.0392044	1.16291	0.5	
-0.117202	1.0938	0.5	
-0.107214	1.16612	0.5	
-0.0571477	1.11947	0.416349	
-0.064316	0.676662	0.5	
-3.15026e-17	0.601779	0.5	
-0.0815241	0.590151	0.5	
-0.039093	0.610067	0.388942	
0.347453	0.767839	0.5	
0.353553	0.646447	0.5	
0.278087	0.721913	0.5	
0.386505	0.682803	0.431175	
-0.347453	0.767839	0.5	
-0.46194	0.808658	0.5	
-0.363339	0.8495	0.5	
-0.440961	0.764302	0.431431	
0.0728232	0.505332	0.0735406	
0.0975452	0.509607	0	
0	0.5	0	
0.0404524	0.58928	0	
0.133074	1.2641	0	
0.231243	1.24169	0	
0.189613	1.31366	0	
0.189162	1.24479	0.0938772	
0.191342	0.53806	0	
0.0975452	0.509607	0	
0.146853	0.522052	0.0840084	
0.125573	0.58604	0	
0.191342	0.53806	0.5	
0.0975452	0.509607	0.5	
0.0815241	0.590151	0.5	
0.153328	0.52409	0.40763	
-0.46194	0.808658	0.5	
-0.490393	0.902455	0.5	
-0.409849	0.918476	0.5	
-0.47591	0.846672	0.40763	
-0.0925337	0.803549	0	
-0.0232782	0.872416	0	
-0.117671	0.89803	0	
-0.0724446	0.868744	0.084223	
-0.401548	0.957663	0	
-0.5	1	0	
-0.490393	0.902455	0	
-0.494668	0.927177	0.0735406	
-0.477948	0.853147	0.0840084	
-0.494668	0.927177	0.0735406	
-0.493315	0.918514	0.152319	
-0.390863	0.914451	0.0980906	
-0.494668	1.07282	0.426459	
-0.477948	1.14685	0.415992	
-0.490393	1.09755	0.5	
-0.409849	1.08152	0.5	
0.232161	1.34745	0.5	
0.191342	1.46194	0.5	
0.277785	1.41573	0.5	
0.228991	1.44448	0.408099	
-0.415735	1.27779	0.5	
-0.46194	1.19134	0.5	
-0.444481	1.22899	0.408099	
-0.347453	1.23216	0.5	
0.386505	1.3172	0.0688254	
0.380873	1.32394	0.152261	
0.317233	1.38648	0.0904728	
0.28898	1.28652	0.0949489	
-0.409849	0.918476	0.5	
-0.323338	0.935684	0.5	
-0.363339	0.8495	0.5	
-0.351645	0.874975	0.390413	
-0.238488	1.43946	0.424308	
-0.191342	1.46194	0.5	
-0.277785	1.41573	0.5	
-0.232161	1.34745	0.5	
-0.281585	0.718415	0.5	
-0.353553	0.646447	0.5	
-0.317197	0.613495	0.431175	
-0.232161	0.652547	0.5	
0.191342	0.53806	0.5	
0.152126	0.632735	0.5	
0.232161	0.652547	0.5	
0.235698	0.559039	0.431431	
-0.404541	1.12695	0	
-0.46194	1.19134	0	
-0.490393	1.09755	0	
-0.47591	1.15333	0.0923699	
-0.0372406	1.41779	0	
0	1.5	0	
-0.0975452	1.49039	0	
-0.0684459	1.49529	0.0685965	
-0.315029	1.38827	0.420807	
-0.277785	1.41573	0.5	
-0.353553	1.35355	0.5	
-0.232161	1.34745	0.5	
-0.0638367	0.704239	0	
-0.0925337	0.803549	0	
-0.168688	0.718299	0	
-0.111014	0.733523	0.0849706	
-0.490393	1.09755	0.5	
-0.5	1	0.5	
-0.494668	1.07282	0.426459	
-0.409849	1.08152	0.5	
0.5	1	0	
0.490393	0.902455	0	
0.495101	0.930181	0.0723791	
0.409478	0.967053	0	
-0.258165	1.42819	0.201755	
-0.194667	1.46055	0.23433	
-0.257824	1.4284	0.295024	
-0.193559	1.35773	0.245031	
-0.386476	0.682767	0.409527	
-0.415735	0.722215	0.5	
-0.353553	0.646447	0.5	
-0.347453	0.767839	0.5	
0.232161	0.652547	0.5	
0.353553	0.646447	0.5	
0.277785	0.584265	0.5	
0.317233	0.613524	0.409527	
0.0815241	1.40985	0.5	
0.0975452	1.49039	0.5	
0.191342	1.46194	0.5	
0.146853	1.47795	0.415992	
0.495293	1.06845	0.0685965	
0.490393	1.09755	0	
0.5	1	0	
0.414991	1.04951	0	
-0.117202	1.0938	0.5	
0.000305103	1.09462	0.5	
-0.0427935	1.02817	0.5	
-0.0571477	1.11947	0.416349	
0.347453	1.23216	0.5	
0.415735	1.27779	0.5	
0.46194	1.19134	0.5	
0.439458	1.23849	0.424308	
-0.46194	0.808658	0	
-0.490393	0.902455	0	
-0.477948	0.853147	0.0840084	
-0.41072	0.87541	0	
-0.315029	0.611726	0.0791933	
-0.277785	0.584265	0	
-0.353553	0.646447	0	
-0.263582	0.680587	0	
-0.25	1	0.5	
-0.323338	1.06432	0.5	
-0.23097	1.09567	0.5	
-0.275403	1.0393	0.403336	
0.353553	1.35355	0.5	
0.415735	1.27779	0.5	
0.347453	1.23216	0.5	
0.388274	1.31503	0.420807	
0.0975452	1.49039	0.5	
0.0815241	1.40985	0.5	
0.0728232	1.49467	0.426459	
0.146853	1.47795	0.415992	
-0.0392044	1.16291	0.5	
0.000305103	1.09462	0.5	
-0.117202	1.0938	0.5	
-0.0571477	1.11947	0.416349	
-0.347453	0.767839	0.5	
-0.274113	0.816844	0.5	
-0.281585	0.718415	0.5	
-0.289723	0.75771	0.393302	
0.388274	0.684971	0.0791933	
0.415735	0.722215	0	
0.353553	0.646447	0	
0.314857	0.742551	0	
-0.0975452	1.49039	0	
-0.191342	1.46194	0	
-0.118932	1.39861	0	
-0.144862	1.47856	0.0783483	
0.493389	1.08104	0.14715	
0.478555	1.14486	0.0783483	
0.495293	1.06845	0.0685965	
0.40353	1.07301	0.105949	
0.0691997	1.04586	0.5	
0.163502	1.02984	0.5	
0.106675	0.966314	0.5	
0.113162	1.01769	0.414132	
0.0815241	1.40985	0.5	
0	1.5	0.5	
0.0975452	1.49039	0.5	
0.0728232	1.49467	0.426459	
0.0815241	0.590151	0.5	
0.0975452	0.509607	0.5	
0	0.5	0.5	
0.0704482	0.504988	0.428155	
-0.409849	0.918476	0.5	
-0.490393	0.902455	0.5	
-0.5	1	0.5	
-0.495012	0.929552	0.428155	
-0.238488	0.560542	0.0756919	
-0.191342	0.53806	0	
-0.277785	0.584265	0	
-0.203173	0.626976	0	
0.380207	0.80292	0	
0.415735	0.722215	0	
0.46194	0.808658	0	
0.439458	0.761512	0.0756919	
0.490393	1.09755	0.5	
0.5	1	0.5	
0.409849	1.08152	0.5	
0.495101	1.06982	0.427621	
-0.0698189	1.4951	0.427621	
0	1.5	0.5	
-0.0975452	1.49039	0.5	
-0.0815241	1.40985	0.5	
-0.152694	1.47611	0.40246	
-0.238488	1.43946	0.424308	
-0.217356	1.45028	0.355302	
-0.166036	1.37976	0.398541	
-0.0815241	0.590151	0.5	
0	0.5	0.5	
-0.0975452	0.509607	0.5	
-0.0684459	0.504707	0.431403	
0.5	1	0.5	
0.490393	0.902455	0.5	
0.409849	0.918476	0.5	
0.495293	0.931554	0.431403	
-0.353553	0.646447	0.5	
-0.277785	0.584265	0.5	
-0.317197	0.613495	0.431175	
-0.232161	0.652547	0.5	
0.347453	0.767839	0.5	
0.415735	0.722215	0.5	
0.353553	0.646447	0.5	
0.386505	0.682803	0.431175	
-0.144862	0.521445	0.421652	
-0.191342	0.53806	0.5	
-0.0975452	0.509607	0.5	
-0.0815241	0.590151	0.5	
0.409849	0.918476	0.5	
0.490393	0.902455	0.5	
0.46194	0.808658	0.5	
0.478555	0.855138	0.421652	
-0.0975452	0.509607	0.5	
-0.144862	0.521445	0.421652	
-0.0815241	0.590151	0.5	
-0.0684459	0.504707	0.431403	
0.478555	0.855138	0.421652	
0.409849	0.918476	0.5	
0.490393	0.902455	0.5	
0.495293	0.931554	0.431403	
-0.277785	1.41573	0.365862	
-0.315029	1.38827	0.420807	
-0.331632	1.37419	0.334643	
-0.263985	1.32297	0.375811	
-0.495012	1.07045	0.0718447	
-0.5	1	0	
-0.490393	1.09755	0	
-0.426463	1.04414	0	
0.478555	1.14486	0.0783483	
0.46194	1.19134	0	
0.490393	1.09755	0	
0.414183	1.13115	0	
-0.347453	0.767839	0.5	
-0.415735	0.722215	0.5	
-0.46194	0.808658	0.5	
-0.440961	0.764302	0.431431	
0.232161	0.652547	0.5	
0.277785	0.584265	0.5	
0.191342	0.53806	0.5	
0.235698	0.559039	0.431431	
0.0420691	1.42713	0	
0.0975452	1.49039	0	
0	1.5	0	
0.0704482	1.49501	0.0718447	
-0.353553	1.35355	0	
-0.277785	1.41573	0	
-0.317197	1.38651	0.0688254	
-0.273315	1.33496	0	
0.328092	1.27024	0	
0.415735	1.27779	0	
0.353553	1.35355	0	
0.386505	1.3172	0.0688254	
-0.0975452	0.509607	0	
0	0.5	0	
-0.0422582	0.562527	0	
-0.0698189	0.504899	0.0723791	
0.235698	1.44096	0.068569	
0.191342	1.46194	0	
0.277785	1.41573	0	
0.202324	1.37852	0	
-0.389036	1.20743	0	
-0.415735	1.27779	0	
-0.46194	1.19134	0	
-0.440961	1.2357	0.068569	
-0.00173102	1.15684	0.347507	
0.0868435	1.13736	0.5	
0.0902907	1.23506	0.376077	
0.028723	1.17517	0.5	
-0.00173102	1.15684	0.347507	
0.0902907	1.23506	0.376077	
0.0868435	1.13736	0.5	
0.125116	1.11613	0.369411	
-0.153777	1.36779	0.103264	
-0.277342	1.24516	0.0975038	
-0.317197	1.38651	0.0688254	
-0.273315	1.33496	0	
-0.317197	1.38651	0.0688254	
-0.277342	1.24516	0.0975038	
-0.153777	1.36779	0.103264	
-0.210789	1.29041	0.168489	
-0.289723	0.75771	0.393302	
-0.144063	0.852748	0.341365	
-0.0862712	0.770823	0.389289	
-0.153774	0.693588	0.346551	
-0.289723	0.75771	0.393302	
-0.0862712	0.770823	0.389289	
-0.144063	0.852748	0.341365	
-0.239777	0.86007	0.398057	
0.341118	0.774271	0.0916023	
0.4284	0.742176	0.204976	
0.374193	0.668368	0.165357	
0.415735	0.722215	0.134138	
-0.0552231	1.38907	0.38538	
0.0728232	1.49467	0.426459	
0.0814864	1.49332	0.347681	
0	1.5	0.4	
-0.0552231	1.38907	0.38538	
0.0814864	1.49332	0.347681	
0.0728232	1.49467	0.426459	
0.109201	1.35772	0.375246	
0.134932	0.977505	0.230093	
-0.0151696	1.04156	0.198031	
0.0593465	1.06716	0.10856	
0.0937412	0.930011	0.154317	
0.134932	0.977505	0.230093	
0.0593465	1.06716	0.10856	
-0.0151696	1.04156	0.198031	
0.0919908	1.06424	0.248206	
0.0593465	1.06716	0.10856	
0.184962	1.07993	0	
0.113965	1.18028	0.121768	
0.168914	1.06767	0.155545	
0.0593465	1.06716	0.10856	
0.113965	1.18028	0.121768	
0.184962	1.07993	0	
0.0903521	1.10545	0	
0.0196341	1.38361	0.225797	
-0.0552231	1.38907	0.38538	
0.0814864	1.49332	0.347681	
0	1.5	0.3	
0.0814864	1.49332	0.347681	
-0.0552231	1.38907	0.38538	
0.0196341	1.38361	0.225797	
-0.00167925	1.31098	0.319981	
0.211575	0.889225	0.384788	
0.206682	0.777113	0.400851	
0.101939	0.907787	0.403472	
0.121965	0.82524	0.342904	
0.211575	0.889225	0.384788	
0.101939	0.907787	0.403472	
0.206682	0.777113	0.400851	
0.176777	0.823223	0.5	
-0.111014	0.733523	0.0849706	
-0.283151	0.746042	0.130367	
-0.189227	0.766031	0.208899	
-0.196211	0.8458	0.119009	
-0.111014	0.733523	0.0849706	
-0.189227	0.766031	0.208899	
-0.283151	0.746042	0.130367	
-0.183989	0.672241	0.119932	
0.208793	1.06331	0.266812	
0.0761103	0.977349	0.33014	
0.125116	1.11613	0.369411	
0.0919908	1.06424	0.248206	
0.208793	1.06331	0.266812	
0.125116	1.11613	0.369411	
0.0761103	0.977349	0.33014	
0.203143	1.00597	0.37146	
-0.193842	1.09373	0.257323	
-0.140073	0.942584	0.309826	
-0.203766	0.963562	0.377533	
-0.23296	0.961598	0.249877	
-0.203766	0.963562	0.377533	
-0.140073	0.942584	0.309826	
-0.193842	1.09373	0.257323	
-0.115695	1.05029	0.334241	
0.0581157	0.769455	0.403061	
0.176777	0.823223	0.5	
0.121965	0.82524	0.342904	
0.103403	0.84471	0.5	
0.0581157	0.769455	0.403061	
0.121965	0.82524	0.342904	
0.176777	0.823223	0.5	
0.206682	0.777113	0.400851	
0.101939	0.907787	0.403472	
0.121965	0.82524	0.342904	
0.176777	0.823223	0.5	
0.103403	0.84471	0.5	
0.101939	0.907787	0.403472	
0.176777	0.823223	0.5	
0.121965	0.82524	0.342904	
0.206682	0.777113	0.400851	
0.341118	0.774271	0.0916023	
0.278655	0.736565	0.241439	
0.4284	0.742176	0.204976	
0.296805	0.825729	0.165597	
0.341118	0.774271	0.0916023	
0.4284	0.742176	0.204976	
0.278655	0.736565	0.241439	
0.374193	0.668368	0.165357	
-0.289723	0.75771	0.393302	
-0.176777	0.823223	0.5	
-0.0862712	0.770823	0.389289	
-0.239777	0.86007	0.398057	
-0.289723	0.75771	0.393302	
-0.0862712	0.770823	0.389289	
-0.176777	0.823223	0.5	
-0.183156	0.725887	0.5	
-0.10307	0.999921	0.0930669	
-0.237047	1.02014	0	
-0.16685	1.08834	0	
-0.142648	0.992859	0	
-0.10307	0.999921	0.0930669	
-0.16685	1.08834	0	
-0.237047	1.02014	0	
-0.256772	1.06769	0.100506	
0.206682	0.777113	0.400851	
0.215953	0.839226	0.238202	
0.211575	0.889225	0.384788	
0.285177	0.816119	0.328962	
0.211575	0.889225	0.384788	
0.215953	0.839226	0.238202	
0.206682	0.777113	0.400851	
0.121965	0.82524	0.342904	
-0.318838	1.02278	0.259668	
-0.203766	0.963562	0.377533	
-0.193842	1.09373	0.257323	
-0.275403	1.0393	0.403336	
-0.318838	1.02278	0.259668	
-0.193842	1.09373	0.257323	
-0.203766	0.963562	0.377533	
-0.23296	0.961598	0.249877	
-0.296327	0.833736	0.292179	
-0.351645	0.874975	0.390413	
-0.23296	0.961598	0.249877	
-0.363598	0.972427	0.365583	
-0.296327	0.833736	0.292179	
-0.23296	0.961598	0.249877	
-0.351645	0.874975	0.390413	
-0.239777	0.86007	0.398057	
-0.203766	0.963562	0.377533	
-0.23296	0.961598	0.249877	
-0.351645	0.874975	0.390413	
-0.363598	0.972427	0.365583	
-0.203766	0.963562	0.377533	
-0.351645	0.874975	0.390413	
-0.23296	0.961598	0.249877	
-0.239777	0.86007	0.398057	
0.358257	0.834187	0.252847	
0.347602	0.985936	0.348343	
0.490343	0.902203	0.258774	
0.361351	0.935933	0.2197	
0.358257	0.834187	0.252847	
0.490343	0.902203	0.258774	
0.347602	0.985936	0.348343	
0.368617	0.876452	0.385763	
-0.243391	1.43676	0.0969381	
-0.273315	1.33496	0	
-0.277785	1.41573	0	
-0.201912	1.36999	0	
-0.277785	1.41573	0	
-0.273315	1.33496	0	
-0.243391	1.43676	0.0969381	
-0.317197	1.38651	0.0688254	
-0.382289	1.08918	0.382504	
-0.5	1	0.3	
-0.5	1	0.4	
-0.493315	1.08149	0.347681	
-0.382289	1.08918	0.382504	
-0.5	1	0.4	
-0.5	1	0.3	
-0.363598	0.972427	0.365583	
-0.356684	0.80649	0	
-0.386831	0.6832	0.104097	
-0.415735	0.722215	0	
-0.331361	0.727047	0	
-0.356684	0.80649	0	
-0.415735	0.722215	0	
-0.386831	0.6832	0.104097	
-0.444481	0.771009	0.0919014	
-0.0571477	1.11947	0.416349	
-0.0611059	1.11559	0.264866	
-0.00748686	1.04315	0.386084	
-0.115695	1.05029	0.334241	
-0.0571477	1.11947	0.416349	
-0.00748686	1.04315	0.386084	
-0.0611059	1.11559	0.264866	
-0.00173102	1.15684	0.347507	
0.0902907	1.23506	0.376077	
0.0323895	1.13978	0.258564	
0.125116	1.11613	0.369411	
-0.00173102	1.15684	0.347507	
0.125116	1.11613	0.369411	
0.0323895	1.13978	0.258564	
0.0902907	1.23506	0.376077	
0.119419	1.18151	0.251425	
0.40353	1.07301	0.105949	
0.490343	1.0978	0.241226	
0.5	1	0.2	
0.493389	1.08104	0.14715	
0.40353	1.07301	0.105949	
0.5	1	0.2	
0.490343	1.0978	0.241226	
0.378383	1.07129	0.271427	
0.28898	1.28652	0.0949489	
0.373926	1.19893	0	
0.300884	1.19872	0	
0.328092	1.27024	0	
0.28898	1.28652	0.0949489	
0.300884	1.19872	0	
0.373926	1.19893	0	
0.353151	1.15839	0.109095	
-0.382289	1.08918	0.382504	
-0.492649	1.08542	0.251403	
-0.468495	1.17468	0.317109	
-0.364752	1.11394	0.23148	
-0.382289	1.08918	0.382504	
-0.468495	1.17468	0.317109	
-0.492649	1.08542	0.251403	
-0.493315	1.08149	0.347681	
0.323338	0.935684	0.5	
0.284123	1.06741	0.387999	
0.203143	1.00597	0.37146	
0.25	1	0.5	
0.203143	1.00597	0.37146	
0.284123	1.06741	0.387999	
0.323338	0.935684	0.5	
0.347602	0.985936	0.348343	
0.334194	1.15432	0.215771	
0.490343	1.0978	0.241226	
0.40353	1.07301	0.105949	
0.469721	1.17135	0.161666	
0.334194	1.15432	0.215771	
0.40353	1.07301	0.105949	
0.490343	1.0978	0.241226	
0.378383	1.07129	0.271427	
0.219623	1.16199	0.240766	
0.0919908	1.06424	0.248206	
0.125116	1.11613	0.369411	
0.119419	1.18151	0.251425	
0.219623	1.16199	0.240766	
0.125116	1.11613	0.369411	
0.0919908	1.06424	0.248206	
0.208793	1.06331	0.266812	
0.215953	0.839226	0.238202	
0.134932	0.977505	0.230093	
0.148799	0.913537	0.303647	
0.226544	0.947552	0.250202	
0.148799	0.913537	0.303647	
0.134932	0.977505	0.230093	
0.215953	0.839226	0.238202	
0.106858	0.844305	0.230248	
-0.332607	0.773484	0.222023	
-0.437078	0.757178	0.347009	
-0.470668	0.831266	0.298219	
-0.434698	0.752943	0.249501	
-0.332607	0.773484	0.222023	
-0.470668	0.831266	0.298219	
-0.437078	0.757178	0.347009	
-0.296327	0.833736	0.292179	
-0.283151	0.746042	0.130367	
-0.168688	0.718299	0	
-0.263582	0.680587	0	
-0.261345	0.769964	0	
-0.283151	0.746042	0.130367	
-0.263582	0.680587	0	
-0.168688	0.718299	0	
-0.183989	0.672241	0.119932	
0.125573	0.58604	0	
0.228991	0.555519	0.0919014	
0.0999617	0.645199	0.138238	
0.146853	0.522052	0.0840084	
0.125573	0.58604	0	
0.0999617	0.645199	0.138238	
0.228991	0.555519	0.0919014	
0.194604	0.628812	0	
0.368617	0.876452	0.385763	
0.398221	1	0.5	
0.495293	0.931554	0.431403	
0.347602	0.985936	0.348343	
0.368617	0.876452	0.385763	
0.495293	0.931554	0.431403	
0.398221	1	0.5	
0.409849	0.918476	0.5	
0.328092	1.27024	0	
0.436762	1.24339	0.0969381	
0.415735	1.27779	0	
0.386505	1.3172	0.0688254	
0.415735	1.27779	0	
0.436762	1.24339	0.0969381	
0.328092	1.27024	0	
0.373926	1.19893	0	
-0.179827	1.088	0.408491	
-0.274113	1.18316	0.5	
-0.275403	1.0393	0.403336	
-0.23097	1.09567	0.5	
-0.179827	1.088	0.408491	
-0.275403	1.0393	0.403336	
-0.274113	1.18316	0.5	
-0.234257	1.21312	0.375398	
0.113162	1.01769	0.414132	
0.0868435	1.13736	0.5	
-0.00748686	1.04315	0.386084	
0.0691997	1.04586	0.5	
0.113162	1.01769	0.414132	
-0.00748686	1.04315	0.386084	
0.0868435	1.13736	0.5	
0.125116	1.11613	0.369411	
-0.318983	1.26174	0	
-0.440961	1.2357	0.068569	
-0.415735	1.27779	0	
-0.389036	1.20743	0	
-0.318983	1.26174	0	
-0.415735	1.27779	0	
-0.440961	1.2357	0.068569	
-0.386476	1.31723	0.0904728	
-0.351645	0.874975	0.390413	
-0.347453	0.767839	0.5	
-0.274113	0.816844	0.5	
-0.363339	0.8495	0.5	
-0.351645	0.874975	0.390413	
-0.274113	0.816844	0.5	
-0.347453	0.767839	0.5	
-0.289723	0.75771	0.393302	
0.355602	0.87751	0.0966392	
0.409478	0.967053	0	
0.495101	0.930181	0.0723791	
0.394936	0.880197	0	
0.355602	0.87751	0.0966392	
0.495101	0.930181	0.0723791	
0.409478	0.967053	0	
0.387337	0.975471	0.113668	
0.189162	1.24479	0.0938772	
0.261819	1.31903	0	
0.190875	1.34709	0.10503	
0.28898	1.28652	0.0949489	
0.189162	1.24479	0.0938772	
0.190875	1.34709	0.10503	
0.261819	1.31903	0	
0.189613	1.31366	0	
-0.0369856	0.814061	0.5	
-0.0840558	0.819296	0.633477	
0.075477	0.809328	0.60941	
-0.00979043	0.90873	0.615519	
0.287378	0.983941	1	
0.330142	0.959051	0.83873	
0.215886	1.00836	0.878507	
0.39915	0.990133	0.906414	
-0.143721	0.860033	0.841612	
-0.0207624	0.923302	0.863864	
-0.0902369	0.906851	1	
-0.0183257	0.793213	0.875792	
0.330142	0.959051	0.83873	
0.318292	0.91002	0.672643	
0.19355	1.00275	0.74991	
0.348128	1.05074	0.719677	
0.19355	1.00275	0.74991	
0.318292	0.91002	0.672643	
0.330142	0.959051	0.83873	
0.219433	0.887973	0.783321	
0.287378	0.983941	1	
0.215886	1.00836	0.878507	
0.356074	1.09276	0.865831	
0.39915	0.990133	0.906414	
-0.238625	1.43938	0.576642	
-0.276265	1.41675	0.637452	
-0.232161	1.34745	0.5	
-0.180037	1.30947	0.668767	
-0.33007	1.27363	1	
-0.366596	1.14153	0.904615	
-0.386559	1.31713	0.911838	
-0.254431	1.30452	0.892066	
0.114269	0.8976	0.845027	
-0.0207624	0.923302	0.863864	
0.102037	0.944747	1	
0.0803871	1.00814	0.885647	
0.00587698	0.925804	1	
0.102037	0.944747	1	
0.114269	0.8976	0.845027	
-0.0207624	0.923302	0.863864	
-0.121053	1.20203	0.750792	
-0.0202852	1.17994	0.855385	
-0.0111034	1.32302	0.823352	
-0.082655	1.28145	0.901959	
-0.180037	1.30947	0.668767	
-0.159358	1.32099	0.830937	
-0.256028	1.42948	0.708421	
-0.271071	1.28122	0.731982	
-0.0369856	0.814061	0.5	
0.075477	0.809328	0.60941	
0.0344957	0.828097	0.5	
-0.00979043	0.90873	0.615519	
0.00587698	0.925804	1	
-0.0207624	0.923302	0.863864	
0.114269	0.8976	0.845027	
0.0761281	0.822015	0.902396	
-0.121053	1.20203	0.750792	
-0.0202852	1.17994	0.855385	
-0.149856	1.07611	0.843427	
-0.0933205	1.08542	0.735608	
0.356074	1.09276	0.865831	
0.215886	1.00836	0.878507	
0.330142	0.959051	0.83873	
0.39915	0.990133	0.906414	
0.0372834	1.27178	1	
0.0921027	1.22053	0.879559	
-0.0111034	1.32302	0.823352	
0.0835299	1.37795	0.884613	
-0.19416	1.46076	0.765941	
-0.256028	1.42948	0.708421	
-0.180037	1.30947	0.668767	
-0.159358	1.32099	0.830937	
-0.314941	1.38835	0.579801	
-0.180037	1.30947	0.668767	
-0.276265	1.41675	0.637452	
-0.28145	1.24879	0.622796	
0.0372834	1.27178	1	
-0.0111034	1.32302	0.823352	
0.0921027	1.22053	0.879559	
-0.082655	1.28145	0.901959	
-0.225256	0.972563	0.749303	
-0.0808186	0.989298	0.663479	
-0.218908	1.02882	0.620926	
-0.0933205	1.08542	0.735608	
-0.206133	0.729722	0.836828	
-0.0830296	0.764069	0.733505	
-0.143721	0.860033	0.841612	
-0.11576	0.747665	0.899003	
0.19355	1.00275	0.74991	
0.101275	0.91604	0.653562	
0.0539582	0.949081	0.757017	
0.030532	1.00082	0.661954	
-0.5	1	0.7	
-0.371949	0.959293	0.777377	
-0.351178	0.986498	0.65	
-0.307788	1.04281	0.733348	
-0.121053	1.20203	0.750792	
-0.180037	1.30947	0.668767	
-0.0146393	1.2919	0.660146	
-0.106349	1.24066	0.613882	
0.00587698	0.925804	1	
0.114269	0.8976	0.845027	
0.102037	0.944747	1	
0.0761281	0.822015	0.902396	
-0.328139	1.06792	0.838021	
-0.149856	1.07611	0.843427	
-0.225256	0.972563	0.749303	
-0.197777	1.1209	0.753033	
-0.143721	0.860033	0.841612	
-0.206133	0.729722	0.836828	
-0.194345	0.772916	0.709268	
-0.0830296	0.764069	0.733505	
0.00587698	0.925804	1	
0.102037	0.944747	1	
-0.0207624	0.923302	0.863864	
0.0803871	1.00814	0.885647	
0.0868435	1.13736	0.5	
-0.00475677	1.13123	0.664793	
0.12042	1.06036	0.636718	
0.125807	1.18828	0.618322	
0.166834	0.675675	0.635152	
0.075477	0.809328	0.60941	
0.197542	0.7915	0.711395	
0.215224	0.853148	0.609812	
-0.217299	1.45031	0.645888	
-0.276265	1.41675	0.637452	
-0.238625	1.43938	0.576642	
-0.180037	1.30947	0.668767	
0.5	1	0.8	
0.348128	1.05074	0.719677	
0.330142	0.959051	0.83873	
0.356074	1.09276	0.865831	
0.5	1	0.8	
0.356074	1.09276	0.865831	
0.330142	0.959051	0.83873	
0.39915	0.990133	0.906414	
-0.0258184	0.833057	1	
-0.0902369	0.906851	1	
-0.0207624	0.923302	0.863864	
-0.0183257	0.793213	0.875792	
-0.00475677	1.13123	0.664793	
0.125807	1.18828	0.618322	
0.0868435	1.13736	0.5	
0.0261041	1.21709	0.59722	
-0.121053	1.20203	0.750792	
-0.271071	1.28122	0.731982	
-0.180037	1.30947	0.668767	
-0.206572	1.20934	0.689284	
-0.0146393	1.2919	0.660146	
-0.180037	1.30947	0.668767	
-0.121053	1.20203	0.750792	
-0.0867584	1.36717	0.731965	
-0.33007	1.27363	1	
-0.250247	1.23307	1	
-0.366596	1.14153	0.904615	
-0.254431	1.30452	0.892066	
0.0921027	1.22053	0.879559	
0.0831122	1.10495	0.740369	
-0.0202852	1.17994	0.855385	
-0.00595418	1.2142	0.745645	
0.141405	0.904892	0.5	
0.075477	0.809328	0.60941	
0.103403	0.84471	0.5	
0.215224	0.853148	0.609812	
-0.149856	1.07611	0.843427	
-0.0202852	1.17994	0.855385	
9.40847e-05	1.04509	0.800768	
-0.0933205	1.08542	0.735608	
-0.149856	1.07611	0.843427	
-0.14568	1.20044	0.877353	
-0.122575	1.07331	1	
-0.0551398	1.05013	0.899099	
-0.147604	1.13485	0.630599	
-0.106349	1.24066	0.613882	
-0.28145	1.24879	0.622796	
-0.206572	1.20934	0.689284	
-0.121053	1.20203	0.750792	
-0.0111034	1.32302	0.823352	
-0.0202852	1.17994	0.855385	
-0.00595418	1.2142	0.745645	
0.197542	0.7915	0.711395	
0.091716	0.737167	0.833117	
0.175884	0.803375	0.889741	
0.105164	0.85062	0.744059	
-0.5	1	0.7	
-0.351178	0.986498	0.65	
-0.492656	1.08538	0.748652	
-0.307788	1.04281	0.733348	
-0.19416	1.46076	0.765941	
-0.159358	1.32099	0.830937	
-0.180037	1.30947	0.668767	
-0.0867584	1.36717	0.731965	
-0.23097	1.09567	0.5	
-0.218908	1.02882	0.620926	
-0.284603	1.13833	0.684978	
-0.378892	1.09874	0.625908	
-0.314941	1.38835	0.579801	
-0.232161	1.34745	0.5	
-0.276265	1.41675	0.637452	
-0.180037	1.30947	0.668767	
-0.0896492	1.16615	1	
-0.122575	1.07331	1	
-0.14568	1.20044	0.877353	
-0.0551398	1.05013	0.899099	
-0.225256	0.972563	0.749303	
-0.0933205	1.08542	0.735608	
-0.218908	1.02882	0.620926	
-0.197777	1.1209	0.753033	
-0.0810399	0.506611	0.85285	
0.0321461	0.626308	0.873516	
-0.0706186	0.688282	0.818117	
-0.142163	0.63573	0.89494	
0.326547	1.07249	1	
0.356074	1.09276	0.865831	
0.287378	0.983941	1	
0.215886	1.00836	0.878507	
-0.0706186	0.688282	0.818117	
-0.0830296	0.764069	0.733505	
-0.206133	0.729722	0.836828	
-0.11576	0.747665	0.899003	
-0.0896492	1.16615	1	
-0.14568	1.20044	0.877353	
-0.0202852	1.17994	0.855385	
-0.0551398	1.05013	0.899099	
0.0372834	1.27178	1	
0.0921027	1.22053	0.879559	
-0.0202852	1.17994	0.855385	
-0.082655	1.28145	0.901959	
-0.0810399	0.506611	0.85285	
-0.0684459	0.504707	0.931403	
0.0321461	0.626308	0.873516	
-0.142163	0.63573	0.89494	
-0.328139	1.06792	0.838021	
-0.208534	0.966027	0.877319	
-0.31121	1.03591	1	
-0.385003	0.984343	0.895239	
-0.0369856	0.814061	0.5	
0.075477	0.809328	0.60941	
-0.0840558	0.819296	0.633477	
-0.0421997	0.724204	0.59801	
-0.0810399	0.506611	0.85285	
-0.0706186	0.688282	0.818117	
-0.171353	0.530279	0.838334	
-0.142163	0.63573	0.89494	
-0.0684459	0.504707	0.931403	
-0.0444138	0.583252	1	
0.0321461	0.626308	0.873516	
-0.142163	0.63573	0.89494	
0.19355	1.00275	0.74991	
0.12042	1.06036	0.636718	
0.101275	0.91604	0.653562	
0.030532	1.00082	0.661954	
0.11795	1.23142	0.740012	
0.0831122	1.10495	0.740369	
0.0921027	1.22053	0.879559	
-0.00595418	1.2142	0.745645	
-0.0902369	0.906851	1	
-0.0207624	0.923302	0.863864	
-0.143721	0.860033	0.841612	
-0.10341	0.960236	0.912939	
0.19355	1.00275	0.74991	
0.030532	1.00082	0.661954	
0.0539582	0.949081	0.757017	
0.107062	1.02445	0.792092	
-0.208232	1.3886	1	
-0.159358	1.32099	0.830937	
-0.243302	1.43681	0.906373	
-0.0684719	1.38599	0.898819	
-0.31121	1.03591	1	
-0.208534	0.966027	0.877319	
-0.328139	1.06792	0.838021	
-0.2429	1.12372	0.891069	
-0.386831	0.6832	0.604097	
-0.347453	0.767839	0.5	
-0.32134	0.844606	0.681688	
-0.245183	0.701709	0.623779	
-0.176777	1.17678	0.5	
-0.28145	1.24879	0.622796	
-0.147604	1.13485	0.630599	
-0.106349	1.24066	0.613882	
-0.429162	1.25655	0.668732	
-0.28145	1.24879	0.622796	
-0.271071	1.28122	0.731982	
-0.355776	1.16297	0.774979	
-0.149856	1.07611	0.843427	
-0.0202852	1.17994	0.855385	
-0.121053	1.20203	0.750792	
-0.14568	1.20044	0.877353	
-0.0202852	1.17994	0.855385	
0.0921027	1.22053	0.879559	
0.13567	1.10909	0.864428	
0.0831122	1.10495	0.740369	
9.40847e-05	1.04509	0.800768	
-0.0933205	1.08542	0.735608	
-0.0202852	1.17994	0.855385	
-0.00595418	1.2142	0.745645	
0.376757	0.671284	0.753532	
0.216076	0.69962	0.805486	
0.287428	0.80533	0.842537	
0.328874	0.804808	0.729739	
-0.0111034	1.32302	0.823352	
-0.121053	1.20203	0.750792	
-0.0867584	1.36717	0.731965	
-0.00595418	1.2142	0.745645	
-0.180037	1.30947	0.668767	
-0.121053	1.20203	0.750792	
-0.159358	1.32099	0.830937	
-0.271071	1.28122	0.731982	
-0.492656	1.08538	0.748652	
-0.351178	0.986498	0.65	
-0.378892	1.09874	0.625908	
-0.307788	1.04281	0.733348	
0.0868435	1.13736	0.5	
0.12042	1.06036	0.636718	
-0.00475677	1.13123	0.664793	
-0.0230921	1.05776	0.595963	
0.287378	0.983941	1	
0.356074	1.09276	0.865831	
0.326547	1.07249	1	
0.39915	0.990133	0.906414	
-0.0261261	1.3467	1	
0.0372834	1.27178	1	
-0.0111034	1.32302	0.823352	
0.0835299	1.37795	0.884613	
-0.121053	1.20203	0.750792	
-0.0111034	1.32302	0.823352	
-0.159358	1.32099	0.830937	
-0.082655	1.28145	0.901959	
-0.429162	1.25655	0.668732	
-0.28145	1.24879	0.622796	
-0.284603	1.13833	0.684978	
-0.378892	1.09874	0.625908	
-0.00643767	0.847524	0.748532	
0.00376155	0.753357	0.785071	
0.105164	0.85062	0.744059	
0.0761281	0.822015	0.902396	
-0.440961	0.764302	0.931431	
-0.308389	0.85948	0.835633	
-0.376173	0.802719	1	
-0.313556	0.75907	0.879554	
-0.5	1	0.7	
-0.492656	1.08538	0.748652	
-0.371949	0.959293	0.777377	
-0.307788	1.04281	0.733348	
-0.107214	1.16612	0.5	
-0.147604	1.13485	0.630599	
-0.0392044	1.16291	0.5	
-0.106349	1.24066	0.613882	
-0.0111034	1.32302	0.823352	
-0.121053	1.20203	0.750792	
-0.159358	1.32099	0.830937	
-0.0867584	1.36717	0.731965	
-0.328716	0.623243	0.753532	
-0.172711	0.659579	0.756944	
-0.245183	0.701709	0.623779	
-0.297014	0.758037	0.771096	
9.40847e-05	1.04509	0.800768	
-0.0202852	1.17994	0.855385	
-0.149856	1.07611	0.843427	
-0.0551398	1.05013	0.899099	
-0.0202852	1.17994	0.855385	
0.0921027	1.22053	0.879559	
-0.0111034	1.32302	0.823352	
-0.082655	1.28145	0.901959	
-0.492656	1.08538	0.748652	
-0.351178	0.986498	0.65	
-0.5	1	0.7	
-0.378892	1.09874	0.625908	
-0.429162	1.25655	0.668732	
-0.284603	1.13833	0.684978	
-0.28145	1.24879	0.622796	
-0.355776	1.16297	0.774979	
-0.225256	0.972563	0.749303	
-0.149856	1.07611	0.843427	
-0.328139	1.06792	0.838021	
-0.208534	0.966027	0.877319	
0.114269	0.8976	0.845027	
0.215886	1.00836	0.878507	
0.198196	0.963699	1	
0.248837	0.902557	0.889756	
-0.386559	1.31713	0.911838	
-0.366596	1.14153	0.904615	
-0.263764	1.21559	0.825362	
-0.254431	1.30452	0.892066	
0.114269	0.8976	0.845027	
-0.0207624	0.923302	0.863864	
-0.00643767	0.847524	0.748532	
0.0761281	0.822015	0.902396	
-0.323338	0.935684	0.5	
-0.351178	0.986498	0.65	
-0.193736	0.903788	0.633349	
-0.218908	1.02882	0.620926	
-0.225256	0.972563	0.749303	
-0.32134	0.844606	0.681688	
-0.351178	0.986498	0.65	
-0.193736	0.903788	0.633349	
-0.386498	0.682794	0.700322	
-0.245183	0.701709	0.623779	
-0.32134	0.844606	0.681688	
-0.297014	0.758037	0.771096	
-0.274113	0.816844	0.5	
-0.32134	0.844606	0.681688	
-0.245183	0.701709	0.623779	
-0.18639	0.799846	0.604991	
-0.386831	0.6832	0.604097	
-0.429146	0.74342	0.66876	
-0.386498	0.682794	0.700322	
-0.32134	0.844606	0.681688	
0.376757	0.671284	0.753532	
0.216076	0.69962	0.805486	
0.328874	0.804808	0.729739	
0.253474	0.699951	0.70471	
0.19355	1.00275	0.74991	
0.12042	1.06036	0.636718	
0.030532	1.00082	0.661954	
0.107062	1.02445	0.792092	
0.197542	0.7915	0.711395	
0.175884	0.803375	0.889741	
0.219433	0.887973	0.783321	
0.105164	0.85062	0.744059	
0.141405	0.904892	0.5	
0.214567	0.972198	0.625898	
0.101275	0.91604	0.653562	
0.215224	0.853148	0.609812	
-0.0207624	0.923302	0.863864	
-0.0183257	0.793213	0.875792	
-0.00643767	0.847524	0.748532	
0.0761281	0.822015	0.902396	
0.0372834	1.27178	1	
-0.0261261	1.3467	1	
-0.0111034	1.32302	0.823352	
-0.082655	1.28145	0.901959	
-0.323338	0.935684	0.5	
-0.193736	0.903788	0.633349	
-0.25	1	0.5	
-0.218908	1.02882	0.620926	
0.330142	0.959051	0.83873	
0.348128	1.05074	0.719677	
0.5	1	0.8	
0.402785	0.956541	0.723347	
0.106675	0.966314	0.5	
0.0631871	0.946434	0.577068	
0.214567	0.972198	0.625898	
0.201501	1.05838	0.584156	
-0.0111034	1.32302	0.823352	
0.11795	1.23142	0.740012	
0.0921027	1.22053	0.879559	
-0.00595418	1.2142	0.745645	
-0.0261261	1.3467	1	
0.0645888	1.34627	1	
0.0372834	1.27178	1	
0.0835299	1.37795	0.884613	
-0.23097	1.09567	0.5	
-0.147604	1.13485	0.630599	
-0.284603	1.13833	0.684978	
-0.218908	1.02882	0.620926	
0.114269	0.8976	0.845027	
-0.00643767	0.847524	0.748532	
0.105164	0.85062	0.744059	
0.0761281	0.822015	0.902396	
-0.0706186	0.688282	0.818117	
0.0321461	0.626308	0.873516	
-0.0810399	0.506611	0.85285	
-0.000498869	0.611892	0.760268	
-0.238625	1.43938	0.576642	
-0.180037	1.30947	0.668767	
-0.151231	1.3651	0.5	
-0.0927842	1.36919	0.612233	
-0.492656	1.08538	0.748652	
-0.328139	1.06792	0.838021	
-0.371949	0.959293	0.777377	
-0.307788	1.04281	0.733348	
-0.376173	0.802719	1	
-0.440961	0.764302	0.931431	
-0.47591	0.846672	0.90763	
-0.308389	0.85948	0.835633	
-0.371949	0.959293	0.777377	
-0.208534	0.966027	0.877319	
-0.328139	1.06792	0.838021	
-0.385003	0.984343	0.895239	
-0.258315	1.4281	0.803104	
-0.256028	1.42948	0.708421	
-0.159358	1.32099	0.830937	
-0.271071	1.28122	0.731982	
-0.328139	1.06792	0.838021	
-0.197777	1.1209	0.753033	
-0.225256	0.972563	0.749303	
-0.307788	1.04281	0.733348	
-0.493315	0.918514	0.652319	
-0.351178	0.986498	0.65	
-0.371949	0.959293	0.777377	
-0.377424	0.892421	0.60103	
0.197542	0.7915	0.711395	
0.091716	0.737167	0.833117	
0.216076	0.69962	0.805486	
0.175884	0.803375	0.889741	
-0.386498	0.682794	0.700322	
-0.386831	0.6832	0.604097	
-0.32134	0.844606	0.681688	
-0.245183	0.701709	0.623779	
0.141405	0.904892	0.5	
0.101275	0.91604	0.653562	
0.075477	0.809328	0.60941	
0.215224	0.853148	0.609812	
0.183156	0.725887	0.5	
0.075477	0.809328	0.60941	
0.166834	0.675675	0.635152	
0.215224	0.853148	0.609812	
-0.0810399	0.506611	0.85285	
-0.0977967	0.509657	0.758774	
-0.171353	0.530279	0.838334	
-0.0706186	0.688282	0.818117	
-0.376173	0.802719	1	
-0.47591	0.846672	0.90763	
-0.396617	0.880856	1	
-0.308389	0.85948	0.835633	
-0.121053	1.20203	0.750792	
-0.14568	1.20044	0.877353	
-0.0202852	1.17994	0.855385	
-0.082655	1.28145	0.901959	
0.318292	0.91002	0.672643	
0.214567	0.972198	0.625898	
0.19355	1.00275	0.74991	
0.286804	1.05056	0.632278	
-0.171353	0.530279	0.838334	
-0.0706186	0.688282	0.818117	
-0.172711	0.659579	0.756944	
-0.142163	0.63573	0.89494	
-0.323338	0.935684	0.5	
-0.23097	0.904329	0.5	
-0.25	1	0.5	
-0.193736	0.903788	0.633349	
-0.492656	1.08538	0.748652	
-0.493438	1.08074	0.845784	
-0.5	1	0.8	
-0.328139	1.06792	0.838021	
-0.238625	1.43938	0.576642	
-0.217299	1.45031	0.645888	
-0.180037	1.30947	0.668767	
-0.0927842	1.36919	0.612233	
-0.263764	1.21559	0.825362	
-0.366596	1.14153	0.904615	
-0.250247	1.23307	1	
-0.254431	1.30452	0.892066	
0.23097	1.09567	0.5	
0.358556	1.12901	0.622438	
0.240959	1.14173	0.663655	
0.286804	1.05056	0.632278	
-0.218908	1.02882	0.620926	
-0.0933205	1.08542	0.735608	
-0.0808186	0.989298	0.663479	
-0.124649	1.04531	0.594053	
0.290856	0.760973	0.624503	
0.166834	0.675675	0.635152	
0.197542	0.7915	0.711395	
0.215224	0.853148	0.609812	
-0.122575	1.07331	1	
-0.154491	0.98059	1	
-0.218034	1.05414	1	
-0.149856	1.07611	0.843427	
-0.0111034	1.32302	0.823352	
0.11795	1.23142	0.740012	
0.0991769	1.35538	0.76662	
0.0921027	1.22053	0.879559	
-0.444497	1.22896	0.591906	
-0.28145	1.24879	0.622796	
-0.429162	1.25655	0.668732	
-0.378892	1.09874	0.625908	
-0.257824	0.5716	0.704976	
-0.217356	0.549715	0.644698	
-0.277785	0.584265	0.634138	
-0.245183	0.701709	0.623779	
-0.284603	1.13833	0.684978	
-0.271071	1.28122	0.731982	
-0.28145	1.24879	0.622796	
-0.355776	1.16297	0.774979	
-0.468495	0.825322	0.682891	
-0.493315	0.918514	0.652319	
-0.371949	0.959293	0.777377	
-0.377424	0.892421	0.60103	
-0.274113	0.816844	0.5	
-0.193736	0.903788	0.633349	
-0.32134	0.844606	0.681688	
-0.18639	0.799846	0.604991	
-0.00643767	0.847524	0.748532	
-0.0183257	0.793213	0.875792	
-0.143721	0.860033	0.841612	
-0.0830296	0.764069	0.733505	
-0.208232	1.3886	1	
-0.243302	1.43681	0.906373	
-0.119808	1.39485	1	
-0.0684719	1.38599	0.898819	
-0.218034	1.05414	1	
-0.208534	0.966027	0.877319	
-0.31121	1.03591	1	
-0.2429	1.12372	0.891069	
-0.180037	1.30947	0.668767	
-0.159358	1.32099	0.830937	
-0.121053	1.20203	0.750792	
-0.0867584	1.36717	0.731965	
-0.00475677	1.13123	0.664793	
0.0261041	1.21709	0.59722	
0.0868435	1.13736	0.5	
-0.0230921	1.05776	0.595963	
0.0539582	0.949081	0.757017	
0.219433	0.887973	0.783321	
0.114269	0.8976	0.845027	
0.105164	0.85062	0.744059	
-0.5	1	0.8	
-0.492656	1.08538	0.748652	
-0.328139	1.06792	0.838021	
-0.371949	0.959293	0.777377	
-0.23097	0.904329	0.5	
-0.274113	0.816844	0.5	
-0.193736	0.903788	0.633349	
-0.377424	0.892421	0.60103	
-0.0392044	1.16291	0.5	
-0.147604	1.13485	0.630599	
-0.107214	1.16612	0.5	
-0.0230921	1.05776	0.595963	
0.19355	1.00275	0.74991	
0.219433	0.887973	0.783321	
0.0539582	0.949081	0.757017	
0.105164	0.85062	0.744059	
0.101275	0.91604	0.653562	
0.214567	0.972198	0.625898	
0.141405	0.904892	0.5	
0.0631871	0.946434	0.577068	
-0.171353	0.530279	0.838334	
-0.0706186	0.688282	0.818117	
-0.0977967	0.509657	0.758774	
-0.172711	0.659579	0.756944	
0.122935	1.34062	0.641539	
0.125807	1.18828	0.618322	
0.11795	1.23142	0.740012	
0.0261041	1.21709	0.59722	
0.0956709	1.23097	0.5	
0.125807	1.18828	0.618322	
0.122935	1.34062	0.641539	
0.0261041	1.21709	0.59722	
9.40847e-05	1.04509	0.800768	
-0.00475677	1.13123	0.664793	
-0.0933205	1.08542	0.735608	
-0.00595418	1.2142	0.745645	
0.19355	1.00275	0.74991	
0.12042	1.06036	0.636718	
0.240959	1.14173	0.663655	
0.201501	1.05838	0.584156	
-0.468495	0.825322	0.682891	
-0.371949	0.959293	0.777377	
-0.32134	0.844606	0.681688	
-0.377424	0.892421	0.60103	
-0.396617	0.880856	1	
-0.308389	0.85948	0.835633	
-0.47591	0.846672	0.90763	
-0.385003	0.984343	0.895239	
0.493012	1.0833	0.844789	
0.348128	1.05074	0.719677	
0.5	1	0.8	
0.356074	1.09276	0.865831	
-0.0146393	1.2919	0.660146	
0.122935	1.34062	0.641539	
0.11795	1.23142	0.740012	
0.0261041	1.21709	0.59722	
-0.444497	1.22896	0.591906	
-0.363339	1.1505	0.5	
-0.28145	1.24879	0.622796	
-0.378892	1.09874	0.625908	
0.330142	0.959051	0.83873	
0.348128	1.05074	0.719677	
0.19355	1.00275	0.74991	
0.262314	1.07918	0.800995	
-0.434698	0.752943	0.749501	
-0.32134	0.844606	0.681688	
-0.308389	0.85948	0.835633	
-0.297014	0.758037	0.771096	
-0.328716	0.623243	0.753532	
-0.257824	0.5716	0.704976	
-0.245183	0.701709	0.623779	
-0.172711	0.659579	0.756944	
-0.225256	0.972563	0.749303	
-0.102765	0.975873	0.785694	
-0.0808186	0.989298	0.663479	
-0.0933205	1.08542	0.735608	
0.19355	1.00275	0.74991	
0.240959	1.14173	0.663655	
0.286804	1.05056	0.632278	
0.201501	1.05838	0.584156	
-0.0537386	1.25516	1	
0.0372834	1.27178	1	
-0.0202852	1.17994	0.855385	
-0.082655	1.28145	0.901959	
-0.147604	1.13485	0.630599	
-0.28145	1.24879	0.622796	
-0.284603	1.13833	0.684978	
-0.206572	1.20934	0.689284	
-0.0810399	0.506611	0.85285	
-0.0977967	0.509657	0.758774	
-0.0706186	0.688282	0.818117	
-0.000498869	0.611892	0.760268	
-0.0706186	0.688282	0.818117	
-0.172711	0.659579	0.756944	
-0.206133	0.729722	0.836828	
-0.0830296	0.764069	0.733505	
-0.328716	0.623243	0.753532	
-0.206133	0.729722	0.836828	
-0.172711	0.659579	0.756944	
-0.297014	0.758037	0.771096	
-0.122575	1.07331	1	
-0.154491	0.98059	1	
-0.149856	1.07611	0.843427	
-0.10341	0.960236	0.912939	
-0.225256	0.972563	0.749303	
-0.328139	1.06792	0.838021	
-0.371949	0.959293	0.777377	
-0.208534	0.966027	0.877319	
0.19355	1.00275	0.74991	
0.105164	0.85062	0.744059	
0.0539582	0.949081	0.757017	
0.190918	0.90269	0.690758	
-0.263764	1.21559	0.825362	
-0.159358	1.32099	0.830937	
-0.121053	1.20203	0.750792	
-0.271071	1.28122	0.731982	
-0.492656	1.08538	0.748652	
-0.355776	1.16297	0.774979	
-0.328139	1.06792	0.838021	
-0.307788	1.04281	0.733348	
-0.274113	1.18316	0.5	
-0.284603	1.13833	0.684978	
-0.147604	1.13485	0.630599	
-0.28145	1.24879	0.622796	
-0.0202852	1.17994	0.855385	
0.0831122	1.10495	0.740369	
0.13567	1.10909	0.864428	
0.0362445	1.10288	0.900124	
0.114269	0.8976	0.845027	
0.0539582	0.949081	0.757017	
0.19355	1.00275	0.74991	
0.219433	0.887973	0.783321	
0.091716	0.737167	0.833117	
0.105164	0.85062	0.744059	
0.00376155	0.753357	0.785071	
0.0761281	0.822015	0.902396	
-0.0537386	1.25516	1	
0.0372834	1.27178	1	
0.00512645	1.18472	1	
-0.0202852	1.17994	0.855385	
0.102037	0.944747	1	
0.198196	0.963699	1	
0.166518	0.870941	1	
0.114269	0.8976	0.845027	
0.183156	0.725887	0.5	
0.176777	0.823223	0.5	
0.075477	0.809328	0.60941	
0.215224	0.853148	0.609812	
-0.32134	0.844606	0.681688	
-0.193736	0.903788	0.633349	
-0.274113	0.816844	0.5	
-0.377424	0.892421	0.60103	
0.163502	1.02984	0.5	
0.12042	1.06036	0.636718	
0.106675	0.966314	0.5	
0.201501	1.05838	0.584156	
-0.19416	1.46076	0.765941	
-0.258315	1.4281	0.803104	
-0.256028	1.42948	0.708421	
-0.159358	1.32099	0.830937	
-0.0392044	1.16291	0.5	
-0.147604	1.13485	0.630599	
-0.00475677	1.13123	0.664793	
-0.106349	1.24066	0.613882	
-0.0146393	1.2919	0.660146	
-0.0867584	1.36717	0.731965	
-0.121053	1.20203	0.750792	
-0.00595418	1.2142	0.745645	
0.12042	1.06036	0.636718	
0.0631871	0.946434	0.577068	
0.106675	0.966314	0.5	
0.201501	1.05838	0.584156	
-0.00643767	0.847524	0.748532	
-0.0183257	0.793213	0.875792	
0.00376155	0.753357	0.785071	
0.0761281	0.822015	0.902396	
0.028723	1.17517	0.5	
0.000305103	1.09462	0.5	
0.0868435	1.13736	0.5	
0.0261041	1.21709	0.59722	
-0.308389	0.85948	0.835633	
-0.32134	0.844606	0.681688	
-0.470668	0.831266	0.798219	
-0.371949	0.959293	0.777377	
-0.345102	0.953927	1	
-0.308389	0.85948	0.835633	
-0.396617	0.880856	1	
-0.385003	0.984343	0.895239	
0.318292	0.91002	0.672643	
0.19355	1.00275	0.74991	
0.348128	1.05074	0.719677	
0.286804	1.05056	0.632278	
-0.206133	0.729722	0.836828	
-0.172711	0.659579	0.756944	
-0.194345	0.772916	0.709268	
-0.0830296	0.764069	0.733505	
-0.328716	0.623243	0.753532	
-0.206133	0.729722	0.836828	
-0.258165	0.571805	0.798245	
-0.172711	0.659579	0.756944	
-0.314941	1.38835	0.579801	
-0.232161	1.34745	0.5	
-0.238625	1.43938	0.576642	
-0.276265	1.41675	0.637452	
-0.0202852	1.17994	0.855385	
0.0831122	1.10495	0.740369	
9.40847e-05	1.04509	0.800768	
-0.00595418	1.2142	0.745645	
-0.386831	0.6832	0.604097	
-0.347453	0.767839	0.5	
-0.444481	0.771009	0.591901	
-0.32134	0.844606	0.681688	
0.19355	1.00275	0.74991	
0.240959	1.14173	0.663655	
0.12042	1.06036	0.636718	
0.188892	1.15001	0.759985	
-0.492649	0.914576	0.748597	
-0.468495	0.825322	0.682891	
-0.493315	0.918514	0.652319	
-0.371949	0.959293	0.777377	
0.197542	0.7915	0.711395	
0.287428	0.80533	0.842537	
0.219433	0.887973	0.783321	
0.175884	0.803375	0.889741	
-0.0369856	0.814061	0.5	
0.0344957	0.828097	0.5	
-0.0218546	0.89013	0.5	
-0.00979043	0.90873	0.615519	
-0.323338	0.935684	0.5	
-0.193736	0.903788	0.633349	
-0.351178	0.986498	0.65	
-0.377424	0.892421	0.60103	
-0.143721	0.860033	0.841612	
-0.0830296	0.764069	0.733505	
-0.0183257	0.793213	0.875792	
-0.11576	0.747665	0.899003	
0.11795	1.23142	0.740012	
0.188892	1.15001	0.759985	
0.176308	1.30549	0.856004	
0.193121	1.21116	0.891371	
-0.492656	1.08538	0.748652	
-0.378892	1.09874	0.625908	
-0.355776	1.16297	0.774979	
-0.307788	1.04281	0.733348	
0.287378	0.983941	1	
0.326547	1.07249	1	
0.360576	0.998064	1	
0.39915	0.990133	0.906414	
-0.493437	0.919252	0.845776	
-0.308389	0.85948	0.835633	
-0.371949	0.959293	0.777377	
-0.385003	0.984343	0.895239	
0.11795	1.23142	0.740012	
0.13567	1.10909	0.864428	
0.0921027	1.22053	0.879559	
0.0831122	1.10495	0.740369	
-0.470668	0.831266	0.798219	
-0.308389	0.85948	0.835633	
-0.434698	0.752943	0.749501	
-0.32134	0.844606	0.681688	
0.0321461	0.626308	0.873516	
-0.142163	0.63573	0.89494	
-0.0444138	0.583252	1	
-0.0283413	0.698633	0.90895	
-0.0202852	1.17994	0.855385	
-0.0933205	1.08542	0.735608	
-0.121053	1.20203	0.750792	
-0.00595418	1.2142	0.745645	
-0.386831	0.6832	0.604097	
-0.444481	0.771009	0.591901	
-0.429146	0.74342	0.66876	
-0.32134	0.844606	0.681688	
-0.5	1	0.8	
-0.328139	1.06792	0.838021	
-0.493438	1.08074	0.845784	
-0.385003	0.984343	0.895239	
-0.115668	0.660224	0.648618	
-0.172711	0.659579	0.756944	
-0.0977967	0.509657	0.758774	
-0.000498869	0.611892	0.760268	
-0.332191	1.3737	0.665943	
-0.276265	1.41675	0.637452	
-0.180037	1.30947	0.668767	
-0.28145	1.24879	0.622796	
0.0372834	1.27178	1	
0.0645888	1.34627	1	
0.0921027	1.22053	0.879559	
0.0835299	1.37795	0.884613	
-0.0392044	1.16291	0.5	
-0.106349	1.24066	0.613882	
-0.00475677	1.13123	0.664793	
0.0261041	1.21709	0.59722	
-0.121053	1.20203	0.750792	
-0.263764	1.21559	0.825362	
-0.271071	1.28122	0.731982	
-0.206572	1.20934	0.689284	
0.176777	1.17678	0.5	
0.23097	1.09567	0.5	
0.240959	1.14173	0.663655	
0.201501	1.05838	0.584156	
-0.208232	1.3886	1	
-0.159358	1.32099	0.830937	
-0.182108	1.31839	1	
-0.254431	1.30452	0.892066	
0.376757	0.671284	0.753532	
0.380873	0.676062	0.847739	
0.287428	0.80533	0.842537	
0.216076	0.69962	0.805486	
0	1.5	0.9	
0.0835299	1.37795	0.884613	
-0.0684719	1.38599	0.898819	
0.00695298	1.40388	0.759796	
0.091716	0.737167	0.833117	
0.175884	0.803375	0.889741	
0.097631	0.704268	1	
0.160008	0.641459	0.892261	
0.197542	0.7915	0.711395	
0.091716	0.737167	0.833117	
0.105164	0.85062	0.744059	
0.103438	0.745916	0.728223	
-0.0706186	0.688282	0.818117	
-0.115668	0.660224	0.648618	
-0.0830296	0.764069	0.733505	
-0.000498869	0.611892	0.760268	
-0.308389	0.85948	0.835633	
-0.208534	0.966027	0.877319	
-0.371949	0.959293	0.777377	
-0.385003	0.984343	0.895239	
-0.492656	1.08538	0.748652	
-0.5	1	0.7	
-0.493066	1.08298	0.651653	
-0.378892	1.09874	0.625908	
0.0703509	0.851998	1	
0.00587698	0.925804	1	
0.102037	0.944747	1	
0.0761281	0.822015	0.902396	
-0.351178	0.986498	0.65	
-0.193736	0.903788	0.633349	
-0.32134	0.844606	0.681688	
-0.377424	0.892421	0.60103	
-0.238488	0.560542	0.575692	
-0.277785	0.584265	0.634138	
-0.217356	0.549715	0.644698	
-0.245183	0.701709	0.623779	
0.214567	0.972198	0.625898	
0.0631871	0.946434	0.577068	
0.12042	1.06036	0.636718	
0.201501	1.05838	0.584156	
-0.274113	0.816844	0.5	
-0.32134	0.844606	0.681688	
-0.347453	0.767839	0.5	
-0.245183	0.701709	0.623779	
0.11795	1.23142	0.740012	
0.125807	1.18828	0.618322	
-0.00475677	1.13123	0.664793	
0.0261041	1.21709	0.59722	
0.0375767	1.01852	1	
0.0803871	1.00814	0.885647	
-0.0207624	0.923302	0.863864	
-0.0551398	1.05013	0.899099	
0.097631	0.704268	1	
0.091716	0.737167	0.833117	
0.0321461	0.626308	0.873516	
-0.0283413	0.698633	0.90895	
-0.0202852	1.17994	0.855385	
-0.14568	1.20044	0.877353	
-0.149856	1.07611	0.843427	
-0.0551398	1.05013	0.899099	
0.219433	0.887973	0.783321	
0.105164	0.85062	0.744059	
0.19355	1.00275	0.74991	
0.190918	0.90269	0.690758	
0.322164	0.745112	1	
0.287428	0.80533	0.842537	
0.386505	0.682803	0.931175	
0.248978	0.726366	0.903842	
0.19355	1.00275	0.74991	
0.286804	1.05056	0.632278	
0.214567	0.972198	0.625898	
0.201501	1.05838	0.584156	
-0.328139	1.06792	0.838021	
-0.149856	1.07611	0.843427	
-0.197777	1.1209	0.753033	
-0.2429	1.12372	0.891069	
0.197542	0.7915	0.711395	
0.216076	0.69962	0.805486	
0.287428	0.80533	0.842537	
0.175884	0.803375	0.889741	
-0.493437	0.919252	0.845776	
-0.47591	0.846672	0.90763	
-0.308389	0.85948	0.835633	
-0.385003	0.984343	0.895239	
9.40847e-05	1.04509	0.800768	
0.0831122	1.10495	0.740369	
-0.0202852	1.17994	0.855385	
0.0362445	1.10288	0.900124	
-0.218034	1.05414	1	
-0.149856	1.07611	0.843427	
-0.154491	0.98059	1	
-0.208534	0.966027	0.877319	
-0.429162	1.25655	0.668732	
-0.271071	1.28122	0.731982	
-0.386533	1.31716	0.700258	
-0.355776	1.16297	0.774979	
-0.33007	1.27363	1	
-0.250247	1.23307	1	
-0.357396	1.18789	1	
-0.366596	1.14153	0.904615	
-0.238488	0.560542	0.575692	
-0.217356	0.549715	0.644698	
-0.115668	0.660224	0.648618	
-0.245183	0.701709	0.623779	
0.0645888	1.34627	1	
0.134677	1.30158	1	
0.0921027	1.22053	0.879559	
0.0835299	1.37795	0.884613	
0.166518	0.870941	1	
0.114269	0.8976	0.845027	
0.198196	0.963699	1	
0.248837	0.902557	0.889756	
0.097631	0.704268	1	
0.0383625	0.760787	1	
0.091716	0.737167	0.833117	
-0.0283413	0.698633	0.90895	
-0.0706186	0.688282	0.818117	
-0.0977967	0.509657	0.758774	
-0.172711	0.659579	0.756944	
-0.000498869	0.611892	0.760268	
-0.238488	0.560542	0.575692	
-0.115668	0.660224	0.648618	
-0.152126	0.632735	0.5	
-0.245183	0.701709	0.623779	
0	0.75	0.5	
0.0344957	0.828097	0.5	
-0.0369856	0.814061	0.5	
0.075477	0.809328	0.60941	
0.141405	0.904892	0.5	
0.185939	0.963014	0.5	
0.214567	0.972198	0.625898	
0.215224	0.853148	0.609812	
0.183156	0.725887	0.5	
0.166834	0.675675	0.635152	
0.290856	0.760973	0.624503	
0.215224	0.853148	0.609812	
-0.122575	1.07331	1	
-0.149856	1.07611	0.843427	
-0.185909	1.14844	1	
-0.14568	1.20044	0.877353	
0.11795	1.23142	0.740012	
-0.00475677	1.13123	0.664793	
-0.00595418	1.2142	0.745645	
0.0261041	1.21709	0.59722	
-0.0585581	0.999611	1	
0.0375767	1.01852	1	
-0.0207624	0.923302	0.863864	
-0.0551398	1.05013	0.899099	
-0.238625	1.43938	0.576642	
-0.232161	1.34745	0.5	
-0.151231	1.3651	0.5	
-0.180037	1.30947	0.668767	
-0.208232	1.3886	1	
-0.243302	1.43681	0.906373	
-0.159358	1.32099	0.830937	
-0.254431	1.30452	0.892066	
-0.245183	0.701709	0.623779	
-0.172711	0.659579	0.756944	
-0.194345	0.772916	0.709268	
-0.297014	0.758037	0.771096	
-0.32134	0.844606	0.681688	
-0.371949	0.959293	0.777377	
-0.351178	0.986498	0.65	
-0.377424	0.892421	0.60103	
0.101275	0.91604	0.653562	
0.105164	0.85062	0.744059	
0.075477	0.809328	0.60941	
0.190918	0.90269	0.690758	
0.267628	1.19145	0.824346	
0.176308	1.30549	0.856004	
0.188892	1.15001	0.759985	
0.193121	1.21116	0.891371	
-0.5	1	0.8	
-0.371949	0.959293	0.777377	
-0.328139	1.06792	0.838021	
-0.385003	0.984343	0.895239	
0.356074	1.09276	0.865831	
0.215886	1.00836	0.878507	
0.326547	1.07249	1	
0.230545	1.11436	0.899122	
0.097631	0.704268	1	
0.091716	0.737167	0.833117	
0.132272	0.778577	1	
0.175884	0.803375	0.889741	
0.176777	1.17678	0.5	
0.240959	1.14173	0.663655	
0.125807	1.18828	0.618322	
0.201501	1.05838	0.584156	
0.0807477	1.49344	0.654224	
0.122935	1.34062	0.641539	
0.0991769	1.35538	0.76662	
0.0232779	1.38849	0.611701	
0.00512645	1.18472	1	
-0.0202852	1.17994	0.855385	
0.0372834	1.27178	1	
0.0921027	1.22053	0.879559	
-0.0261261	1.3467	1	
0.0835299	1.37795	0.884613	
-0.0111034	1.32302	0.823352	
-0.0684719	1.38599	0.898819	
-0.345102	0.953927	1	
-0.249134	0.962669	1	
-0.296764	0.859492	1	
-0.308389	0.85948	0.835633	
-0.121053	1.20203	0.750792	
-0.00595418	1.2142	0.745645	
-0.00475677	1.13123	0.664793	
-0.106349	1.24066	0.613882	
-0.225256	0.972563	0.749303	
-0.193736	0.903788	0.633349	
-0.351178	0.986498	0.65	
-0.218908	1.02882	0.620926	
-0.331632	0.625807	0.665357	
-0.328716	0.623243	0.753532	
-0.257824	0.5716	0.704976	
-0.245183	0.701709	0.623779	
0.0807477	1.49344	0.654224	
0.0232779	1.38849	0.611701	
0.0991769	1.35538	0.76662	
0.00695298	1.40388	0.759796	
0.11795	1.23142	0.740012	
0.0991769	1.35538	0.76662	
-0.0146393	1.2919	0.660146	
-0.00595418	1.2142	0.745645	
-0.274113	1.18316	0.5	
-0.284603	1.13833	0.684978	
-0.23097	1.09567	0.5	
-0.147604	1.13485	0.630599	
-0.23097	1.09567	0.5	
-0.284603	1.13833	0.684978	
-0.274113	1.18316	0.5	
-0.378892	1.09874	0.625908	
0.176777	1.17678	0.5	
0.125807	1.18828	0.618322	
0.240959	1.14173	0.663655	
0.197701	1.26759	0.618397	
0.101275	0.91604	0.653562	
-0.00643767	0.847524	0.748532	
-0.00979043	0.90873	0.615519	
0.0014459	0.786307	0.671061	
0.19355	1.00275	0.74991	
0.214567	0.972198	0.625898	
0.12042	1.06036	0.636718	
0.201501	1.05838	0.584156	
-0.429162	1.25655	0.668732	
-0.28145	1.24879	0.622796	
-0.386533	1.31716	0.700258	
-0.271071	1.28122	0.731982	
-0.154491	0.98059	1	
-0.208534	0.966027	0.877319	
-0.149856	1.07611	0.843427	
-0.10341	0.960236	0.912939	
-0.0111034	1.32302	0.823352	
0.0921027	1.22053	0.879559	
0.0991769	1.35538	0.76662	
0.0835299	1.37795	0.884613	
-0.00475677	1.13123	0.664793	
9.40847e-05	1.04509	0.800768	
0.0831122	1.10495	0.740369	
-0.00595418	1.2142	0.745645	
-0.0146393	1.2919	0.660146	
0.0991769	1.35538	0.76662	
-0.0111034	1.32302	0.823352	
-0.00595418	1.2142	0.745645	
-0.351178	0.986498	0.65	
-0.32134	0.844606	0.681688	
-0.225256	0.972563	0.749303	
-0.371949	0.959293	0.777377	
0.240959	1.14173	0.663655	
0.23097	1.09567	0.5	
0.286804	1.05056	0.632278	
0.201501	1.05838	0.584156	
-0.00643767	0.847524	0.748532	
-0.0207624	0.923302	0.863864	
-0.143721	0.860033	0.841612	
-0.0183257	0.793213	0.875792	
9.40847e-05	1.04509	0.800768	
-0.0808186	0.989298	0.663479	
-0.0933205	1.08542	0.735608	
0.030532	1.00082	0.661954	
-0.0585581	0.999611	1	
0.0375767	1.01852	1	
0.00587698	0.925804	1	
-0.0207624	0.923302	0.863864	
0.460548	1.19467	0.73433	
0.333887	1.18738	0.72436	
0.348128	1.05074	0.719677	
0.369343	1.17686	0.815886	
-0.218908	1.02882	0.620926	
-0.0933205	1.08542	0.735608	
-0.147604	1.13485	0.630599	
-0.197777	1.1209	0.753033	
-0.314941	1.38835	0.579801	
-0.232161	1.34745	0.5	
-0.180037	1.30947	0.668767	
-0.28145	1.24879	0.622796	
0.490343	1.0978	0.741226	
0.348128	1.05074	0.719677	
0.493012	1.0833	0.844789	
0.356074	1.09276	0.865831	
-0.0183257	0.793213	0.875792	
-0.0830296	0.764069	0.733505	
-0.0706186	0.688282	0.818117	
-0.11576	0.747665	0.899003	
-0.429162	1.25655	0.668732	
-0.284603	1.13833	0.684978	
-0.468473	1.17474	0.682816	
-0.378892	1.09874	0.625908	
0.097631	0.704268	1	
0.132272	0.778577	1	
0.091716	0.737167	0.833117	
0.0761281	0.822015	0.902396	
-0.0896492	1.16615	1	
-0.0202852	1.17994	0.855385	
-0.0267938	1.0921	1	
-0.0551398	1.05013	0.899099	
-0.225256	0.972563	0.749303	
-0.149856	1.07611	0.843427	
-0.102765	0.975873	0.785694	
-0.0933205	1.08542	0.735608	
-0.149856	1.07611	0.843427	
-0.0933205	1.08542	0.735608	
-0.225256	0.972563	0.749303	
-0.197777	1.1209	0.753033	
0.19355	1.00275	0.74991	
0.240959	1.14173	0.663655	
0.262314	1.07918	0.800995	
0.286804	1.05056	0.632278	
9.40847e-05	1.04509	0.800768	
-0.0933205	1.08542	0.735608	
-0.00475677	1.13123	0.664793	
0.030532	1.00082	0.661954	
0.101275	0.91604	0.653562	
0.12042	1.06036	0.636718	
0.19355	1.00275	0.74991	
0.214567	0.972198	0.625898	
0.267628	1.19145	0.824346	
0.247079	1.26952	0.713352	
0.176308	1.30549	0.856004	
0.278791	1.29194	0.808109	
-0.296764	0.859492	1	
-0.308389	0.85948	0.835633	
-0.249134	0.962669	1	
-0.208534	0.966027	0.877319	
0.322164	0.745112	1	
0.436762	0.756609	0.903062	
0.386505	0.682803	0.931175	
0.287428	0.80533	0.842537	
0.0372834	1.27178	1	
0.0645888	1.34627	1	
0.134677	1.30158	1	
0.0921027	1.22053	0.879559	
-0.323338	0.935684	0.5	
-0.23097	0.904329	0.5	
-0.193736	0.903788	0.633349	
-0.377424	0.892421	0.60103	
-0.147604	1.13485	0.630599	
-0.0933205	1.08542	0.735608	
-0.218908	1.02882	0.620926	
-0.124649	1.04531	0.594053	
0.348128	1.05074	0.719677	
0.356074	1.09276	0.865831	
0.490343	1.0978	0.741226	
0.369343	1.17686	0.815886	
-0.0811073	1.49338	0.853007	
-0.171627	1.46962	0.839884	
-0.0867584	1.36717	0.731965	
-0.0684719	1.38599	0.898819	
0.097631	0.704268	1	
0.091716	0.737167	0.833117	
0.0383625	0.760787	1	
0.0761281	0.822015	0.902396	
-0.0840558	0.819296	0.633477	
-0.0421997	0.724204	0.59801	
0.075477	0.809328	0.60941	
0.0014459	0.786307	0.671061	
-0.0207624	0.923302	0.863864	
-0.00643767	0.847524	0.748532	
-0.117533	0.874656	0.729651	
-0.0365827	0.936141	0.729399	
0.228991	1.44448	0.908099	
0.176308	1.30549	0.856004	
0.201148	1.36807	1	
0.0835299	1.37795	0.884613	
-0.0369856	0.814061	0.5	
-0.00979043	0.90873	0.615519	
-0.0218546	0.89013	0.5	
-0.105125	0.905315	0.589497	
-0.328139	1.06792	0.838021	
-0.208534	0.966027	0.877319	
-0.149856	1.07611	0.843427	
-0.2429	1.12372	0.891069	
-0.331632	0.625807	0.665357	
-0.328716	0.623243	0.753532	
-0.245183	0.701709	0.623779	
-0.297014	0.758037	0.771096	
-0.31121	1.03591	1	
-0.208534	0.966027	0.877319	
-0.249134	0.962669	1	
-0.385003	0.984343	0.895239	
-0.19416	1.46076	0.765941	
-0.180037	1.30947	0.668767	
-0.167464	1.47112	0.699894	
-0.0867584	1.36717	0.731965	
-0.00475677	1.13123	0.664793	
-0.147604	1.13485	0.630599	
-0.0392044	1.16291	0.5	
-0.0230921	1.05776	0.595963	
-0.323338	1.06432	0.5	
-0.218908	1.02882	0.620926	
-0.23097	1.09567	0.5	
-0.378892	1.09874	0.625908	
0.493389	0.91896	0.85285	
0.382077	0.87532	0.792977	
0.330142	0.959051	0.83873	
0.402785	0.956541	0.723347	
-0.347453	0.767839	0.5	
-0.444481	0.771009	0.591901	
-0.32134	0.844606	0.681688	
-0.377424	0.892421	0.60103	
-0.468495	0.825322	0.682891	
-0.470668	0.831266	0.798219	
-0.32134	0.844606	0.681688	
-0.371949	0.959293	0.777377	
-0.121053	1.20203	0.750792	
-0.159358	1.32099	0.830937	
-0.14568	1.20044	0.877353	
-0.082655	1.28145	0.901959	
-0.00475677	1.13123	0.664793	
-0.147604	1.13485	0.630599	
-0.121053	1.20203	0.750792	
-0.106349	1.24066	0.613882	
-0.250247	1.23307	1	
-0.263764	1.21559	0.825362	
-0.2429	1.12372	0.891069	
-0.366596	1.14153	0.904615	
-0.468473	1.17474	0.682816	
-0.284603	1.13833	0.684978	
-0.429162	1.25655	0.668732	
-0.355776	1.16297	0.774979	
0.075477	0.809328	0.60941	
0.105164	0.85062	0.744059	
0.197542	0.7915	0.711395	
0.190918	0.90269	0.690758	
-0.0773947	0.947213	0.5	
-0.105125	0.905315	0.589497	
-0.00979043	0.90873	0.615519	
-0.0230921	1.05776	0.595963	
0.101275	0.91604	0.653562	
-0.00979043	0.90873	0.615519	
-0.00643767	0.847524	0.748532	
-0.0365827	0.936141	0.729399	
0.318292	0.91002	0.672643	
0.330142	0.959051	0.83873	
0.219433	0.887973	0.783321	
0.382077	0.87532	0.792977	
0.0956709	0.76903	0.5	
0.064316	0.676662	0.5	
0.166834	0.675675	0.635152	
0.075477	0.809328	0.60941	
-0.172711	0.659579	0.756944	
-0.142163	0.63573	0.89494	
-0.206133	0.729722	0.836828	
-0.231903	0.663623	0.918546	
-0.429162	1.25655	0.668732	
-0.386533	1.31716	0.700258	
-0.434718	1.24702	0.749442	
-0.355776	1.16297	0.774979	
-0.0706186	0.688282	0.818117	
-0.172711	0.659579	0.756944	
-0.115668	0.660224	0.648618	
-0.000498869	0.611892	0.760268	
0.075477	0.809328	0.60941	
0.215224	0.853148	0.609812	
0.101275	0.91604	0.653562	
0.190918	0.90269	0.690758	
-0.0977967	0.509657	0.758774	
-0.115668	0.660224	0.648618	
-0.168043	0.529084	0.699874	
-0.172711	0.659579	0.756944	
-0.0811073	1.49338	0.853007	
-0.0684719	1.38599	0.898819	
-0.0867584	1.36717	0.731965	
0.00695298	1.40388	0.759796	
0.23097	0.904329	0.5	
0.323338	0.935684	0.5	
0.214567	0.972198	0.625898	
0.215224	0.853148	0.609812	
0.0991769	1.35538	0.76662	
0.0921027	1.22053	0.879559	
0.176308	1.30549	0.856004	
0.0835299	1.37795	0.884613	
-0.00979043	0.90873	0.615519	
-0.105125	0.905315	0.589497	
-0.0808186	0.989298	0.663479	
-0.0230921	1.05776	0.595963	
-0.0840558	0.819296	0.633477	
-0.00979043	0.90873	0.615519	
-0.0369856	0.814061	0.5	
-0.105125	0.905315	0.589497	
0.00587698	0.925804	1	
-0.0207624	0.923302	0.863864	
0.0375767	1.01852	1	
0.0803871	1.00814	0.885647	
0.132272	0.778577	1	
0.175884	0.803375	0.889741	
0.091716	0.737167	0.833117	
0.0761281	0.822015	0.902396	
-0.0808186	0.989298	0.663479	
-0.225256	0.972563	0.749303	
-0.193736	0.903788	0.633349	
-0.117533	0.874656	0.729651	
0.13371	1.03748	1	
0.13567	1.10909	0.864428	
0.215886	1.00836	0.878507	
0.0803871	1.00814	0.885647	
0.122935	1.34062	0.641539	
0.125807	1.18828	0.618322	
0.0956709	1.23097	0.5	
0.197701	1.26759	0.618397	
-0.143721	0.860033	0.841612	
-0.0207624	0.923302	0.863864	
-0.00643767	0.847524	0.748532	
-0.117533	0.874656	0.729651	
0.376757	0.671284	0.753532	
0.287428	0.80533	0.842537	
0.428195	0.741835	0.798245	
0.328874	0.804808	0.729739	
-0.194345	0.772916	0.709268	
-0.206133	0.729722	0.836828	
-0.143721	0.860033	0.841612	
-0.221068	0.864025	0.764044	
0.322164	0.745112	1	
0.436762	0.756609	0.903062	
0.287428	0.80533	0.842537	
0.36821	0.862229	0.899925	
-0.167464	1.47112	0.699894	
-0.19416	1.46076	0.765941	
-0.256028	1.42948	0.708421	
-0.180037	1.30947	0.668767	
0.197542	0.7915	0.711395	
0.215224	0.853148	0.609812	
0.075477	0.809328	0.60941	
0.190918	0.90269	0.690758	
-0.225256	0.972563	0.749303	
-0.371949	0.959293	0.777377	
-0.308389	0.85948	0.835633	
-0.208534	0.966027	0.877319	
-0.437035	1.2429	0.847369	
-0.263764	1.21559	0.825362	
-0.386559	1.31713	0.911838	
-0.366596	1.14153	0.904615	
0.19355	1.00275	0.74991	
0.12042	1.06036	0.636718	
0.0831122	1.10495	0.740369	
0.188892	1.15001	0.759985	
0.11795	1.23142	0.740012	
0.122935	1.34062	0.641539	
-0.0146393	1.2919	0.660146	
0.0991769	1.35538	0.76662	
-0.00643767	0.847524	0.748532	
-0.0207624	0.923302	0.863864	
0.114269	0.8976	0.845027	
0.0539582	0.949081	0.757017	
-0.274113	1.18316	0.5	
-0.284603	1.13833	0.684978	
-0.28145	1.24879	0.622796	
-0.378892	1.09874	0.625908	
-0.0833019	0.506988	0.655211	
-0.115668	0.660224	0.648618	
-0.0977967	0.509657	0.758774	
-0.000498869	0.611892	0.760268	
-0.225256	0.972563	0.749303	
-0.0808186	0.989298	0.663479	
-0.193736	0.903788	0.633349	
-0.218908	1.02882	0.620926	
-0.0258184	0.833057	1	
-0.0207624	0.923302	0.863864	
0.00587698	0.925804	1	
0.0761281	0.822015	0.902396	
9.40847e-05	1.04509	0.800768	
-0.0808186	0.989298	0.663479	
0.030532	1.00082	0.661954	
-0.0365827	0.936141	0.729399	
-0.225256	0.972563	0.749303	
-0.371949	0.959293	0.777377	
-0.32134	0.844606	0.681688	
-0.221068	0.864025	0.764044	
0.11795	1.23142	0.740012	
-0.00595418	1.2142	0.745645	
-0.0146393	1.2919	0.660146	
0.0261041	1.21709	0.59722	
-0.0261261	1.3467	1	
-0.0684719	1.38599	0.898819	
-0.0111034	1.32302	0.823352	
-0.082655	1.28145	0.901959	
0.11795	1.23142	0.740012	
-0.00475677	1.13123	0.664793	
0.125807	1.18828	0.618322	
0.0831122	1.10495	0.740369	
0	1.5	0.9	
0	1.5	0.8	
0.0835299	1.37795	0.884613	
0.00695298	1.40388	0.759796	
0	0.75	0.5	
0.075477	0.809328	0.60941	
-0.0369856	0.814061	0.5	
-0.0421997	0.724204	0.59801	
-0.28145	1.24879	0.622796	
-0.106349	1.24066	0.613882	
-0.180037	1.30947	0.668767	
-0.206572	1.20934	0.689284	
-0.274113	1.18316	0.5	
-0.147604	1.13485	0.630599	
-0.176777	1.17678	0.5	
-0.28145	1.24879	0.622796	
-0.0111034	1.32302	0.823352	
0.0921027	1.22053	0.879559	
-0.0202852	1.17994	0.855385	
-0.00595418	1.2142	0.745645	
0.240959	1.14173	0.663655	
0.125807	1.18828	0.618322	
0.12042	1.06036	0.636718	
0.188892	1.15001	0.759985	
-0.121053	1.20203	0.750792	
-0.159358	1.32099	0.830937	
-0.263764	1.21559	0.825362	
-0.14568	1.20044	0.877353	
0.097631	0.704268	1	
0.0321461	0.626308	0.873516	
0.091716	0.737167	0.833117	
0.160008	0.641459	0.892261	
0.075477	0.809328	0.60941	
-0.00979043	0.90873	0.615519	
-0.0840558	0.819296	0.633477	
0.0014459	0.786307	0.671061	
-0.258315	1.4281	0.803104	
-0.271071	1.28122	0.731982	
-0.159358	1.32099	0.830937	
-0.254431	1.30452	0.892066	
-0.328716	0.623243	0.753532	
-0.323938	0.619127	0.847739	
-0.258165	0.571805	0.798245	
-0.206133	0.729722	0.836828	
0.125807	1.18828	0.618322	
0.0831122	1.10495	0.740369	
0.12042	1.06036	0.636718	
0.188892	1.15001	0.759985	
0.091716	0.737167	0.833117	
0.0383625	0.760787	1	
0.0761281	0.822015	0.902396	
-0.0283413	0.698633	0.90895	
-0.00643767	0.847524	0.748532	
0.101275	0.91604	0.653562	
0.105164	0.85062	0.744059	
0.0014459	0.786307	0.671061	
-0.296764	0.859492	1	
-0.396617	0.880856	1	
-0.345102	0.953927	1	
-0.308389	0.85948	0.835633	
-0.5	1	0.7	
-0.493315	0.918514	0.652319	
-0.351178	0.986498	0.65	
-0.371949	0.959293	0.777377	
0.11795	1.23142	0.740012	
-0.0111034	1.32302	0.823352	
0.0991769	1.35538	0.76662	
-0.00595418	1.2142	0.745645	
0.318292	0.91002	0.672643	
0.214567	0.972198	0.625898	
0.323338	0.935684	0.5	
0.215224	0.853148	0.609812	
0.141405	0.904892	0.5	
0.23097	0.904329	0.5	
0.185939	0.963014	0.5	
0.215224	0.853148	0.609812	
-0.0833019	0.506988	0.655211	
-0.115668	0.660224	0.648618	
-0.000498869	0.611892	0.760268	
-0.0201375	0.611237	0.611421	
0.0309435	0.691773	0.673181	
0.166834	0.675675	0.635152	
0.064316	0.676662	0.5	
0.075477	0.809328	0.60941	
-0.182108	1.31839	1	
-0.149858	1.24003	1	
-0.14568	1.20044	0.877353	
-0.082655	1.28145	0.901959	
-0.00643767	0.847524	0.748532	
-0.0830296	0.764069	0.733505	
-0.143721	0.860033	0.841612	
-0.117533	0.874656	0.729651	
-0.258165	0.571805	0.798245	
-0.172711	0.659579	0.756944	
-0.206133	0.729722	0.836828	
-0.231903	0.663623	0.918546	
0.13371	1.03748	1	
0.0692432	1.11129	1	
0.13567	1.10909	0.864428	
0.0362445	1.10288	0.900124	
-0.0111034	1.32302	0.823352	
-0.0684719	1.38599	0.898819	
0.0835299	1.37795	0.884613	
0.00695298	1.40388	0.759796	
-0.194345	0.772916	0.709268	
-0.115668	0.660224	0.648618	
-0.0840558	0.819296	0.633477	
-0.0830296	0.764069	0.733505	
-0.0183257	0.793213	0.875792	
-0.0830296	0.764069	0.733505	
-0.00643767	0.847524	0.748532	
0.00376155	0.753357	0.785071	
-0.0706186	0.688282	0.818117	
-0.000498869	0.611892	0.760268	
-0.0830296	0.764069	0.733505	
0.00376155	0.753357	0.785071	
0.175091	0.697234	1	
0.097631	0.704268	1	
0.175884	0.803375	0.889741	
0.160008	0.641459	0.892261	
-0.332191	1.3737	0.665943	
-0.276265	1.41675	0.637452	
-0.256028	1.42948	0.708421	
-0.180037	1.30947	0.668767	
0.101275	0.91604	0.653562	
-0.00643767	0.847524	0.748532	
0.0539582	0.949081	0.757017	
-0.0365827	0.936141	0.729399	
-0.5	1	0.6	
-0.351178	0.986498	0.65	
-0.397525	1	0.5	
-0.378892	1.09874	0.625908	
0.13567	1.10909	0.864428	
0.0921027	1.22053	0.879559	
-0.0202852	1.17994	0.855385	
0.0362445	1.10288	0.900124	
-0.117202	1.0938	0.5	
-0.107214	1.16612	0.5	
-0.147604	1.13485	0.630599	
-0.0230921	1.05776	0.595963	
0.13371	1.03748	1	
0.0692432	1.11129	1	
0.16533	1.13018	1	
0.13567	1.10909	0.864428	
-0.0896492	1.16615	1	
-0.122575	1.07331	1	
-0.185909	1.14844	1	
-0.14568	1.20044	0.877353	
0.122935	1.34062	0.641539	
0.247079	1.26952	0.713352	
0.242822	1.43708	0.652991	
0.202645	1.34448	0.765823	
-0.493437	0.919252	0.845776	
-0.308389	0.85948	0.835633	
-0.470668	0.831266	0.798219	
-0.371949	0.959293	0.777377	
0.318292	0.91002	0.672643	
0.348128	1.05074	0.719677	
0.330142	0.959051	0.83873	
0.402785	0.956541	0.723347	
-0.493438	1.08074	0.845784	
-0.328139	1.06792	0.838021	
-0.492656	1.08538	0.748652	
-0.355776	1.16297	0.774979	
0.0309435	0.691773	0.673181	
-0.0830296	0.764069	0.733505	
-0.115668	0.660224	0.648618	
-0.000498869	0.611892	0.760268	
-0.0810399	0.506611	0.85285	
-0.0684459	0.504707	0.931403	
0	0.5	0.9	
0.0321461	0.626308	0.873516	
0.141405	0.904892	0.5	
0.103403	0.84471	0.5	
0.176777	0.823223	0.5	
0.215224	0.853148	0.609812	
0.19355	1.00275	0.74991	
0.215886	1.00836	0.878507	
0.114269	0.8976	0.845027	
0.219433	0.887973	0.783321	
-0.0840558	0.819296	0.633477	
-0.115668	0.660224	0.648618	
-0.194345	0.772916	0.709268	
-0.18639	0.799846	0.604991	
0.000305103	1.09462	0.5	
0.0868435	1.13736	0.5	
0.0261041	1.21709	0.59722	
-0.0230921	1.05776	0.595963	
-0.376173	0.802719	1	
-0.396617	0.880856	1	
-0.296764	0.859492	1	
-0.308389	0.85948	0.835633	
-0.0258184	0.833057	1	
-0.0183257	0.793213	0.875792	
-0.0207624	0.923302	0.863864	
0.0761281	0.822015	0.902396	
0.493389	0.91896	0.85285	
0.5	1	0.8	
0.330142	0.959051	0.83873	
0.39915	0.990133	0.906414	
-0.159358	1.32099	0.830937	
-0.0867584	1.36717	0.731965	
-0.171627	1.46962	0.839884	
-0.0684719	1.38599	0.898819	
-0.0267938	1.0921	1	
-0.0551398	1.05013	0.899099	
-0.0202852	1.17994	0.855385	
0.0362445	1.10288	0.900124	
0.493012	1.0833	0.844789	
0.490343	1.0978	0.741226	
0.5	1	0.8	
0.348128	1.05074	0.719677	
0.470916	1.16804	0.800126	
0.490343	1.0978	0.741226	
0.356074	1.09276	0.865831	
0.369343	1.17686	0.815886	
0.493012	1.0833	0.844789	
0.356074	1.09276	0.865831	
0.5	1	0.8	
0.39915	0.990133	0.906414	
-0.183156	1.27411	0.5	
-0.28145	1.24879	0.622796	
-0.176777	1.17678	0.5	
-0.106349	1.24066	0.613882	
-0.14499	1.47852	0.92371	
-0.119808	1.39485	1	
-0.243302	1.43681	0.906373	
-0.0684719	1.38599	0.898819	
0.19355	1.00275	0.74991	
0.318292	0.91002	0.672643	
0.219433	0.887973	0.783321	
0.190918	0.90269	0.690758	
0.103403	0.84471	0.5	
0.075477	0.809328	0.60941	
0.176777	0.823223	0.5	
0.215224	0.853148	0.609812	
0.287378	0.983941	1	
0.344935	0.908506	1	
0.330142	0.959051	0.83873	
0.39915	0.990133	0.906414	
0.176308	1.30549	0.856004	
0.0991769	1.35538	0.76662	
0.11795	1.23142	0.740012	
0.0921027	1.22053	0.879559	
0.226913	1.05511	1	
0.326547	1.07249	1	
0.287378	0.983941	1	
0.215886	1.00836	0.878507	
-0.296764	0.859492	1	
-0.308389	0.85948	0.835633	
-0.208534	0.966027	0.877319	
-0.228331	0.826788	0.903124	
0.460548	1.19467	0.73433	
0.348128	1.05074	0.719677	
0.490343	1.0978	0.741226	
0.369343	1.17686	0.815886	
-0.23097	0.904329	0.5	
-0.157632	0.968645	0.5	
-0.25	1	0.5	
-0.193736	0.903788	0.633349	
-0.182108	1.31839	1	
-0.082655	1.28145	0.901959	
-0.14568	1.20044	0.877353	
-0.254431	1.30452	0.892066	
0.322164	0.745112	1	
0.287428	0.80533	0.842537	
0.301328	0.82727	1	
0.36821	0.862229	0.899925	
0.19355	1.00275	0.74991	
0.330142	0.959051	0.83873	
0.215886	1.00836	0.878507	
0.219433	0.887973	0.783321	
-0.0808186	0.989298	0.663479	
9.40847e-05	1.04509	0.800768	
-0.0933205	1.08542	0.735608	
-0.0365827	0.936141	0.729399	
-0.104053	1.31415	1	
-0.182108	1.31839	1	
-0.0684719	1.38599	0.898819	
-0.082655	1.28145	0.901959	
0	1.5	0.9	
-0.0684719	1.38599	0.898819	
0	1.5	0.8	
0.00695298	1.40388	0.759796	
-0.444497	1.22896	0.591906	
-0.363339	1.1505	0.5	
-0.347453	1.23216	0.5	
-0.28145	1.24879	0.622796	
0.13371	1.03748	1	
0.215886	1.00836	0.878507	
0.13567	1.10909	0.864428	
0.230545	1.11436	0.899122	
0.197542	0.7915	0.711395	
0.075477	0.809328	0.60941	
0.166834	0.675675	0.635152	
0.103438	0.745916	0.728223	
-0.157632	0.968645	0.5	
-0.193736	0.903788	0.633349	
-0.105125	0.905315	0.589497	
-0.124649	1.04531	0.594053	
0.13371	1.03748	1	
0.13567	1.10909	0.864428	
0.0803871	1.00814	0.885647	
0.0362445	1.10288	0.900124	
0.19355	1.00275	0.74991	
0.114269	0.8976	0.845027	
0.215886	1.00836	0.878507	
0.107062	1.02445	0.792092	
-0.0146393	1.2919	0.660146	
0.0232779	1.38849	0.611701	
0.122935	1.34062	0.641539	
0.0261041	1.21709	0.59722	
-0.323938	0.619127	0.847739	
-0.206133	0.729722	0.836828	
-0.328716	0.623243	0.753532	
-0.297014	0.758037	0.771096	
-0.0207624	0.923302	0.863864	
-0.117533	0.874656	0.729651	
-0.102765	0.975873	0.785694	
-0.0365827	0.936141	0.729399	
0.091716	0.737167	0.833117	
0.197542	0.7915	0.711395	
0.216076	0.69962	0.805486	
0.103438	0.745916	0.728223	
0.13567	1.10909	0.864428	
0.0921027	1.22053	0.879559	
0.16533	1.13018	1	
0.193121	1.21116	0.891371	
0.240959	1.14173	0.663655	
0.125807	1.18828	0.618322	
0.11795	1.23142	0.740012	
0.197701	1.26759	0.618397	
0.114269	0.8976	0.845027	
0.175884	0.803375	0.889741	
0.091716	0.737167	0.833117	
0.105164	0.85062	0.744059	
-0.0808186	0.989298	0.663479	
-0.102765	0.975873	0.785694	
-0.225256	0.972563	0.749303	
-0.117533	0.874656	0.729651	
0.219433	0.887973	0.783321	
0.175884	0.803375	0.889741	
0.114269	0.8976	0.845027	
0.105164	0.85062	0.744059	
-0.0706186	0.688282	0.818117	
-0.115668	0.660224	0.648618	
-0.172711	0.659579	0.756944	
-0.0830296	0.764069	0.733505	
0.415735	1.27779	0.865862	
0.369343	1.17686	0.815886	
0.337852	1.21393	0.901789	
0.278791	1.29194	0.808109	
0.175091	0.697234	1	
0.097631	0.704268	1	
0.132272	0.778577	1	
0.175884	0.803375	0.889741	
0	1.25	0.5	
-0.0146393	1.2919	0.660146	
-0.106349	1.24066	0.613882	
0.0261041	1.21709	0.59722	
0.122568	1.39751	1	
0.228991	1.44448	0.908099	
0.201148	1.36807	1	
0.0835299	1.37795	0.884613	
-0.32134	0.844606	0.681688	
-0.245183	0.701709	0.623779	
-0.194345	0.772916	0.709268	
-0.297014	0.758037	0.771096	
0.23097	0.904329	0.5	
0.214567	0.972198	0.625898	
0.185939	0.963014	0.5	
0.215224	0.853148	0.609812	
0.101275	0.91604	0.653562	
0.19355	1.00275	0.74991	
0.0539582	0.949081	0.757017	
0.190918	0.90269	0.690758	
-0.468473	1.17474	0.682816	
-0.378892	1.09874	0.625908	
-0.284603	1.13833	0.684978	
-0.355776	1.16297	0.774979	
0.242822	1.43708	0.652991	
0.247079	1.26952	0.713352	
0.122935	1.34062	0.641539	
0.197701	1.26759	0.618397	
-0.121053	1.20203	0.750792	
-0.147604	1.13485	0.630599	
-0.00475677	1.13123	0.664793	
-0.0933205	1.08542	0.735608	
-0.5	1	0.6	
-0.397525	1	0.5	
-0.495208	1.06906	0.569036	
-0.378892	1.09874	0.625908	
-0.182108	1.31839	1	
-0.14568	1.20044	0.877353	
-0.149858	1.24003	1	
-0.254431	1.30452	0.892066	
-0.440961	0.764302	0.931431	
-0.437078	0.757178	0.847009	
-0.308389	0.85948	0.835633	
-0.313556	0.75907	0.879554	
0.460548	1.19467	0.73433	
0.469721	1.17135	0.661666	
0.348128	1.05074	0.719677	
0.333887	1.18738	0.72436	
-0.122575	1.07331	1	
-0.149856	1.07611	0.843427	
-0.0551398	1.05013	0.899099	
-0.10341	0.960236	0.912939	
0.201148	1.36807	1	
0.176308	1.30549	0.856004	
0.134677	1.30158	1	
0.0835299	1.37795	0.884613	
-0.0892911	0.866366	0.5	
-0.0369856	0.814061	0.5	
-0.0218546	0.89013	0.5	
-0.105125	0.905315	0.589497	
-0.470668	0.831266	0.798219	
-0.493437	0.919252	0.845776	
-0.47591	0.846672	0.90763	
-0.308389	0.85948	0.835633	
-0.331632	0.625807	0.665357	
-0.245183	0.701709	0.623779	
-0.386498	0.682794	0.700322	
-0.297014	0.758037	0.771096	
-0.0146393	1.2919	0.660146	
0.0991769	1.35538	0.76662	
0.0232779	1.38849	0.611701	
0.00695298	1.40388	0.759796	
0.0691997	1.04586	0.5	
0.12042	1.06036	0.636718	
0.0868435	1.13736	0.5	
-0.0230921	1.05776	0.595963	
-0.32134	0.844606	0.681688	
-0.194345	0.772916	0.709268	
-0.245183	0.701709	0.623779	
-0.18639	0.799846	0.604991	
-0.0267938	1.0921	1	
-0.0896492	1.16615	1	
0.00512645	1.18472	1	
-0.0202852	1.17994	0.855385	
-0.0146393	1.2919	0.660146	
0.0991769	1.35538	0.76662	
0.122935	1.34062	0.641539	
0.0232779	1.38849	0.611701	
0.318292	0.91002	0.672643	
0.215224	0.853148	0.609812	
0.323338	0.935684	0.5	
0.366244	0.831981	0.604187	
-0.328139	1.06792	0.838021	
-0.197777	1.1209	0.753033	
-0.263764	1.21559	0.825362	
-0.2429	1.12372	0.891069	
-0.217299	1.45031	0.645888	
-0.167464	1.47112	0.699894	
-0.180037	1.30947	0.668767	
-0.0927842	1.36919	0.612233	
-0.25	1	0.5	
-0.193736	0.903788	0.633349	
-0.157632	0.968645	0.5	
-0.218908	1.02882	0.620926	
0.114269	0.8976	0.845027	
0.19355	1.00275	0.74991	
0.0539582	0.949081	0.757017	
0.107062	1.02445	0.792092	
-0.274113	1.18316	0.5	
-0.28145	1.24879	0.622796	
-0.363339	1.1505	0.5	
-0.378892	1.09874	0.625908	
0.11795	1.23142	0.740012	
0.176308	1.30549	0.856004	
0.247079	1.26952	0.713352	
0.202645	1.34448	0.765823	
0.240959	1.14173	0.663655	
0.247079	1.26952	0.713352	
0.11795	1.23142	0.740012	
0.188892	1.15001	0.759985	
-0.159358	1.32099	0.830937	
-0.0684719	1.38599	0.898819	
-0.182108	1.31839	1	
-0.082655	1.28145	0.901959	
-0.122575	1.07331	1	
-0.149856	1.07611	0.843427	
-0.218034	1.05414	1	
-0.2429	1.12372	0.891069	
0.19355	1.00275	0.74991	
0.214567	0.972198	0.625898	
0.318292	0.91002	0.672643	
0.190918	0.90269	0.690758	
-0.0202852	1.17994	0.855385	
-0.14568	1.20044	0.877353	
-0.0896492	1.16615	1	
-0.082655	1.28145	0.901959	
0.176308	1.30549	0.856004	
0.0921027	1.22053	0.879559	
0.134677	1.30158	1	
0.0835299	1.37795	0.884613	
0.197542	0.7915	0.711395	
0.219433	0.887973	0.783321	
0.328874	0.804808	0.729739	
0.190918	0.90269	0.690758	
-0.0537386	1.25516	1	
-0.0202852	1.17994	0.855385	
-0.0896492	1.16615	1	
-0.082655	1.28145	0.901959	
-0.328139	1.06792	0.838021	
-0.263764	1.21559	0.825362	
-0.197777	1.1209	0.753033	
-0.355776	1.16297	0.774979	
0.197542	0.7915	0.711395	
0.290856	0.760973	0.624503	
0.215224	0.853148	0.609812	
0.328874	0.804808	0.729739	
0.19355	1.00275	0.74991	
0.101275	0.91604	0.653562	
0.214567	0.972198	0.625898	
0.190918	0.90269	0.690758	
-0.0111034	1.32302	0.823352	
0.0991769	1.35538	0.76662	
-0.0146393	1.2919	0.660146	
0.00695298	1.40388	0.759796	
-0.117202	1.0938	0.5	
-0.0392044	1.16291	0.5	
-0.107214	1.16612	0.5	
-0.0230921	1.05776	0.595963	
0.11795	1.23142	0.740012	
0.0921027	1.22053	0.879559	
0.188892	1.15001	0.759985	
0.193121	1.21116	0.891371	
-0.185909	1.14844	1	
-0.14568	1.20044	0.877353	
-0.149856	1.07611	0.843427	
-0.2429	1.12372	0.891069	
0.287378	0.983941	1	
0.330142	0.959051	0.83873	
0.344935	0.908506	1	
0.248837	0.902557	0.889756	
0.13371	1.03748	1	
0.215886	1.00836	0.878507	
0.198196	0.963699	1	
0.0803871	1.00814	0.885647	
-0.225256	0.972563	0.749303	
-0.32134	0.844606	0.681688	
-0.193736	0.903788	0.633349	
-0.221068	0.864025	0.764044	
-0.258165	0.571805	0.798245	
-0.142163	0.63573	0.89494	
-0.172711	0.659579	0.756944	
-0.231903	0.663623	0.918546	
0.240959	1.14173	0.663655	
0.11795	1.23142	0.740012	
0.125807	1.18828	0.618322	
0.188892	1.15001	0.759985	
0.240959	1.14173	0.663655	
0.11795	1.23142	0.740012	
0.247079	1.26952	0.713352	
0.197701	1.26759	0.618397	
0.323338	0.935684	0.5	
0.214567	0.972198	0.625898	
0.38174	0.996023	0.618569	
0.286804	1.05056	0.632278	
-0.263764	1.21559	0.825362	
-0.14568	1.20044	0.877353	
-0.250247	1.23307	1	
-0.2429	1.12372	0.891069	
0.19355	1.00275	0.74991	
0.262314	1.07918	0.800995	
0.348128	1.05074	0.719677	
0.286804	1.05056	0.632278	
0.323338	0.935684	0.5	
0.25	1	0.5	
0.214567	0.972198	0.625898	
0.286804	1.05056	0.632278	
0.12042	1.06036	0.636718	
0.214567	0.972198	0.625898	
0.101275	0.91604	0.653562	
0.0631871	0.946434	0.577068	
0.228991	1.44448	0.908099	
0.201148	1.36807	1	
0.176308	1.30549	0.856004	
0.262414	1.28412	0.908895	
-0.157632	0.968645	0.5	
-0.218908	1.02882	0.620926	
-0.193736	0.903788	0.633349	
-0.124649	1.04531	0.594053	
0.242822	1.43708	0.652991	
0.122935	1.34062	0.641539	
0.235698	1.44096	0.568569	
0.197701	1.26759	0.618397	
0.00512645	1.18472	1	
-0.0267938	1.0921	1	
-0.0202852	1.17994	0.855385	
0.0362445	1.10288	0.900124	
0.287428	0.80533	0.842537	
0.216076	0.69962	0.805486	
0.197542	0.7915	0.711395	
0.328874	0.804808	0.729739	
0.226913	1.05511	1	
0.326547	1.07249	1	
0.215886	1.00836	0.878507	
0.230545	1.11436	0.899122	
0.469721	1.17135	0.661666	
0.358556	1.12901	0.622438	
0.348128	1.05074	0.719677	
0.333887	1.18738	0.72436	
-0.00643767	0.847524	0.748532	
-0.00979043	0.90873	0.615519	
-0.0840558	0.819296	0.633477	
-0.0365827	0.936141	0.729399	
-0.250247	1.23307	1	
-0.14568	1.20044	0.877353	
-0.263764	1.21559	0.825362	
-0.254431	1.30452	0.892066	
0.274113	1.18316	0.5	
0.240959	1.14173	0.663655	
0.23097	1.09567	0.5	
0.358556	1.12901	0.622438	
0.493389	0.91896	0.85285	
0.330142	0.959051	0.83873	
0.5	1	0.8	
0.402785	0.956541	0.723347	
-0.31121	1.03591	1	
-0.348481	1.09787	1	
-0.2429	1.12372	0.891069	
-0.366596	1.14153	0.904615	
0.19355	1.00275	0.74991	
0.262314	1.07918	0.800995	
0.240959	1.14173	0.663655	
0.188892	1.15001	0.759985	
-0.183156	1.27411	0.5	
-0.180037	1.30947	0.668767	
-0.28145	1.24879	0.622796	
-0.106349	1.24066	0.613882	
-0.168043	0.529084	0.699874	
-0.0977967	0.509657	0.758774	
-0.0833019	0.506988	0.655211	
-0.115668	0.660224	0.648618	
0.0376698	1.41981	1	
0	1.5	0.9	
0.0835299	1.37795	0.884613	
-0.0684719	1.38599	0.898819	
0.428195	0.741835	0.798245	
0.376757	0.671284	0.753532	
0.380873	0.676062	0.847739	
0.287428	0.80533	0.842537	
9.40847e-05	1.04509	0.800768	
-0.00475677	1.13123	0.664793	
0.0831122	1.10495	0.740369	
0.030532	1.00082	0.661954	
-0.14568	1.20044	0.877353	
-0.082655	1.28145	0.901959	
-0.159358	1.32099	0.830937	
-0.254431	1.30452	0.892066	
0.101275	0.91604	0.653562	
-0.00979043	0.90873	0.615519	
0.075477	0.809328	0.60941	
0.0014459	0.786307	0.671061	
-0.0537386	1.25516	1	
0.00512645	1.18472	1	
-0.0896492	1.16615	1	
-0.0202852	1.17994	0.855385	
-0.238488	0.560542	0.575692	
-0.217356	0.549715	0.644698	
-0.152694	0.523886	0.59754	
-0.115668	0.660224	0.648618	
0.242822	1.43708	0.652991	
0.316847	1.38679	0.698616	
0.247079	1.26952	0.713352	
0.197701	1.26759	0.618397	
-0.121053	1.20203	0.750792	
-0.0146393	1.2919	0.660146	
-0.00595418	1.2142	0.745645	
-0.106349	1.24066	0.613882	
-0.0706186	0.688282	0.818117	
-0.142163	0.63573	0.89494	
0.0321461	0.626308	0.873516	
-0.0283413	0.698633	0.90895	
-0.218034	1.05414	1	
-0.149856	1.07611	0.843427	
-0.208534	0.966027	0.877319	
-0.2429	1.12372	0.891069	
0.16533	1.13018	1	
0.13371	1.03748	1	
0.13567	1.10909	0.864428	
0.230545	1.11436	0.899122	
0.415735	0.722215	0.634138	
0.4284	0.742176	0.704976	
0.450285	0.782644	0.644698	
0.366244	0.831981	0.604187	
-0.194345	0.772916	0.709268	
-0.143721	0.860033	0.841612	
-0.0830296	0.764069	0.733505	
-0.117533	0.874656	0.729651	
0.318292	0.91002	0.672643	
0.215224	0.853148	0.609812	
0.197542	0.7915	0.711395	
0.190918	0.90269	0.690758	
0.0634445	0.898618	0.5	
0.0344957	0.828097	0.5	
0.075477	0.809328	0.60941	
-0.00979043	0.90873	0.615519	
0.374193	0.668368	0.665357	
0.415735	0.722215	0.634138	
0.290856	0.760973	0.624503	
0.328874	0.804808	0.729739	
-0.121053	1.20203	0.750792	
-0.14568	1.20044	0.877353	
-0.263764	1.21559	0.825362	
-0.197777	1.1209	0.753033	
0.197542	0.7915	0.711395	
0.215224	0.853148	0.609812	
0.318292	0.91002	0.672643	
0.328874	0.804808	0.729739	
0.11795	1.23142	0.740012	
-0.00475677	1.13123	0.664793	
0.0831122	1.10495	0.740369	
-0.00595418	1.2142	0.745645	
-0.233276	0.710046	1	
-0.206133	0.729722	0.836828	
-0.153466	0.725651	1	
-0.231903	0.663623	0.918546	
-0.233276	0.710046	1	
-0.217395	0.789549	1	
-0.153466	0.725651	1	
-0.206133	0.729722	0.836828	
0.323338	0.935684	0.5	
0.214567	0.972198	0.625898	
0.318292	0.91002	0.672643	
0.38174	0.996023	0.618569	
0.476114	0.847306	0.59754	
0.38174	0.996023	0.618569	
0.495101	0.930181	0.572379	
0.366244	0.831981	0.604187	
0.470916	0.831957	0.699874	
0.493012	0.916698	0.655211	
0.366244	0.831981	0.604187	
0.402785	0.956541	0.723347	
-0.468495	0.825322	0.682891	
-0.492649	0.914576	0.748597	
-0.470668	0.831266	0.798219	
-0.371949	0.959293	0.777377	
-0.332191	1.3737	0.665943	
-0.314941	1.38835	0.579801	
-0.276265	1.41675	0.637452	
-0.28145	1.24879	0.622796	
-0.143721	0.860033	0.841612	
-0.102765	0.975873	0.785694	
-0.0207624	0.923302	0.863864	
-0.117533	0.874656	0.729651	
0.122568	1.39751	1	
0.201148	1.36807	1	
0.134677	1.30158	1	
0.0835299	1.37795	0.884613	
0.0814864	0.506685	0.652319	
-0.000498869	0.611892	0.760268	
0.115192	0.637967	0.754396	
0.0872942	0.606698	0.613217	
-0.397525	1	0.5	
-0.351178	0.986498	0.65	
-0.5	1	0.6	
-0.377424	0.892421	0.60103	
-0.437078	0.757178	0.847009	
-0.47591	0.846672	0.90763	
-0.440961	0.764302	0.931431	
-0.308389	0.85948	0.835633	
0.415735	0.722215	0.634138	
0.290856	0.760973	0.624503	
0.328874	0.804808	0.729739	
0.366244	0.831981	0.604187	
-0.493438	1.08074	0.845784	
-0.385003	0.984343	0.895239	
-0.328139	1.06792	0.838021	
-0.366596	1.14153	0.904615	
-0.225256	0.972563	0.749303	
-0.371949	0.959293	0.777377	
-0.328139	1.06792	0.838021	
-0.307788	1.04281	0.733348	
0	1.5	0.9	
0	1.5	0.8	
0.0814864	1.49332	0.847681	
0.0835299	1.37795	0.884613	
0.287378	0.983941	1	
0.215886	1.00836	0.878507	
0.330142	0.959051	0.83873	
0.248837	0.902557	0.889756	
-0.122575	1.07331	1	
-0.185909	1.14844	1	
-0.149856	1.07611	0.843427	
-0.2429	1.12372	0.891069	
0.102037	0.944747	1	
0.13371	1.03748	1	
0.198196	0.963699	1	
0.0803871	1.00814	0.885647	
0.197542	0.7915	0.711395	
0.328874	0.804808	0.729739	
0.216076	0.69962	0.805486	
0.253474	0.699951	0.70471	
-0.308389	0.85948	0.835633	
-0.32134	0.844606	0.681688	
-0.371949	0.959293	0.777377	
-0.221068	0.864025	0.764044	
0.493389	1.08104	0.64715	
0.348128	1.05074	0.719677	
0.469721	1.17135	0.661666	
0.358556	1.12901	0.622438	
0.183156	0.725887	0.5	
0.0956709	0.76903	0.5	
0.166834	0.675675	0.635152	
0.075477	0.809328	0.60941	
-0.258315	1.4281	0.803104	
-0.324048	1.38078	0.849851	
-0.271071	1.28122	0.731982	
-0.254431	1.30452	0.892066	
-0.351178	0.986498	0.65	
-0.218908	1.02882	0.620926	
-0.284603	1.13833	0.684978	
-0.307788	1.04281	0.733348	
-0.0979281	1.49032	0.75908	
-0.0811073	1.49338	0.853007	
-0.171627	1.46962	0.839884	
-0.0867584	1.36717	0.731965	
0.176777	1.17678	0.5	
0.240959	1.14173	0.663655	
0.274113	1.18316	0.5	
0.197701	1.26759	0.618397	
-0.0684459	0.504707	0.931403	
-0.0444138	0.583252	1	
0	0.5	0.9	
0.0321461	0.626308	0.873516	
0.330142	0.959051	0.83873	
0.19355	1.00275	0.74991	
0.215886	1.00836	0.878507	
0.262314	1.07918	0.800995	
0.183156	0.725887	0.5	
0.176777	0.823223	0.5	
0.0956709	0.76903	0.5	
0.075477	0.809328	0.60941	
-0.32134	0.844606	0.681688	
-0.193736	0.903788	0.633349	
-0.194345	0.772916	0.709268	
-0.18639	0.799846	0.604991	
-0.233276	0.710046	1	
-0.313556	0.75907	0.879554	
-0.206133	0.729722	0.836828	
-0.231903	0.663623	0.918546	
-0.115668	0.660224	0.648618	
-0.18639	0.799846	0.604991	
-0.0840558	0.819296	0.633477	
-0.0421997	0.724204	0.59801	
0.415735	1.27779	0.865862	
0.374193	1.33163	0.834643	
0.369343	1.17686	0.815886	
0.278791	1.29194	0.808109	
0.301328	0.82727	1	
0.287428	0.80533	0.842537	
0.322164	0.745112	1	
0.248978	0.726366	0.903842	
0.075477	0.809328	0.60941	
0.105164	0.85062	0.744059	
0.101275	0.91604	0.653562	
0.0014459	0.786307	0.671061	
0.242822	1.43708	0.652991	
0.235698	1.44096	0.568569	
0.317233	1.38648	0.590473	
0.197701	1.26759	0.618397	
-0.167464	1.47112	0.699894	
-0.256028	1.42948	0.708421	
-0.217299	1.45031	0.645888	
-0.180037	1.30947	0.668767	
-0.5	1	0.7	
-0.492649	0.914576	0.748597	
-0.493315	0.918514	0.652319	
-0.371949	0.959293	0.777377	
-0.0830296	0.764069	0.733505	
-0.000498869	0.611892	0.760268	
0.0309435	0.691773	0.673181	
0.00376155	0.753357	0.785071	
0.197542	0.7915	0.711395	
0.328874	0.804808	0.729739	
0.318292	0.91002	0.672643	
0.190918	0.90269	0.690758	
-0.225256	0.972563	0.749303	
-0.197777	1.1209	0.753033	
-0.218908	1.02882	0.620926	
-0.307788	1.04281	0.733348	
0.11795	1.23142	0.740012	
0.176308	1.30549	0.856004	
0.0921027	1.22053	0.879559	
0.193121	1.21116	0.891371	
-0.284603	1.13833	0.684978	
-0.218908	1.02882	0.620926	
-0.351178	0.986498	0.65	
-0.378892	1.09874	0.625908	
0.470916	0.831957	0.699874	
0.366244	0.831981	0.604187	
0.318292	0.91002	0.672643	
0.402785	0.956541	0.723347	
-0.238488	0.560542	0.575692	
-0.152694	0.523886	0.59754	
-0.152126	0.632735	0.5	
-0.115668	0.660224	0.648618	
0.242822	1.43708	0.652991	
0.317233	1.38648	0.590473	
0.316847	1.38679	0.698616	
0.197701	1.26759	0.618397	
-0.495012	1.07045	0.928155	
-0.385003	0.984343	0.895239	
-0.493438	1.08074	0.845784	
-0.366596	1.14153	0.904615	
0.386505	0.682803	0.931175	
0.287428	0.80533	0.842537	
0.380873	0.676062	0.847739	
0.248978	0.726366	0.903842	
0.301328	0.82727	1	
0.287428	0.80533	0.842537	
0.233424	0.783671	1	
0.248837	0.902557	0.889756	
0.287428	0.80533	0.842537	
0.216076	0.69962	0.805486	
0.380873	0.676062	0.847739	
0.248978	0.726366	0.903842	
0.3168	0.613169	0.604097	
0.290856	0.760973	0.624503	
0.166834	0.675675	0.635152	
0.253474	0.699951	0.70471	
0.064316	1.32334	0.5	
0.0956709	1.23097	0.5	
0.122935	1.34062	0.641539	
0.0261041	1.21709	0.59722	
0	0.75	0.5	
0.064316	0.676662	0.5	
0.075477	0.809328	0.60941	
-0.0421997	0.724204	0.59801	
0.11795	1.23142	0.740012	
0.0921027	1.22053	0.879559	
0.13567	1.10909	0.864428	
0.188892	1.15001	0.759985	
-0.0892911	0.866366	0.5	
-0.0840558	0.819296	0.633477	
-0.0369856	0.814061	0.5	
-0.105125	0.905315	0.589497	
0.23097	1.09567	0.5	
0.274113	1.18316	0.5	
0.176777	1.17678	0.5	
0.240959	1.14173	0.663655	
-0.345102	0.953927	1	
-0.31121	1.03591	1	
-0.249134	0.962669	1	
-0.385003	0.984343	0.895239	
0.476114	0.847306	0.59754	
0.493012	0.916698	0.655211	
0.38174	0.996023	0.618569	
0.366244	0.831981	0.604187	
0.235698	1.44096	0.568569	
0.122935	1.34062	0.641539	
0.232161	1.34745	0.5	
0.197701	1.26759	0.618397	
0.318292	0.91002	0.672643	
0.219433	0.887973	0.783321	
0.328874	0.804808	0.729739	
0.382077	0.87532	0.792977	
0.470916	1.16804	0.800126	
0.490343	1.0978	0.741226	
0.493012	1.0833	0.844789	
0.356074	1.09276	0.865831	
-0.00475677	1.13123	0.664793	
-0.00595418	1.2142	0.745645	
-0.0146393	1.2919	0.660146	
-0.106349	1.24066	0.613882	
0.152393	1.36791	0.5	
0.232161	1.34745	0.5	
0.235698	1.44096	0.568569	
0.122935	1.34062	0.641539	
-0.386498	0.682794	0.700322	
-0.32134	0.844606	0.681688	
-0.429146	0.74342	0.66876	
-0.297014	0.758037	0.771096	
-0.328139	1.06792	0.838021	
-0.355776	1.16297	0.774979	
-0.197777	1.1209	0.753033	
-0.307788	1.04281	0.733348	
-0.31121	1.03591	1	
-0.2429	1.12372	0.891069	
-0.328139	1.06792	0.838021	
-0.366596	1.14153	0.904615	
-0.0111034	1.32302	0.823352	
-0.0867584	1.36717	0.731965	
-0.0146393	1.2919	0.660146	
-0.00595418	1.2142	0.745645	
0.318292	0.91002	0.672643	
0.328874	0.804808	0.729739	
0.219433	0.887973	0.783321	
0.190918	0.90269	0.690758	
0.0309435	0.691773	0.673181	
0.075477	0.809328	0.60941	
0.064316	0.676662	0.5	
-0.0421997	0.724204	0.59801	
-0.183156	0.725887	0.5	
-0.18639	0.799846	0.604991	
-0.115668	0.660224	0.648618	
-0.0421997	0.724204	0.59801	
-0.296764	0.859492	1	
-0.376173	0.802719	1	
-0.308389	0.85948	0.835633	
-0.313556	0.75907	0.879554	
-0.0706186	0.688282	0.818117	
-0.0830296	0.764069	0.733505	
-0.0183257	0.793213	0.875792	
0.00376155	0.753357	0.785071	
0.470916	0.831957	0.699874	
0.318292	0.91002	0.672643	
0.328874	0.804808	0.729739	
0.382077	0.87532	0.792977	
0.348128	1.05074	0.719677	
0.262314	1.07918	0.800995	
0.240959	1.14173	0.663655	
0.286804	1.05056	0.632278	
-0.102765	0.975873	0.785694	
-0.0933205	1.08542	0.735608	
9.40847e-05	1.04509	0.800768	
-0.0365827	0.936141	0.729399	
-0.347453	0.767839	0.5	
-0.32134	0.844606	0.681688	
-0.274113	0.816844	0.5	
-0.377424	0.892421	0.60103	
-0.0444138	0.583252	1	
-0.0684459	0.504707	0.931403	
-0.125573	0.58604	1	
-0.142163	0.63573	0.89494	
0.374193	0.668368	0.665357	
0.4284	0.742176	0.704976	
0.415735	0.722215	0.634138	
0.328874	0.804808	0.729739	
-0.470668	0.831266	0.798219	
-0.434698	0.752943	0.749501	
-0.468495	0.825322	0.682891	
-0.32134	0.844606	0.681688	
-0.323338	1.06432	0.5	
-0.351178	0.986498	0.65	
-0.218908	1.02882	0.620926	
-0.378892	1.09874	0.625908	
0.091716	0.737167	0.833117	
0.0761281	0.822015	0.902396	
-0.0183257	0.793213	0.875792	
-0.0283413	0.698633	0.90895	
0.064316	0.676662	0.5	
0.166834	0.675675	0.635152	
0.0309435	0.691773	0.673181	
0.0872942	0.606698	0.613217	
-0.186081	0.888066	1	
-0.0902369	0.906851	1	
-0.121993	0.814118	1	
-0.143721	0.860033	0.841612	
0.318292	0.91002	0.672643	
0.215224	0.853148	0.609812	
0.290856	0.760973	0.624503	
0.328874	0.804808	0.729739	
0.091716	0.737167	0.833117	
0.114269	0.8976	0.845027	
0.105164	0.85062	0.744059	
0.0761281	0.822015	0.902396	
-0.121053	1.20203	0.750792	
-0.149856	1.07611	0.843427	
-0.14568	1.20044	0.877353	
-0.197777	1.1209	0.753033	
-0.183156	0.725887	0.5	
-0.0956709	0.76903	0.5	
-0.18639	0.799846	0.604991	
-0.0421997	0.724204	0.59801	
-0.331632	0.625807	0.665357	
-0.386498	0.682794	0.700322	
-0.328716	0.623243	0.753532	
-0.297014	0.758037	0.771096	
-0.168043	0.529084	0.699874	
-0.115668	0.660224	0.648618	
-0.217356	0.549715	0.644698	
-0.172711	0.659579	0.756944	
0.0807477	1.49344	0.654224	
0.122935	1.34062	0.641539	
0.168734	1.47067	0.701781	
0.0991769	1.35538	0.76662	
-0.104053	1.31415	1	
-0.182108	1.31839	1	
-0.119808	1.39485	1	
-0.0684719	1.38599	0.898819	
-0.00643767	0.847524	0.748532	
0.0539582	0.949081	0.757017	
0.114269	0.8976	0.845027	
0.105164	0.85062	0.744059	
-0.0833019	1.49301	0.655211	
0	1.5	0.7	
-0.0867584	1.36717	0.731965	
0.0232779	1.38849	0.611701	
0.470916	0.831957	0.699874	
0.328874	0.804808	0.729739	
0.318292	0.91002	0.672643	
0.366244	0.831981	0.604187	
-0.0833019	1.49301	0.655211	
-0.0867584	1.36717	0.731965	
-0.0927842	1.36919	0.612233	
0.0232779	1.38849	0.611701	
0.13567	1.10909	0.864428	
0.188892	1.15001	0.759985	
0.0921027	1.22053	0.879559	
0.193121	1.21116	0.891371	
0.0807477	0.506563	0.845776	
0.115192	0.637967	0.754396	
0.0321461	0.626308	0.873516	
0.160008	0.641459	0.892261	
-0.256028	1.42948	0.708421	
-0.276265	1.41675	0.637452	
-0.217299	1.45031	0.645888	
-0.180037	1.30947	0.668767	
-0.0956709	0.76903	0.5	
-0.0840558	0.819296	0.633477	
-0.18639	0.799846	0.604991	
-0.0421997	0.724204	0.59801	
0.102037	0.944747	1	
0.114269	0.8976	0.845027	
0.166518	0.870941	1	
0.0761281	0.822015	0.902396	
0.4284	1.25782	0.795024	
0.415735	1.27779	0.865862	
0.374193	1.33163	0.834643	
0.369343	1.17686	0.815886	
-0.238488	0.560542	0.575692	
-0.152126	0.632735	0.5	
-0.232161	0.652547	0.5	
-0.245183	0.701709	0.623779	
-0.494668	0.927177	0.573541	
-0.397525	1	0.5	
-0.5	1	0.6	
-0.377424	0.892421	0.60103	
0.460548	1.19467	0.73433	
0.469721	1.17135	0.661666	
0.490343	1.0978	0.741226	
0.348128	1.05074	0.719677	
0.428195	0.741835	0.798245	
0.287428	0.80533	0.842537	
0.36821	0.862229	0.899925	
0.382077	0.87532	0.792977	
0.287428	0.80533	0.842537	
0.219433	0.887973	0.783321	
0.330142	0.959051	0.83873	
0.382077	0.87532	0.792977	
0.318292	0.91002	0.672643	
0.38174	0.996023	0.618569	
0.214567	0.972198	0.625898	
0.286804	1.05056	0.632278	
0.409849	0.918476	0.5	
0.495101	0.930181	0.572379	
0.38174	0.996023	0.618569	
0.366244	0.831981	0.604187	
-0.0867584	1.36717	0.731965	
0.0232779	1.38849	0.611701	
0	1.5	0.7	
0.00695298	1.40388	0.759796	
0	1.25	0.5	
-0.064316	1.32334	0.5	
-0.0146393	1.2919	0.660146	
0.0232779	1.38849	0.611701	
-0.437078	0.757178	0.847009	
-0.434698	0.752943	0.749501	
-0.308389	0.85948	0.835633	
-0.297014	0.758037	0.771096	
0.12042	1.06036	0.636718	
0.0631871	0.946434	0.577068	
0.030532	1.00082	0.661954	
-0.0230921	1.05776	0.595963	
-0.23097	0.904329	0.5	
-0.193736	0.903788	0.633349	
-0.274113	0.816844	0.5	
-0.18639	0.799846	0.604991	
-0.274113	1.18316	0.5	
-0.23097	1.09567	0.5	
-0.176777	1.17678	0.5	
-0.147604	1.13485	0.630599	
-0.0979281	1.49032	0.75908	
-0.0811073	1.49338	0.853007	
-0.0867584	1.36717	0.731965	
0.00695298	1.40388	0.759796	
-0.284603	1.13833	0.684978	
-0.378892	1.09874	0.625908	
-0.351178	0.986498	0.65	
-0.307788	1.04281	0.733348	
9.40847e-05	1.04509	0.800768	
0.13567	1.10909	0.864428	
0.0831122	1.10495	0.740369	
0.0362445	1.10288	0.900124	
0.376757	0.671284	0.753532	
0.316847	0.613208	0.801384	
0.380873	0.676062	0.847739	
0.216076	0.69962	0.805486	
-0.0585581	0.999611	1	
-0.0551398	1.05013	0.899099	
-0.0207624	0.923302	0.863864	
-0.10341	0.960236	0.912939	
0.091716	0.737167	0.833117	
-0.000498869	0.611892	0.760268	
0.0321461	0.626308	0.873516	
0.00376155	0.753357	0.785071	
-0.0933205	1.08542	0.735608	
-0.124649	1.04531	0.594053	
-0.147604	1.13485	0.630599	
-0.0230921	1.05776	0.595963	
0.11795	1.23142	0.740012	
0.0831122	1.10495	0.740369	
0.125807	1.18828	0.618322	
0.188892	1.15001	0.759985	
-0.258315	1.4281	0.803104	
-0.324048	1.38078	0.849851	
-0.3284	1.37703	0.756783	
-0.271071	1.28122	0.731982	
-0.194345	0.772916	0.709268	
-0.193736	0.903788	0.633349	
-0.32134	0.844606	0.681688	
-0.221068	0.864025	0.764044	
0.0807477	1.49344	0.654224	
0.0991769	1.35538	0.76662	
0.0854243	1.49265	0.751403	
0.00695298	1.40388	0.759796	
-0.0258184	0.833057	1	
0.00587698	0.925804	1	
0.0703509	0.851998	1	
0.0761281	0.822015	0.902396	
0.0634445	0.898618	0.5	
0.075477	0.809328	0.60941	
0.103403	0.84471	0.5	
0.0631871	0.946434	0.577068	
-0.121053	1.20203	0.750792	
-0.197777	1.1209	0.753033	
-0.263764	1.21559	0.825362	
-0.206572	1.20934	0.689284	
0.322164	0.745112	1	
0.37256	0.810612	1	
0.436762	0.756609	0.903062	
0.36821	0.862229	0.899925	
-0.00643767	0.847524	0.748532	
0.101275	0.91604	0.653562	
0.0539582	0.949081	0.757017	
0.105164	0.85062	0.744059	
0.380873	0.676062	0.847739	
0.386505	0.682803	0.931175	
0.436762	0.756609	0.903062	
0.287428	0.80533	0.842537	
-0.180037	1.30947	0.668767	
-0.106349	1.24066	0.613882	
-0.183156	1.27411	0.5	
-0.0927842	1.36919	0.612233	
0.415735	0.722215	0.634138	
0.328874	0.804808	0.729739	
0.4284	0.742176	0.704976	
0.366244	0.831981	0.604187	
0.0634445	0.898618	0.5	
-0.0218546	0.89013	0.5	
0.0344957	0.828097	0.5	
-0.00979043	0.90873	0.615519	
-0.468473	1.17474	0.682816	
-0.492656	1.08538	0.748652	
-0.378892	1.09874	0.625908	
-0.355776	1.16297	0.774979	
-0.323338	1.06432	0.5	
-0.23097	1.09567	0.5	
-0.274113	1.18316	0.5	
-0.378892	1.09874	0.625908	
0.114269	0.8976	0.845027	
0.0803871	1.00814	0.885647	
0.215886	1.00836	0.878507	
0.107062	1.02445	0.792092	
-0.0902369	0.906851	1	
-0.143721	0.860033	0.841612	
-0.186081	0.888066	1	
-0.10341	0.960236	0.912939	
0.122935	1.34062	0.641539	
0.0232779	1.38849	0.611701	
0.064316	1.32334	0.5	
0.0261041	1.21709	0.59722	
-0.193736	0.903788	0.633349	
-0.0808186	0.989298	0.663479	
-0.105125	0.905315	0.589497	
-0.124649	1.04531	0.594053	
-0.0258184	0.833057	1	
-0.0902369	0.906851	1	
0.00587698	0.925804	1	
-0.0207624	0.923302	0.863864	
0.11795	1.23142	0.740012	
0.247079	1.26952	0.713352	
0.122935	1.34062	0.641539	
0.202645	1.34448	0.765823	
-0.218034	1.05414	1	
-0.249134	0.962669	1	
-0.31121	1.03591	1	
-0.208534	0.966027	0.877319	
0	1.5	0.8	
0.0814864	1.49332	0.847681	
0.0835299	1.37795	0.884613	
0.00695298	1.40388	0.759796	
0.228991	1.44448	0.908099	
0.122568	1.39751	1	
0.146853	1.47795	0.915992	
0.0835299	1.37795	0.884613	
0.176308	1.30549	0.856004	
0.278791	1.29194	0.808109	
0.247079	1.26952	0.713352	
0.202645	1.34448	0.765823	
0.25658	1.42915	0.83124	
0.262414	1.28412	0.908895	
0.176308	1.30549	0.856004	
0.278791	1.29194	0.808109	
-0.00643767	0.847524	0.748532	
-0.0840558	0.819296	0.633477	
-0.117533	0.874656	0.729651	
-0.0365827	0.936141	0.729399	
0.0854243	0.507351	0.748597	
0.115192	0.637967	0.754396	
0.0814864	0.506685	0.652319	
-0.000498869	0.611892	0.760268	
-0.0867584	1.36717	0.731965	
-0.0684719	1.38599	0.898819	
-0.0111034	1.32302	0.823352	
0.00695298	1.40388	0.759796	
0.287428	0.80533	0.842537	
0.175884	0.803375	0.889741	
0.233424	0.783671	1	
0.248837	0.902557	0.889756	
9.40847e-05	1.04509	0.800768	
0.0539582	0.949081	0.757017	
0.030532	1.00082	0.661954	
0.107062	1.02445	0.792092	
0.495101	0.930181	0.572379	
0.476114	0.847306	0.59754	
0.493012	0.916698	0.655211	
0.38174	0.996023	0.618569	
-0.00475677	1.13123	0.664793	
-0.106349	1.24066	0.613882	
-0.0146393	1.2919	0.660146	
0.0261041	1.21709	0.59722	
0.331919	1.15546	1	
0.337852	1.21393	0.901789	
0.356074	1.09276	0.865831	
0.230545	1.11436	0.899122	
9.40847e-05	1.04509	0.800768	
0.0803871	1.00814	0.885647	
-0.0207624	0.923302	0.863864	
0.0539582	0.949081	0.757017	
0.0831122	1.10495	0.740369	
0.030532	1.00082	0.661954	
0.12042	1.06036	0.636718	
0.107062	1.02445	0.792092	
0.00512645	1.18472	1	
-0.0202852	1.17994	0.855385	
0.0921027	1.22053	0.879559	
0.0362445	1.10288	0.900124	
0.322164	0.745112	1	
0.301328	0.82727	1	
0.37256	0.810612	1	
0.36821	0.862229	0.899925	
-0.182108	1.31839	1	
-0.159358	1.32099	0.830937	
-0.082655	1.28145	0.901959	
-0.254431	1.30452	0.892066	
0	0.5	0.8	
-0.0810399	0.506611	0.85285	
0.0321461	0.626308	0.873516	
-0.000498869	0.611892	0.760268	
-0.263764	1.21559	0.825362	
-0.271071	1.28122	0.731982	
-0.386405	1.31732	0.798513	
-0.254431	1.30452	0.892066	
0.330142	0.959051	0.83873	
0.215886	1.00836	0.878507	
0.356074	1.09276	0.865831	
0.262314	1.07918	0.800995	
0.166518	0.870941	1	
0.175884	0.803375	0.889741	
0.114269	0.8976	0.845027	
0.248837	0.902557	0.889756	
-0.332191	1.3737	0.665943	
-0.28145	1.24879	0.622796	
-0.180037	1.30947	0.668767	
-0.271071	1.28122	0.731982	
-0.257824	0.5716	0.704976	
-0.168043	0.529084	0.699874	
-0.217356	0.549715	0.644698	
-0.172711	0.659579	0.756944	
-0.167464	1.47112	0.699894	
-0.0867584	1.36717	0.731965	
-0.180037	1.30947	0.668767	
-0.0927842	1.36919	0.612233	
-0.153466	0.725651	1	
-0.206133	0.729722	0.836828	
-0.217395	0.789549	1	
-0.11576	0.747665	0.899003	
0.417242	0.878937	1	
0.421425	0.957658	1	
0.495293	0.931554	0.931403	
0.39915	0.990133	0.906414	
0.0376698	1.41981	1	
0.0835299	1.37795	0.884613	
-0.0261261	1.3467	1	
-0.0684719	1.38599	0.898819	
9.40847e-05	1.04509	0.800768	
-0.102765	0.975873	0.785694	
-0.149856	1.07611	0.843427	
-0.0933205	1.08542	0.735608	
0.493389	1.08104	0.64715	
0.490343	1.0978	0.741226	
0.469721	1.17135	0.661666	
0.348128	1.05074	0.719677	
-0.5	1	0.8	
-0.5	1	0.7	
-0.492656	1.08538	0.748652	
-0.371949	0.959293	0.777377	
-0.00979043	0.90873	0.615519	
0.101275	0.91604	0.653562	
0.030532	1.00082	0.661954	
-0.0365827	0.936141	0.729399	
0.344935	0.908506	1	
0.36821	0.862229	0.899925	
0.330142	0.959051	0.83873	
0.39915	0.990133	0.906414	
0.114269	0.8976	0.845027	
0.091716	0.737167	0.833117	
0.175884	0.803375	0.889741	
0.0761281	0.822015	0.902396	
0.235698	1.44096	0.568569	
0.232161	1.34745	0.5	
0.317233	1.38648	0.590473	
0.197701	1.26759	0.618397	
-0.0773947	0.947213	0.5	
0.0165433	0.957567	0.5	
-0.0427935	1.02817	0.5	
-0.00979043	0.90873	0.615519	
-0.151231	1.3651	0.5	
-0.180037	1.30947	0.668767	
-0.183156	1.27411	0.5	
-0.0927842	1.36919	0.612233	
0.0376698	1.41981	1	
-0.0411619	1.43035	1	
0	1.5	0.9	
-0.0684719	1.38599	0.898819	
-0.00475677	1.13123	0.664793	
-0.121053	1.20203	0.750792	
-0.0933205	1.08542	0.735608	
-0.00595418	1.2142	0.745645	
-0.0773947	0.947213	0.5	
-0.00979043	0.90873	0.615519	
-0.0427935	1.02817	0.5	
-0.0230921	1.05776	0.595963	
-0.218908	1.02882	0.620926	
-0.197777	1.1209	0.753033	
-0.284603	1.13833	0.684978	
-0.307788	1.04281	0.733348	
0	0.5	0.7	
-0.000498869	0.611892	0.760268	
0.0814864	0.506685	0.652319	
0.0872942	0.606698	0.613217	
-0.194667	0.539452	0.76567	
-0.171353	0.530279	0.838334	
-0.0977967	0.509657	0.758774	
-0.172711	0.659579	0.756944	
0.0634445	0.898618	0.5	
-0.00979043	0.90873	0.615519	
0.075477	0.809328	0.60941	
0.0631871	0.946434	0.577068	
0.378521	1.20232	1	
0.476114	1.15269	0.90246	
0.394936	1.1198	1	
0.337852	1.21393	0.901789	
-0.0808186	0.989298	0.663479	
-0.105125	0.905315	0.589497	
-0.00979043	0.90873	0.615519	
-0.0365827	0.936141	0.729399	
0.0956709	0.76903	0.5	
0	0.75	0.5	
0.064316	0.676662	0.5	
0.075477	0.809328	0.60941	
-0.429146	0.74342	0.66876	
-0.32134	0.844606	0.681688	
-0.434698	0.752943	0.749501	
-0.297014	0.758037	0.771096	
-0.121053	1.20203	0.750792	
-0.0933205	1.08542	0.735608	
-0.149856	1.07611	0.843427	
-0.197777	1.1209	0.753033	
0.141405	0.904892	0.5	
0.0634445	0.898618	0.5	
0.103403	0.84471	0.5	
0.0631871	0.946434	0.577068	
0.348128	1.05074	0.719677	
0.358556	1.12901	0.622438	
0.493389	1.08104	0.64715	
0.38174	0.996023	0.618569	
-0.193736	0.903788	0.633349	
-0.218908	1.02882	0.620926	
-0.0808186	0.989298	0.663479	
-0.124649	1.04531	0.594053	
-0.437035	1.2429	0.847369	
-0.386559	1.31713	0.911838	
-0.440961	1.2357	0.931396	
-0.366596	1.14153	0.904615	
-0.308389	0.85948	0.835633	
-0.371949	0.959293	0.777377	
-0.225256	0.972563	0.749303	
-0.221068	0.864025	0.764044	
0.470916	1.16804	0.800126	
0.460548	1.19467	0.73433	
0.490343	1.0978	0.741226	
0.369343	1.17686	0.815886	
-0.386559	1.31713	0.911838	
-0.263764	1.21559	0.825362	
-0.386405	1.31732	0.798513	
-0.254431	1.30452	0.892066	
0.493389	1.08104	0.64715	
0.358556	1.12901	0.622438	
0.495293	1.06845	0.568597	
0.38174	0.996023	0.618569	
0.174678	0.531505	0.682891	
0.25658	0.570854	0.66876	
0.166834	0.675675	0.635152	
0.115192	0.637967	0.754396	
0.476114	1.15269	0.90246	
0.356074	1.09276	0.865831	
0.394936	1.1198	1	
0.337852	1.21393	0.901789	
0.100521	1.20361	1	
0.16533	1.13018	1	
0.0921027	1.22053	0.879559	
0.193121	1.21116	0.891371	
-0.0808186	0.989298	0.663479	
-0.124649	1.04531	0.594053	
-0.0933205	1.08542	0.735608	
-0.0230921	1.05776	0.595963	
0.101275	0.91604	0.653562	
0.0539582	0.949081	0.757017	
0.105164	0.85062	0.744059	
0.190918	0.90269	0.690758	
-0.225256	0.972563	0.749303	
-0.351178	0.986498	0.65	
-0.371949	0.959293	0.777377	
-0.307788	1.04281	0.733348	
0.330142	0.959051	0.83873	
0.36821	0.862229	0.899925	
0.344935	0.908506	1	
0.248837	0.902557	0.889756	
0.228991	1.44448	0.908099	
0.174678	1.4685	0.817109	
0.176308	1.30549	0.856004	
0.0835299	1.37795	0.884613	
-0.493438	1.08074	0.845784	
-0.492656	1.08538	0.748652	
-0.47067	1.16873	0.798201	
-0.355776	1.16297	0.774979	
-0.386559	1.31713	0.911838	
-0.437035	1.2429	0.847369	
-0.386405	1.31732	0.798513	
-0.263764	1.21559	0.825362	
-0.0207624	0.923302	0.863864	
0.0803871	1.00814	0.885647	
0.114269	0.8976	0.845027	
0.0539582	0.949081	0.757017	
0.330142	0.959051	0.83873	
0.356074	1.09276	0.865831	
0.348128	1.05074	0.719677	
0.262314	1.07918	0.800995	
9.40847e-05	1.04509	0.800768	
0.030532	1.00082	0.661954	
0.0831122	1.10495	0.740369	
0.107062	1.02445	0.792092	
-0.296764	0.859492	1	
-0.208534	0.966027	0.877319	
-0.249134	0.962669	1	
-0.228331	0.826788	0.903124	
-0.0207624	0.923302	0.863864	
0.0803871	1.00814	0.885647	
9.40847e-05	1.04509	0.800768	
-0.0551398	1.05013	0.899099	
-0.437035	1.2429	0.847369	
-0.355776	1.16297	0.774979	
-0.263764	1.21559	0.825362	
-0.366596	1.14153	0.904615	
0.174678	0.531505	0.682891	
0.247057	0.565302	0.749501	
0.25658	0.570854	0.66876	
0.115192	0.637967	0.754396	
0.12042	1.06036	0.636718	
0.125807	1.18828	0.618322	
-0.00475677	1.13123	0.664793	
0.0831122	1.10495	0.740369	
-0.0892911	0.866366	0.5	
-0.18639	0.799846	0.604991	
-0.0840558	0.819296	0.633477	
-0.105125	0.905315	0.589497	
0.470916	0.831957	0.699874	
0.318292	0.91002	0.672643	
0.382077	0.87532	0.792977	
0.402785	0.956541	0.723347	
-0.00643767	0.847524	0.748532	
-0.0840558	0.819296	0.633477	
-0.00979043	0.90873	0.615519	
0.0014459	0.786307	0.671061	
-0.256028	1.42948	0.708421	
-0.332191	1.3737	0.665943	
-0.180037	1.30947	0.668767	
-0.271071	1.28122	0.731982	
0.115192	0.637967	0.754396	
-0.000498869	0.611892	0.760268	
0.091716	0.737167	0.833117	
0.00376155	0.753357	0.785071	
-0.194345	0.772916	0.709268	
-0.297014	0.758037	0.771096	
-0.206133	0.729722	0.836828	
-0.221068	0.864025	0.764044	
-0.0392044	1.16291	0.5	
0.0261041	1.21709	0.59722	
-0.00475677	1.13123	0.664793	
-0.0230921	1.05776	0.595963	
-0.171627	1.46962	0.839884	
-0.159358	1.32099	0.830937	
-0.19416	1.46076	0.765941	
-0.0867584	1.36717	0.731965	
-0.183156	1.27411	0.5	
-0.180037	1.30947	0.668767	
-0.232161	1.34745	0.5	
-0.28145	1.24879	0.622796	
0.0539582	0.949081	0.757017	
0.030532	1.00082	0.661954	
0.101275	0.91604	0.653562	
-0.0365827	0.936141	0.729399	
-0.0808186	0.989298	0.663479	
-0.0933205	1.08542	0.735608	
-0.102765	0.975873	0.785694	
-0.0365827	0.936141	0.729399	
0.19355	1.00275	0.74991	
0.215886	1.00836	0.878507	
0.13567	1.10909	0.864428	
0.107062	1.02445	0.792092	
0.278087	0.721913	0.5	
0.290856	0.760973	0.624503	
0.183156	0.725887	0.5	
0.166834	0.675675	0.635152	
-0.40408	1.03727	1	
-0.385003	0.984343	0.895239	
-0.495012	1.07045	0.928155	
-0.366596	1.14153	0.904615	
0.114269	0.8976	0.845027	
0.219433	0.887973	0.783321	
0.215886	1.00836	0.878507	
0.248837	0.902557	0.889756	
0.287378	0.983941	1	
0.360576	0.998064	1	
0.344935	0.908506	1	
0.39915	0.990133	0.906414	
0.287428	0.80533	0.842537	
0.328874	0.804808	0.729739	
0.219433	0.887973	0.783321	
0.382077	0.87532	0.792977	
-0.437078	0.757178	0.847009	
-0.434698	0.752943	0.749501	
-0.470668	0.831266	0.798219	
-0.308389	0.85948	0.835633	
0.378521	1.20232	1	
0.439458	1.23849	0.924308	
0.476114	1.15269	0.90246	
0.337852	1.21393	0.901789	
-0.0808186	0.989298	0.663479	
-0.117533	0.874656	0.729651	
-0.105125	0.905315	0.589497	
-0.0365827	0.936141	0.729399	
0.19355	1.00275	0.74991	
0.13567	1.10909	0.864428	
0.215886	1.00836	0.878507	
0.262314	1.07918	0.800995	
0.0376698	1.41981	1	
0.0645888	1.34627	1	
-0.0261261	1.3467	1	
0.0835299	1.37795	0.884613	
0.23097	1.09567	0.5	
0.323338	1.06432	0.5	
0.358556	1.12901	0.622438	
0.286804	1.05056	0.632278	
-0.122575	1.07331	1	
-0.218034	1.05414	1	
-0.185909	1.14844	1	
-0.2429	1.12372	0.891069	
0.247057	0.565302	0.749501	
0.115192	0.637967	0.754396	
0.216076	0.69962	0.805486	
0.253474	0.699951	0.70471	
0	0.5	0.7	
-0.0201375	0.611237	0.611421	
-0.000498869	0.611892	0.760268	
0.0872942	0.606698	0.613217	
9.40847e-05	1.04509	0.800768	
-0.149856	1.07611	0.843427	
-0.102765	0.975873	0.785694	
-0.0551398	1.05013	0.899099	
-0.143721	0.860033	0.841612	
-0.11576	0.747665	0.899003	
-0.121993	0.814118	1	
-0.228331	0.826788	0.903124	
-0.250247	1.23307	1	
-0.149858	1.24003	1	
-0.14568	1.20044	0.877353	
-0.254431	1.30452	0.892066	
0.174678	1.4685	0.817109	
0.0991769	1.35538	0.76662	
0.176308	1.30549	0.856004	
0.0835299	1.37795	0.884613	
-0.183156	0.725887	0.5	
-0.245183	0.701709	0.623779	
-0.115668	0.660224	0.648618	
-0.18639	0.799846	0.604991	
0.197542	0.7915	0.711395	
0.105164	0.85062	0.744059	
0.075477	0.809328	0.60941	
0.103438	0.745916	0.728223	
-0.114443	1.01484	0.5	
-0.105125	0.905315	0.589497	
-0.0773947	0.947213	0.5	
-0.124649	1.04531	0.594053	
-0.0111034	1.32302	0.823352	
-0.0867584	1.36717	0.731965	
-0.159358	1.32099	0.830937	
-0.0684719	1.38599	0.898819	
0.233424	0.783671	1	
0.287428	0.80533	0.842537	
0.301328	0.82727	1	
0.248978	0.726366	0.903842	
0.000305103	1.09462	0.5	
0.028723	1.17517	0.5	
-0.0392044	1.16291	0.5	
0.0261041	1.21709	0.59722	
0.333887	1.18738	0.72436	
0.369343	1.17686	0.815886	
0.4284	1.25782	0.795024	
0.278791	1.29194	0.808109	
0.428195	0.741835	0.798245	
0.287428	0.80533	0.842537	
0.436762	0.756609	0.903062	
0.36821	0.862229	0.899925	
-0.263764	1.21559	0.825362	
-0.197777	1.1209	0.753033	
-0.14568	1.20044	0.877353	
-0.2429	1.12372	0.891069	
-0.121053	1.20203	0.750792	
-0.180037	1.30947	0.668767	
-0.106349	1.24066	0.613882	
-0.206572	1.20934	0.689284	
-0.0183257	0.793213	0.875792	
0.0761281	0.822015	0.902396	
0.0383625	0.760787	1	
-0.0283413	0.698633	0.90895	
-0.0444138	0.583252	1	
0.0374329	0.572928	1	
0	0.5	0.9	
0.0321461	0.626308	0.873516	
0.197542	0.7915	0.711395	
0.219433	0.887973	0.783321	
0.287428	0.80533	0.842537	
0.328874	0.804808	0.729739	
-0.00475677	1.13123	0.664793	
-0.0933205	1.08542	0.735608	
-0.147604	1.13485	0.630599	
-0.0230921	1.05776	0.595963	
-0.197777	1.1209	0.753033	
-0.355776	1.16297	0.774979	
-0.284603	1.13833	0.684978	
-0.307788	1.04281	0.733348	
-0.194345	0.772916	0.709268	
-0.143721	0.860033	0.841612	
-0.117533	0.874656	0.729651	
-0.221068	0.864025	0.764044	
9.40847e-05	1.04509	0.800768	
0.0539582	0.949081	0.757017	
-0.0207624	0.923302	0.863864	
-0.0365827	0.936141	0.729399	
-0.14568	1.20044	0.877353	
-0.197777	1.1209	0.753033	
-0.149856	1.07611	0.843427	
-0.2429	1.12372	0.891069	
0.318292	0.91002	0.672643	
0.330142	0.959051	0.83873	
0.382077	0.87532	0.792977	
0.402785	0.956541	0.723347	
0.348128	1.05074	0.719677	
0.333887	1.18738	0.72436	
0.240959	1.14173	0.663655	
0.262314	1.07918	0.800995	
0.11795	1.23142	0.740012	
0.13567	1.10909	0.864428	
0.0831122	1.10495	0.740369	
0.188892	1.15001	0.759985	
0.316847	0.613208	0.801384	
0.216076	0.69962	0.805486	
0.376757	0.671284	0.753532	
0.253474	0.699951	0.70471	
-0.194345	0.772916	0.709268	
-0.117533	0.874656	0.729651	
-0.0840558	0.819296	0.633477	
-0.18639	0.799846	0.604991	
-0.0840558	0.819296	0.633477	
-0.0830296	0.764069	0.733505	
-0.115668	0.660224	0.648618	
-0.0421997	0.724204	0.59801	
0.232161	1.34745	0.5	
0.122935	1.34062	0.641539	
0.152393	1.36791	0.5	
0.197701	1.26759	0.618397	
0.176777	1.17678	0.5	
0.125807	1.18828	0.618322	
0.157632	1.10533	0.5	
0.201501	1.05838	0.584156	
-0.250247	1.23307	1	
-0.2429	1.12372	0.891069	
-0.279278	1.1257	1	
-0.366596	1.14153	0.904615	
-0.284603	1.13833	0.684978	
-0.218908	1.02882	0.620926	
-0.147604	1.13485	0.630599	
-0.197777	1.1209	0.753033	
0	1.5	0.8	
-0.0684719	1.38599	0.898819	
-0.0811073	1.49338	0.853007	
0.00695298	1.40388	0.759796	
-0.225256	0.972563	0.749303	
-0.218908	1.02882	0.620926	
-0.351178	0.986498	0.65	
-0.307788	1.04281	0.733348	
0.330142	0.959051	0.83873	
0.219433	0.887973	0.783321	
0.287428	0.80533	0.842537	
0.248837	0.902557	0.889756	
0.19355	1.00275	0.74991	
0.13567	1.10909	0.864428	
0.188892	1.15001	0.759985	
0.107062	1.02445	0.792092	
-0.0840558	0.819296	0.633477	
-0.117533	0.874656	0.729651	
-0.193736	0.903788	0.633349	
-0.18639	0.799846	0.604991	
0.183156	1.27411	0.5	
0.122935	1.34062	0.641539	
0.0956709	1.23097	0.5	
0.197701	1.26759	0.618397	
-0.278183	0.659732	1	
-0.317197	0.613495	0.931175	
-0.313556	0.75907	0.879554	
-0.231903	0.663623	0.918546	
0.19355	1.00275	0.74991	
0.13567	1.10909	0.864428	
0.262314	1.07918	0.800995	
0.188892	1.15001	0.759985	
0.168734	0.529332	0.798219	
0.115192	0.637967	0.754396	
0.0807477	0.506563	0.845776	
0.160008	0.641459	0.892261	
0.163502	1.02984	0.5	
0.0691997	1.04586	0.5	
0.106675	0.966314	0.5	
0.12042	1.06036	0.636718	
0.0868435	1.13736	0.5	
0.12042	1.06036	0.636718	
0.157632	1.10533	0.5	
0.125807	1.18828	0.618322	
-0.258165	0.571805	0.798245	
-0.206133	0.729722	0.836828	
-0.323938	0.619127	0.847739	
-0.231903	0.663623	0.918546	
0.122935	1.34062	0.641539	
0.247079	1.26952	0.713352	
0.11795	1.23142	0.740012	
0.197701	1.26759	0.618397	
-0.206133	0.729722	0.836828	
-0.221068	0.864025	0.764044	
-0.297014	0.758037	0.771096	
-0.228331	0.826788	0.903124	
0	1.25	0.5	
-0.0146393	1.2919	0.660146	
-0.064316	1.32334	0.5	
-0.106349	1.24066	0.613882	
-0.176777	1.17678	0.5	
-0.147604	1.13485	0.630599	
-0.107214	1.16612	0.5	
-0.106349	1.24066	0.613882	
0.166834	0.675675	0.635152	
0.075477	0.809328	0.60941	
0.0309435	0.691773	0.673181	
0.103438	0.745916	0.728223	
-0.0585581	0.999611	1	
-0.0207624	0.923302	0.863864	
0.00587698	0.925804	1	
-0.10341	0.960236	0.912939	
0.242822	1.43708	0.652991	
0.247079	1.26952	0.713352	
0.316847	1.38679	0.698616	
0.202645	1.34448	0.765823	
0.376757	1.32872	0.746468	
0.333887	1.18738	0.72436	
0.4284	1.25782	0.795024	
0.278791	1.29194	0.808109	
0.106675	0.966314	0.5	
0.12042	1.06036	0.636718	
0.0691997	1.04586	0.5	
0.0631871	0.946434	0.577068	
0.302677	1.24769	1	
0.262414	1.28412	0.908895	
0.337852	1.21393	0.901789	
0.193121	1.21116	0.891371	
9.40847e-05	1.04509	0.800768	
-0.102765	0.975873	0.785694	
-0.0207624	0.923302	0.863864	
-0.0551398	1.05013	0.899099	
-0.263764	1.21559	0.825362	
-0.284603	1.13833	0.684978	
-0.271071	1.28122	0.731982	
-0.206572	1.20934	0.689284	
0.215886	1.00836	0.878507	
0.219433	0.887973	0.783321	
0.330142	0.959051	0.83873	
0.248837	0.902557	0.889756	
0.417242	0.878937	1	
0.495293	0.931554	0.931403	
0.36821	0.862229	0.899925	
0.39915	0.990133	0.906414	
-0.493315	0.918514	0.652319	
-0.5	1	0.6	
-0.5	1	0.7	
-0.351178	0.986498	0.65	
-0.143721	0.860033	0.841612	
-0.102765	0.975873	0.785694	
-0.225256	0.972563	0.749303	
-0.208534	0.966027	0.877319	
0.206639	0.624902	1	
0.317233	0.613524	0.909527	
0.235698	0.559039	0.931431	
0.160008	0.641459	0.892261	
0.102037	0.944747	1	
0.166518	0.870941	1	
0.0703509	0.851998	1	
0.0761281	0.822015	0.902396	
-0.217395	0.789549	1	
-0.11576	0.747665	0.899003	
-0.206133	0.729722	0.836828	
-0.228331	0.826788	0.903124	
-0.386498	0.682794	0.700322	
-0.429146	0.74342	0.66876	
-0.434698	0.752943	0.749501	
-0.297014	0.758037	0.771096	
0.240959	1.14173	0.663655	
0.302151	1.24532	0.611118	
0.274113	1.18316	0.5	
0.197701	1.26759	0.618397	
0.422937	1.04242	1	
0.394936	1.1198	1	
0.495101	1.06982	0.927621	
0.356074	1.09276	0.865831	
0.333887	1.18738	0.72436	
0.262314	1.07918	0.800995	
0.348128	1.05074	0.719677	
0.369343	1.17686	0.815886	
-0.238625	1.43938	0.576642	
-0.152637	1.47613	0.597671	
-0.217299	1.45031	0.645888	
-0.0927842	1.36919	0.612233	
-0.40408	1.03727	1	
-0.348481	1.09787	1	
-0.385003	0.984343	0.895239	
-0.366596	1.14153	0.904615	
0.356074	1.09276	0.865831	
0.348128	1.05074	0.719677	
0.262314	1.07918	0.800995	
0.369343	1.17686	0.815886	
-0.0369856	0.814061	0.5	
-0.0892911	0.866366	0.5	
-0.0956709	0.76903	0.5	
-0.0840558	0.819296	0.633477	
0.0165433	0.957567	0.5	
-0.0427935	1.02817	0.5	
-0.00979043	0.90873	0.615519	
-0.0230921	1.05776	0.595963	
-0.0915272	0.659988	1	
-0.0444138	0.583252	1	
-0.142163	0.63573	0.89494	
-0.0283413	0.698633	0.90895	
-0.281585	0.718415	0.5	
-0.274113	0.816844	0.5	
-0.347453	0.767839	0.5	
-0.245183	0.701709	0.623779	
0	1.5	0.9	
-0.0811073	1.49338	0.853007	
0	1.5	0.8	
-0.0684719	1.38599	0.898819	
0.12042	1.06036	0.636718	
0.0691997	1.04586	0.5	
0.0631871	0.946434	0.577068	
-0.0230921	1.05776	0.595963	
-0.232161	1.34745	0.5	
-0.183156	1.27411	0.5	
-0.151231	1.3651	0.5	
-0.180037	1.30947	0.668767	
0.19355	1.00275	0.74991	
0.0831122	1.10495	0.740369	
0.12042	1.06036	0.636718	
0.107062	1.02445	0.792092	
-0.257824	0.5716	0.704976	
-0.277785	0.584265	0.634138	
-0.331632	0.625807	0.665357	
-0.245183	0.701709	0.623779	
0.134677	1.30158	1	
0.0921027	1.22053	0.879559	
0.176308	1.30549	0.856004	
0.193121	1.21116	0.891371	
0.323338	0.935684	0.5	
0.38174	0.996023	0.618569	
0.318292	0.91002	0.672643	
0.366244	0.831981	0.604187	
0.0321461	0.626308	0.873516	
0.115192	0.637967	0.754396	
0.0807477	0.506563	0.845776	
-0.000498869	0.611892	0.760268	
-0.324048	1.38078	0.849851	
-0.386405	1.31732	0.798513	
-0.271071	1.28122	0.731982	
-0.254431	1.30452	0.892066	
-0.117202	1.0938	0.5	
-0.147604	1.13485	0.630599	
-0.124649	1.04531	0.594053	
-0.0230921	1.05776	0.595963	
0.301328	0.82727	1	
0.36821	0.862229	0.899925	
0.287428	0.80533	0.842537	
0.248837	0.902557	0.889756	
-0.143721	0.860033	0.841612	
-0.225256	0.972563	0.749303	
-0.102765	0.975873	0.785694	
-0.221068	0.864025	0.764044	
0.374193	0.668368	0.665357	
0.328874	0.804808	0.729739	
0.290856	0.760973	0.624503	
0.253474	0.699951	0.70471	
-0.194345	0.772916	0.709268	
-0.193736	0.903788	0.633349	
-0.117533	0.874656	0.729651	
-0.18639	0.799846	0.604991	
0.317233	0.613524	0.909527	
0.160008	0.641459	0.892261	
0.206639	0.624902	1	
0.248978	0.726366	0.903842	
-0.206133	0.729722	0.836828	
-0.143721	0.860033	0.841612	
-0.221068	0.864025	0.764044	
-0.228331	0.826788	0.903124	
-0.153466	0.725651	1	
-0.206133	0.729722	0.836828	
-0.11576	0.747665	0.899003	
-0.231903	0.663623	0.918546	
0.428195	0.741835	0.798245	
0.328874	0.804808	0.729739	
0.287428	0.80533	0.842537	
0.382077	0.87532	0.792977	
-0.0146393	1.2919	0.660146	
-0.106349	1.24066	0.613882	
-0.180037	1.30947	0.668767	
-0.0927842	1.36919	0.612233	
0.394936	1.1198	1	
0.356074	1.09276	0.865831	
0.331919	1.15546	1	
0.337852	1.21393	0.901789	
-0.115668	0.660224	0.648618	
-0.245183	0.701709	0.623779	
-0.194345	0.772916	0.709268	
-0.18639	0.799846	0.604991	
0.0165433	0.957567	0.5	
-0.00979043	0.90873	0.615519	
0.0631871	0.946434	0.577068	
-0.0230921	1.05776	0.595963	
-0.0111034	1.32302	0.823352	
-0.0146393	1.2919	0.660146	
-0.0867584	1.36717	0.731965	
0.00695298	1.40388	0.759796	
0.233424	0.783671	1	
0.175884	0.803375	0.889741	
0.287428	0.80533	0.842537	
0.248978	0.726366	0.903842	
0.153328	1.47591	0.59237	
0.152393	1.36791	0.5	
0.235698	1.44096	0.568569	
0.122935	1.34062	0.641539	
0.201148	1.36807	1	
0.214716	1.29378	1	
0.176308	1.30549	0.856004	
0.262414	1.28412	0.908895	
0.0854243	1.49265	0.751403	
0.0807477	1.49344	0.654224	
0.168734	1.47067	0.701781	
0.0991769	1.35538	0.76662	
0.175091	0.697234	1	
0.160008	0.641459	0.892261	
0.175884	0.803375	0.889741	
0.248978	0.726366	0.903842	
0.197542	0.7915	0.711395	
0.166834	0.675675	0.635152	
0.290856	0.760973	0.624503	
0.253474	0.699951	0.70471	
0.216076	0.69962	0.805486	
0.175884	0.803375	0.889741	
0.091716	0.737167	0.833117	
0.160008	0.641459	0.892261	
0.240959	1.14173	0.663655	
0.262314	1.07918	0.800995	
0.333887	1.18738	0.72436	
0.188892	1.15001	0.759985	
-0.194345	0.772916	0.709268	
-0.172711	0.659579	0.756944	
-0.206133	0.729722	0.836828	
-0.297014	0.758037	0.771096	
0.166518	0.870941	1	
0.114269	0.8976	0.845027	
0.175884	0.803375	0.889741	
0.0761281	0.822015	0.902396	
-0.180037	1.30947	0.668767	
-0.0867584	1.36717	0.731965	
-0.0146393	1.2919	0.660146	
-0.0927842	1.36919	0.612233	
-0.263764	1.21559	0.825362	
-0.197777	1.1209	0.753033	
-0.284603	1.13833	0.684978	
-0.206572	1.20934	0.689284	
-0.114443	1.01484	0.5	
-0.157632	0.968645	0.5	
-0.105125	0.905315	0.589497	
-0.124649	1.04531	0.594053	
-0.256028	1.42948	0.708421	
-0.258315	1.4281	0.803104	
-0.3284	1.37703	0.756783	
-0.271071	1.28122	0.731982	
0.00512645	1.18472	1	
0.0921027	1.22053	0.879559	
0.100521	1.20361	1	
0.0362445	1.10288	0.900124	
0.091716	0.737167	0.833117	
0.115192	0.637967	0.754396	
0.0321461	0.626308	0.873516	
-0.000498869	0.611892	0.760268	
-0.386831	0.6832	0.604097	
-0.281585	0.718415	0.5	
-0.347453	0.767839	0.5	
-0.245183	0.701709	0.623779	
-0.386405	1.31732	0.798513	
-0.271071	1.28122	0.731982	
-0.263764	1.21559	0.825362	
-0.355776	1.16297	0.774979	
0.422937	1.04242	1	
0.356074	1.09276	0.865831	
0.495101	1.06982	0.927621	
0.39915	0.990133	0.906414	
-0.5	1	0.6	
-0.351178	0.986498	0.65	
-0.493315	0.918514	0.652319	
-0.377424	0.892421	0.60103	
0.226913	1.05511	1	
0.215886	1.00836	0.878507	
0.13371	1.03748	1	
0.230545	1.11436	0.899122	
-0.183156	0.725887	0.5	
-0.152126	0.632735	0.5	
-0.115668	0.660224	0.648618	
-0.245183	0.701709	0.623779	
9.40847e-05	1.04509	0.800768	
-0.0207624	0.923302	0.863864	
-0.102765	0.975873	0.785694	
-0.0365827	0.936141	0.729399	
-0.107214	1.16612	0.5	
-0.0392044	1.16291	0.5	
-0.0956709	1.23097	0.5	
-0.106349	1.24066	0.613882	
0.11795	1.23142	0.740012	
0.122935	1.34062	0.641539	
0.0991769	1.35538	0.76662	
0.202645	1.34448	0.765823	
-0.427161	0.957142	1	
-0.396617	0.880856	1	
-0.495012	0.929552	0.928155	
-0.385003	0.984343	0.895239	
0.415735	0.722215	0.634138	
0.388274	0.684971	0.579193	
0.290856	0.760973	0.624503	
0.366244	0.831981	0.604187	
0.331919	1.15546	1	
0.356074	1.09276	0.865831	
0.326547	1.07249	1	
0.230545	1.11436	0.899122	
0	0.5	0.9	
0	0.5	0.8	
-0.0810399	0.506611	0.85285	
0.0321461	0.626308	0.873516	
-0.0773947	0.947213	0.5	
-0.0427935	1.02817	0.5	
-0.114443	1.01484	0.5	
-0.124649	1.04531	0.594053	
-0.159358	1.32099	0.830937	
-0.271071	1.28122	0.731982	
-0.263764	1.21559	0.825362	
-0.254431	1.30452	0.892066	
0.5	1	0.7	
0.348128	1.05074	0.719677	
0.493389	1.08104	0.64715	
0.38174	0.996023	0.618569	
-0.31121	1.03591	1	
-0.348481	1.09787	1	
-0.279278	1.1257	1	
-0.2429	1.12372	0.891069	
0.091716	0.737167	0.833117	
0.00376155	0.753357	0.785071	
-0.0183257	0.793213	0.875792	
0.0761281	0.822015	0.902396	
0.174678	1.4685	0.817109	
0.176308	1.30549	0.856004	
0.0991769	1.35538	0.76662	
0.202645	1.34448	0.765823	
9.40847e-05	1.04509	0.800768	
0.030532	1.00082	0.661954	
0.0539582	0.949081	0.757017	
-0.0365827	0.936141	0.729399	
-0.284603	1.13833	0.684978	
-0.355776	1.16297	0.774979	
-0.378892	1.09874	0.625908	
-0.307788	1.04281	0.733348	
0.19355	1.00275	0.74991	
0.188892	1.15001	0.759985	
0.0831122	1.10495	0.740369	
0.107062	1.02445	0.792092	
-0.186081	0.888066	1	
-0.143721	0.860033	0.841612	
-0.121993	0.814118	1	
-0.228331	0.826788	0.903124	
-0.0369856	0.814061	0.5	
-0.0840558	0.819296	0.633477	
-0.0956709	0.76903	0.5	
-0.0421997	0.724204	0.59801	
0.380873	1.32394	0.652261	
0.376757	1.32872	0.746468	
0.247079	1.26952	0.713352	
0.333887	1.18738	0.72436	
0.274113	0.816844	0.5	
0.323338	0.935684	0.5	
0.215224	0.853148	0.609812	
0.366244	0.831981	0.604187	
0.428195	1.25817	0.701755	
0.436762	1.24339	0.596938	
0.358556	1.12901	0.622438	
0.333887	1.18738	0.72436	
0.376757	0.671284	0.753532	
0.328874	0.804808	0.729739	
0.374193	0.668368	0.665357	
0.253474	0.699951	0.70471	
-0.396617	0.880856	1	
-0.47591	0.846672	0.90763	
-0.495012	0.929552	0.928155	
-0.385003	0.984343	0.895239	
0.157632	1.10533	0.5	
0.125807	1.18828	0.618322	
0.12042	1.06036	0.636718	
0.201501	1.05838	0.584156	
-0.31121	1.03591	1	
-0.40408	1.03727	1	
-0.348481	1.09787	1	
-0.385003	0.984343	0.895239	
-0.0146393	1.2919	0.660146	
0.0232779	1.38849	0.611701	
-0.0867584	1.36717	0.731965	
0.00695298	1.40388	0.759796	
0.12042	1.06036	0.636718	
0.125807	1.18828	0.618322	
0.240959	1.14173	0.663655	
0.201501	1.05838	0.584156	
0.290856	0.760973	0.624503	
0.215224	0.853148	0.609812	
0.318292	0.91002	0.672643	
0.366244	0.831981	0.604187	
-0.143721	0.860033	0.841612	
-0.208534	0.966027	0.877319	
-0.186081	0.888066	1	
-0.10341	0.960236	0.912939	
-0.176777	0.823223	0.5	
-0.18639	0.799846	0.604991	
-0.0892911	0.866366	0.5	
-0.105125	0.905315	0.589497	
-0.363339	1.1505	0.5	
-0.323338	1.06432	0.5	
-0.274113	1.18316	0.5	
-0.378892	1.09874	0.625908	
0.216076	0.69962	0.805486	
0.253474	0.699951	0.70471	
0.115192	0.637967	0.754396	
0.103438	0.745916	0.728223	
0	1.25	0.5	
-0.106349	1.24066	0.613882	
-0.0956709	1.23097	0.5	
0.0261041	1.21709	0.59722	
0.317233	0.613524	0.909527	
0.206639	0.624902	1	
0.261819	0.680973	1	
0.248978	0.726366	0.903842	
0.228991	1.44448	0.908099	
0.174678	1.4685	0.817109	
0.25658	1.42915	0.83124	
0.176308	1.30549	0.856004	
-0.143721	0.860033	0.841612	
-0.102765	0.975873	0.785694	
-0.117533	0.874656	0.729651	
-0.221068	0.864025	0.764044	
-0.470668	0.831266	0.798219	
-0.47591	0.846672	0.90763	
-0.437078	0.757178	0.847009	
-0.308389	0.85948	0.835633	
-0.0833019	0.506988	0.655211	
-0.000498869	0.611892	0.760268	
0	0.5	0.7	
-0.0201375	0.611237	0.611421	
0.0634445	0.898618	0.5	
0.0344957	0.828097	0.5	
0.103403	0.84471	0.5	
0.075477	0.809328	0.60941	
0.176777	0.823223	0.5	
0.103403	0.84471	0.5	
0.0956709	0.76903	0.5	
0.075477	0.809328	0.60941	
-0.0773947	0.947213	0.5	
-0.0427935	1.02817	0.5	
-0.124649	1.04531	0.594053	
-0.0230921	1.05776	0.595963	
-0.149856	1.07611	0.843427	
-0.225256	0.972563	0.749303	
-0.102765	0.975873	0.785694	
-0.208534	0.966027	0.877319	
0.13567	1.10909	0.864428	
0.16533	1.13018	1	
0.230545	1.11436	0.899122	
0.193121	1.21116	0.891371	
-0.225256	0.972563	0.749303	
-0.208534	0.966027	0.877319	
-0.308389	0.85948	0.835633	
-0.221068	0.864025	0.764044	
-0.0808186	0.989298	0.663479	
-0.117533	0.874656	0.729651	
-0.193736	0.903788	0.633349	
-0.105125	0.905315	0.589497	
0.122935	1.34062	0.641539	
0.11795	1.23142	0.740012	
0.125807	1.18828	0.618322	
0.197701	1.26759	0.618397	
-0.0956709	1.23097	0.5	
-0.106349	1.24066	0.613882	
-0.0392044	1.16291	0.5	
0.0261041	1.21709	0.59722	
-0.185909	1.14844	1	
-0.250247	1.23307	1	
-0.14568	1.20044	0.877353	
-0.2429	1.12372	0.891069	
0.216076	0.69962	0.805486	
0.115192	0.637967	0.754396	
0.242822	0.562922	0.847009	
0.160008	0.641459	0.892261	
-0.41072	1.12459	1	
-0.40408	1.03727	1	
-0.495012	1.07045	0.928155	
-0.366596	1.14153	0.904615	
-0.347453	0.767839	0.5	
-0.274113	0.816844	0.5	
-0.363339	0.8495	0.5	
-0.377424	0.892421	0.60103	
9.40847e-05	1.04509	0.800768	
-0.0202852	1.17994	0.855385	
-0.0551398	1.05013	0.899099	
0.0362445	1.10288	0.900124	
9.40847e-05	1.04509	0.800768	
0.0831122	1.10495	0.740369	
0.13567	1.10909	0.864428	
0.107062	1.02445	0.792092	
0.214716	1.29378	1	
0.134677	1.30158	1	
0.201148	1.36807	1	
0.176308	1.30549	0.856004	
0.0991769	1.35538	0.76662	
0.0835299	1.37795	0.884613	
0.0814864	1.49332	0.847681	
0.00695298	1.40388	0.759796	
-0.206133	0.729722	0.836828	
-0.297014	0.758037	0.771096	
-0.323938	0.619127	0.847739	
-0.313556	0.75907	0.879554	
-0.0684459	0.504707	0.931403	
-0.144862	0.521445	0.921652	
-0.125573	0.58604	1	
-0.142163	0.63573	0.89494	
0.415735	0.722215	0.634138	
0.439458	0.761512	0.575692	
0.388274	0.684971	0.579193	
0.366244	0.831981	0.604187	
0.0691997	1.04586	0.5	
0.0868435	1.13736	0.5	
0.000305103	1.09462	0.5	
-0.0230921	1.05776	0.595963	
0.13567	1.10909	0.864428	
0.0362445	1.10288	0.900124	
9.40847e-05	1.04509	0.800768	
0.107062	1.02445	0.792092	
-0.0706186	0.688282	0.818117	
0.0321461	0.626308	0.873516	
-0.000498869	0.611892	0.760268	
0.00376155	0.753357	0.785071	
-0.194345	0.772916	0.709268	
-0.245183	0.701709	0.623779	
-0.115668	0.660224	0.648618	
-0.172711	0.659579	0.756944	
0.450285	1.21736	0.855302	
0.476114	1.15269	0.90246	
0.337852	1.21393	0.901789	
0.369343	1.17686	0.815886	
0.097631	0.704268	1	
0.0321461	0.626308	0.873516	
0.0152702	0.660767	1	
-0.0283413	0.698633	0.90895	
-0.386405	1.31732	0.798513	
-0.263764	1.21559	0.825362	
-0.437035	1.2429	0.847369	
-0.355776	1.16297	0.774979	
0.166834	0.675675	0.635152	
0.115192	0.637967	0.754396	
0.253474	0.699951	0.70471	
0.103438	0.745916	0.728223	
0.316847	0.613208	0.801384	
0.380873	0.676062	0.847739	
0.216076	0.69962	0.805486	
0.248978	0.726366	0.903842	
-0.263764	1.21559	0.825362	
-0.271071	1.28122	0.731982	
-0.284603	1.13833	0.684978	
-0.355776	1.16297	0.774979	
0.00587698	0.925804	1	
0.0375767	1.01852	1	
0.102037	0.944747	1	
0.0803871	1.00814	0.885647	
0.409849	0.918476	0.5	
0.476114	0.847306	0.59754	
0.495101	0.930181	0.572379	
0.366244	0.831981	0.604187	
0.25	1	0.5	
0.23097	0.904329	0.5	
0.323338	0.935684	0.5	
0.214567	0.972198	0.625898	
0.436762	0.756609	0.903062	
0.428195	0.741835	0.798245	
0.380873	0.676062	0.847739	
0.287428	0.80533	0.842537	
0.000305103	1.09462	0.5	
0.0261041	1.21709	0.59722	
-0.0392044	1.16291	0.5	
-0.0230921	1.05776	0.595963	
-0.171353	0.530279	0.838334	
-0.172711	0.659579	0.756944	
-0.258165	0.571805	0.798245	
-0.142163	0.63573	0.89494	
0.3168	1.38683	0.895903	
0.262414	1.28412	0.908895	
0.25658	1.42915	0.83124	
0.278791	1.29194	0.808109	
0.257371	1.14566	1	
0.337852	1.21393	0.901789	
0.230545	1.11436	0.899122	
0.193121	1.21116	0.891371	
-0.225256	0.972563	0.749303	
-0.117533	0.874656	0.729651	
-0.102765	0.975873	0.785694	
-0.221068	0.864025	0.764044	
0.358556	1.12901	0.622438	
0.333887	1.18738	0.72436	
0.436762	1.24339	0.596938	
0.302151	1.24532	0.611118	
-0.206133	0.729722	0.836828	
-0.172711	0.659579	0.756944	
-0.0706186	0.688282	0.818117	
-0.142163	0.63573	0.89494	
-0.115668	0.660224	0.648618	
-0.0830296	0.764069	0.733505	
0.0309435	0.691773	0.673181	
-0.0421997	0.724204	0.59801	
0.374193	1.33163	0.834643	
0.4284	1.25782	0.795024	
0.369343	1.17686	0.815886	
0.278791	1.29194	0.808109	
0.428195	0.741835	0.798245	
0.36821	0.862229	0.899925	
0.469721	0.828647	0.838334	
0.382077	0.87532	0.792977	
-0.249134	0.962669	1	
-0.208534	0.966027	0.877319	
-0.186081	0.888066	1	
-0.228331	0.826788	0.903124	
0	1.5	0.9	
0.0728232	1.49467	0.926459	
0.0376698	1.41981	1	
0.0835299	1.37795	0.884613	
-0.494668	0.927177	0.573541	
-0.5	1	0.6	
-0.493315	0.918514	0.652319	
-0.377424	0.892421	0.60103	
0.0374329	0.572928	1	
0.118763	0.611014	1	
0.0704482	0.504988	0.928155	
0.0321461	0.626308	0.873516	
-0.386476	0.682767	0.909527	
-0.278183	0.659732	1	
-0.317197	0.613495	0.931175	
-0.313556	0.75907	0.879554	
-0.284603	1.13833	0.684978	
-0.197777	1.1209	0.753033	
-0.263764	1.21559	0.825362	
-0.355776	1.16297	0.774979	
0.274113	0.816844	0.5	
0.323338	0.935684	0.5	
0.23097	0.904329	0.5	
0.215224	0.853148	0.609812	
0.216076	0.69962	0.805486	
0.197542	0.7915	0.711395	
0.253474	0.699951	0.70471	
0.103438	0.745916	0.728223	
0.356074	1.09276	0.865831	
0.262314	1.07918	0.800995	
0.215886	1.00836	0.878507	
0.230545	1.11436	0.899122	
0.091716	0.737167	0.833117	
0.00376155	0.753357	0.785071	
0.0321461	0.626308	0.873516	
-0.0283413	0.698633	0.90895	
0.5	1	0.8	
0.348128	1.05074	0.719677	
0.490343	1.0978	0.741226	
0.402785	0.956541	0.723347	
0.3168	0.613169	0.604097	
0.166834	0.675675	0.635152	
0.25658	0.570854	0.66876	
0.253474	0.699951	0.70471	
-0.225256	0.972563	0.749303	
-0.143721	0.860033	0.841612	
-0.208534	0.966027	0.877319	
-0.221068	0.864025	0.764044	
0.242822	0.562922	0.847009	
0.216076	0.69962	0.805486	
0.160008	0.641459	0.892261	
0.248978	0.726366	0.903842	
0.495293	1.06845	0.568597	
0.358556	1.12901	0.622438	
0.409849	1.08152	0.5	
0.38174	0.996023	0.618569	
-0.444497	1.22896	0.591906	
-0.429162	1.25655	0.668732	
-0.468473	1.17474	0.682816	
-0.378892	1.09874	0.625908	
0.0309435	0.691773	0.673181	
-0.000498869	0.611892	0.760268	
-0.115668	0.660224	0.648618	
-0.0201375	0.611237	0.611421	
-0.000498869	0.611892	0.760268	
-0.0201375	0.611237	0.611421	
0.0309435	0.691773	0.673181	
0.0872942	0.606698	0.613217	
0.242822	0.562922	0.847009	
0.317233	0.613524	0.909527	
0.216076	0.69962	0.805486	
0.248978	0.726366	0.903842	
-0.194345	0.772916	0.709268	
-0.172711	0.659579	0.756944	
-0.115668	0.660224	0.648618	
-0.0830296	0.764069	0.733505	
0.174678	1.4685	0.817109	
0.25658	1.42915	0.83124	
0.176308	1.30549	0.856004	
0.202645	1.34448	0.765823	
-0.147604	1.13485	0.630599	
-0.218908	1.02882	0.620926	
-0.23097	1.09567	0.5	
-0.124649	1.04531	0.594053	
-0.250247	1.23307	1	
-0.279278	1.1257	1	
-0.357396	1.18789	1	
-0.366596	1.14153	0.904615	
-0.328139	1.06792	0.838021	
-0.2429	1.12372	0.891069	
-0.263764	1.21559	0.825362	
-0.366596	1.14153	0.904615	
-0.122575	1.07331	1	
-0.0896492	1.16615	1	
-0.0267938	1.0921	1	
-0.0551398	1.05013	0.899099	
0.185939	0.963014	0.5	
0.23097	0.904329	0.5	
0.25	1	0.5	
0.214567	0.972198	0.625898	
0.0803871	1.00814	0.885647	
-0.0551398	1.05013	0.899099	
0.0375767	1.01852	1	
0.0362445	1.10288	0.900124	
0.428195	1.25817	0.701755	
0.436762	1.24339	0.596938	
0.333887	1.18738	0.72436	
0.302151	1.24532	0.611118	
0.175884	0.803375	0.889741	
0.160008	0.641459	0.892261	
0.216076	0.69962	0.805486	
0.248978	0.726366	0.903842	
0.240959	1.14173	0.663655	
0.358556	1.12901	0.622438	
0.274113	1.18316	0.5	
0.302151	1.24532	0.611118	
-0.208534	0.966027	0.877319	
-0.221068	0.864025	0.764044	
-0.143721	0.860033	0.841612	
-0.228331	0.826788	0.903124	
-0.194667	0.539452	0.76567	
-0.0977967	0.509657	0.758774	
-0.168043	0.529084	0.699874	
-0.172711	0.659579	0.756944	
0.168734	1.47067	0.701781	
0.0991769	1.35538	0.76662	
0.122935	1.34062	0.641539	
0.202645	1.34448	0.765823	
-0.194345	0.772916	0.709268	
-0.117533	0.874656	0.729651	
-0.193736	0.903788	0.633349	
-0.221068	0.864025	0.764044	
0.274113	0.816844	0.5	
0.183156	0.725887	0.5	
0.290856	0.760973	0.624503	
0.215224	0.853148	0.609812	
0	0.5	0.7	
0.0814864	0.506685	0.652319	
-0.0201375	0.611237	0.611421	
0.0872942	0.606698	0.613217	
0.134677	1.30158	1	
0.176308	1.30549	0.856004	
0.214716	1.29378	1	
0.193121	1.21116	0.891371	
-0.00643767	0.847524	0.748532	
-0.0207624	0.923302	0.863864	
0.0539582	0.949081	0.757017	
-0.0365827	0.936141	0.729399	
-0.495208	1.06906	0.569036	
-0.397525	1	0.5	
-0.409849	1.08152	0.5	
-0.378892	1.09874	0.625908	
0.267628	1.19145	0.824346	
0.333887	1.18738	0.72436	
0.262314	1.07918	0.800995	
0.188892	1.15001	0.759985	
-0.444481	0.771009	0.591901	
-0.468495	0.825322	0.682891	
-0.429146	0.74342	0.66876	
-0.32134	0.844606	0.681688	
0.378521	1.20232	1	
0.394936	1.1198	1	
0.331919	1.15546	1	
0.337852	1.21393	0.901789	
-0.00475677	1.13123	0.664793	
-0.0146393	1.2919	0.660146	
-0.00595418	1.2142	0.745645	
0.0261041	1.21709	0.59722	
0.115192	0.637967	0.754396	
0.00376155	0.753357	0.785071	
0.091716	0.737167	0.833117	
0.103438	0.745916	0.728223	
0.228991	0.555519	0.591901	
0.166834	0.675675	0.635152	
0.152126	0.632735	0.5	
0.0872942	0.606698	0.613217	
-0.177191	1.03636	0.5	
-0.23097	1.09567	0.5	
-0.218908	1.02882	0.620926	
-0.124649	1.04531	0.594053	
0.493389	0.91896	0.85285	
0.36821	0.862229	0.899925	
0.495293	0.931554	0.931403	
0.39915	0.990133	0.906414	
0.115192	0.637967	0.754396	
-0.000498869	0.611892	0.760268	
0.0309435	0.691773	0.673181	
0.0872942	0.606698	0.613217	
-0.143721	0.860033	0.841612	
-0.186081	0.888066	1	
-0.208534	0.966027	0.877319	
-0.228331	0.826788	0.903124	
-0.323338	1.06432	0.5	
-0.397525	1	0.5	
-0.351178	0.986498	0.65	
-0.378892	1.09874	0.625908	
0.242822	1.43708	0.652991	
0.168734	1.47067	0.701781	
0.122935	1.34062	0.641539	
0.202645	1.34448	0.765823	
-0.437078	0.757178	0.847009	
-0.297014	0.758037	0.771096	
-0.308389	0.85948	0.835633	
-0.313556	0.75907	0.879554	
0.376757	1.32872	0.746468	
0.247079	1.26952	0.713352	
0.333887	1.18738	0.72436	
0.278791	1.29194	0.808109	
-0.323338	0.935684	0.5	
-0.274113	0.816844	0.5	
-0.23097	0.904329	0.5	
-0.377424	0.892421	0.60103	
0.388274	0.684971	0.579193	
0.278087	0.721913	0.5	
0.3168	0.613169	0.604097	
0.290856	0.760973	0.624503	
0.00512645	1.18472	1	
0.100521	1.20361	1	
0.0692432	1.11129	1	
0.0362445	1.10288	0.900124	
0.097631	0.704268	1	
0.118763	0.611014	1	
0.0321461	0.626308	0.873516	
0.160008	0.641459	0.892261	
0.476114	1.15269	0.90246	
0.495101	1.06982	0.927621	
0.394936	1.1198	1	
0.356074	1.09276	0.865831	
-0.258165	0.571805	0.798245	
-0.243391	0.563238	0.903062	
-0.142163	0.63573	0.89494	
-0.231903	0.663623	0.918546	
-0.0258184	0.833057	1	
-0.0183257	0.793213	0.875792	
-0.0578538	0.743596	1	
-0.11576	0.747665	0.899003	
0.281092	1.28109	0.5	
0.302151	1.24532	0.611118	
0.232161	1.34745	0.5	
0.197701	1.26759	0.618397	
0.302677	1.24769	1	
0.337852	1.21393	0.901789	
0.257371	1.14566	1	
0.193121	1.21116	0.891371	
0.240959	1.14173	0.663655	
0.333887	1.18738	0.72436	
0.247079	1.26952	0.713352	
0.188892	1.15001	0.759985	
0.326547	1.07249	1	
0.356074	1.09276	0.865831	
0.422937	1.04242	1	
0.39915	0.990133	0.906414	
0	1.25	0.5	
-0.0956709	1.23097	0.5	
-0.0392044	1.16291	0.5	
0.0261041	1.21709	0.59722	
-0.308389	0.85948	0.835633	
-0.221068	0.864025	0.764044	
-0.208534	0.966027	0.877319	
-0.228331	0.826788	0.903124	
-0.328139	1.06792	0.838021	
-0.263764	1.21559	0.825362	
-0.355776	1.16297	0.774979	
-0.366596	1.14153	0.904615	
-0.238625	1.43938	0.576642	
-0.151231	1.3651	0.5	
-0.152637	1.47613	0.597671	
-0.0927842	1.36919	0.612233	
-0.102765	0.975873	0.785694	
-0.0207624	0.923302	0.863864	
-0.0551398	1.05013	0.899099	
-0.10341	0.960236	0.912939	
0.287428	0.80533	0.842537	
0.330142	0.959051	0.83873	
0.36821	0.862229	0.899925	
0.382077	0.87532	0.792977	
0.356074	1.09276	0.865831	
0.337852	1.21393	0.901789	
0.476114	1.15269	0.90246	
0.369343	1.17686	0.815886	
0.064316	0.676662	0.5	
-0.0201375	0.611237	0.611421	
0.0309435	0.691773	0.673181	
-0.0421997	0.724204	0.59801	
0.0321461	0.626308	0.873516	
0.00376155	0.753357	0.785071	
-0.0706186	0.688282	0.818117	
-0.0283413	0.698633	0.90895	
-0.152126	0.632735	0.5	
-0.152694	0.523886	0.59754	
-0.0815241	0.590151	0.5	
-0.115668	0.660224	0.648618	
-0.121053	1.20203	0.750792	
-0.147604	1.13485	0.630599	
-0.0933205	1.08542	0.735608	
-0.197777	1.1209	0.753033	
0.134677	1.30158	1	
0.100521	1.20361	1	
0.0921027	1.22053	0.879559	
0.193121	1.21116	0.891371	
0.0704482	0.504988	0.928155	
0.118763	0.611014	1	
0.153328	0.52409	0.90763	
0.0321461	0.626308	0.873516	
0.0309435	0.691773	0.673181	
-0.000498869	0.611892	0.760268	
0.115192	0.637967	0.754396	
0.00376155	0.753357	0.785071	
0.214567	0.972198	0.625898	
0.101275	0.91604	0.653562	
0.215224	0.853148	0.609812	
0.190918	0.90269	0.690758	
0	0.5	0.7	
0.0854243	0.507351	0.748597	
0.0814864	0.506685	0.652319	
-0.000498869	0.611892	0.760268	
0.0854243	0.507351	0.748597	
0.0807477	0.506563	0.845776	
0.115192	0.637967	0.754396	
-0.000498869	0.611892	0.760268	
0.490343	0.902203	0.758774	
0.382077	0.87532	0.792977	
0.493389	0.91896	0.85285	
0.402785	0.956541	0.723347	
0.316847	0.613208	0.801384	
0.216076	0.69962	0.805486	
0.317233	0.613524	0.909527	
0.248978	0.726366	0.903842	
0.470916	0.831957	0.699874	
0.493012	0.916698	0.655211	
0.476114	0.847306	0.59754	
0.366244	0.831981	0.604187	
-0.121053	1.20203	0.750792	
-0.106349	1.24066	0.613882	
-0.147604	1.13485	0.630599	
-0.206572	1.20934	0.689284	
0.16533	1.13018	1	
0.226913	1.05511	1	
0.13371	1.03748	1	
0.230545	1.11436	0.899122	
0.317233	1.38648	0.590473	
0.232161	1.34745	0.5	
0.281092	1.28109	0.5	
0.302151	1.24532	0.611118	
-0.157632	0.894674	0.5	
-0.157632	0.968645	0.5	
-0.23097	0.904329	0.5	
-0.193736	0.903788	0.633349	
0.00587698	0.925804	1	
-0.0207624	0.923302	0.863864	
-0.0902369	0.906851	1	
-0.10341	0.960236	0.912939	
-0.177191	1.03636	0.5	
-0.218908	1.02882	0.620926	
-0.157632	0.968645	0.5	
-0.124649	1.04531	0.594053	
-0.0956709	1.23097	0.5	
-0.176777	1.17678	0.5	
-0.107214	1.16612	0.5	
-0.106349	1.24066	0.613882	
0.0309435	0.691773	0.673181	
0.00376155	0.753357	0.785071	
0.115192	0.637967	0.754396	
0.103438	0.745916	0.728223	
-0.121993	0.814118	1	
-0.0258184	0.833057	1	
-0.0578538	0.743596	1	
-0.11576	0.747665	0.899003	
-0.347453	0.767839	0.5	
-0.363339	0.8495	0.5	
-0.444481	0.771009	0.591901	
-0.377424	0.892421	0.60103	
-0.0810399	0.506611	0.85285	
-0.144862	0.521445	0.921652	
-0.0684459	0.504707	0.931403	
-0.142163	0.63573	0.89494	
0.247079	1.26952	0.713352	
0.333887	1.18738	0.72436	
0.267628	1.19145	0.824346	
0.188892	1.15001	0.759985	
-0.314941	1.38835	0.579801	
-0.280403	1.2804	0.5	
-0.232161	1.34745	0.5	
-0.28145	1.24879	0.622796	
-0.0979281	1.49032	0.75908	
-0.171627	1.46962	0.839884	
-0.19416	1.46076	0.765941	
-0.0867584	1.36717	0.731965	
0.318292	0.91002	0.672643	
0.328874	0.804808	0.729739	
0.290856	0.760973	0.624503	
0.366244	0.831981	0.604187	
0.380873	1.32394	0.652261	
0.333887	1.18738	0.72436	
0.247079	1.26952	0.713352	
0.302151	1.24532	0.611118	
0.0321461	0.626308	0.873516	
0.115192	0.637967	0.754396	
0.091716	0.737167	0.833117	
0.160008	0.641459	0.892261	
-0.274113	0.816844	0.5	
-0.245183	0.701709	0.623779	
-0.281585	0.718415	0.5	
-0.18639	0.799846	0.604991	
-0.149856	1.07611	0.843427	
-0.102765	0.975873	0.785694	
-0.0551398	1.05013	0.899099	
-0.10341	0.960236	0.912939	
-0.309811	0.742372	1	
-0.278183	0.659732	1	
-0.313556	0.75907	0.879554	
-0.231903	0.663623	0.918546	
0.166834	0.675675	0.635152	
0.253474	0.699951	0.70471	
0.197542	0.7915	0.711395	
0.103438	0.745916	0.728223	
-0.0815241	0.590151	0.5	
-0.115668	0.660224	0.648618	
-0.152694	0.523886	0.59754	
-0.0201375	0.611237	0.611421	
0.091716	0.737167	0.833117	
0.00376155	0.753357	0.785071	
0.105164	0.85062	0.744059	
0.103438	0.745916	0.728223	
0.0372834	1.27178	1	
-0.0537386	1.25516	1	
-0.0261261	1.3467	1	
-0.082655	1.28145	0.901959	
-0.0896492	1.16615	1	
-0.14568	1.20044	0.877353	
-0.149858	1.24003	1	
-0.082655	1.28145	0.901959	
0.064316	1.32334	0.5	
0.0956709	1.23097	0.5	
0.183156	1.27411	0.5	
0.122935	1.34062	0.641539	
-0.277785	0.584265	0.634138	
-0.238488	0.560542	0.575692	
-0.315029	0.611726	0.579193	
-0.245183	0.701709	0.623779	
0.0814864	0.506685	0.652319	
0.115192	0.637967	0.754396	
0.174678	0.531505	0.682891	
0.0872942	0.606698	0.613217	
0.064316	0.676662	0.5	
0.0309435	0.691773	0.673181	
-0.0201375	0.611237	0.611421	
0.0872942	0.606698	0.613217	
0.030532	1.00082	0.661954	
0.0631871	0.946434	0.577068	
-0.00979043	0.90873	0.615519	
-0.0230921	1.05776	0.595963	
-0.194345	0.772916	0.709268	
-0.0830296	0.764069	0.733505	
-0.0840558	0.819296	0.633477	
-0.117533	0.874656	0.729651	
0.422937	1.04242	1	
0.326547	1.07249	1	
0.394936	1.1198	1	
0.356074	1.09276	0.865831	
-0.493437	0.919252	0.845776	
-0.495012	0.929552	0.928155	
-0.47591	0.846672	0.90763	
-0.385003	0.984343	0.895239	
-0.00475677	1.13123	0.664793	
0.12042	1.06036	0.636718	
0.0831122	1.10495	0.740369	
0.030532	1.00082	0.661954	
0.0807477	1.49344	0.654224	
0	1.5	0.7	
0.0232779	1.38849	0.611701	
0.00695298	1.40388	0.759796	
0.274113	0.816844	0.5	
0.176777	0.823223	0.5	
0.183156	0.725887	0.5	
0.215224	0.853148	0.609812	
9.40847e-05	1.04509	0.800768	
0.0362445	1.10288	0.900124	
0.0803871	1.00814	0.885647	
0.107062	1.02445	0.792092	
0.168734	0.529332	0.798219	
0.242822	0.562922	0.847009	
0.115192	0.637967	0.754396	
0.160008	0.641459	0.892261	
0.493389	1.08104	0.64715	
0.5	1	0.7	
0.490343	1.0978	0.741226	
0.348128	1.05074	0.719677	
0.317233	1.38648	0.590473	
0.232161	1.34745	0.5	
0.302151	1.24532	0.611118	
0.197701	1.26759	0.618397	
0	1.25	0.5	
0.064316	1.32334	0.5	
-0.064316	1.32334	0.5	
0.0232779	1.38849	0.611701	
0.146853	0.522052	0.584008	
0.228991	0.555519	0.591901	
0.152126	0.632735	0.5	
0.0872942	0.606698	0.613217	
-0.064316	1.32334	0.5	
-0.0927842	1.36919	0.612233	
-0.0146393	1.2919	0.660146	
0.0232779	1.38849	0.611701	
-0.468473	1.17474	0.682816	
-0.492656	1.08538	0.748652	
-0.493066	1.08298	0.651653	
-0.378892	1.09874	0.625908	
-0.25	1	0.5	
-0.157632	0.968645	0.5	
-0.177191	1.03636	0.5	
-0.218908	1.02882	0.620926	
-0.193736	0.903788	0.633349	
-0.117533	0.874656	0.729651	
-0.225256	0.972563	0.749303	
-0.221068	0.864025	0.764044	
-0.00643767	0.847524	0.748532	
-0.0840558	0.819296	0.633477	
-0.0830296	0.764069	0.733505	
-0.117533	0.874656	0.729651	
-0.263764	1.21559	0.825362	
-0.14568	1.20044	0.877353	
-0.159358	1.32099	0.830937	
-0.254431	1.30452	0.892066	
-0.206133	0.729722	0.836828	
-0.142163	0.63573	0.89494	
-0.0706186	0.688282	0.818117	
-0.11576	0.747665	0.899003	
0.323338	0.935684	0.5	
0.409849	0.918476	0.5	
0.38174	0.996023	0.618569	
0.366244	0.831981	0.604187	
0.242822	0.562922	0.847009	
0.160008	0.641459	0.892261	
0.317233	0.613524	0.909527	
0.248978	0.726366	0.903842	
-0.114443	1.01484	0.5	
-0.157632	0.968645	0.5	
-0.0773947	0.947213	0.5	
-0.105125	0.905315	0.589497	
-0.0146393	1.2919	0.660146	
-0.0927842	1.36919	0.612233	
-0.0867584	1.36717	0.731965	
0.0232779	1.38849	0.611701	
0.228991	1.44448	0.908099	
0.146853	1.47795	0.915992	
0.174678	1.4685	0.817109	
0.0835299	1.37795	0.884613	
0.174678	1.4685	0.817109	
0.0814864	1.49332	0.847681	
0.0991769	1.35538	0.76662	
0.0835299	1.37795	0.884613	
9.40847e-05	1.04509	0.800768	
0.0803871	1.00814	0.885647	
0.0539582	0.949081	0.757017	
0.107062	1.02445	0.792092	
0.287428	0.80533	0.842537	
0.36821	0.862229	0.899925	
0.330142	0.959051	0.83873	
0.248837	0.902557	0.889756	
0.376757	0.671284	0.753532	
0.4284	0.742176	0.704976	
0.374193	0.668368	0.665357	
0.328874	0.804808	0.729739	
0.0956709	0.76903	0.5	
0.064316	0.676662	0.5	
0.183156	0.725887	0.5	
0.166834	0.675675	0.635152	
-0.149856	1.07611	0.843427	
-0.208534	0.966027	0.877319	
-0.102765	0.975873	0.785694	
-0.10341	0.960236	0.912939	
0.214716	1.29378	1	
0.176308	1.30549	0.856004	
0.262414	1.28412	0.908895	
0.193121	1.21116	0.891371	
-0.243302	1.43681	0.906373	
-0.258315	1.4281	0.803104	
-0.159358	1.32099	0.830937	
-0.254431	1.30452	0.892066	
-0.444497	1.22896	0.591906	
-0.386847	1.31678	0.604131	
-0.429162	1.25655	0.668732	
-0.28145	1.24879	0.622796	
0.11795	1.23142	0.740012	
0.0991769	1.35538	0.76662	
0.176308	1.30549	0.856004	
0.202645	1.34448	0.765823	
-0.0207624	0.923302	0.863864	
-0.102765	0.975873	0.785694	
-0.143721	0.860033	0.841612	
-0.10341	0.960236	0.912939	
-0.193736	0.903788	0.633349	
-0.18639	0.799846	0.604991	
-0.157632	0.894674	0.5	
-0.105125	0.905315	0.589497	
0.495101	1.06982	0.927621	
0.356074	1.09276	0.865831	
0.493012	1.0833	0.844789	
0.39915	0.990133	0.906414	
-0.386498	0.682794	0.700322	
-0.331632	0.625807	0.665357	
-0.386831	0.6832	0.604097	
-0.245183	0.701709	0.623779	
0.478555	1.14486	0.578348	
0.495293	1.06845	0.568597	
0.493389	1.08104	0.64715	
0.358556	1.12901	0.622438	
-0.297014	0.758037	0.771096	
-0.221068	0.864025	0.764044	
-0.308389	0.85948	0.835633	
-0.228331	0.826788	0.903124	
0.356074	1.09276	0.865831	
0.337852	1.21393	0.901789	
0.267628	1.19145	0.824346	
0.230545	1.11436	0.899122	
0.097631	0.704268	1	
0.0383625	0.760787	1	
0.132272	0.778577	1	
0.0761281	0.822015	0.902396	
-0.324048	1.38078	0.849851	
-0.386405	1.31732	0.798513	
-0.3284	1.37703	0.756783	
-0.271071	1.28122	0.731982	
0.25658	1.42915	0.83124	
0.278791	1.29194	0.808109	
0.176308	1.30549	0.856004	
0.202645	1.34448	0.765823	
0.257371	1.14566	1	
0.337852	1.21393	0.901789	
0.331919	1.15546	1	
0.230545	1.11436	0.899122	
0.215886	1.00836	0.878507	
0.0803871	1.00814	0.885647	
0.13567	1.10909	0.864428	
0.107062	1.02445	0.792092	
0.278087	0.721913	0.5	
0.183156	0.725887	0.5	
0.232161	0.652547	0.5	
0.166834	0.675675	0.635152	
0.0309435	0.691773	0.673181	
-0.0421997	0.724204	0.59801	
-0.0830296	0.764069	0.733505	
0.0014459	0.786307	0.671061	
0.13567	1.10909	0.864428	
0.267628	1.19145	0.824346	
0.188892	1.15001	0.759985	
0.193121	1.21116	0.891371	
0.101275	0.91604	0.653562	
0.030532	1.00082	0.661954	
0.12042	1.06036	0.636718	
0.0631871	0.946434	0.577068	
0.075477	0.809328	0.60941	
0.103438	0.745916	0.728223	
0.105164	0.85062	0.744059	
0.0014459	0.786307	0.671061	
0	1.5	0.6	
-0.0833019	1.49301	0.655211	
-0.0698146	1.4951	0.5724	
0.0232779	1.38849	0.611701	
-0.149858	1.24003	1	
-0.185909	1.14844	1	
-0.250247	1.23307	1	
-0.14568	1.20044	0.877353	
-0.493066	1.08298	0.651653	
-0.5	1	0.6	
-0.495208	1.06906	0.569036	
-0.378892	1.09874	0.625908	
-0.5	1	0.9	
-0.5	1	0.8	
-0.493438	1.08074	0.845784	
-0.385003	0.984343	0.895239	
-0.125573	0.58604	1	
-0.0915272	0.659988	1	
-0.0444138	0.583252	1	
-0.142163	0.63573	0.89494	
0.450285	1.21736	0.855302	
0.476114	1.15269	0.90246	
0.439458	1.23849	0.924308	
0.337852	1.21393	0.901789	
-0.279278	1.1257	1	
-0.2429	1.12372	0.891069	
-0.348481	1.09787	1	
-0.366596	1.14153	0.904615	
0.153328	1.47591	0.59237	
0.0815241	1.40985	0.5	
0.122935	1.34062	0.641539	
0.0232779	1.38849	0.611701	
-0.257824	0.5716	0.704976	
-0.328716	0.623243	0.753532	
-0.258165	0.571805	0.798245	
-0.172711	0.659579	0.756944	
0.153328	0.52409	0.90763	
0.0321461	0.626308	0.873516	
0.118763	0.611014	1	
0.160008	0.641459	0.892261	
-0.274113	1.18316	0.5	
-0.347453	1.23216	0.5	
-0.363339	1.1505	0.5	
-0.28145	1.24879	0.622796	
-0.064316	1.32334	0.5	
-0.106349	1.24066	0.613882	
-0.0146393	1.2919	0.660146	
-0.0927842	1.36919	0.612233	
0.274113	1.18316	0.5	
0.23097	1.09567	0.5	
0.323338	1.06432	0.5	
0.358556	1.12901	0.622438	
-0.157632	0.968645	0.5	
-0.193736	0.903788	0.633349	
-0.157632	0.894674	0.5	
-0.105125	0.905315	0.589497	
-0.183156	0.725887	0.5	
-0.115668	0.660224	0.648618	
-0.064316	0.676662	0.5	
-0.0421997	0.724204	0.59801	
0.105164	0.85062	0.744059	
0.00376155	0.753357	0.785071	
-0.00643767	0.847524	0.748532	
0.103438	0.745916	0.728223	
0.428195	1.25817	0.701755	
0.358556	1.12901	0.622438	
0.469721	1.17135	0.661666	
0.333887	1.18738	0.72436	
0.287378	0.983941	1	
0.198196	0.963699	1	
0.215886	1.00836	0.878507	
0.248837	0.902557	0.889756	
0.153328	1.47591	0.59237	
0.122935	1.34062	0.641539	
0.0807477	1.49344	0.654224	
0.0232779	1.38849	0.611701	
0.232161	0.652547	0.5	
0.228991	0.555519	0.591901	
0.3168	0.613169	0.604097	
0.166834	0.675675	0.635152	
-0.468495	0.825322	0.682891	
-0.32134	0.844606	0.681688	
-0.444481	0.771009	0.591901	
-0.377424	0.892421	0.60103	
0.380873	1.32394	0.652261	
0.428195	1.25817	0.701755	
0.376757	1.32872	0.746468	
0.333887	1.18738	0.72436	
-0.444497	1.22896	0.591906	
-0.477722	1.14759	0.583558	
-0.363339	1.1505	0.5	
-0.378892	1.09874	0.625908	
0.301328	0.82727	1	
0.233424	0.783671	1	
0.259634	0.890927	1	
0.248837	0.902557	0.889756	
-0.296764	0.859492	1	
-0.249134	0.962669	1	
-0.186081	0.888066	1	
-0.228331	0.826788	0.903124	
0.114269	0.8976	0.845027	
0.175884	0.803375	0.889741	
0.219433	0.887973	0.783321	
0.248837	0.902557	0.889756	
0.348128	1.05074	0.719677	
0.358556	1.12901	0.622438	
0.240959	1.14173	0.663655	
0.333887	1.18738	0.72436	
-0.00643767	0.847524	0.748532	
0.105164	0.85062	0.744059	
0.103438	0.745916	0.728223	
0.0014459	0.786307	0.671061	
-0.152694	0.523886	0.59754	
-0.217356	0.549715	0.644698	
-0.168043	0.529084	0.699874	
-0.115668	0.660224	0.648618	
0.0376698	1.41981	1	
-0.0261261	1.3467	1	
-0.0411619	1.43035	1	
-0.0684719	1.38599	0.898819	
0.337852	1.21393	0.901789	
0.267628	1.19145	0.824346	
0.230545	1.11436	0.899122	
0.193121	1.21116	0.891371	
0.242822	0.562922	0.847009	
0.317233	0.613524	0.909527	
0.316847	0.613208	0.801384	
0.216076	0.69962	0.805486	
0.25	1	0.5	
0.214567	0.972198	0.625898	
0.286804	1.05056	0.632278	
0.201501	1.05838	0.584156	
-0.468495	0.825322	0.682891	
-0.434698	0.752943	0.749501	
-0.429146	0.74342	0.66876	
-0.32134	0.844606	0.681688	
0.091716	0.737167	0.833117	
-0.0183257	0.793213	0.875792	
0.00376155	0.753357	0.785071	
-0.0283413	0.698633	0.90895	
-0.193736	0.903788	0.633349	
-0.117533	0.874656	0.729651	
-0.0840558	0.819296	0.633477	
-0.105125	0.905315	0.589497	
-0.206133	0.729722	0.836828	
-0.313556	0.75907	0.879554	
-0.323938	0.619127	0.847739	
-0.231903	0.663623	0.918546	
-0.493437	0.919252	0.845776	
-0.371949	0.959293	0.777377	
-0.5	1	0.8	
-0.385003	0.984343	0.895239	
0.12042	1.06036	0.636718	
0.030532	1.00082	0.661954	
-0.00475677	1.13123	0.664793	
-0.0230921	1.05776	0.595963	
-0.468473	1.17474	0.682816	
-0.429162	1.25655	0.668732	
-0.434718	1.24702	0.749442	
-0.355776	1.16297	0.774979	
-0.296764	0.859492	1	
-0.313556	0.75907	0.879554	
-0.308389	0.85948	0.835633	
-0.228331	0.826788	0.903124	
0.428195	0.741835	0.798245	
0.436762	0.756609	0.903062	
0.469721	0.828647	0.838334	
0.36821	0.862229	0.899925	
0.274113	0.816844	0.5	
0.215224	0.853148	0.609812	
0.290856	0.760973	0.624503	
0.366244	0.831981	0.604187	
-0.0833019	0.506988	0.655211	
-0.0977967	0.509657	0.758774	
0	0.5	0.7	
-0.000498869	0.611892	0.760268	
0.114269	0.8976	0.845027	
0.0539582	0.949081	0.757017	
0.0803871	1.00814	0.885647	
0.107062	1.02445	0.792092	
0.267628	1.19145	0.824346	
0.262314	1.07918	0.800995	
0.333887	1.18738	0.72436	
0.369343	1.17686	0.815886	
-0.0808186	0.989298	0.663479	
0.030532	1.00082	0.661954	
-0.00979043	0.90873	0.615519	
-0.0230921	1.05776	0.595963	
0.0815241	1.40985	0.5	
0.152393	1.36791	0.5	
0.153328	1.47591	0.59237	
0.122935	1.34062	0.641539	
0.316847	0.613208	0.801384	
0.317233	0.613524	0.909527	
0.380873	0.676062	0.847739	
0.248978	0.726366	0.903842	
0.0691997	1.04586	0.5	
0.157632	1.10533	0.5	
0.0868435	1.13736	0.5	
0.12042	1.06036	0.636718	
0.228991	0.555519	0.591901	
0.25658	0.570854	0.66876	
0.3168	0.613169	0.604097	
0.166834	0.675675	0.635152	
0.13567	1.10909	0.864428	
0.0803871	1.00814	0.885647	
0.0362445	1.10288	0.900124	
0.107062	1.02445	0.792092	
0.0807477	0.506563	0.845776	
0.0321461	0.626308	0.873516	
0.153328	0.52409	0.90763	
0.160008	0.641459	0.892261	
0.374193	0.668368	0.665357	
0.290856	0.760973	0.624503	
0.3168	0.613169	0.604097	
0.253474	0.699951	0.70471	
-0.064316	0.676662	0.5	
-0.183156	0.725887	0.5	
-0.152126	0.632735	0.5	
-0.115668	0.660224	0.648618	
-0.102765	0.975873	0.785694	
-0.208534	0.966027	0.877319	
-0.143721	0.860033	0.841612	
-0.10341	0.960236	0.912939	
-0.00643767	0.847524	0.748532	
0.103438	0.745916	0.728223	
0.00376155	0.753357	0.785071	
0.0014459	0.786307	0.671061	
0	0.5	0.9	
0.0374329	0.572928	1	
0.0704482	0.504988	0.928155	
0.0321461	0.626308	0.873516	
0.233424	0.783671	1	
0.175884	0.803375	0.889741	
0.259634	0.890927	1	
0.248837	0.902557	0.889756	
-0.323338	0.935684	0.5	
-0.323338	1.06432	0.5	
-0.397525	1	0.5	
-0.351178	0.986498	0.65	
0.5	1	0.7	
0.348128	1.05074	0.719677	
0.38174	0.996023	0.618569	
0.402785	0.956541	0.723347	
0.495293	0.931554	0.931403	
0.478555	0.855138	0.921652	
0.417242	0.878937	1	
0.36821	0.862229	0.899925	
-0.386476	0.682767	0.909527	
-0.309811	0.742372	1	
-0.278183	0.659732	1	
-0.313556	0.75907	0.879554	
0.267628	1.19145	0.824346	
0.13567	1.10909	0.864428	
0.188892	1.15001	0.759985	
0.230545	1.11436	0.899122	
0.0831122	1.10495	0.740369	
0.188892	1.15001	0.759985	
0.13567	1.10909	0.864428	
0.107062	1.02445	0.792092	
-0.152694	0.523886	0.59754	
-0.115668	0.660224	0.648618	
-0.0833019	0.506988	0.655211	
-0.0201375	0.611237	0.611421	
0.267628	1.19145	0.824346	
0.13567	1.10909	0.864428	
0.230545	1.11436	0.899122	
0.193121	1.21116	0.891371	
-0.217395	0.789549	1	
-0.121993	0.814118	1	
-0.11576	0.747665	0.899003	
-0.228331	0.826788	0.903124	
0.176777	1.17678	0.5	
0.157632	1.10533	0.5	
0.23097	1.09567	0.5	
0.201501	1.05838	0.584156	
0.163502	1.02984	0.5	
0.157632	1.10533	0.5	
0.12042	1.06036	0.636718	
0.201501	1.05838	0.584156	
-0.315029	0.611726	0.579193	
-0.281585	0.718415	0.5	
-0.386831	0.6832	0.604097	
-0.245183	0.701709	0.623779	
0.242822	1.43708	0.652991	
0.153328	1.47591	0.59237	
0.235698	1.44096	0.568569	
0.122935	1.34062	0.641539	
0.0854243	1.49265	0.751403	
0.0991769	1.35538	0.76662	
0.0814864	1.49332	0.847681	
0.00695298	1.40388	0.759796	
0.174678	0.531505	0.682891	
0.115192	0.637967	0.754396	
0.166834	0.675675	0.635152	
0.0872942	0.606698	0.613217	
0.316847	1.38679	0.698616	
0.380873	1.32394	0.652261	
0.247079	1.26952	0.713352	
0.302151	1.24532	0.611118	
-0.176777	0.823223	0.5	
-0.157632	0.894674	0.5	
-0.18639	0.799846	0.604991	
-0.105125	0.905315	0.589497	
0.436762	1.24339	0.596938	
0.469721	1.17135	0.661666	
0.428195	1.25817	0.701755	
0.358556	1.12901	0.622438	
0.318292	0.91002	0.672643	
0.348128	1.05074	0.719677	
0.38174	0.996023	0.618569	
0.286804	1.05056	0.632278	
-0.0537386	1.25516	1	
-0.0896492	1.16615	1	
-0.149858	1.24003	1	
-0.082655	1.28145	0.901959	
0.0152702	0.660767	1	
0.097631	0.704268	1	
0.118763	0.611014	1	
0.0321461	0.626308	0.873516	
0.100521	1.20361	1	
0.00512645	1.18472	1	
0.0372834	1.27178	1	
0.0921027	1.22053	0.879559	
-0.206133	0.729722	0.836828	
-0.11576	0.747665	0.899003	
-0.143721	0.860033	0.841612	
-0.228331	0.826788	0.903124	
-0.117202	1.0938	0.5	
-0.23097	1.09567	0.5	
-0.177191	1.03636	0.5	
-0.124649	1.04531	0.594053	
-0.0833019	1.49301	0.655211	
-0.0927842	1.36919	0.612233	
-0.0698146	1.4951	0.5724	
0.0232779	1.38849	0.611701	
9.40847e-05	1.04509	0.800768	
-0.0551398	1.05013	0.899099	
0.0803871	1.00814	0.885647	
0.0362445	1.10288	0.900124	
0.166518	0.870941	1	
0.259634	0.890927	1	
0.175884	0.803375	0.889741	
0.248837	0.902557	0.889756	
0.337852	1.21393	0.901789	
0.369343	1.17686	0.815886	
0.267628	1.19145	0.824346	
0.278791	1.29194	0.808109	
-0.00643767	0.847524	0.748532	
-0.0830296	0.764069	0.733505	
-0.0840558	0.819296	0.633477	
0.0014459	0.786307	0.671061	
0.316847	1.38679	0.698616	
0.317233	1.38648	0.590473	
0.380873	1.32394	0.652261	
0.302151	1.24532	0.611118	
0.028723	1.17517	0.5	
0.0868435	1.13736	0.5	
0.0956709	1.23097	0.5	
0.0261041	1.21709	0.59722	
0.348128	1.05074	0.719677	
0.240959	1.14173	0.663655	
0.358556	1.12901	0.622438	
0.286804	1.05056	0.632278	
-0.32134	0.844606	0.681688	
-0.297014	0.758037	0.771096	
-0.194345	0.772916	0.709268	
-0.221068	0.864025	0.764044	
0.247057	0.565302	0.749501	
0.216076	0.69962	0.805486	
0.316847	0.613208	0.801384	
0.253474	0.699951	0.70471	
0.374193	1.33163	0.834643	
0.376757	1.32872	0.746468	
0.4284	1.25782	0.795024	
0.278791	1.29194	0.808109	
-0.121053	1.20203	0.750792	
-0.147604	1.13485	0.630599	
-0.197777	1.1209	0.753033	
-0.206572	1.20934	0.689284	
0	1.5	0.6	
-0.0698146	1.4951	0.5724	
8.18872e-17	1.39822	0.5	
0.0232779	1.38849	0.611701	
-0.167464	1.47112	0.699894	
-0.0833019	1.49301	0.655211	
-0.0867584	1.36717	0.731965	
-0.0927842	1.36919	0.612233	
-0.386847	1.31678	0.604131	
-0.280403	1.2804	0.5	
-0.314941	1.38835	0.579801	
-0.28145	1.24879	0.622796	
-0.183156	0.725887	0.5	
-0.064316	0.676662	0.5	
-0.0956709	0.76903	0.5	
-0.0421997	0.724204	0.59801	
-0.494668	0.927177	0.573541	
-0.409849	0.918476	0.5	
-0.397525	1	0.5	
-0.377424	0.892421	0.60103	
0.216076	0.69962	0.805486	
0.091716	0.737167	0.833117	
0.115192	0.637967	0.754396	
0.160008	0.641459	0.892261	
0.075477	0.809328	0.60941	
-0.00979043	0.90873	0.615519	
0.101275	0.91604	0.653562	
0.0631871	0.946434	0.577068	
0.5	1	0.6	
0.495293	1.06845	0.568597	
0.398221	1	0.5	
0.38174	0.996023	0.618569	
0.0814864	0.506685	0.652319	
0.0854243	0.507351	0.748597	
0.174678	0.531505	0.682891	
0.115192	0.637967	0.754396	
0.0807477	0.506563	0.845776	
0	0.5	0.8	
0.0321461	0.626308	0.873516	
-0.000498869	0.611892	0.760268	
-0.297014	0.758037	0.771096	
-0.313556	0.75907	0.879554	
-0.206133	0.729722	0.836828	
-0.228331	0.826788	0.903124	
-0.0810399	0.506611	0.85285	
0	0.5	0.8	
-0.0977967	0.509657	0.758774	
-0.000498869	0.611892	0.760268	
0.0956709	0.76903	0.5	
0.0344957	0.828097	0.5	
0	0.75	0.5	
0.075477	0.809328	0.60941	
0.152126	0.632735	0.5	
0.166834	0.675675	0.635152	
0.064316	0.676662	0.5	
0.0872942	0.606698	0.613217	
-0.171627	1.46962	0.839884	
-0.243302	1.43681	0.906373	
-0.258315	1.4281	0.803104	
-0.159358	1.32099	0.830937	
0.302677	1.24769	1	
0.195163	1.21982	1	
0.262414	1.28412	0.908895	
0.193121	1.21116	0.891371	
0.490343	0.902203	0.758774	
0.493389	0.91896	0.85285	
0.5	1	0.8	
0.402785	0.956541	0.723347	
-0.495012	1.07045	0.928155	
-0.5	1	0.9	
-0.493438	1.08074	0.845784	
-0.385003	0.984343	0.895239	
-0.117202	1.0938	0.5	
-0.147604	1.13485	0.630599	
-0.23097	1.09567	0.5	
-0.124649	1.04531	0.594053	
-0.217299	1.45031	0.645888	
-0.152637	1.47613	0.597671	
-0.167464	1.47112	0.699894	
-0.0927842	1.36919	0.612233	
-0.0218546	0.89013	0.5	
-0.00979043	0.90873	0.615519	
0.0634445	0.898618	0.5	
0.0631871	0.946434	0.577068	
0.490343	1.0978	0.741226	
0.348128	1.05074	0.719677	
0.5	1	0.7	
0.402785	0.956541	0.723347	
0.0868435	1.13736	0.5	
0.125807	1.18828	0.618322	
0.0956709	1.23097	0.5	
0.0261041	1.21709	0.59722	
-0.444497	1.22896	0.591906	
-0.347453	1.23216	0.5	
-0.386847	1.31678	0.604131	
-0.28145	1.24879	0.622796	
-0.153466	0.725651	1	
-0.11576	0.747665	0.899003	
-0.142163	0.63573	0.89494	
-0.231903	0.663623	0.918546	
0.267628	1.19145	0.824346	
0.369343	1.17686	0.815886	
0.333887	1.18738	0.72436	
0.278791	1.29194	0.808109	
-0.274113	1.18316	0.5	
-0.176777	1.17678	0.5	
-0.183156	1.27411	0.5	
-0.28145	1.24879	0.622796	
0.134677	1.30158	1	
0.195163	1.21982	1	
0.100521	1.20361	1	
0.193121	1.21116	0.891371	
0.0704482	0.504988	0.928155	
0.153328	0.52409	0.90763	
0.0807477	0.506563	0.845776	
0.0321461	0.626308	0.873516	
0.226913	1.05511	1	
0.198196	0.963699	1	
0.13371	1.03748	1	
0.215886	1.00836	0.878507	
0.201148	1.36807	1	
0.228991	1.44448	0.908099	
0.277785	1.41573	1	
0.272282	1.33178	1	
0.360576	0.998064	1	
0.326547	1.07249	1	
0.422937	1.04242	1	
0.39915	0.990133	0.906414	
-0.308389	0.85948	0.835633	
-0.297014	0.758037	0.771096	
-0.32134	0.844606	0.681688	
-0.221068	0.864025	0.764044	
0	1.25	0.5	
-0.064316	1.32334	0.5	
-0.0956709	1.23097	0.5	
-0.106349	1.24066	0.613882	
-0.0815241	0.590151	0.5	
-0.152694	0.523886	0.59754	
-0.0698189	0.504899	0.572379	
-0.0201375	0.611237	0.611421	
-0.41072	1.12459	1	
-0.348481	1.09787	1	
-0.40408	1.03727	1	
-0.366596	1.14153	0.904615	
0.0372834	1.27178	1	
0.134677	1.30158	1	
0.100521	1.20361	1	
0.0921027	1.22053	0.879559	
-0.0840558	0.819296	0.633477	
-0.0830296	0.764069	0.733505	
-0.0421997	0.724204	0.59801	
0.0014459	0.786307	0.671061	
0.075477	0.809328	0.60941	
-0.0421997	0.724204	0.59801	
0.0309435	0.691773	0.673181	
0.0014459	0.786307	0.671061	
-0.284603	1.13833	0.684978	
-0.28145	1.24879	0.622796	
-0.271071	1.28122	0.731982	
-0.206572	1.20934	0.689284	
0.257371	1.14566	1	
0.331919	1.15546	1	
0.326547	1.07249	1	
0.230545	1.11436	0.899122	
0.197542	0.7915	0.711395	
0.290856	0.760973	0.624503	
0.328874	0.804808	0.729739	
0.253474	0.699951	0.70471	
0.331919	1.15546	1	
0.394936	1.1198	1	
0.326547	1.07249	1	
0.356074	1.09276	0.865831	
-0.0218546	0.89013	0.5	
0.0165433	0.957567	0.5	
-0.0773947	0.947213	0.5	
-0.00979043	0.90873	0.615519	
-0.152694	0.523886	0.59754	
-0.168043	0.529084	0.699874	
-0.0833019	0.506988	0.655211	
-0.115668	0.660224	0.648618	
0.493389	0.91896	0.85285	
0.478555	0.855138	0.921652	
0.495293	0.931554	0.931403	
0.36821	0.862229	0.899925	
0.0152702	0.660767	1	
0.0321461	0.626308	0.873516	
-0.0444138	0.583252	1	
-0.0283413	0.698633	0.90895	
0.157632	1.10533	0.5	
0.0691997	1.04586	0.5	
0.163502	1.02984	0.5	
0.12042	1.06036	0.636718	
-0.102765	0.975873	0.785694	
-0.117533	0.874656	0.729651	
-0.0808186	0.989298	0.663479	
-0.0365827	0.936141	0.729399	
0.134677	1.30158	1	
0.0645888	1.34627	1	
0.122568	1.39751	1	
0.0835299	1.37795	0.884613	
-0.0698146	1.4951	0.5724	
-0.0815241	1.40985	0.5	
8.18872e-17	1.39822	0.5	
0.0232779	1.38849	0.611701	
-0.171627	1.46962	0.839884	
-0.258315	1.4281	0.803104	
-0.19416	1.46076	0.765941	
-0.159358	1.32099	0.830937	
-0.250247	1.23307	1	
-0.182108	1.31839	1	
-0.149858	1.24003	1	
-0.254431	1.30452	0.892066	
0.185939	0.963014	0.5	
0.214567	0.972198	0.625898	
0.25	1	0.5	
0.201501	1.05838	0.584156	
-0.218034	1.05414	1	
-0.31121	1.03591	1	
-0.279278	1.1257	1	
-0.2429	1.12372	0.891069	
0.436762	1.24339	0.596938	
0.369516	1.15306	0.5	
0.478555	1.14486	0.578348	
0.358556	1.12901	0.622438	
0.232161	0.652547	0.5	
0.152126	0.632735	0.5	
0.228991	0.555519	0.591901	
0.166834	0.675675	0.635152	
-0.0258184	0.833057	1	
0.0383625	0.760787	1	
-0.0183257	0.793213	0.875792	
0.0761281	0.822015	0.902396	
-0.284603	1.13833	0.684978	
-0.197777	1.1209	0.753033	
-0.147604	1.13485	0.630599	
-0.206572	1.20934	0.689284	
0.0152702	0.660767	1	
0.0374329	0.572928	1	
-0.0444138	0.583252	1	
0.0321461	0.626308	0.873516	
0.097631	0.704268	1	
0.0152702	0.660767	1	
0.0383625	0.760787	1	
-0.0283413	0.698633	0.90895	
-0.440961	0.764302	0.931431	
-0.376173	0.802719	1	
-0.386476	0.682767	0.909527	
-0.313556	0.75907	0.879554	
-0.159358	1.32099	0.830937	
-0.0111034	1.32302	0.823352	
-0.0684719	1.38599	0.898819	
-0.082655	1.28145	0.901959	
0.183156	1.27411	0.5	
0.152393	1.36791	0.5	
0.122935	1.34062	0.641539	
0.197701	1.26759	0.618397	
0.0728232	0.505332	0.573541	
-3.15026e-17	0.601779	0.5	
-0.0201375	0.611237	0.611421	
0.0872942	0.606698	0.613217	
0.166518	0.870941	1	
0.259634	0.890927	1	
0.233424	0.783671	1	
0.175884	0.803375	0.889741	
-0.323938	0.619127	0.847739	
-0.297014	0.758037	0.771096	
-0.386792	0.683153	0.801384	
-0.313556	0.75907	0.879554	
0.219433	0.887973	0.783321	
0.175884	0.803375	0.889741	
0.287428	0.80533	0.842537	
0.248837	0.902557	0.889756	
-0.0690617	1.49521	0.93079	
0	1.5	0.9	
-0.0411619	1.43035	1	
-0.0684719	1.38599	0.898819	
0.278087	0.721913	0.5	
0.274113	0.816844	0.5	
0.183156	0.725887	0.5	
0.290856	0.760973	0.624503	
0.5	1	0.6	
0.398221	1	0.5	
0.495101	0.930181	0.572379	
0.38174	0.996023	0.618569	
-0.183156	0.725887	0.5	
-0.281585	0.718415	0.5	
-0.245183	0.701709	0.623779	
-0.18639	0.799846	0.604991	
0.183156	1.27411	0.5	
0.152393	1.36791	0.5	
0.064316	1.32334	0.5	
0.122935	1.34062	0.641539	
0.0728232	0.505332	0.573541	
-3.15026e-17	0.601779	0.5	
0	0.5	0.6	
-0.0201375	0.611237	0.611421	
-0.280403	1.2804	0.5	
-0.183156	1.27411	0.5	
-0.232161	1.34745	0.5	
-0.28145	1.24879	0.622796	
-0.323938	0.619127	0.847739	
-0.328716	0.623243	0.753532	
-0.386792	0.683153	0.801384	
-0.297014	0.758037	0.771096	
0.0375767	1.01852	1	
-0.0551398	1.05013	0.899099	
-0.0267938	1.0921	1	
0.0362445	1.10288	0.900124	
-0.171353	0.530279	0.838334	
-0.258165	0.571805	0.798245	
-0.243391	0.563238	0.903062	
-0.142163	0.63573	0.89494	
0.0807477	0.506563	0.845776	
0.153328	0.52409	0.90763	
0.168734	0.529332	0.798219	
0.160008	0.641459	0.892261	
0.470916	0.831957	0.699874	
0.328874	0.804808	0.729739	
0.460548	0.805333	0.76567	
0.382077	0.87532	0.792977	
-0.386533	1.31716	0.700258	
-0.28145	1.24879	0.622796	
-0.332191	1.3737	0.665943	
-0.271071	1.28122	0.731982	
-0.171353	0.530279	0.838334	
-0.194667	0.539452	0.76567	
-0.258165	0.571805	0.798245	
-0.172711	0.659579	0.756944	
-0.0979281	1.49032	0.75908	
0	1.5	0.8	
-0.0811073	1.49338	0.853007	
0.00695298	1.40388	0.759796	
0.316847	1.38679	0.698616	
0.247079	1.26952	0.713352	
0.376757	1.32872	0.746468	
0.278791	1.29194	0.808109	
-0.323338	0.935684	0.5	
-0.351178	0.986498	0.65	
-0.397525	1	0.5	
-0.377424	0.892421	0.60103	
0.153328	1.47591	0.59237	
0.0704482	1.49501	0.571845	
0.0815241	1.40985	0.5	
0.0232779	1.38849	0.611701	
-0.40408	1.03727	1	
-0.427161	0.957142	1	
-0.5	1	0.9	
-0.385003	0.984343	0.895239	
0.409849	1.08152	0.5	
0.495293	1.06845	0.568597	
0.478555	1.14486	0.578348	
0.358556	1.12901	0.622438	
-0.176777	1.17678	0.5	
-0.117202	1.0938	0.5	
-0.107214	1.16612	0.5	
-0.147604	1.13485	0.630599	
0.5	1	0.8	
0.490343	1.0978	0.741226	
0.5	1	0.7	
0.402785	0.956541	0.723347	
0.153328	1.47591	0.59237	
0.168734	1.47067	0.701781	
0.0807477	1.49344	0.654224	
0.122935	1.34062	0.641539	
0.174678	0.531505	0.682891	
0.166834	0.675675	0.635152	
0.228991	0.555519	0.591901	
0.0872942	0.606698	0.613217	
0.323338	1.06432	0.5	
0.38174	0.996023	0.618569	
0.358556	1.12901	0.622438	
0.286804	1.05056	0.632278	
0.316847	1.38679	0.698616	
0.380873	1.32394	0.652261	
0.376757	1.32872	0.746468	
0.247079	1.26952	0.713352	
-0.47591	1.15333	0.907619	
-0.495012	1.07045	0.928155	
-0.493438	1.08074	0.845784	
-0.366596	1.14153	0.904615	
-0.317197	0.613495	0.931175	
-0.323938	0.619127	0.847739	
-0.313556	0.75907	0.879554	
-0.231903	0.663623	0.918546	
0.318292	0.91002	0.672643	
0.214567	0.972198	0.625898	
0.215224	0.853148	0.609812	
0.190918	0.90269	0.690758	
0.091716	0.737167	0.833117	
0.216076	0.69962	0.805486	
0.115192	0.637967	0.754396	
0.103438	0.745916	0.728223	
-0.183156	0.725887	0.5	
-0.232161	0.652547	0.5	
-0.152126	0.632735	0.5	
-0.245183	0.701709	0.623779	
0.347453	0.767839	0.5	
0.290856	0.760973	0.624503	
0.388274	0.684971	0.579193	
0.366244	0.831981	0.604187	
0.247079	1.26952	0.713352	
0.278791	1.29194	0.808109	
0.316847	1.38679	0.698616	
0.202645	1.34448	0.765823	
-0.243302	1.43681	0.906373	
-0.208232	1.3886	1	
-0.265836	1.3303	1	
-0.254431	1.30452	0.892066	
-0.0218546	0.89013	0.5	
-0.00979043	0.90873	0.615519	
-0.0773947	0.947213	0.5	
-0.105125	0.905315	0.589497	
-0.0833019	1.49301	0.655211	
0	1.5	0.6	
0	1.5	0.7	
0.0232779	1.38849	0.611701	
0.174678	1.4685	0.817109	
0.0814864	1.49332	0.847681	
0.0854243	1.49265	0.751403	
0.0991769	1.35538	0.76662	
-0.309811	0.742372	1	
-0.313556	0.75907	0.879554	
-0.233276	0.710046	1	
-0.231903	0.663623	0.918546	
-0.0698146	1.4951	0.5724	
-0.0927842	1.36919	0.612233	
-0.0815241	1.40985	0.5	
0.0232779	1.38849	0.611701	
0.153328	1.47591	0.59237	
0.0807477	1.49344	0.654224	
0.0704482	1.49501	0.571845	
0.0232779	1.38849	0.611701	
-0.152694	0.523886	0.59754	
-0.0833019	0.506988	0.655211	
-0.0698189	0.504899	0.572379	
-0.0201375	0.611237	0.611421	
-0.176777	0.823223	0.5	
-0.23097	0.904329	0.5	
-0.274113	0.816844	0.5	
-0.18639	0.799846	0.604991	
0.476114	1.15269	0.90246	
0.470916	1.16804	0.800126	
0.356074	1.09276	0.865831	
0.369343	1.17686	0.815886	
0.5	1	0.9	
0.493012	1.0833	0.844789	
0.5	1	0.8	
0.39915	0.990133	0.906414	
0.274113	0.816844	0.5	
0.365104	0.848769	0.5	
0.323338	0.935684	0.5	
0.366244	0.831981	0.604187	
-0.492649	0.914576	0.748597	
-0.493437	0.919252	0.845776	
-0.470668	0.831266	0.798219	
-0.371949	0.959293	0.777377	
-0.191342	0.53806	1	
-0.194549	0.636025	1	
-0.125573	0.58604	1	
-0.142163	0.63573	0.89494	
-0.153466	0.725651	1	
-0.217395	0.789549	1	
-0.121993	0.814118	1	
-0.11576	0.747665	0.899003	
0.259634	0.890927	1	
0.36821	0.862229	0.899925	
0.301328	0.82727	1	
0.248837	0.902557	0.889756	
0.287428	0.80533	0.842537	
0.175884	0.803375	0.889741	
0.216076	0.69962	0.805486	
0.248978	0.726366	0.903842	
-0.0830296	0.764069	0.733505	
0.00376155	0.753357	0.785071	
0.0309435	0.691773	0.673181	
0.0014459	0.786307	0.671061	
0.428195	1.25817	0.701755	
0.333887	1.18738	0.72436	
0.380873	1.32394	0.652261	
0.302151	1.24532	0.611118	
-0.182108	1.31839	1	
-0.104053	1.31415	1	
-0.149858	1.24003	1	
-0.082655	1.28145	0.901959	
0.183156	0.725887	0.5	
0.064316	0.676662	0.5	
0.152126	0.632735	0.5	
0.166834	0.675675	0.635152	
0.176777	0.823223	0.5	
0.23097	0.904329	0.5	
0.141405	0.904892	0.5	
0.215224	0.853148	0.609812	
-0.0111034	1.32302	0.823352	
0.0835299	1.37795	0.884613	
0.0991769	1.35538	0.76662	
0.00695298	1.40388	0.759796	
-0.429162	1.25655	0.668732	
-0.386847	1.31678	0.604131	
-0.386533	1.31716	0.700258	
-0.28145	1.24879	0.622796	
0.215886	1.00836	0.878507	
0.262314	1.07918	0.800995	
0.13567	1.10909	0.864428	
0.230545	1.11436	0.899122	
0.322164	0.745112	1	
0.386505	0.682803	0.931175	
0.261819	0.680973	1	
0.248978	0.726366	0.903842	
0.262314	1.07918	0.800995	
0.188892	1.15001	0.759985	
0.13567	1.10909	0.864428	
0.230545	1.11436	0.899122	
0.174678	1.4685	0.817109	
0.0991769	1.35538	0.76662	
0.168734	1.47067	0.701781	
0.202645	1.34448	0.765823	
-0.33007	1.27363	1	
-0.317937	1.3859	0.934362	
-0.265836	1.3303	1	
-0.254431	1.30452	0.892066	
0.316847	1.38679	0.698616	
0.278791	1.29194	0.808109	
0.317206	1.3865	0.799678	
0.202645	1.34448	0.765823	
0.5	1	0.6	
0.493389	1.08104	0.64715	
0.495293	1.06845	0.568597	
0.38174	0.996023	0.618569	
0.302677	1.24769	1	
0.257371	1.14566	1	
0.195163	1.21982	1	
0.193121	1.21116	0.891371	
-0.493437	0.919252	0.845776	
-0.5	1	0.8	
-0.5	1	0.9	
-0.385003	0.984343	0.895239	
-0.0979281	1.49032	0.75908	
-0.0833019	1.49301	0.655211	
0	1.5	0.7	
-0.0867584	1.36717	0.731965	
0.175091	0.697234	1	
0.206639	0.624902	1	
0.160008	0.641459	0.892261	
0.248978	0.726366	0.903842	
-0.5	1	0.7	
-0.5	1	0.8	
-0.492649	0.914576	0.748597	
-0.371949	0.959293	0.777377	
-0.122575	1.07331	1	
-0.0551398	1.05013	0.899099	
-0.0585581	0.999611	1	
-0.10341	0.960236	0.912939	
0.369516	1.15306	0.5	
0.274113	1.18316	0.5	
0.358556	1.12901	0.622438	
0.302151	1.24532	0.611118	
-0.191342	0.53806	1	
-0.125573	0.58604	1	
-0.144862	0.521445	0.921652	
-0.142163	0.63573	0.89494	
0.0165433	0.957567	0.5	
0.0631871	0.946434	0.577068	
0.0691997	1.04586	0.5	
-0.0230921	1.05776	0.595963	
0.376757	1.32872	0.746468	
0.428195	1.25817	0.701755	
0.4284	1.25782	0.795024	
0.333887	1.18738	0.72436	
-0.176777	1.17678	0.5	
-0.23097	1.09567	0.5	
-0.117202	1.0938	0.5	
-0.147604	1.13485	0.630599	
0.287378	0.983941	1	
0.344935	0.908506	1	
0.259634	0.890927	1	
0.248837	0.902557	0.889756	
-0.386559	1.31713	0.911838	
-0.386405	1.31732	0.798513	
-0.324048	1.38078	0.849851	
-0.254431	1.30452	0.892066	
0.287378	0.983941	1	
0.198196	0.963699	1	
0.226913	1.05511	1	
0.215886	1.00836	0.878507	
0.134677	1.30158	1	
0.214716	1.29378	1	
0.195163	1.21982	1	
0.193121	1.21116	0.891371	
-0.176777	0.823223	0.5	
-0.0892911	0.866366	0.5	
-0.157632	0.894674	0.5	
-0.105125	0.905315	0.589497	
0.261819	0.680973	1	
0.386505	0.682803	0.931175	
0.317233	0.613524	0.909527	
0.248978	0.726366	0.903842	
0.228991	1.44448	0.908099	
0.122568	1.39751	1	
0.201148	1.36807	1	
0.191342	1.46194	1	
0.267628	1.19145	0.824346	
0.176308	1.30549	0.856004	
0.193121	1.21116	0.891371	
0.278791	1.29194	0.808109	
-0.256028	1.42948	0.708421	
-0.3284	1.37703	0.756783	
-0.332191	1.3737	0.665943	
-0.271071	1.28122	0.731982	
0.439458	0.761512	0.575692	
0.347453	0.767839	0.5	
0.388274	0.684971	0.579193	
0.366244	0.831981	0.604187	
0.337852	1.21393	0.901789	
0.262414	1.28412	0.908895	
0.267628	1.19145	0.824346	
0.193121	1.21116	0.891371	
-0.427161	0.957142	1	
-0.345102	0.953927	1	
-0.396617	0.880856	1	
-0.385003	0.984343	0.895239	
0.183156	1.27411	0.5	
0.0956709	1.23097	0.5	
0.125807	1.18828	0.618322	
0.197701	1.26759	0.618397	
0.0376698	1.41981	1	
0.0728232	1.49467	0.926459	
0.122568	1.39751	1	
0.0835299	1.37795	0.884613	
0.0807477	0.506563	0.845776	
0.0854243	0.507351	0.748597	
0	0.5	0.8	
-0.000498869	0.611892	0.760268	
0.118763	0.611014	1	
0.0374329	0.572928	1	
0.0152702	0.660767	1	
0.0321461	0.626308	0.873516	
0.495293	1.06845	0.568597	
0.409849	1.08152	0.5	
0.398221	1	0.5	
0.38174	0.996023	0.618569	
0.166834	0.675675	0.635152	
0.115192	0.637967	0.754396	
0.0309435	0.691773	0.673181	
0.0872942	0.606698	0.613217	
-0.154491	0.98059	1	
-0.186081	0.888066	1	
-0.208534	0.966027	0.877319	
-0.10341	0.960236	0.912939	
0.388274	0.684971	0.579193	
0.374193	0.668368	0.665357	
0.415735	0.722215	0.634138	
0.290856	0.760973	0.624503	
-0.0979281	1.49032	0.75908	
-0.0867584	1.36717	0.731965	
0	1.5	0.7	
0.00695298	1.40388	0.759796	
-0.47067	1.16873	0.798201	
-0.47591	1.15333	0.907619	
-0.493438	1.08074	0.845784	
-0.366596	1.14153	0.904615	
0.242822	0.562922	0.847009	
0.235698	0.559039	0.931431	
0.317233	0.613524	0.909527	
0.160008	0.641459	0.892261	
-0.437078	0.757178	0.847009	
-0.386792	0.683153	0.801384	
-0.434698	0.752943	0.749501	
-0.297014	0.758037	0.771096	
0.176777	1.17678	0.5	
0.183156	1.27411	0.5	
0.0956709	1.23097	0.5	
0.125807	1.18828	0.618322	
-0.149858	1.24003	1	
-0.0896492	1.16615	1	
-0.185909	1.14844	1	
-0.14568	1.20044	0.877353	
0.267628	1.19145	0.824346	
0.337852	1.21393	0.901789	
0.356074	1.09276	0.865831	
0.369343	1.17686	0.815886	
0.476114	1.15269	0.90246	
0.470916	1.16804	0.800126	
0.493012	1.0833	0.844789	
0.356074	1.09276	0.865831	
0.386505	1.3172	0.568825	
0.317233	1.38648	0.590473	
0.281092	1.28109	0.5	
0.302151	1.24532	0.611118	
0.259634	0.890927	1	
0.344935	0.908506	1	
0.301328	0.82727	1	
0.36821	0.862229	0.899925	
-0.142163	0.63573	0.89494	
-0.11576	0.747665	0.899003	
-0.206133	0.729722	0.836828	
-0.231903	0.663623	0.918546	
0.0814864	0.506685	0.652319	
0	0.5	0.6	
0	0.5	0.7	
-0.0201375	0.611237	0.611421	
0.233424	0.783671	1	
0.175091	0.697234	1	
0.175884	0.803375	0.889741	
0.248978	0.726366	0.903842	
-0.415735	0.722215	1	
-0.440961	0.764302	0.931431	
-0.376173	0.802719	1	
-0.386476	0.682767	0.909527	
0.174678	0.531505	0.682891	
0.25658	0.570854	0.66876	
0.228991	0.555519	0.591901	
0.166834	0.675675	0.635152	
-0.495012	1.07045	0.928155	
-0.47591	1.15333	0.907619	
-0.41072	1.12459	1	
-0.366596	1.14153	0.904615	
0.201148	1.36807	1	
0.272282	1.33178	1	
0.214716	1.29378	1	
0.262414	1.28412	0.908895	
0.388274	0.684971	0.579193	
0.3168	0.613169	0.604097	
0.374193	0.668368	0.665357	
0.290856	0.760973	0.624503	
-0.323338	1.06432	0.5	
-0.25	1	0.5	
-0.23097	1.09567	0.5	
-0.218908	1.02882	0.620926	
0.240959	1.14173	0.663655	
0.247079	1.26952	0.713352	
0.333887	1.18738	0.72436	
0.302151	1.24532	0.611118	
0.146853	0.522052	0.584008	
0.174678	0.531505	0.682891	
0.228991	0.555519	0.591901	
0.0872942	0.606698	0.613217	
-0.308389	0.85948	0.835633	
-0.313556	0.75907	0.879554	
-0.297014	0.758037	0.771096	
-0.228331	0.826788	0.903124	
0.132272	0.778577	1	
0.233424	0.783671	1	
0.175091	0.697234	1	
0.175884	0.803375	0.889741	
0.267628	1.19145	0.824346	
0.188892	1.15001	0.759985	
0.262314	1.07918	0.800995	
0.230545	1.11436	0.899122	
0	1.5	0.9	
0.0814864	1.49332	0.847681	
0.0728232	1.49467	0.926459	
0.0835299	1.37795	0.884613	
0	0.5	0.9	
0.0807477	0.506563	0.845776	
0	0.5	0.8	
0.0321461	0.626308	0.873516	
0.317206	0.613502	0.700322	
0.247057	0.565302	0.749501	
0.316847	0.613208	0.801384	
0.253474	0.699951	0.70471	
0.175091	0.697234	1	
0.261819	0.680973	1	
0.206639	0.624902	1	
0.248978	0.726366	0.903842	
-0.5	1	1	
-0.40408	1.03727	1	
-0.427161	0.957142	1	
-0.5	1	0.9	
0.247057	1.4347	0.750499	
0.242822	1.43708	0.652991	
0.316847	1.38679	0.698616	
0.202645	1.34448	0.765823	
0.176777	1.17678	0.5	
0.0868435	1.13736	0.5	
0.157632	1.10533	0.5	
0.125807	1.18828	0.618322	
0.240959	1.14173	0.663655	
0.333887	1.18738	0.72436	
0.358556	1.12901	0.622438	
0.302151	1.24532	0.611118	
0.388274	1.31503	0.920807	
0.272282	1.33178	1	
0.3168	1.38683	0.895903	
0.262414	1.28412	0.908895	
0.476114	1.15269	0.90246	
0.493012	1.0833	0.844789	
0.495101	1.06982	0.927621	
0.356074	1.09276	0.865831	
0.493389	0.91896	0.85285	
0.469721	0.828647	0.838334	
0.36821	0.862229	0.899925	
0.382077	0.87532	0.792977	
-0.152126	0.632735	0.5	
-0.0815241	0.590151	0.5	
-0.064316	0.676662	0.5	
-0.115668	0.660224	0.648618	
0.3168	0.613169	0.604097	
0.25658	0.570854	0.66876	
0.317206	0.613502	0.700322	
0.253474	0.699951	0.70471	
0.46194	1.19134	1	
0.439458	1.23849	0.924308	
0.476114	1.15269	0.90246	
0.378521	1.20232	1	
8.18872e-17	1.39822	0.5	
0.0704482	1.49501	0.571845	
0	1.5	0.6	
0.0232779	1.38849	0.611701	
0.168734	0.529332	0.798219	
0.0854243	0.507351	0.748597	
0.0807477	0.506563	0.845776	
0.115192	0.637967	0.754396	
-0.386559	1.31713	0.911838	
-0.317937	1.3859	0.934362	
-0.33007	1.27363	1	
-0.254431	1.30452	0.892066	
0.267628	1.19145	0.824346	
0.356074	1.09276	0.865831	
0.262314	1.07918	0.800995	
0.369343	1.17686	0.815886	
0.476114	1.15269	0.90246	
0.394936	1.1198	1	
0.46194	1.19134	1	
0.378521	1.20232	1	
0.450285	1.21736	0.855302	
0.337852	1.21393	0.901789	
0.415735	1.27779	0.865862	
0.369343	1.17686	0.815886	
0.206639	0.624902	1	
0.235698	0.559039	0.931431	
0.191342	0.53806	1	
0.118763	0.611014	1	
-0.0840558	0.819296	0.633477	
-0.18639	0.799846	0.604991	
-0.193736	0.903788	0.633349	
-0.105125	0.905315	0.589497	
0.0956709	1.23097	0.5	
0.0868435	1.13736	0.5	
0.176777	1.17678	0.5	
0.125807	1.18828	0.618322	
0.317233	0.613524	0.909527	
0.386505	0.682803	0.931175	
0.380873	0.676062	0.847739	
0.248978	0.726366	0.903842	
0.460548	0.805333	0.76567	
0.328874	0.804808	0.729739	
0.428195	0.741835	0.798245	
0.382077	0.87532	0.792977	
0.242822	1.43708	0.652991	
0.247057	1.4347	0.750499	
0.168734	1.47067	0.701781	
0.202645	1.34448	0.765823	
-0.315029	0.611726	0.579193	
-0.238488	0.560542	0.575692	
-0.232161	0.652547	0.5	
-0.245183	0.701709	0.623779	
0.476114	0.847306	0.59754	
0.450285	0.782644	0.644698	
0.470916	0.831957	0.699874	
0.366244	0.831981	0.604187	
0.388274	1.31503	0.920807	
0.302677	1.24769	1	
0.272282	1.33178	1	
0.262414	1.28412	0.908895	
-0.218034	1.05414	1	
-0.154491	0.98059	1	
-0.249134	0.962669	1	
-0.208534	0.966027	0.877319	
-0.386792	0.683153	0.801384	
-0.297014	0.758037	0.771096	
-0.437078	0.757178	0.847009	
-0.313556	0.75907	0.879554	
0.267628	1.19145	0.824346	
0.262314	1.07918	0.800995	
0.356074	1.09276	0.865831	
0.230545	1.11436	0.899122	
0.274113	1.18316	0.5	
0.302151	1.24532	0.611118	
0.281092	1.28109	0.5	
0.197701	1.26759	0.618397	
-0.317937	1.3859	0.934362	
-0.243302	1.43681	0.906373	
-0.265836	1.3303	1	
-0.254431	1.30452	0.892066	
0.493389	0.91896	0.85285	
0.5	1	0.9	
0.5	1	0.8	
0.39915	0.990133	0.906414	
0	0.5	0.6	
-0.0201375	0.611237	0.611421	
0.0814864	0.506685	0.652319	
0.0872942	0.606698	0.613217	
0.262414	1.28412	0.908895	
0.193121	1.21116	0.891371	
0.176308	1.30549	0.856004	
0.278791	1.29194	0.808109	
-0.0258184	0.833057	1	
0.0383625	0.760787	1	
-0.0578538	0.743596	1	
-0.0183257	0.793213	0.875792	
0.233424	0.783671	1	
0.301328	0.82727	1	
0.322164	0.745112	1	
0.248978	0.726366	0.903842	
0.0309435	0.691773	0.673181	
0.115192	0.637967	0.754396	
0.166834	0.675675	0.635152	
0.103438	0.745916	0.728223	
-0.0815241	0.590151	0.5	
-0.064316	0.676662	0.5	
-0.115668	0.660224	0.648618	
-0.0201375	0.611237	0.611421	
-0.386476	0.682767	0.909527	
-0.278183	0.659732	1	
-0.353553	0.646447	1	
-0.317197	0.613495	0.931175	
0.4284	0.742176	0.704976	
0.376757	0.671284	0.753532	
0.428195	0.741835	0.798245	
0.328874	0.804808	0.729739	
-0.468473	1.17474	0.682816	
-0.47067	1.16873	0.798201	
-0.492656	1.08538	0.748652	
-0.355776	1.16297	0.774979	
0.267628	1.19145	0.824346	
0.333887	1.18738	0.72436	
0.247079	1.26952	0.713352	
0.278791	1.29194	0.808109	
0.235698	0.559039	0.931431	
0.118763	0.611014	1	
0.206639	0.624902	1	
0.160008	0.641459	0.892261	
0.153328	1.47591	0.59237	
0.242822	1.43708	0.652991	
0.168734	1.47067	0.701781	
0.122935	1.34062	0.641539	
-0.363339	0.8495	0.5	
-0.274113	0.816844	0.5	
-0.323338	0.935684	0.5	
-0.377424	0.892421	0.60103	
0.259634	0.890927	1	
0.344935	0.908506	1	
0.36821	0.862229	0.899925	
0.248837	0.902557	0.889756	
0.197542	0.7915	0.711395	
0.105164	0.85062	0.744059	
0.219433	0.887973	0.783321	
0.190918	0.90269	0.690758	
0.317206	1.3865	0.799678	
0.316847	1.38679	0.698616	
0.376757	1.32872	0.746468	
0.278791	1.29194	0.808109	
0.240959	1.14173	0.663655	
0.247079	1.26952	0.713352	
0.302151	1.24532	0.611118	
0.197701	1.26759	0.618397	
-0.40408	1.03727	1	
-0.5	1	0.9	
-0.495012	1.07045	0.928155	
-0.385003	0.984343	0.895239	
0.274113	1.18316	0.5	
0.323338	1.06432	0.5	
0.369516	1.15306	0.5	
0.358556	1.12901	0.622438	
-0.0698189	0.504899	0.572379	
0	0.5	0.6	
-3.15026e-17	0.601779	0.5	
-0.0201375	0.611237	0.611421	
0.3168	1.38683	0.895903	
0.277785	1.41573	1	
0.228991	1.44448	0.908099	
0.272282	1.33178	1	
0.323338	1.06432	0.5	
0.409849	1.08152	0.5	
0.358556	1.12901	0.622438	
0.38174	0.996023	0.618569	
-0.386476	0.682767	0.909527	
-0.376173	0.802719	1	
-0.309811	0.742372	1	
-0.313556	0.75907	0.879554	
0.5	1	0.7	
0.493389	1.08104	0.64715	
0.5	1	0.6	
0.38174	0.996023	0.618569	
0.470916	0.831957	0.699874	
0.4284	0.742176	0.704976	
0.460548	0.805333	0.76567	
0.328874	0.804808	0.729739	
0.176777	1.17678	0.5	
0.183156	1.27411	0.5	
0.125807	1.18828	0.618322	
0.197701	1.26759	0.618397	
-0.168043	0.529084	0.699874	
-0.257824	0.5716	0.704976	
-0.194667	0.539452	0.76567	
-0.172711	0.659579	0.756944	
-0.386405	1.31732	0.798513	
-0.437035	1.2429	0.847369	
-0.434718	1.24702	0.749442	
-0.355776	1.16297	0.774979	
0.102037	0.944747	1	
0.0375767	1.01852	1	
0.13371	1.03748	1	
0.0803871	1.00814	0.885647	
0.122568	1.39751	1	
0.228991	1.44448	0.908099	
0.146853	1.47795	0.915992	
0.191342	1.46194	1	
0.0309435	0.691773	0.673181	
0.103438	0.745916	0.728223	
0.075477	0.809328	0.60941	
0.0014459	0.786307	0.671061	
-0.0585581	0.999611	1	
0.00587698	0.925804	1	
-0.0902369	0.906851	1	
-0.10341	0.960236	0.912939	
0.3168	1.38683	0.895903	
0.25658	1.42915	0.83124	
0.317206	1.3865	0.799678	
0.278791	1.29194	0.808109	
-0.386476	0.682767	0.909527	
-0.317197	0.613495	0.931175	
-0.323938	0.619127	0.847739	
-0.313556	0.75907	0.879554	
0.100521	1.20361	1	
0.195163	1.21982	1	
0.16533	1.13018	1	
0.193121	1.21116	0.891371	
0.316847	0.613208	0.801384	
0.376757	0.671284	0.753532	
0.317206	0.613502	0.700322	
0.253474	0.699951	0.70471	
-0.122575	1.07331	1	
-0.0585581	0.999611	1	
-0.154491	0.98059	1	
-0.10341	0.960236	0.912939	
0.5	1	0.9	
0.495101	1.06982	0.927621	
0.493012	1.0833	0.844789	
0.39915	0.990133	0.906414	
0.0728232	1.49467	0.926459	
0.146853	1.47795	0.915992	
0.122568	1.39751	1	
0.0835299	1.37795	0.884613	
-0.115668	0.660224	0.648618	
-0.0201375	0.611237	0.611421	
-0.064316	0.676662	0.5	
-0.0421997	0.724204	0.59801	
0.25	1	0.5	
0.286804	1.05056	0.632278	
0.323338	1.06432	0.5	
0.201501	1.05838	0.584156	
0.317206	0.613502	0.700322	
0.374193	0.668368	0.665357	
0.3168	0.613169	0.604097	
0.253474	0.699951	0.70471	
0.247057	0.565302	0.749501	
0.242822	0.562922	0.847009	
0.316847	0.613208	0.801384	
0.216076	0.69962	0.805486	
-0.208232	1.3886	1	
-0.182108	1.31839	1	
-0.265836	1.3303	1	
-0.254431	1.30452	0.892066	
0.0815241	1.40985	0.5	
0.064316	1.32334	0.5	
0.122935	1.34062	0.641539	
0.0232779	1.38849	0.611701	
0.388274	0.684971	0.579193	
0.347453	0.767839	0.5	
0.278087	0.721913	0.5	
0.290856	0.760973	0.624503	
0.409849	0.918476	0.5	
0.495101	0.930181	0.572379	
0.398221	1	0.5	
0.38174	0.996023	0.618569	
0.323338	1.06432	0.5	
0.286804	1.05056	0.632278	
0.23097	1.09567	0.5	
0.201501	1.05838	0.584156	
-0.296764	0.859492	1	
-0.309811	0.742372	1	
-0.376173	0.802719	1	
-0.313556	0.75907	0.879554	
0.0807477	1.49344	0.654224	
0.0854243	1.49265	0.751403	
0	1.5	0.7	
0.00695298	1.40388	0.759796	
0.166518	0.870941	1	
0.175884	0.803375	0.889741	
0.132272	0.778577	1	
0.0761281	0.822015	0.902396	
-0.064316	1.32334	0.5	
0.064316	1.32334	0.5	
8.18872e-17	1.39822	0.5	
0.0232779	1.38849	0.611701	
-0.0267938	1.0921	1	
0.0375767	1.01852	1	
-0.0585581	0.999611	1	
-0.0551398	1.05013	0.899099	
0	0.5	1	
0	0.5	0.9	
-0.0444138	0.583252	1	
0.0374329	0.572928	1	
-0.274113	1.18316	0.5	
-0.183156	1.27411	0.5	
-0.280403	1.2804	0.5	
-0.28145	1.24879	0.622796	
-0.25	1	0.5	
-0.177191	1.03636	0.5	
-0.23097	1.09567	0.5	
-0.218908	1.02882	0.620926	
-0.0915272	0.659988	1	
-0.142163	0.63573	0.89494	
-0.153466	0.725651	1	
-0.11576	0.747665	0.899003	
-0.0578538	0.743596	1	
-0.0183257	0.793213	0.875792	
0.0383625	0.760787	1	
-0.0283413	0.698633	0.90895	
0.267628	1.19145	0.824346	
0.193121	1.21116	0.891371	
0.262414	1.28412	0.908895	
0.278791	1.29194	0.808109	
0.318292	0.91002	0.672643	
0.38174	0.996023	0.618569	
0.348128	1.05074	0.719677	
0.402785	0.956541	0.723347	
0.064316	1.32334	0.5	
0.152393	1.36791	0.5	
0.0815241	1.40985	0.5	
0.122935	1.34062	0.641539	
-0.280403	1.2804	0.5	
-0.386847	1.31678	0.604131	
-0.347453	1.23216	0.5	
-0.28145	1.24879	0.622796	
-0.0808186	0.989298	0.663479	
-0.00979043	0.90873	0.615519	
0.030532	1.00082	0.661954	
-0.0365827	0.936141	0.729399	
0.37256	0.810612	1	
0.417242	0.878937	1	
0.478555	0.855138	0.921652	
0.36821	0.862229	0.899925	
0.235698	0.559039	0.931431	
0.206639	0.624902	1	
0.277785	0.584265	1	
0.317233	0.613524	0.909527	
-0.309811	0.742372	1	
-0.233276	0.710046	1	
-0.278183	0.659732	1	
-0.231903	0.663623	0.918546	
-0.309811	0.742372	1	
-0.313556	0.75907	0.879554	
-0.296764	0.859492	1	
-0.228331	0.826788	0.903124	
-0.142163	0.63573	0.89494	
-0.11576	0.747665	0.899003	
-0.0915272	0.659988	1	
-0.0283413	0.698633	0.90895	
-0.477948	0.853147	0.584008	
-0.444481	0.771009	0.591901	
-0.363339	0.8495	0.5	
-0.377424	0.892421	0.60103	
-0.0258184	0.833057	1	
0.0703509	0.851998	1	
0.0383625	0.760787	1	
0.0761281	0.822015	0.902396	
-0.114443	1.01484	0.5	
-0.177191	1.03636	0.5	
-0.157632	0.968645	0.5	
-0.124649	1.04531	0.594053	
-0.064316	1.32334	0.5	
-0.183156	1.27411	0.5	
-0.0956709	1.23097	0.5	
-0.106349	1.24066	0.613882	
-0.5	1	0.9	
-0.427161	0.957142	1	
-0.495012	0.929552	0.928155	
-0.385003	0.984343	0.895239	
0.0728232	0.505332	0.573541	
0.0815241	0.590151	0.5	
-3.15026e-17	0.601779	0.5	
0.0872942	0.606698	0.613217	
-0.386847	1.31678	0.604131	
-0.314941	1.38835	0.579801	
-0.332191	1.3737	0.665943	
-0.28145	1.24879	0.622796	
-0.437035	1.2429	0.847369	
-0.47067	1.16873	0.798201	
-0.355776	1.16297	0.774979	
-0.366596	1.14153	0.904615	
-0.183156	1.27411	0.5	
-0.176777	1.17678	0.5	
-0.0956709	1.23097	0.5	
-0.106349	1.24066	0.613882	
0.16533	1.13018	1	
0.257371	1.14566	1	
0.230545	1.11436	0.899122	
0.193121	1.21116	0.891371	
0.176777	1.17678	0.5	
0.274113	1.18316	0.5	
0.183156	1.27411	0.5	
0.197701	1.26759	0.618397	
0.317206	0.613502	0.700322	
0.25658	0.570854	0.66876	
0.247057	0.565302	0.749501	
0.253474	0.699951	0.70471	
0.287378	0.983941	1	
0.259634	0.890927	1	
0.198196	0.963699	1	
0.248837	0.902557	0.889756	
-0.064316	0.676662	0.5	
-0.0201375	0.611237	0.611421	
0.064316	0.676662	0.5	
-0.0421997	0.724204	0.59801	
0.476114	1.15269	0.90246	
0.450285	1.21736	0.855302	
0.470916	1.16804	0.800126	
0.369343	1.17686	0.815886	
0.460548	1.19467	0.73433	
0.428195	1.25817	0.701755	
0.469721	1.17135	0.661666	
0.333887	1.18738	0.72436	
0.168734	1.47067	0.701781	
0.174678	1.4685	0.817109	
0.0854243	1.49265	0.751403	
0.0991769	1.35538	0.76662	
-0.167464	1.47112	0.699894	
-0.152637	1.47613	0.597671	
-0.0833019	1.49301	0.655211	
-0.0927842	1.36919	0.612233	
-3.15026e-17	0.601779	0.5	
0.064316	0.676662	0.5	
-0.064316	0.676662	0.5	
-0.0201375	0.611237	0.611421	
-0.323338	1.06432	0.5	
-0.409849	1.08152	0.5	
-0.397525	1	0.5	
-0.378892	1.09874	0.625908	
-0.332191	1.3737	0.665943	
-0.386533	1.31716	0.700258	
-0.386847	1.31678	0.604131	
-0.28145	1.24879	0.622796	
0.174678	1.4685	0.817109	
0.168734	1.47067	0.701781	
0.247057	1.4347	0.750499	
0.202645	1.34448	0.765823	
0.0309435	0.691773	0.673181	
-0.0201375	0.611237	0.611421	
-0.115668	0.660224	0.648618	
-0.0421997	0.724204	0.59801	
0.415735	0.722215	1	
0.386505	0.682803	0.931175	
0.322164	0.745112	1	
0.436762	0.756609	0.903062	
0.5	1	0.6	
0.495101	0.930181	0.572379	
0.493012	0.916698	0.655211	
0.38174	0.996023	0.618569	
-0.243302	1.43681	0.906373	
-0.324048	1.38078	0.849851	
-0.258315	1.4281	0.803104	
-0.254431	1.30452	0.892066	
0.25658	1.42915	0.83124	
0.317206	1.3865	0.799678	
0.278791	1.29194	0.808109	
0.202645	1.34448	0.765823	
-0.258165	0.571805	0.798245	
-0.323938	0.619127	0.847739	
-0.243391	0.563238	0.903062	
-0.231903	0.663623	0.918546	
0.378521	1.20232	1	
0.415735	1.27779	1	
0.439458	1.23849	0.924308	
0.337852	1.21393	0.901789	
-3.15026e-17	0.601779	0.5	
0.064316	0.676662	0.5	
-0.0201375	0.611237	0.611421	
0.0872942	0.606698	0.613217	
-0.0183257	0.793213	0.875792	
-0.0706186	0.688282	0.818117	
0.00376155	0.753357	0.785071	
-0.0283413	0.698633	0.90895	
0.0376698	1.41981	1	
-0.0411619	1.43035	1	
0	1.5	1	
0	1.5	0.9	
-0.492649	0.914576	0.748597	
-0.5	1	0.8	
-0.493437	0.919252	0.845776	
-0.371949	0.959293	0.777377	
-0.183156	0.725887	0.5	
-0.274113	0.816844	0.5	
-0.281585	0.718415	0.5	
-0.18639	0.799846	0.604991	
0.323338	1.06432	0.5	
0.323338	0.935684	0.5	
0.398221	1	0.5	
0.38174	0.996023	0.618569	
0.428195	1.25817	0.701755	
0.380873	1.32394	0.652261	
0.436762	1.24339	0.596938	
0.302151	1.24532	0.611118	
0.436762	0.756609	0.903062	
0.322164	0.745112	1	
0.415735	0.722215	1	
0.37256	0.810612	1	
0.317233	0.613524	0.909527	
0.206639	0.624902	1	
0.277785	0.584265	1	
0.261819	0.680973	1	
0.358556	1.12901	0.622438	
0.38174	0.996023	0.618569	
0.348128	1.05074	0.719677	
0.286804	1.05056	0.632278	
0.267628	1.19145	0.824346	
0.262414	1.28412	0.908895	
0.337852	1.21393	0.901789	
0.278791	1.29194	0.808109	
-0.0369856	0.814061	0.5	
-0.0956709	0.76903	0.5	
0	0.75	0.5	
-0.0421997	0.724204	0.59801	
-0.386498	0.682794	0.700322	
-0.386792	0.683153	0.801384	
-0.328716	0.623243	0.753532	
-0.297014	0.758037	0.771096	
-0.167464	1.47112	0.699894	
-0.0833019	1.49301	0.655211	
-0.0979281	1.49032	0.75908	
-0.0867584	1.36717	0.731965	
-0.386476	0.682767	0.909527	
-0.376173	0.802719	1	
-0.415735	0.722215	1	
-0.309811	0.742372	1	
-0.144862	0.521445	0.921652	
-0.0810399	0.506611	0.85285	
-0.171353	0.530279	0.838334	
-0.142163	0.63573	0.89494	
0.5	1	0.7	
0.5	1	0.6	
0.493012	0.916698	0.655211	
0.38174	0.996023	0.618569	
0.0956709	0.76903	0.5	
0.103403	0.84471	0.5	
0.0344957	0.828097	0.5	
0.075477	0.809328	0.60941	
0.353553	0.646447	0.5	
0.388274	0.684971	0.579193	
0.278087	0.721913	0.5	
0.3168	0.613169	0.604097	
-0.0411619	1.43035	1	
-0.119808	1.39485	1	
-0.0690617	1.49521	0.93079	
-0.0684719	1.38599	0.898819	
-0.153466	0.725651	1	
-0.142163	0.63573	0.89494	
-0.194549	0.636025	1	
-0.231903	0.663623	0.918546	
0.064316	1.32334	0.5	
0	1.25	0.5	
0.0956709	1.23097	0.5	
0.0261041	1.21709	0.59722	
-0.243391	0.563238	0.903062	
-0.194549	0.636025	1	
-0.191342	0.53806	1	
-0.142163	0.63573	0.89494	
0.183156	1.27411	0.5	
0.232161	1.34745	0.5	
0.152393	1.36791	0.5	
0.197701	1.26759	0.618397	
-0.444497	1.22896	0.591906	
-0.468473	1.17474	0.682816	
-0.477722	1.14759	0.583558	
-0.378892	1.09874	0.625908	
0.388274	1.31503	0.920807	
0.337852	1.21393	0.901789	
0.302677	1.24769	1	
0.262414	1.28412	0.908895	
0.0645888	1.34627	1	
0.0376698	1.41981	1	
0.122568	1.39751	1	
0.0835299	1.37795	0.884613	
0.25	1	0.5	
0.323338	1.06432	0.5	
0.23097	1.09567	0.5	
0.201501	1.05838	0.584156	
0.0728232	0.505332	0.573541	
-0.0201375	0.611237	0.611421	
0	0.5	0.6	
0.0872942	0.606698	0.613217	
0.470916	0.831957	0.699874	
0.382077	0.87532	0.792977	
0.490343	0.902203	0.758774	
0.402785	0.956541	0.723347	
0	0.5	0.9	
0.0704482	0.504988	0.928155	
0.0807477	0.506563	0.845776	
0.0321461	0.626308	0.873516	
0.360576	0.998064	1	
0.421425	0.957658	1	
0.344935	0.908506	1	
0.39915	0.990133	0.906414	
0.323338	0.935684	0.5	
0.365104	0.848769	0.5	
0.409849	0.918476	0.5	
0.366244	0.831981	0.604187	
0.183156	1.27411	0.5	
0.274113	1.18316	0.5	
0.281092	1.28109	0.5	
0.197701	1.26759	0.618397	
0.261819	0.680973	1	
0.353553	0.646447	1	
0.317233	0.613524	0.909527	
0.386505	0.682803	0.931175	
-0.185909	1.14844	1	
-0.279278	1.1257	1	
-0.250247	1.23307	1	
-0.2429	1.12372	0.891069	
-0.278183	0.659732	1	
-0.309811	0.742372	1	
-0.386476	0.682767	0.909527	
-0.353553	0.646447	1	
-0.353553	1.35355	0.5	
-0.280403	1.2804	0.5	
-0.314941	1.38835	0.579801	
-0.386847	1.31678	0.604131	
0.5	1	0.9	
0.421425	0.957658	1	
0.5	1	1	
0.39915	0.990133	0.906414	
0.4284	1.25782	0.795024	
0.333887	1.18738	0.72436	
0.460548	1.19467	0.73433	
0.369343	1.17686	0.815886	
0.16533	1.13018	1	
0.195163	1.21982	1	
0.257371	1.14566	1	
0.193121	1.21116	0.891371	
0.174678	1.4685	0.817109	
0.146853	1.47795	0.915992	
0.0814864	1.49332	0.847681	
0.0835299	1.37795	0.884613	
0.369516	1.15306	0.5	
0.347453	1.23216	0.5	
0.274113	1.18316	0.5	
0.302151	1.24532	0.611118	
-0.180037	1.30947	0.668767	
-0.271071	1.28122	0.731982	
-0.28145	1.24879	0.622796	
-0.206572	1.20934	0.689284	
-0.386792	0.683153	0.801384	
-0.386498	0.682794	0.700322	
-0.434698	0.752943	0.749501	
-0.297014	0.758037	0.771096	
0.421425	0.957658	1	
0.422937	1.04242	1	
0.5	1	1	
0.39915	0.990133	0.906414	
-0.309811	0.742372	1	
-0.296764	0.859492	1	
-0.217395	0.789549	1	
-0.228331	0.826788	0.903124	
-0.104053	1.31415	1	
-0.0684719	1.38599	0.898819	
-0.0261261	1.3467	1	
-0.082655	1.28145	0.901959	
-0.243391	0.563238	0.903062	
-0.191342	0.53806	1	
-0.144862	0.521445	0.921652	
-0.142163	0.63573	0.89494	
0.439458	1.23849	0.924308	
0.415735	1.27779	0.865862	
0.450285	1.21736	0.855302	
0.337852	1.21393	0.901789	
-0.315029	0.611726	0.579193	
-0.281585	0.718415	0.5	
-0.353553	0.646447	0.5	
-0.386831	0.6832	0.604097	
0.166518	0.870941	1	
0.132272	0.778577	1	
0.0703509	0.851998	1	
0.0761281	0.822015	0.902396	
-0.477722	1.14759	0.583558	
-0.409849	1.08152	0.5	
-0.363339	1.1505	0.5	
-0.378892	1.09874	0.625908	
-0.0578538	0.743596	1	
-0.11576	0.747665	0.899003	
-0.0183257	0.793213	0.875792	
-0.0283413	0.698633	0.90895	
0.374193	1.33163	0.834643	
0.262414	1.28412	0.908895	
0.3168	1.38683	0.895903	
0.278791	1.29194	0.808109	
0.369516	1.15306	0.5	
0.409849	1.08152	0.5	
0.478555	1.14486	0.578348	
0.358556	1.12901	0.622438	
-0.19416	1.46076	0.765941	
-0.167464	1.47112	0.699894	
-0.0979281	1.49032	0.75908	
-0.0867584	1.36717	0.731965	
0.247057	0.565302	0.749501	
0.174678	0.531505	0.682891	
0.168734	0.529332	0.798219	
0.115192	0.637967	0.754396	
-0.217395	0.789549	1	
-0.186081	0.888066	1	
-0.121993	0.814118	1	
-0.228331	0.826788	0.903124	
0.493389	1.08104	0.64715	
0.469721	1.17135	0.661666	
0.478555	1.14486	0.578348	
0.358556	1.12901	0.622438	
-0.0218546	0.89013	0.5	
0.0165433	0.957567	0.5	
-0.00979043	0.90873	0.615519	
0.0631871	0.946434	0.577068	
0.00512645	1.18472	1	
0.0692432	1.11129	1	
-0.0267938	1.0921	1	
0.0362445	1.10288	0.900124	
0.450285	0.782644	0.644698	
0.439458	0.761512	0.575692	
0.415735	0.722215	0.634138	
0.366244	0.831981	0.604187	
0.302677	1.24769	1	
0.331919	1.15546	1	
0.257371	1.14566	1	
0.337852	1.21393	0.901789	
0.5	1	0.7	
0.38174	0.996023	0.618569	
0.493012	0.916698	0.655211	
0.402785	0.956541	0.723347	
0.353553	0.646447	1	
0.261819	0.680973	1	
0.322164	0.745112	1	
0.386505	0.682803	0.931175	
0.376757	0.671284	0.753532	
0.374193	0.668368	0.665357	
0.317206	0.613502	0.700322	
0.253474	0.699951	0.70471	
-0.0706186	0.688282	0.818117	
-0.11576	0.747665	0.899003	
-0.142163	0.63573	0.89494	
-0.0283413	0.698633	0.90895	
0.436762	0.756609	0.903062	
0.37256	0.810612	1	
0.478555	0.855138	0.921652	
0.36821	0.862229	0.899925	
0.388274	1.31503	0.920807	
0.3168	1.38683	0.895903	
0.374193	1.33163	0.834643	
0.262414	1.28412	0.908895	
-0.281585	0.718415	0.5	
-0.315029	0.611726	0.579193	
-0.232161	0.652547	0.5	
-0.245183	0.701709	0.623779	
0.166518	0.870941	1	
0.198196	0.963699	1	
0.259634	0.890927	1	
0.248837	0.902557	0.889756	
-0.238625	1.43938	0.576642	
-0.151231	1.3651	0.5	
-0.191342	1.46194	0.5	
-0.152637	1.47613	0.597671	
0.185939	0.963014	0.5	
0.25	1	0.5	
0.163502	1.02984	0.5	
0.201501	1.05838	0.584156	
0.421425	0.957658	1	
0.5	1	0.9	
0.495293	0.931554	0.931403	
0.39915	0.990133	0.906414	
-0.154491	0.98059	1	
-0.186081	0.888066	1	
-0.249134	0.962669	1	
-0.208534	0.966027	0.877319	
-0.40408	1.03727	1	
-0.5	1	1	
-0.495012	1.07045	0.928155	
-0.5	1	0.9	
-0.440961	1.2357	0.931396	
-0.41072	1.12459	1	
-0.47591	1.15333	0.907619	
-0.366596	1.14153	0.904615	
-0.47591	0.846672	0.90763	
-0.440961	0.764302	0.931431	
-0.376173	0.802719	1	
-0.46194	0.808658	1	
-0.0915272	0.659988	1	
0.0152702	0.660767	1	
-0.0444138	0.583252	1	
-0.0283413	0.698633	0.90895	
0.478555	1.14486	0.578348	
0.436762	1.24339	0.596938	
0.46194	1.19134	0.5	
0.369516	1.15306	0.5	
0.4284	0.742176	0.704976	
0.428195	0.741835	0.798245	
0.460548	0.805333	0.76567	
0.328874	0.804808	0.729739	
0.0692432	1.11129	1	
0.0375767	1.01852	1	
-0.0267938	1.0921	1	
0.0362445	1.10288	0.900124	
0.272282	1.33178	1	
0.388274	1.31503	0.920807	
0.3168	1.38683	0.895903	
0.353553	1.35355	1	
0.409849	0.918476	0.5	
0.365104	0.848769	0.5	
0.476114	0.847306	0.59754	
0.366244	0.831981	0.604187	
-0.47591	0.846672	0.90763	
-0.376173	0.802719	1	
-0.396617	0.880856	1	
-0.46194	0.808658	1	
0.478555	0.855138	0.921652	
0.493389	0.91896	0.85285	
0.469721	0.828647	0.838334	
0.36821	0.862229	0.899925	
0.46194	0.808658	1	
0.478555	0.855138	0.921652	
0.37256	0.810612	1	
0.417242	0.878937	1	
0.326547	1.07249	1	
0.226913	1.05511	1	
0.257371	1.14566	1	
0.230545	1.11436	0.899122	
0	0.5	0.9	
-0.0684459	0.504707	0.931403	
0	0.5	1	
-0.0444138	0.583252	1	
-0.152694	0.523886	0.59754	
-0.152126	0.632735	0.5	
-0.191342	0.53806	0.5	
-0.238488	0.560542	0.575692	
0.0309435	0.691773	0.673181	
0.00376155	0.753357	0.785071	
0.103438	0.745916	0.728223	
0.0014459	0.786307	0.671061	
-0.0706186	0.688282	0.818117	
-0.0183257	0.793213	0.875792	
-0.11576	0.747665	0.899003	
-0.0283413	0.698633	0.90895	
0.0807477	1.49344	0.654224	
0	1.5	0.7	
0	1.5	0.6	
0.0232779	1.38849	0.611701	
-0.14499	1.47852	0.92371	
-0.171627	1.46962	0.839884	
-0.0811073	1.49338	0.853007	
-0.0684719	1.38599	0.898819	
0.5	1	0.9	
0.5	1	1	
0.422937	1.04242	1	
0.39915	0.990133	0.906414	
-0.0218546	0.89013	0.5	
0.0634445	0.898618	0.5	
0.0165433	0.957567	0.5	
0.0631871	0.946434	0.577068	
-0.415735	1.27779	1	
-0.386559	1.31713	0.911838	
-0.33007	1.27363	1	
-0.440961	1.2357	0.931396	
-0.315029	0.611726	0.579193	
-0.386831	0.6832	0.604097	
-0.331632	0.625807	0.665357	
-0.245183	0.701709	0.623779	
0.153328	0.52409	0.90763	
0.191342	0.53806	1	
0.235698	0.559039	0.931431	
0.118763	0.611014	1	
-0.477948	0.853147	0.584008	
-0.468495	0.825322	0.682891	
-0.444481	0.771009	0.591901	
-0.377424	0.892421	0.60103	
-0.440961	1.2357	0.931396	
-0.357396	1.18789	1	
-0.41072	1.12459	1	
-0.366596	1.14153	0.904615	
0.101275	0.91604	0.653562	
-0.00979043	0.90873	0.615519	
0.030532	1.00082	0.661954	
0.0631871	0.946434	0.577068	
0.247057	1.4347	0.750499	
0.316847	1.38679	0.698616	
0.317206	1.3865	0.799678	
0.202645	1.34448	0.765823	
-0.151231	1.3651	0.5	
-0.0815241	1.40985	0.5	
-0.152637	1.47613	0.597671	
-0.0927842	1.36919	0.612233	
-0.353553	1.35355	1	
-0.265836	1.3303	1	
-0.33007	1.27363	1	
-0.317937	1.3859	0.934362	
-0.495208	1.06906	0.569036	
-0.5	1	0.6	
-0.5	1	0.5	
-0.397525	1	0.5	
0.0165433	0.957567	0.5	
0.0691997	1.04586	0.5	
-0.0427935	1.02817	0.5	
-0.0230921	1.05776	0.595963	
0.469721	0.828647	0.838334	
0.460548	0.805333	0.76567	
0.428195	0.741835	0.798245	
0.382077	0.87532	0.792977	
-0.397525	1	0.5	
-0.5	1	0.6	
-0.5	1	0.5	
-0.494668	0.927177	0.573541	
0.495293	1.06845	0.568597	
0.5	1	0.5	
0.5	1	0.6	
0.398221	1	0.5	
0.235698	0.559039	0.931431	
0.153328	0.52409	0.90763	
0.118763	0.611014	1	
0.160008	0.641459	0.892261	
-0.0956709	0.76903	0.5	
-0.176777	0.823223	0.5	
-0.183156	0.725887	0.5	
-0.18639	0.799846	0.604991	
0	0.5	0.7	
0	0.5	0.6	
-0.0833019	0.506988	0.655211	
-0.0201375	0.611237	0.611421	
-3.15026e-17	0.601779	0.5	
0	0.5	0.5	
0.0728232	0.505332	0.573541	
0	0.5	0.6	
0	1.5	0.6	
8.18872e-17	1.39822	0.5	
0	1.5	0.5	
0.0704482	1.49501	0.571845	
-0.47591	1.15333	0.907619	
-0.440961	1.2357	0.931396	
-0.46194	1.19134	1	
-0.41072	1.12459	1	
0.5	1	1	
0.495293	0.931554	0.931403	
0.421425	0.957658	1	
0.5	1	0.9	
-0.117202	1.0938	0.5	
0.000305103	1.09462	0.5	
-0.0392044	1.16291	0.5	
-0.0230921	1.05776	0.595963	
0.272282	1.33178	1	
0.302677	1.24769	1	
0.388274	1.31503	0.920807	
0.353553	1.35355	1	
0	0.5	0.5	
-3.15026e-17	0.601779	0.5	
-0.0698189	0.504899	0.572379	
0	0.5	0.6	
0.5	1	0.6	
0.5	1	0.5	
0.495101	0.930181	0.572379	
0.398221	1	0.5	
-0.0698146	1.4951	0.5724	
8.18872e-17	1.39822	0.5	
0	1.5	0.5	
0	1.5	0.6	
0.428195	1.25817	0.701755	
0.460548	1.19467	0.73433	
0.4284	1.25782	0.795024	
0.333887	1.18738	0.72436	
-0.00643767	0.847524	0.748532	
0.00376155	0.753357	0.785071	
-0.0830296	0.764069	0.733505	
0.0014459	0.786307	0.671061	
0.0704482	1.49501	0.571845	
8.18872e-17	1.39822	0.5	
0.0815241	1.40985	0.5	
0.0232779	1.38849	0.611701	
-0.444481	0.771009	0.591901	
-0.363339	0.8495	0.5	
-0.46194	0.808658	0.5	
-0.477948	0.853147	0.584008	
-0.265836	1.3303	1	
-0.250247	1.23307	1	
-0.33007	1.27363	1	
-0.254431	1.30452	0.892066	
-0.194667	0.539452	0.76567	
-0.257824	0.5716	0.704976	
-0.258165	0.571805	0.798245	
-0.172711	0.659579	0.756944	
0	1.5	0.8	
0.0854243	1.49265	0.751403	
0.0814864	1.49332	0.847681	
0.00695298	1.40388	0.759796	
-0.243391	0.563238	0.903062	
-0.194549	0.636025	1	
-0.142163	0.63573	0.89494	
-0.231903	0.663623	0.918546	
0.388274	1.31503	0.920807	
0.439458	1.23849	0.924308	
0.415735	1.27779	1	
0.337852	1.21393	0.901789	
-0.277785	0.584265	0.634138	
-0.315029	0.611726	0.579193	
-0.331632	0.625807	0.665357	
-0.245183	0.701709	0.623779	
-0.477722	1.14759	0.583558	
-0.363339	1.1505	0.5	
-0.46194	1.19134	0.5	
-0.444497	1.22896	0.591906	
-0.0811073	1.49338	0.853007	
0	1.5	0.9	
-0.0690617	1.49521	0.93079	
-0.0684719	1.38599	0.898819	
-0.477722	1.14759	0.583558	
-0.495208	1.06906	0.569036	
-0.409849	1.08152	0.5	
-0.378892	1.09874	0.625908	
-0.119808	1.39485	1	
-0.0690617	1.49521	0.93079	
-0.0975452	1.49039	1	
-0.0411619	1.43035	1	
-0.153466	0.725651	1	
-0.0915272	0.659988	1	
-0.194549	0.636025	1	
-0.142163	0.63573	0.89494	
0.353553	1.35355	0.5	
0.281092	1.28109	0.5	
0.386505	1.3172	0.568825	
0.317233	1.38648	0.590473	
-0.064316	0.676662	0.5	
0.064316	0.676662	0.5	
0	0.75	0.5	
-0.0421997	0.724204	0.59801	
0.323338	1.06432	0.5	
0.398221	1	0.5	
0.409849	1.08152	0.5	
0.38174	0.996023	0.618569	
0.0815241	0.590151	0.5	
0.146853	0.522052	0.584008	
0.152126	0.632735	0.5	
0.0872942	0.606698	0.613217	
-0.386559	1.31713	0.911838	
-0.353553	1.35355	1	
-0.33007	1.27363	1	
-0.317937	1.3859	0.934362	
0.4284	1.25782	0.795024	
0.450285	1.21736	0.855302	
0.415735	1.27779	0.865862	
0.369343	1.17686	0.815886	
-0.493437	0.919252	0.845776	
-0.5	1	0.9	
-0.495012	0.929552	0.928155	
-0.385003	0.984343	0.895239	
0.232161	0.652547	0.5	
0.183156	0.725887	0.5	
0.152126	0.632735	0.5	
0.166834	0.675675	0.635152	
-0.386405	1.31732	0.798513	
-0.386533	1.31716	0.700258	
-0.3284	1.37703	0.756783	
-0.271071	1.28122	0.731982	
0.214716	1.29378	1	
0.262414	1.28412	0.908895	
0.195163	1.21982	1	
0.193121	1.21116	0.891371	
-0.0392044	1.16291	0.5	
0.028723	1.17517	0.5	
0	1.25	0.5	
0.0261041	1.21709	0.59722	
-3.15026e-17	0.601779	0.5	
-0.0815241	0.590151	0.5	
-0.0698189	0.504899	0.572379	
-0.0201375	0.611237	0.611421	
-0.357396	1.18789	1	
-0.415735	1.27779	1	
-0.33007	1.27363	1	
-0.440961	1.2357	0.931396	
-0.437035	1.2429	0.847369	
-0.47591	1.15333	0.907619	
-0.47067	1.16873	0.798201	
-0.366596	1.14153	0.904615	
-0.154491	0.98059	1	
-0.0902369	0.906851	1	
-0.186081	0.888066	1	
-0.10341	0.960236	0.912939	
0.5	1	0.9	
0.422937	1.04242	1	
0.495101	1.06982	0.927621	
0.39915	0.990133	0.906414	
0.274113	0.816844	0.5	
0.290856	0.760973	0.624503	
0.347453	0.767839	0.5	
0.366244	0.831981	0.604187	
-0.31121	1.03591	1	
-0.345102	0.953927	1	
-0.40408	1.03727	1	
-0.385003	0.984343	0.895239	
0.146853	0.522052	0.584008	
0.228991	0.555519	0.591901	
0.191342	0.53806	0.5	
0.152126	0.632735	0.5	
0.439458	0.761512	0.575692	
0.46194	0.808658	0.5	
0.365104	0.848769	0.5	
0.366244	0.831981	0.604187	
-0.0267938	1.0921	1	
-0.0585581	0.999611	1	
-0.122575	1.07331	1	
-0.0551398	1.05013	0.899099	
-0.14499	1.47852	0.92371	
-0.0690617	1.49521	0.93079	
-0.119808	1.39485	1	
-0.0684719	1.38599	0.898819	
0.469721	1.17135	0.661666	
0.436762	1.24339	0.596938	
0.478555	1.14486	0.578348	
0.358556	1.12901	0.622438	
0.0728232	0.505332	0.573541	
0	0.5	0.6	
0.0814864	0.506685	0.652319	
0.0872942	0.606698	0.613217	
-0.386476	0.682767	0.909527	
-0.323938	0.619127	0.847739	
-0.386792	0.683153	0.801384	
-0.313556	0.75907	0.879554	
-0.46194	1.19134	1	
-0.440961	1.2357	0.931396	
-0.357396	1.18789	1	
-0.41072	1.12459	1	
0.46194	0.808658	1	
0.478555	0.855138	0.921652	
0.436762	0.756609	0.903062	
0.37256	0.810612	1	
-0.104053	1.31415	1	
-0.0261261	1.3467	1	
-0.0537386	1.25516	1	
-0.082655	1.28145	0.901959	
0.233424	0.783671	1	
0.132272	0.778577	1	
0.166518	0.870941	1	
0.175884	0.803375	0.889741	
0.476114	0.847306	0.59754	
0.365104	0.848769	0.5	
0.46194	0.808658	0.5	
0.366244	0.831981	0.604187	
0.0376698	1.41981	1	
0.122568	1.39751	1	
0.0728232	1.49467	0.926459	
0.0975452	1.49039	1	
-0.493315	0.918514	0.652319	
-0.468495	0.825322	0.682891	
-0.477948	0.853147	0.584008	
-0.377424	0.892421	0.60103	
-0.274113	0.816844	0.5	
-0.183156	0.725887	0.5	
-0.176777	0.823223	0.5	
-0.18639	0.799846	0.604991	
-0.0977967	0.509657	0.758774	
0	0.5	0.8	
0	0.5	0.7	
-0.000498869	0.611892	0.760268	
0.439458	0.761512	0.575692	
0.476114	0.847306	0.59754	
0.46194	0.808658	0.5	
0.366244	0.831981	0.604187	
-0.434718	1.24702	0.749442	
-0.47067	1.16873	0.798201	
-0.468473	1.17474	0.682816	
-0.355776	1.16297	0.774979	
0.386505	1.3172	0.568825	
0.380873	1.32394	0.652261	
0.317233	1.38648	0.590473	
0.302151	1.24532	0.611118	
0.168734	0.529332	0.798219	
0.174678	0.531505	0.682891	
0.0854243	0.507351	0.748597	
0.115192	0.637967	0.754396	
-0.0537386	1.25516	1	
-0.149858	1.24003	1	
-0.104053	1.31415	1	
-0.082655	1.28145	0.901959	
-0.5	1	1	
-0.427161	0.957142	1	
-0.495012	0.929552	0.928155	
-0.5	1	0.9	
-0.233276	0.710046	1	
-0.153466	0.725651	1	
-0.194549	0.636025	1	
-0.231903	0.663623	0.918546	
-0.0578538	0.743596	1	
-0.0915272	0.659988	1	
-0.11576	0.747665	0.899003	
-0.0283413	0.698633	0.90895	
0.347453	1.23216	0.5	
0.436762	1.24339	0.596938	
0.386505	1.3172	0.568825	
0.302151	1.24532	0.611118	
-0.386533	1.31716	0.700258	
-0.332191	1.3737	0.665943	
-0.3284	1.37703	0.756783	
-0.271071	1.28122	0.731982	
0.470916	0.831957	0.699874	
0.490343	0.902203	0.758774	
0.493012	0.916698	0.655211	
0.402785	0.956541	0.723347	
0.495293	0.931554	0.931403	
0.5	1	0.9	
0.493389	0.91896	0.85285	
0.39915	0.990133	0.906414	
0.278087	0.721913	0.5	
0.232161	0.652547	0.5	
0.353553	0.646447	0.5	
0.3168	0.613169	0.604097	
0.175091	0.697234	1	
0.118763	0.611014	1	
0.097631	0.704268	1	
0.160008	0.641459	0.892261	
-0.265836	1.3303	1	
-0.182108	1.31839	1	
-0.250247	1.23307	1	
-0.254431	1.30452	0.892066	
0.0956709	1.23097	0.5	
0	1.25	0.5	
0.028723	1.17517	0.5	
0.0261041	1.21709	0.59722	
-0.0261261	1.3467	1	
-0.104053	1.31415	1	
-0.119808	1.39485	1	
-0.0684719	1.38599	0.898819	
-0.477722	1.14759	0.583558	
-0.493066	1.08298	0.651653	
-0.495208	1.06906	0.569036	
-0.378892	1.09874	0.625908	
-0.0698146	1.4951	0.5724	
-0.152637	1.47613	0.597671	
-0.0815241	1.40985	0.5	
-0.0927842	1.36919	0.612233	
0.365104	0.848769	0.5	
0.347453	0.767839	0.5	
0.439458	0.761512	0.575692	
0.366244	0.831981	0.604187	
-0.280403	1.2804	0.5	
-0.353553	1.35355	0.5	
-0.347453	1.23216	0.5	
-0.386847	1.31678	0.604131	
-0.0578538	0.743596	1	
-0.0915272	0.659988	1	
-0.153466	0.725651	1	
-0.11576	0.747665	0.899003	
-0.427161	0.957142	1	
-0.396617	0.880856	1	
-0.490393	0.902455	1	
-0.495012	0.929552	0.928155	
0.323338	0.935684	0.5	
0.409849	0.918476	0.5	
0.398221	1	0.5	
0.38174	0.996023	0.618569	
-0.347453	0.767839	0.5	
-0.353553	0.646447	0.5	
-0.281585	0.718415	0.5	
-0.386831	0.6832	0.604097	
0.191342	1.46194	0.5	
0.235698	1.44096	0.568569	
0.153328	1.47591	0.59237	
0.152393	1.36791	0.5	
-0.218034	1.05414	1	
-0.279278	1.1257	1	
-0.185909	1.14844	1	
-0.2429	1.12372	0.891069	
0.122568	1.39751	1	
0.0728232	1.49467	0.926459	
0.0975452	1.49039	1	
0.146853	1.47795	0.915992	
0.0975452	0.509607	1	
0.0374329	0.572928	1	
0.118763	0.611014	1	
0.0704482	0.504988	0.928155	
0.388274	1.31503	0.920807	
0.415735	1.27779	0.865862	
0.439458	1.23849	0.924308	
0.337852	1.21393	0.901789	
0.176777	0.823223	0.5	
0.274113	0.816844	0.5	
0.23097	0.904329	0.5	
0.215224	0.853148	0.609812	
-0.0411619	1.43035	1	
-0.0690617	1.49521	0.93079	
0	1.5	1	
0	1.5	0.9	
-0.125573	0.58604	1	
-0.194549	0.636025	1	
-0.0915272	0.659988	1	
-0.142163	0.63573	0.89494	
0.174678	1.4685	0.817109	
0.247057	1.4347	0.750499	
0.25658	1.42915	0.83124	
0.202645	1.34448	0.765823	
-0.409849	0.918476	0.5	
-0.323338	0.935684	0.5	
-0.397525	1	0.5	
-0.377424	0.892421	0.60103	
0.281092	1.28109	0.5	
0.232161	1.34745	0.5	
0.183156	1.27411	0.5	
0.197701	1.26759	0.618397	
-0.0444138	0.583252	1	
-0.125573	0.58604	1	
-0.0684459	0.504707	0.931403	
-0.0975452	0.509607	1	
0.0383625	0.760787	1	
0.0703509	0.851998	1	
0.132272	0.778577	1	
0.0761281	0.822015	0.902396	
0.5	1	1	
0.5	1	0.9	
0.422937	1.04242	1	
0.495101	1.06982	0.927621	
0.490393	1.09755	1	
0.495101	1.06982	0.927621	
0.394936	1.1198	1	
0.476114	1.15269	0.90246	
0.0807477	1.49344	0.654224	
0	1.5	0.6	
0.0704482	1.49501	0.571845	
0.0232779	1.38849	0.611701	
0.0728232	1.49467	0.926459	
0.0376698	1.41981	1	
0	1.5	1	
0	1.5	0.9	
-0.0892911	0.866366	0.5	
-0.0218546	0.89013	0.5	
-0.0773947	0.947213	0.5	
-0.105125	0.905315	0.589497	
0.168734	0.529332	0.798219	
0.153328	0.52409	0.90763	
0.242822	0.562922	0.847009	
0.160008	0.641459	0.892261	
-0.0833019	1.49301	0.655211	
-0.152637	1.47613	0.597671	
-0.0698146	1.4951	0.5724	
-0.0927842	1.36919	0.612233	
-3.15026e-17	0.601779	0.5	
0.0815241	0.590151	0.5	
0.064316	0.676662	0.5	
0.0872942	0.606698	0.613217	
-0.0833019	0.506988	0.655211	
0	0.5	0.6	
-0.0698189	0.504899	0.572379	
-0.0201375	0.611237	0.611421	
0.470916	0.831957	0.699874	
0.460548	0.805333	0.76567	
0.490343	0.902203	0.758774	
0.382077	0.87532	0.792977	
0.0814864	1.49332	0.847681	
0.146853	1.47795	0.915992	
0.0728232	1.49467	0.926459	
0.0835299	1.37795	0.884613	
0	0.5	1	
0	0.5	0.9	
0.0374329	0.572928	1	
0.0704482	0.504988	0.928155	
0.369516	1.15306	0.5	
0.323338	1.06432	0.5	
0.409849	1.08152	0.5	
0.358556	1.12901	0.622438	
-0.477722	1.14759	0.583558	
-0.468473	1.17474	0.682816	
-0.493066	1.08298	0.651653	
-0.378892	1.09874	0.625908	
-0.440961	0.764302	0.931431	
-0.386476	0.682767	0.909527	
-0.437078	0.757178	0.847009	
-0.313556	0.75907	0.879554	
0.386505	1.3172	0.568825	
0.281092	1.28109	0.5	
0.347453	1.23216	0.5	
0.302151	1.24532	0.611118	
0.301328	0.82727	1	
0.344935	0.908506	1	
0.37256	0.810612	1	
0.36821	0.862229	0.899925	
-0.363339	0.8495	0.5	
-0.409849	0.918476	0.5	
-0.477948	0.853147	0.584008	
-0.377424	0.892421	0.60103	
-0.40408	1.03727	1	
-0.345102	0.953927	1	
-0.427161	0.957142	1	
-0.385003	0.984343	0.895239	
-0.0427935	1.02817	0.5	
-0.117202	1.0938	0.5	
-0.124649	1.04531	0.594053	
-0.0230921	1.05776	0.595963	
0.436762	1.24339	0.596938	
0.347453	1.23216	0.5	
0.46194	1.19134	0.5	
0.369516	1.15306	0.5	
0.490343	0.902203	0.758774	
0.469721	0.828647	0.838334	
0.493389	0.91896	0.85285	
0.382077	0.87532	0.792977	
-0.0690617	1.49521	0.93079	
-0.0975452	1.49039	1	
-0.14499	1.47852	0.92371	
-0.119808	1.39485	1	
0.417242	0.878937	1	
0.490393	0.902455	1	
0.495293	0.931554	0.931403	
0.421425	0.957658	1	
-0.490393	1.09755	1	
-0.495012	1.07045	0.928155	
-0.41072	1.12459	1	
-0.40408	1.03727	1	
-0.0411619	1.43035	1	
-0.0261261	1.3467	1	
-0.119808	1.39485	1	
-0.0684719	1.38599	0.898819	
-0.153466	0.725651	1	
-0.121993	0.814118	1	
-0.0578538	0.743596	1	
-0.11576	0.747665	0.899003	
0.374193	1.33163	0.834643	
0.3168	1.38683	0.895903	
0.317206	1.3865	0.799678	
0.278791	1.29194	0.808109	
-0.117202	1.0938	0.5	
-0.114443	1.01484	0.5	
-0.0427935	1.02817	0.5	
-0.124649	1.04531	0.594053	
0.495101	1.06982	0.927621	
0.394936	1.1198	1	
0.422937	1.04242	1	
0.490393	1.09755	1	
0.386505	1.3172	0.568825	
0.436762	1.24339	0.596938	
0.380873	1.32394	0.652261	
0.302151	1.24532	0.611118	
-0.47591	1.15333	0.907619	
-0.437035	1.2429	0.847369	
-0.440961	1.2357	0.931396	
-0.366596	1.14153	0.904615	
-0.151231	1.3651	0.5	
-0.0815241	1.40985	0.5	
-0.191342	1.46194	0.5	
-0.152637	1.47613	0.597671	
0.476114	0.847306	0.59754	
0.409849	0.918476	0.5	
0.46194	0.808658	0.5	
0.365104	0.848769	0.5	
0	0.5	0.8	
0.0854243	0.507351	0.748597	
0	0.5	0.7	
-0.000498869	0.611892	0.760268	
0.344935	0.908506	1	
0.417242	0.878937	1	
0.37256	0.810612	1	
0.36821	0.862229	0.899925	
0.146853	0.522052	0.584008	
0.0814864	0.506685	0.652319	
0.174678	0.531505	0.682891	
0.0872942	0.606698	0.613217	
-0.0815241	0.590151	0.5	
-0.152126	0.632735	0.5	
-0.191342	0.53806	0.5	
-0.152694	0.523886	0.59754	
-0.317937	1.3859	0.934362	
-0.324048	1.38078	0.849851	
-0.243302	1.43681	0.906373	
-0.254431	1.30452	0.892066	
-0.386476	0.682767	0.909527	
-0.386792	0.683153	0.801384	
-0.437078	0.757178	0.847009	
-0.313556	0.75907	0.879554	
-0.217395	0.789549	1	
-0.296764	0.859492	1	
-0.186081	0.888066	1	
-0.228331	0.826788	0.903124	
0.141405	0.904892	0.5	
0.106675	0.966314	0.5	
0.0634445	0.898618	0.5	
0.0631871	0.946434	0.577068	
0.118763	0.611014	1	
0.153328	0.52409	0.90763	
0.0975452	0.509607	1	
0.0704482	0.504988	0.928155	
-0.14499	1.47852	0.92371	
-0.0811073	1.49338	0.853007	
-0.0690617	1.49521	0.93079	
-0.0684719	1.38599	0.898819	
-0.415735	1.27779	0.5	
-0.444497	1.22896	0.591906	
-0.347453	1.23216	0.5	
-0.386847	1.31678	0.604131	
-0.386559	1.31713	0.911838	
-0.324048	1.38078	0.849851	
-0.317937	1.3859	0.934362	
-0.254431	1.30452	0.892066	
-0.347453	0.767839	0.5	
-0.415735	0.722215	0.5	
-0.386831	0.6832	0.604097	
-0.444481	0.771009	0.591901	
0.232161	0.652547	0.5	
0.228991	0.555519	0.591901	
0.277785	0.584265	0.5	
0.3168	0.613169	0.604097	
-0.274113	1.18316	0.5	
-0.280403	1.2804	0.5	
-0.347453	1.23216	0.5	
-0.28145	1.24879	0.622796	
0.25658	1.42915	0.83124	
0.247057	1.4347	0.750499	
0.317206	1.3865	0.799678	
0.202645	1.34448	0.765823	
0.274113	0.816844	0.5	
0.278087	0.721913	0.5	
0.347453	0.767839	0.5	
0.290856	0.760973	0.624503	
0	1.5	0.8	
-0.0979281	1.49032	0.75908	
0	1.5	0.7	
0.00695298	1.40388	0.759796	
-0.281585	0.718415	0.5	
-0.232161	0.652547	0.5	
-0.183156	0.725887	0.5	
-0.245183	0.701709	0.623779	
0.206639	0.624902	1	
0.118763	0.611014	1	
0.175091	0.697234	1	
0.160008	0.641459	0.892261	
-0.396617	0.880856	1	
-0.490393	0.902455	1	
-0.495012	0.929552	0.928155	
-0.47591	0.846672	0.90763	
-0.409849	1.08152	0.5	
-0.323338	1.06432	0.5	
-0.363339	1.1505	0.5	
-0.378892	1.09874	0.625908	
-0.494668	0.927177	0.573541	
-0.493315	0.918514	0.652319	
-0.477948	0.853147	0.584008	
-0.377424	0.892421	0.60103	
-0.444497	1.22896	0.591906	
-0.363339	1.1505	0.5	
-0.46194	1.19134	0.5	
-0.347453	1.23216	0.5	
-0.347453	0.767839	0.5	
-0.363339	0.8495	0.5	
-0.46194	0.808658	0.5	
-0.444481	0.771009	0.591901	
0.302677	1.24769	1	
0.195163	1.21982	1	
0.214716	1.29378	1	
0.262414	1.28412	0.908895	
-0.0773947	0.947213	0.5	
-0.157632	0.968645	0.5	
-0.157632	0.894674	0.5	
-0.105125	0.905315	0.589497	
0.152126	0.632735	0.5	
0.228991	0.555519	0.591901	
0.191342	0.53806	0.5	
0.232161	0.652547	0.5	
-0.243391	0.563238	0.903062	
-0.144862	0.521445	0.921652	
-0.171353	0.530279	0.838334	
-0.142163	0.63573	0.89494	
-0.243391	0.563238	0.903062	
-0.277785	0.584265	1	
-0.194549	0.636025	1	
-0.231903	0.663623	0.918546	
0.353553	1.35355	0.5	
0.281092	1.28109	0.5	
0.317233	1.38648	0.590473	
0.232161	1.34745	0.5	
0.469721	0.828647	0.838334	
0.436762	0.756609	0.903062	
0.478555	0.855138	0.921652	
0.36821	0.862229	0.899925	
0.257371	1.14566	1	
0.226913	1.05511	1	
0.16533	1.13018	1	
0.230545	1.11436	0.899122	
-0.0975452	0.509607	1	
-0.125573	0.58604	1	
-0.0684459	0.504707	0.931403	
-0.144862	0.521445	0.921652	
-0.437035	1.2429	0.847369	
-0.47067	1.16873	0.798201	
-0.434718	1.24702	0.749442	
-0.355776	1.16297	0.774979	
-0.409849	0.918476	0.5	
-0.46194	0.808658	0.5	
-0.363339	0.8495	0.5	
-0.477948	0.853147	0.584008	
0.0815241	1.40985	0.5	
0.191342	1.46194	0.5	
0.153328	1.47591	0.59237	
0.152393	1.36791	0.5	
0.317206	1.3865	0.799678	
0.376757	1.32872	0.746468	
0.374193	1.33163	0.834643	
0.278791	1.29194	0.808109	
0.106675	0.966314	0.5	
0.0691997	1.04586	0.5	
0.0165433	0.957567	0.5	
0.0631871	0.946434	0.577068	
-0.397525	1	0.5	
-0.5	1	0.5	
-0.409849	0.918476	0.5	
-0.494668	0.927177	0.573541	
-0.0427935	1.02817	0.5	
0.000305103	1.09462	0.5	
-0.117202	1.0938	0.5	
-0.0230921	1.05776	0.595963	
0.0815241	0.590151	0.5	
0.152126	0.632735	0.5	
0.064316	0.676662	0.5	
0.0872942	0.606698	0.613217	
-0.363339	1.1505	0.5	
-0.46194	1.19134	0.5	
-0.409849	1.08152	0.5	
-0.477722	1.14759	0.583558	
0.233424	0.783671	1	
0.261819	0.680973	1	
0.175091	0.697234	1	
0.248978	0.726366	0.903842	
0.46194	1.19134	1	
0.490393	1.09755	1	
0.394936	1.1198	1	
0.476114	1.15269	0.90246	
0	0.5	0.5	
-3.15026e-17	0.601779	0.5	
0.0728232	0.505332	0.573541	
0.0815241	0.590151	0.5	
-0.357396	1.18789	1	
-0.279278	1.1257	1	
-0.348481	1.09787	1	
-0.366596	1.14153	0.904615	
-0.277785	0.584265	1	
-0.317197	0.613495	0.931175	
-0.278183	0.659732	1	
-0.231903	0.663623	0.918546	
0.302677	1.24769	1	
0.378521	1.20232	1	
0.331919	1.15546	1	
0.337852	1.21393	0.901789	
-0.0585581	0.999611	1	
-0.0902369	0.906851	1	
-0.154491	0.98059	1	
-0.10341	0.960236	0.912939	
0.146853	0.522052	0.584008	
0.191342	0.53806	0.5	
0.0815241	0.590151	0.5	
0.152126	0.632735	0.5	
-0.278183	0.659732	1	
-0.194549	0.636025	1	
-0.277785	0.584265	1	
-0.231903	0.663623	0.918546	
0.4284	1.25782	0.795024	
0.460548	1.19467	0.73433	
0.470916	1.16804	0.800126	
0.369343	1.17686	0.815886	
-0.47591	1.15333	0.907619	
-0.490393	1.09755	1	
-0.495012	1.07045	0.928155	
-0.41072	1.12459	1	
-0.0578538	0.743596	1	
0.0383625	0.760787	1	
0.0152702	0.660767	1	
-0.0283413	0.698633	0.90895	
0.0728232	0.505332	0.573541	
0.146853	0.522052	0.584008	
0.0815241	0.590151	0.5	
0.0872942	0.606698	0.613217	
-0.238625	1.43938	0.576642	
-0.277785	1.41573	0.5	
-0.232161	1.34745	0.5	
-0.314941	1.38835	0.579801	
0.153328	0.52409	0.90763	
0.235698	0.559039	0.931431	
0.242822	0.562922	0.847009	
0.160008	0.641459	0.892261	
0	1.5	0.5	
-0.0815241	1.40985	0.5	
8.18872e-17	1.39822	0.5	
-0.0698146	1.4951	0.5724	
0.409849	0.918476	0.5	
0.495101	0.930181	0.572379	
0.5	1	0.5	
0.398221	1	0.5	
-3.15026e-17	0.601779	0.5	
-0.0815241	0.590151	0.5	
0	0.5	0.5	
-0.0698189	0.504899	0.572379	
0.25	1	0.5	
0.23097	1.09567	0.5	
0.163502	1.02984	0.5	
0.201501	1.05838	0.584156	
0.0704482	1.49501	0.571845	
8.18872e-17	1.39822	0.5	
0	1.5	0.5	
0.0815241	1.40985	0.5	
-0.151231	1.3651	0.5	
-0.191342	1.46194	0.5	
-0.232161	1.34745	0.5	
-0.238625	1.43938	0.576642	
0.274113	0.816844	0.5	
0.347453	0.767839	0.5	
0.365104	0.848769	0.5	
0.366244	0.831981	0.604187	
-0.494668	0.927177	0.573541	
-0.477948	0.853147	0.584008	
-0.409849	0.918476	0.5	
-0.377424	0.892421	0.60103	
0.146853	1.47795	0.915992	
0.0975452	1.49039	1	
0.122568	1.39751	1	
0.191342	1.46194	1	
-0.177191	1.03636	0.5	
-0.114443	1.01484	0.5	
-0.117202	1.0938	0.5	
-0.124649	1.04531	0.594053	
0.365104	0.848769	0.5	
0.46194	0.808658	0.5	
0.439458	0.761512	0.575692	
0.347453	0.767839	0.5	
-0.5	1	0.5	
-0.409849	1.08152	0.5	
-0.495208	1.06906	0.569036	
-0.397525	1	0.5	
-0.347453	1.23216	0.5	
-0.353553	1.35355	0.5	
-0.415735	1.27779	0.5	
-0.386847	1.31678	0.604131	
0.232161	0.652547	0.5	
0.277785	0.584265	0.5	
0.353553	0.646447	0.5	
0.3168	0.613169	0.604097	
-0.347453	0.767839	0.5	
-0.415735	0.722215	0.5	
-0.353553	0.646447	0.5	
-0.386831	0.6832	0.604097	
0.278087	0.721913	0.5	
0.388274	0.684971	0.579193	
0.353553	0.646447	0.5	
0.347453	0.767839	0.5	
0.450285	0.782644	0.644698	
0.476114	0.847306	0.59754	
0.439458	0.761512	0.575692	
0.366244	0.831981	0.604187	
-0.243391	0.563238	0.903062	
-0.323938	0.619127	0.847739	
-0.317197	0.613495	0.931175	
-0.231903	0.663623	0.918546	
-0.232161	0.652547	0.5	
-0.191342	0.53806	0.5	
-0.152126	0.632735	0.5	
-0.238488	0.560542	0.575692	
0.495293	1.06845	0.568597	
0.409849	1.08152	0.5	
0.5	1	0.5	
0.398221	1	0.5	
0.261819	0.680973	1	
0.233424	0.783671	1	
0.322164	0.745112	1	
0.248978	0.726366	0.903842	
-0.415735	0.722215	1	
-0.386476	0.682767	0.909527	
-0.309811	0.742372	1	
-0.353553	0.646447	1	
0.347453	1.23216	0.5	
0.46194	1.19134	0.5	
0.415735	1.27779	0.5	
0.436762	1.24339	0.596938	
-0.353553	1.35355	0.5	
-0.280403	1.2804	0.5	
-0.232161	1.34745	0.5	
-0.314941	1.38835	0.579801	
-0.243391	0.563238	0.903062	
-0.277785	0.584265	1	
-0.191342	0.53806	1	
-0.194549	0.636025	1	
0.490393	0.902455	1	
0.495293	0.931554	0.931403	
0.478555	0.855138	0.921652	
0.417242	0.878937	1	
0.0815241	1.40985	0.5	
8.18872e-17	1.39822	0.5	
0.064316	1.32334	0.5	
0.0232779	1.38849	0.611701	
0.415735	1.27779	0.5	
0.386505	1.3172	0.568825	
0.347453	1.23216	0.5	
0.436762	1.24339	0.596938	
0.353553	0.646447	1	
0.317233	0.613524	0.909527	
0.277785	0.584265	1	
0.261819	0.680973	1	
-0.0815241	0.590151	0.5	
-3.15026e-17	0.601779	0.5	
-0.064316	0.676662	0.5	
-0.0201375	0.611237	0.611421	
-0.315029	0.611726	0.579193	
-0.353553	0.646447	0.5	
-0.281585	0.718415	0.5	
-0.232161	0.652547	0.5	
-0.277785	0.584265	1	
-0.243391	0.563238	0.903062	
-0.317197	0.613495	0.931175	
-0.231903	0.663623	0.918546	
-0.0956709	0.76903	0.5	
-0.064316	0.676662	0.5	
0	0.75	0.5	
-0.0421997	0.724204	0.59801	
-0.0427935	1.02817	0.5	
0.0691997	1.04586	0.5	
0.000305103	1.09462	0.5	
-0.0230921	1.05776	0.595963	
-0.396617	0.880856	1	
-0.490393	0.902455	1	
-0.47591	0.846672	0.90763	
-0.46194	0.808658	1	
-0.0975452	1.49039	0.5	
-0.0815241	1.40985	0.5	
-0.0698146	1.4951	0.5724	
-0.152637	1.47613	0.597671	
0.490393	0.902455	0.5	
0.495101	0.930181	0.572379	
0.409849	0.918476	0.5	
0.476114	0.847306	0.59754	
-0.0975452	0.509607	0.5	
-0.0815241	0.590151	0.5	
-0.152694	0.523886	0.59754	
-0.0698189	0.504899	0.572379	
0.388274	0.684971	0.579193	
0.439458	0.761512	0.575692	
0.415735	0.722215	0.5	
0.347453	0.767839	0.5	
-0.232161	0.652547	0.5	
-0.315029	0.611726	0.579193	
-0.277785	0.584265	0.5	
-0.238488	0.560542	0.575692	
0.191342	0.53806	1	
0.153328	0.52409	0.90763	
0.0975452	0.509607	1	
0.118763	0.611014	1	
0.415735	0.722215	1	
0.46194	0.808658	1	
0.436762	0.756609	0.903062	
0.37256	0.810612	1	
0.360576	0.998064	1	
0.422937	1.04242	1	
0.421425	0.957658	1	
0.39915	0.990133	0.906414	
0.469721	0.828647	0.838334	
0.490343	0.902203	0.758774	
0.460548	0.805333	0.76567	
0.382077	0.87532	0.792977	
0.277785	1.41573	0.5	
0.317233	1.38648	0.590473	
0.235698	1.44096	0.568569	
0.232161	1.34745	0.5	
0.201148	1.36807	1	
0.228991	1.44448	0.908099	
0.191342	1.46194	1	
0.277785	1.41573	1	
-0.0815241	1.40985	0.5	
-0.0975452	1.49039	0.5	
-0.191342	1.46194	0.5	
-0.152637	1.47613	0.597671	
-0.0815241	0.590151	0.5	
-0.191342	0.53806	0.5	
-0.0975452	0.509607	0.5	
-0.152694	0.523886	0.59754	
0.409849	0.918476	0.5	
0.46194	0.808658	0.5	
0.490393	0.902455	0.5	
0.476114	0.847306	0.59754	
0.450285	1.21736	0.855302	
0.4284	1.25782	0.795024	
0.470916	1.16804	0.800126	
0.369343	1.17686	0.815886	
0.490343	0.902203	0.758774	
0.5	1	0.8	
0.5	1	0.7	
0.402785	0.956541	0.723347	
-0.495208	1.06906	0.569036	
-0.409849	1.08152	0.5	
-0.490393	1.09755	0.5	
-0.477722	1.14759	0.583558	
0.415735	1.27779	1	
0.388274	1.31503	0.920807	
0.302677	1.24769	1	
0.353553	1.35355	1	
-0.0773947	0.947213	0.5	
-0.157632	0.894674	0.5	
-0.0892911	0.866366	0.5	
-0.105125	0.905315	0.589497	
-0.495012	1.07045	0.928155	
-0.490393	1.09755	1	
-0.5	1	1	
-0.40408	1.03727	1	
0.409849	1.08152	0.5	
0.478555	1.14486	0.578348	
0.46194	1.19134	0.5	
0.369516	1.15306	0.5	
0.0975452	1.49039	0.5	
0.153328	1.47591	0.59237	
0.0704482	1.49501	0.571845	
0.0815241	1.40985	0.5	
-0.409849	1.08152	0.5	
-0.46194	1.19134	0.5	
-0.490393	1.09755	0.5	
-0.477722	1.14759	0.583558	
-0.0578538	0.743596	1	
0.0152702	0.660767	1	
-0.0915272	0.659988	1	
-0.0283413	0.698633	0.90895	
0.3168	1.38683	0.895903	
0.277785	1.41573	1	
0.272282	1.33178	1	
0.353553	1.35355	1	
0.490343	0.902203	0.758774	
0.5	1	0.7	
0.493012	0.916698	0.655211	
0.402785	0.956541	0.723347	
0.0975452	1.49039	0.5	
0.191342	1.46194	0.5	
0.153328	1.47591	0.59237	
0.0815241	1.40985	0.5	
-0.191342	1.46194	0.5	
-0.277785	1.41573	0.5	
-0.232161	1.34745	0.5	
-0.238625	1.43938	0.576642	
-0.444497	1.22896	0.591906	
-0.46194	1.19134	0.5	
-0.415735	1.27779	0.5	
-0.347453	1.23216	0.5	
-0.347453	0.767839	0.5	
-0.46194	0.808658	0.5	
-0.415735	0.722215	0.5	
-0.444481	0.771009	0.591901	
0.228991	0.555519	0.591901	
0.277785	0.584265	0.5	
0.191342	0.53806	0.5	
0.232161	0.652547	0.5	
0.386505	1.3172	0.568825	
0.281092	1.28109	0.5	
0.353553	1.35355	0.5	
0.347453	1.23216	0.5	
0	1.5	0.8	
0	1.5	0.7	
0.0854243	1.49265	0.751403	
0.00695298	1.40388	0.759796	
0.214716	1.29378	1	
0.272282	1.33178	1	
0.302677	1.24769	1	
0.262414	1.28412	0.908895	
0.152393	1.36791	0.5	
0.191342	1.46194	0.5	
0.235698	1.44096	0.568569	
0.232161	1.34745	0.5	
-0.348481	1.09787	1	
-0.41072	1.12459	1	
-0.357396	1.18789	1	
-0.366596	1.14153	0.904615	
-0.277785	1.41573	0.5	
-0.353553	1.35355	0.5	
-0.232161	1.34745	0.5	
-0.314941	1.38835	0.579801	
-0.47591	1.15333	0.907619	
-0.46194	1.19134	1	
-0.490393	1.09755	1	
-0.41072	1.12459	1	
0.317233	1.38648	0.590473	
0.277785	1.41573	0.5	
0.353553	1.35355	0.5	
0.232161	1.34745	0.5	
0.0975452	0.509607	0.5	
0.191342	0.53806	0.5	
0.0815241	0.590151	0.5	
0.146853	0.522052	0.584008	
-0.409849	0.918476	0.5	
-0.490393	0.902455	0.5	
-0.46194	0.808658	0.5	
-0.477948	0.853147	0.584008	
-0.0444138	0.583252	1	
-0.0684459	0.504707	0.931403	
0	0.5	1	
-0.0975452	0.509607	1	
0.347453	1.23216	0.5	
0.281092	1.28109	0.5	
0.274113	1.18316	0.5	
0.302151	1.24532	0.611118	
0.0728232	1.49467	0.926459	
0	1.5	1	
0.0376698	1.41981	1	
0.0975452	1.49039	1	
-0.151231	1.3651	0.5	
-0.064316	1.32334	0.5	
-0.0815241	1.40985	0.5	
-0.0927842	1.36919	0.612233	
0.0814864	0.506685	0.652319	
0.146853	0.522052	0.584008	
0.0728232	0.505332	0.573541	
0.0872942	0.606698	0.613217	
0.5	1	1	
0.495293	0.931554	0.931403	
0.490393	0.902455	1	
0.421425	0.957658	1	
0.46194	0.808658	0.5	
0.415735	0.722215	0.5	
0.439458	0.761512	0.575692	
0.347453	0.767839	0.5	
-0.232161	0.652547	0.5	
-0.277785	0.584265	0.5	
-0.191342	0.53806	0.5	
-0.238488	0.560542	0.575692	
-0.490393	1.09755	0.5	
-0.5	1	0.5	
-0.409849	1.08152	0.5	
-0.495208	1.06906	0.569036	
-0.386559	1.31713	0.911838	
-0.33007	1.27363	1	
-0.353553	1.35355	1	
-0.415735	1.27779	1	
0.415735	0.722215	0.5	
0.353553	0.646447	0.5	
0.388274	0.684971	0.579193	
0.347453	0.767839	0.5	
-0.277785	0.584265	0.5	
-0.353553	0.646447	0.5	
-0.315029	0.611726	0.579193	
-0.232161	0.652547	0.5	
0.0815241	0.590151	0.5	
0.0728232	0.505332	0.573541	
0.0975452	0.509607	0.5	
0.146853	0.522052	0.584008	
-0.409849	0.918476	0.5	
-0.490393	0.902455	0.5	
-0.477948	0.853147	0.584008	
-0.494668	0.927177	0.573541	
0.386505	0.682803	0.931175	
0.322164	0.745112	1	
0.353553	0.646447	1	
0.415735	0.722215	1	
-0.277785	1.41573	1	
-0.191342	1.46194	1	
-0.208232	1.3886	1	
-0.243302	1.43681	0.906373	
-0.357396	1.18789	1	
-0.415735	1.27779	1	
-0.440961	1.2357	0.931396	
-0.46194	1.19134	1	
-0.0975452	1.49039	1	
-0.191342	1.46194	1	
-0.14499	1.47852	0.92371	
-0.119808	1.39485	1	
0.0728232	0.505332	0.573541	
0.0975452	0.509607	0.5	
0	0.5	0.5	
0.0815241	0.590151	0.5	
-0.5	1	0.5	
-0.490393	0.902455	0.5	
-0.409849	0.918476	0.5	
-0.494668	0.927177	0.573541	
0.0704482	1.49501	0.571845	
0	1.5	0.5	
0.0975452	1.49039	0.5	
0.0815241	1.40985	0.5	
-0.194549	0.636025	1	
-0.278183	0.659732	1	
-0.233276	0.710046	1	
-0.231903	0.663623	0.918546	
-0.0815241	0.590151	0.5	
-0.0975452	0.509607	0.5	
0	0.5	0.5	
-0.0698189	0.504899	0.572379	
0.495101	0.930181	0.572379	
0.5	1	0.5	
0.490393	0.902455	0.5	
0.409849	0.918476	0.5	
-0.0815241	1.40985	0.5	
0	1.5	0.5	
-0.0975452	1.49039	0.5	
-0.0698146	1.4951	0.5724	
0	1.5	1	
-0.0975452	1.49039	1	
-0.0690617	1.49521	0.93079	
-0.0411619	1.43035	1	
0.163502	1.02984	0.5	
0.23097	1.09567	0.5	
0.157632	1.10533	0.5	
0.201501	1.05838	0.584156	
-0.5	1	1	
-0.427161	0.957142	1	
-0.490393	0.902455	1	
-0.495012	0.929552	0.928155	
0.409849	1.08152	0.5	
0.5	1	0.5	
0.490393	1.09755	0.5	
0.495293	1.06845	0.568597	
0.0165433	0.957567	0.5	
0.0634445	0.898618	0.5	
0.106675	0.966314	0.5	
0.0631871	0.946434	0.577068	
0.386505	1.3172	0.568825	
0.353553	1.35355	0.5	
0.415735	1.27779	0.5	
0.347453	1.23216	0.5	
0.46194	1.19134	0.5	
0.490393	1.09755	0.5	
0.478555	1.14486	0.578348	
0.409849	1.08152	0.5	
0.490393	1.09755	0.5	
0.478555	1.14486	0.578348	
0.409849	1.08152	0.5	
0.495293	1.06845	0.568597	
0.0374329	0.572928	1	
0.0975452	0.509607	1	
0	0.5	1	
0.0704482	0.504988	0.928155	
-0.144862	0.521445	0.921652	
-0.0975452	0.509607	1	
-0.125573	0.58604	1	
-0.191342	0.53806	1	
0.478555	0.855138	0.921652	
0.46194	0.808658	1	
0.490393	0.902455	1	
0.417242	0.878937	1	
0.191342	1.46194	0.5	
0.277785	1.41573	0.5	
0.235698	1.44096	0.568569	
0.232161	1.34745	0.5	
0.495101	1.06982	0.927621	
0.422937	1.04242	1	
0.5	1	1	
0.490393	1.09755	1	
0.191342	0.53806	1	
0.235698	0.559039	0.931431	
0.206639	0.624902	1	
0.277785	0.584265	1	
0.378521	1.20232	1	
0.46194	1.19134	1	
0.439458	1.23849	0.924308	
0.415735	1.27779	1	
-0.363339	0.8495	0.5	
-0.323338	0.935684	0.5	
-0.409849	0.918476	0.5	
-0.377424	0.892421	0.60103	
-0.353553	1.35355	1	
-0.265836	1.3303	1	
-0.317937	1.3859	0.934362	
-0.277785	1.41573	1	
-0.46194	0.808658	1	
-0.440961	0.764302	0.931431	
-0.376173	0.802719	1	
-0.415735	0.722215	1	
-0.278183	0.659732	1	
-0.353553	0.646447	1	
-0.317197	0.613495	0.931175	
-0.277785	0.584265	1	
-0.0684719	1.38599	0.898819	
-0.208232	1.3886	1	
-0.182108	1.31839	1	
-0.119808	1.39485	1	
-0.0684719	1.38599	0.898819	
-0.182108	1.31839	1	
-0.208232	1.3886	1	
-0.159358	1.32099	0.830937	
0.075477	0.809328	0.60941	
0.141405	0.904892	0.5	
0.0631871	0.946434	0.577068	
0.101275	0.91604	0.653562	
0.075477	0.809328	0.60941	
0.0631871	0.946434	0.577068	
0.141405	0.904892	0.5	
0.103403	0.84471	0.5	
0.198196	0.963699	1	
0.0803871	1.00814	0.885647	
0.114269	0.8976	0.845027	
0.102037	0.944747	1	
0.114269	0.8976	0.845027	
0.0803871	1.00814	0.885647	
0.198196	0.963699	1	
0.215886	1.00836	0.878507	
0.106675	0.966314	0.5	
0.214567	0.972198	0.625898	
0.141405	0.904892	0.5	
0.185939	0.963014	0.5	
0.141405	0.904892	0.5	
0.214567	0.972198	0.625898	
0.106675	0.966314	0.5	
0.0631871	0.946434	0.577068	
-0.217356	0.549715	0.644698	
-0.172711	0.659579	0.756944	
-0.245183	0.701709	0.623779	
-0.257824	0.5716	0.704976	
-0.245183	0.701709	0.623779	
-0.172711	0.659579	0.756944	
-0.217356	0.549715	0.644698	
-0.115668	0.660224	0.648618	
0.188892	1.15001	0.759985	
0.176308	1.30549	0.856004	
0.247079	1.26952	0.713352	
0.11795	1.23142	0.740012	
0.188892	1.15001	0.759985	
0.247079	1.26952	0.713352	
0.176308	1.30549	0.856004	
0.267628	1.19145	0.824346	
-0.243302	1.43681	0.906373	
-0.119808	1.39485	1	
-0.191342	1.46194	1	
-0.208232	1.3886	1	
-0.191342	1.46194	1	
-0.119808	1.39485	1	
-0.243302	1.43681	0.906373	
-0.14499	1.47852	0.92371	
-0.218908	1.02882	0.620926	
-0.323338	0.935684	0.5	
-0.323338	1.06432	0.5	
-0.25	1	0.5	
-0.218908	1.02882	0.620926	
-0.323338	1.06432	0.5	
-0.323338	0.935684	0.5	
-0.351178	0.986498	0.65	
-0.249134	0.962669	1	
-0.385003	0.984343	0.895239	
-0.308389	0.85948	0.835633	
-0.345102	0.953927	1	
-0.308389	0.85948	0.835633	
-0.385003	0.984343	0.895239	
-0.249134	0.962669	1	
-0.208534	0.966027	0.877319	
-0.378892	1.09874	0.625908	
-0.5	1	0.7	
-0.5	1	0.6	
-0.351178	0.986498	0.65	
-0.378892	1.09874	0.625908	
-0.5	1	0.6	
-0.5	1	0.7	
-0.493066	1.08298	0.651653	
-0.0230921	1.05776	0.595963	
-0.105125	0.905315	0.589497	
-0.124649	1.04531	0.594053	
-0.0773947	0.947213	0.5	
-0.0230921	1.05776	0.595963	
-0.124649	1.04531	0.594053	
-0.105125	0.905315	0.589497	
-0.0808186	0.989298	0.663479	
-0.355776	1.16297	0.774979	
-0.386533	1.31716	0.700258	
-0.386405	1.31732	0.798513	
-0.271071	1.28122	0.731982	
-0.355776	1.16297	0.774979	
-0.386405	1.31732	0.798513	
-0.386533	1.31716	0.700258	
-0.434718	1.24702	0.749442	
-0.33007	1.27363	1	
-0.440961	1.2357	0.931396	
-0.366596	1.14153	0.904615	
-0.357396	1.18789	1	
-0.366596	1.14153	0.904615	
-0.440961	1.2357	0.931396	
-0.33007	1.27363	1	
-0.386559	1.31713	0.911838	
0.197701	1.26759	0.618397	
0.316847	1.38679	0.698616	
0.302151	1.24532	0.611118	
0.317233	1.38648	0.590473	
0.197701	1.26759	0.618397	
0.302151	1.24532	0.611118	
0.316847	1.38679	0.698616	
0.247079	1.26952	0.713352	
-0.243302	1.43681	0.906373	
-0.0684719	1.38599	0.898819	
-0.171627	1.46962	0.839884	
-0.14499	1.47852	0.92371	
-0.171627	1.46962	0.839884	
-0.0684719	1.38599	0.898819	
-0.243302	1.43681	0.906373	
-0.159358	1.32099	0.830937	
0.201501	1.05838	0.584156	
0.185939	0.963014	0.5	
0.106675	0.966314	0.5	
0.163502	1.02984	0.5	
0.201501	1.05838	0.584156	
0.106675	0.966314	0.5	
0.185939	0.963014	0.5	
0.214567	0.972198	0.625898	
0.115192	0.637967	0.754396	
0.25658	0.570854	0.66876	
0.253474	0.699951	0.70471	
0.247057	0.565302	0.749501	
0.115192	0.637967	0.754396	
0.253474	0.699951	0.70471	
0.25658	0.570854	0.66876	
0.166834	0.675675	0.635152	
-0.366596	1.14153	0.904615	
-0.31121	1.03591	1	
-0.385003	0.984343	0.895239	
-0.328139	1.06792	0.838021	
-0.366596	1.14153	0.904615	
-0.385003	0.984343	0.895239	
-0.31121	1.03591	1	
-0.348481	1.09787	1	
0.366244	0.831981	0.604187	
0.402785	0.956541	0.723347	
0.38174	0.996023	0.618569	
0.318292	0.91002	0.672643	
0.38174	0.996023	0.618569	
0.402785	0.956541	0.723347	
0.366244	0.831981	0.604187	
0.493012	0.916698	0.655211	
0.166834	0.675675	0.635152	
0.278087	0.721913	0.5	
0.3168	0.613169	0.604097	
0.232161	0.652547	0.5	
0.166834	0.675675	0.635152	
0.3168	0.613169	0.604097	
0.278087	0.721913	0.5	
0.290856	0.760973	0.624503	
0.278791	1.29194	0.808109	
0.415735	1.27779	0.865862	
0.262414	1.28412	0.908895	
0.337852	1.21393	0.901789	
0.278791	1.29194	0.808109	
0.262414	1.28412	0.908895	
0.415735	1.27779	0.865862	
0.374193	1.33163	0.834643	
0.388274	1.31503	0.920807	
0.262414	1.28412	0.908895	
0.415735	1.27779	0.865862	
0.337852	1.21393	0.901789	
0.388274	1.31503	0.920807	
0.415735	1.27779	0.865862	
0.262414	1.28412	0.908895	
0.374193	1.33163	0.834643	
0.330142	0.959051	0.83873	
0.493389	0.91896	0.85285	
0.36821	0.862229	0.899925	
0.382077	0.87532	0.792977	
0.330142	0.959051	0.83873	
0.36821	0.862229	0.899925	
0.493389	0.91896	0.85285	
0.39915	0.990133	0.906414	
-0.0365827	0.936141	0.729399	
-0.0840558	0.819296	0.633477	
-0.105125	0.905315	0.589497	
-0.00979043	0.90873	0.615519	
-0.0365827	0.936141	0.729399	
-0.105125	0.905315	0.589497	
-0.0840558	0.819296	0.633477	
-0.117533	0.874656	0.729651	
0.0362445	1.10288	0.900124	
0.100521	1.20361	1	
0.13567	1.10909	0.864428	
0.0921027	1.22053	0.879559	
0.0362445	1.10288	0.900124	
0.13567	1.10909	0.864428	
0.100521	1.20361	1	
0.0692432	1.11129	1	
0.16533	1.13018	1	
0.13567	1.10909	0.864428	
0.100521	1.20361	1	
0.0921027	1.22053	0.879559	
0.16533	1.13018	1	
0.100521	1.20361	1	
0.13567	1.10909	0.864428	
0.0692432	1.11129	1	
-0.355776	1.16297	0.774979	
-0.493438	1.08074	0.845784	
-0.366596	1.14153	0.904615	
-0.47067	1.16873	0.798201	
-0.355776	1.16297	0.774979	
-0.366596	1.14153	0.904615	
-0.493438	1.08074	0.845784	
-0.328139	1.06792	0.838021	
-0.18639	0.799846	0.604991	
-0.0892911	0.866366	0.5	
-0.0956709	0.76903	0.5	
-0.176777	0.823223	0.5	
-0.18639	0.799846	0.604991	
-0.0956709	0.76903	0.5	
-0.0892911	0.866366	0.5	
-0.0840558	0.819296	0.633477	
0.0261041	1.21709	0.59722	
0.0232779	1.38849	0.611701	
0	1.25	0.5	
-0.0146393	1.2919	0.660146	
0.0261041	1.21709	0.59722	
0	1.25	0.5	
0.0232779	1.38849	0.611701	
0.064316	1.32334	0.5	
-0.143721	0.860033	0.841612	
-0.11576	0.747665	0.899003	
-0.0902369	0.906851	1	
-0.121993	0.814118	1	
-0.143721	0.860033	0.841612	
-0.0902369	0.906851	1	
-0.11576	0.747665	0.899003	
-0.0183257	0.793213	0.875792	
-0.0258184	0.833057	1	
-0.0902369	0.906851	1	
-0.11576	0.747665	0.899003	
-0.121993	0.814118	1	
-0.0258184	0.833057	1	
-0.11576	0.747665	0.899003	
-0.0902369	0.906851	1	
-0.0183257	0.793213	0.875792	
0.286804	1.05056	0.632278	
0.323338	0.935684	0.5	
0.323338	1.06432	0.5	
0.38174	0.996023	0.618569	
0.286804	1.05056	0.632278	
0.323338	1.06432	0.5	
0.323338	0.935684	0.5	
0.25	1	0.5	
0.262414	1.28412	0.908895	
0.25658	1.42915	0.83124	
0.228991	1.44448	0.908099	
0.3168	1.38683	0.895903	
0.262414	1.28412	0.908895	
0.228991	1.44448	0.908099	
0.25658	1.42915	0.83124	
0.176308	1.30549	0.856004	
0.39915	0.990133	0.906414	
0.417242	0.878937	1	
0.344935	0.908506	1	
0.36821	0.862229	0.899925	
0.39915	0.990133	0.906414	
0.344935	0.908506	1	
0.417242	0.878937	1	
0.421425	0.957658	1	
0.366244	0.831981	0.604187	
0.4284	0.742176	0.704976	
0.470916	0.831957	0.699874	
0.328874	0.804808	0.729739	
0.366244	0.831981	0.604187	
0.470916	0.831957	0.699874	
0.4284	0.742176	0.704976	
0.450285	0.782644	0.644698	
-0.0230921	1.05776	0.595963	
-0.0933205	1.08542	0.735608	
0.030532	1.00082	0.661954	
-0.00475677	1.13123	0.664793	
-0.0230921	1.05776	0.595963	
0.030532	1.00082	0.661954	
-0.0933205	1.08542	0.735608	
-0.0808186	0.989298	0.663479	
-0.157632	0.894674	0.5	
-0.18639	0.799846	0.604991	
-0.23097	0.904329	0.5	
-0.176777	0.823223	0.5	
-0.23097	0.904329	0.5	
-0.18639	0.799846	0.604991	
-0.157632	0.894674	0.5	
-0.193736	0.903788	0.633349	
0.242822	0.562922	0.847009	
0.115192	0.637967	0.754396	
0.247057	0.565302	0.749501	
0.168734	0.529332	0.798219	
0.247057	0.565302	0.749501	
0.115192	0.637967	0.754396	
0.242822	0.562922	0.847009	
0.216076	0.69962	0.805486	
0.0362445	1.10288	0.900124	
0.13371	1.03748	1	
0.0375767	1.01852	1	
0.0803871	1.00814	0.885647	
0.0362445	1.10288	0.900124	
0.0375767	1.01852	1	
0.13371	1.03748	1	
0.0692432	1.11129	1	
0.272282	1.33178	1	
0.228991	1.44448	0.908099	
0.262414	1.28412	0.908895	
0.201148	1.36807	1	
0.272282	1.33178	1	
0.262414	1.28412	0.908895	
0.228991	1.44448	0.908099	
0.3168	1.38683	0.895903	
-0.183156	1.27411	0.5	
-0.0927842	1.36919	0.612233	
-0.064316	1.32334	0.5	
-0.151231	1.3651	0.5	
-0.064316	1.32334	0.5	
-0.0927842	1.36919	0.612233	
-0.183156	1.27411	0.5	
-0.106349	1.24066	0.613882	
-0.243302	1.43681	0.906373	
-0.265836	1.3303	1	
-0.277785	1.41573	1	
-0.317937	1.3859	0.934362	
-0.243302	1.43681	0.906373	
-0.277785	1.41573	1	
-0.265836	1.3303	1	
-0.208232	1.3886	1	
0.302151	1.24532	0.611118	
0.369516	1.15306	0.5	
0.436762	1.24339	0.596938	
0.358556	1.12901	0.622438	
0.302151	1.24532	0.611118	
0.436762	1.24339	0.596938	
0.369516	1.15306	0.5	
0.347453	1.23216	0.5	
0.0232779	1.38849	0.611701	
-0.0815241	1.40985	0.5	
-0.064316	1.32334	0.5	
-0.0927842	1.36919	0.612233	
0.0232779	1.38849	0.611701	
-0.064316	1.32334	0.5	
-0.0815241	1.40985	0.5	
8.18872e-17	1.39822	0.5	
-0.206133	0.729722	0.836828	
-0.228331	0.826788	0.903124	
-0.233276	0.710046	1	
-0.217395	0.789549	1	
-0.206133	0.729722	0.836828	
-0.233276	0.710046	1	
-0.228331	0.826788	0.903124	
-0.313556	0.75907	0.879554	
-0.309811	0.742372	1	
-0.233276	0.710046	1	
-0.228331	0.826788	0.903124	
-0.217395	0.789549	1	
-0.309811	0.742372	1	
-0.228331	0.826788	0.903124	
-0.233276	0.710046	1	
-0.313556	0.75907	0.879554	
0.415735	1.27779	1	
0.337852	1.21393	0.901789	
0.302677	1.24769	1	
0.388274	1.31503	0.920807	
0.302677	1.24769	1	
0.337852	1.21393	0.901789	
0.415735	1.27779	1	
0.378521	1.20232	1	
CELLS 4255 21275
4	0	1	2	3	
4	4	5	6	7	
4	8	9	10	11	
4	12	13	14	15	
4	16	17	18	19	
4	20	21	22	23	
4	24	25	26	27	
4	28	29	30	31	
4	32	33	34	35	
4	36	37	38	39	
4	40	41	42	43	
4	44	45	46	47	
4	48	49	50	51	
4	52	53	54	55	
4	56	57	58	59	
4	60	61	62	63	
4	64	65	66	67	
4	68	69	70	71	
4	72	73	74	75	
4	76	77	78	79	
4	80	81	82	83	
4	84	85	86	87	
4	88	89	90	91	
4	92	93	94	95	
4	96	97	98	99	
4	100	101	102	103	
4	104	105	106	107	
4	108	109	110	111	
4	112	113	114	115	
4	116	117	118	119	
4	120	121	122	123	
4	124	125	126	127	
4	128	129	130	131	
4	132	133	134	135	
4	136	137	138	139	
4	140	141	142	143	
4	144	145	146	147	
4	148	149	150	151	
4	152	153	154	155	
4	156	157	158	159	
4	160	161	162	163	
4	164	165	166	167	
4	168	169	170	171	
4	172	173	174	175	
4	176	177	178	179	
4	180	181	182	183	
4	184	185	186	187	
4	188	189	190	191	
4	192	193	194	195	
4	196	197	198	199	
4	200	201	202	203	
4	204	205	206	207	
4	208	209	210	211	
4	212	213	214	215	
4	216	217	218	219	
4	220	221	222	223	
4	224	225	226	227	
4	228	229	230	231	
4	232	233	234	235	
4	236	237	238	239	
4	240	241	242	243	
4	244	245	246	247	
4	248	249	250	251	
4	252	253	254	255	
4	256	257	258	259	
4	260	261	262	263	
4	264	265	266	267	
4	268	269	270	271	
4	272	273	274	275	
4	276	277	278	279	
4	280	281	282	283	
4	284	285	286	287	
4	288	289	290	291	
4	292	293	294	295	
4	296	297	298	299	
4	300	301	302	303	
4	304	305	306	307	
4	308	309	310	311	
4	312	313	314	315	
4	316	317	318	319	
4	320	321	322	323	
4	324	325	326	327	
4	328	329	330	331	
4	332	333	334	335	
4	336	337	338	339	
4	340	341	342	343	
4	344	345	346	347	
4	348	349	350	351	
4	352	353	354	355	
4	356	357	358	359	
4	360	361	362	363	
4	364	365	366	367	
4	368	369	370	371	
4	372	373	374	375	
4	376	377	378	379	
4	380	381	382	383	
4	384	385	386	387	
4	388	389	390	391	
4	392	393	394	395	
4	396	397	398	399	
4	400	401	402	403	
4	404	405	406	407	
4	408	409	410	411	
4	412	413	414	415	
4	416	417	418	419	
4	420	421	422	423	
4	424	425	426	427	
4	428	429	430	431	
4	432	433	434	435	
4	436	437	438	439	
4	440	441	442	443	
4	444	445	446	447	
4	448	449	450	451	
4	452	453	454	455	
4	456	457	458	459	
4	460	461	462	463	
4	464	465	466	467	
4	468	469	470	471	
4	472	473	474	475	
4	476	477	478	479	
4	480	481	482	483	
4	484	485	486	487	
4	488	489	490	491	
4	492	493	494	495	
4	496	497	498	499	
4	500	501	502	503	
4	504	505	506	507	
4	508	509	510	511	
4	512	513	514	515	
4	516	517	518	519	
4	520	521	522	523	
4	524	525	526	527	
4	528	529	530	531	
4	532	533	534	535	
4	536	537	538	539	
4	540	541	542	543	
4	544	545	546	547	
4	548	549	550	551	
4	552	553	554	555	
4	556	557	558	559	
4	560	561	562	563	
4	564	565	566	567	
4	568	569	570	571	
4	572	573	574	575	
4	576	577	578	579	
4	580	581	582	583	
4	584	585	586	587	
4	588	589	590	591	
4	592	593	594	595	
4	596	597	598	599	
4	600	601	602	603	
4	604	605	606	607	
4	608	609	610	611	
4	612	613	614	615	
4	616	617	618	619	
4	620	621	622	623	
4	624	625	626	627	
4	628	629	630	631	
4	632	633	634	635	
4	636	637	638	639	
4	640	641	642	643	
4	644	645	646	647	
4	648	649	650	651	
4	652	653	654	655	
4	656	657	658	659	
4	660	661	662	663	
4	664	665	666	667	
4	668	669	670	671	
4	672	673	674	675	
4	676	677	678	679	
4	680	681	682	683	
4	684	685	686	687	
4	688	689	690	691	
4	692	693	694	695	
4	696	697	698	699	
4	700	701	702	703	
4	704	705	706	707	
4	708	709	710	711	
4	712	713	714	715	
4	716	717	718	719	
4	720	721	722	723	
4	724	725	726	727	
4	728	729	730	731	
4	732	733	734	735	
4	736	737	738	739	
4	740	741	742	743	
4	744	745	746	747	
4	748	749	750	751	
4	752	753	754	755	
4	756	757	758	759	
4	760	761	762	763	
4	764	765	766	767	
4	768	769	770	771	
4	772	773	774	775	
4	776	777	778	779	
4	780	781	782	783	
4	784	785	786	787	
4	788	789	790	791	
4	792	793	794	795	
4	796	797	798	799	
4	800	801	802	803	
4	804	805	806	807	
4	808	809	810	811	
4	812	813	814	815	
4	816	817	818	819	
4	820	821	822	823	
4	824	825	826	827	
4	828	829	830	831	
4	832	833	834	835	
4	836	837	838	839	
4	840	841	842	843	
4	844	845	846	847	
4	848	849	850	851	
4	852	853	854	855	
4	856	857	858	859	
4	860	861	862	863	
4	864	865	866	867	
4	868	869	870	871	
4	872	873	874	875	
4	876	877	878	879	
4	880	881	882	883	
4	884	885	886	887	
4	888	889	890	891	
4	892	893	894	895	
4	896	897	898	899	
4	900	901	902	903	
4	904	905	906	907	
4	908	909	910	911	
4	912	913	914	915	
4	916	917	918	919	
4	920	921	922	923	
4	924	925	926	927	
4	928	929	930	931	
4	932	933	934	935	
4	936	937	938	939	
4	940	941	942	943	
4	944	945	946	947	
4	948	949	950	951	
4	952	953	954	955	
4	956	957	958	959	
4	960	961	962	963	
4	964	965	966	967	
4	968	969	970	971	
4	972	973	974	975	
4	976	977	978	979	
4	980	981	982	983	
4	984	985	986	987	
4	988	989	990	991	
4	992	993	994	995	
4	996	997	998	999	
4	1000	1001	1002	1003	
4	1004	1005	1006	1007	
4	1008	1009	1010	1011	
4	1012	1013	1014	1015	
4	1016	1017	1018	1019	
4	1020	1021	1022	1023	
4	1024	1025	1026	1027	
4	1028	1029	1030	1031	
4	1032	1033	1034	1035	
4	1036	1037	1038	1039	
4	1040	1041	1042	1043	
4	1044	1045	1046	1047	
4	1048	1049	1050	1051	
4	1052	1053	1054	1055	
4	1056	1057	1058	1059	
4	1060	1061	1062	1063	
4	1064	1065	1066	1067	
4	1068	1069	1070	1071	
4	1072	1073	1074	1075	
4	1076	1077	1078	1079	
4	1080	1081	1082	1083	
4	1084	1085	1086	1087	
4	1088	1089	1090	1091	
4	1092	1093	1094	1095	
4	1096	1097	1098	1099	
4	1100	1101	1102	1103	
4	1104	1105	1106	1107	
4	1108	1109	1110	1111	
4	1112	1113	1114	1115	
4	1116	1117	1118	1119	
4	1120	1121	1122	1123	
4	1124	1125	1126	1127	
4	1128	1129	1130	1131	
4	1132	1133	1134	1135	
4	1136	1137	1138	1139	
4	1140	1141	1142	1143	
4	1144	1145	1146	1147	
4	1148	1149	1150	1151	
4	1152	1153	1154	1155	
4	1156	1157	1158	1159	
4	1160	1161	1162	1163	
4	1164	1165	1166	1167	
4	1168	1169	1170	1171	
4	1172	1173	1174	1175	
4	1176	1177	1178	1179	
4	1180	1181	1182	1183	
4	1184	1185	1186	1187	
4	1188	1189	1190	1191	
4	1192	1193	1194	1195	
4	1196	1197	1198	1199	
4	1200	1201	1202	1203	
4	1204	1205	1206	1207	
4	1208	1209	1210	1211	
4	1212	1213	1214	1215	
4	1216	1217	1218	1219	
4	1220	1221	1222	1223	
4	1224	1225	1226	1227	
4	1228	1229	1230	1231	
4	1232	1233	1234	1235	
4	1236	1237	1238	1239	
4	1240	1241	1242	1243	
4	1244	1245	1246	1247	
4	1248	1249	1250	1251	
4	1252	1253	1254	1255	
4	1256	1257	1258	1259	
4	1260	1261	1262	1263	
4	1264	1265	1266	1267	
4	1268	1269	1270	1271	
4	1272	1273	1274	1275	
4	1276	1277	1278	1279	
4	1280	1281	1282	1283	
4	1284	1285	1286	1287	
4	1288	1289	1290	1291	
4	1292	1293	1294	1295	
4	1296	1297	1298	1299	
4	1300	1301	1302	1303	
4	1304	1305	1306	1307	
4	1308	1309	1310	1311	
4	1312	1313	1314	1315	
4	1316	1317	1318	1319	
4	1320	1321	1322	1323	
4	1324	1325	1326	1327	
4	1328	1329	1330	1331	
4	1332	1333	1334	1335	
4	1336	1337	1338	1339	
4	1340	1341	1342	1343	
4	1344	1345	1346	1347	
4	1348	1349	1350	1351	
4	1352	1353	1354	1355	
4	1356	1357	1358	1359	
4	1360	1361	1362	1363	
4	1364	1365	1366	1367	
4	1368	1369	1370	1371	
4	1372	1373	1374	1375	
4	1376	1377	1378	1379	
4	1380	1381	1382	1383	
4	1384	1385	1386	1387	
4	1388	1389	1390	1391	
4	1392	1393	1394	1395	
4	1396	1397	1398	1399	
4	1400	1401	1402	1403	
4	1404	1405	1406	1407	
4	1408	1409	1410	1411	
4	1412	1413	1414	1415	
4	1416	1417	1418	1419	
4	1420	1421	1422	1423	
4	1424	1425	1426	1427	
4	1428	1429	1430	1431	
4	1432	1433	1434	1435	
4	1436	1437	1438	1439	
4	1440	1441	1442	1443	
4	1444	1445	1446	1447	
4	1448	1449	1450	1451	
4	1452	1453	1454	1455	
4	1456	1457	1458	1459	
4	1460	1461	1462	1463	
4	1464	1465	1466	1467	
4	1468	1469	1470	1471	
4	1472	1473	1474	1475	
4	1476	1477	1478	1479	
4	1480	1481	1482	1483	
4	1484	1485	1486	1487	
4	1488	1489	1490	1491	
4	1492	1493	1494	1495	
4	1496	1497	1498	1499	
4	1500	1501	1502	1503	
4	1504	1505	1506	1507	
4	1508	1509	1510	1511	
4	1512	1513	1514	1515	
4	1516	1517	1518	1519	
4	1520	1521	1522	1523	
4	1524	1525	1526	1527	
4	1528	1529	1530	1531	
4	1532	1533	1534	1535	
4	1536	1537	1538	1539	
4	1540	1541	1542	1543	
4	1544	1545	1546	1547	
4	1548	1549	1550	1551	
4	1552	1553	1554	1555	
4	1556	1557	1558	1559	
4	1560	1561	1562	1563	
4	1564	1565	1566	1567	
4	1568	1569	1570	1571	
4	1572	1573	1574	1575	
4	1576	1577	1578	1579	
4	1580	1581	1582	1583	
4	1584	1585	1586	1587	
4	1588	1589	1590	1591	
4	1592	1593	1594	1595	
4	1596	1597	1598	1599	
4	1600	1601	1602	1603	
4	1604	1605	1606	1607	
4	1608	1609	1610	1611	
4	1612	1613	1614	1615	
4	1616	1617	1618	1619	
4	1620	1621	1622	1623	
4	1624	1625	1626	1627	
4	1628	1629	1630	1631	
4	1632	1633	1634	1635	
4	1636	1637	1638	1639	
4	1640	1641	1642	1643	
4	1644	1645	1646	1647	
4	1648	1649	1650	1651	
4	1652	1653	1654	1655	
4	1656	1657	1658	1659	
4	1660	1661	1662	1663	
4	1664	1665	1666	1667	
4	1668	1669	1670	1671	
4	1672	1673	1674	1675	
4	1676	1677	1678	1679	
4	1680	1681	1682	1683	
4	1684	1685	1686	1687	
4	1688	1689	1690	1691	
4	1692	1693	1694	1695	
4	1696	1697	1698	1699	
4	1700	1701	1702	1703	
4	1704	1705	1706	1707	
4	1708	1709	1710	1711	
4	1712	1713	1714	1715	
4	1716	1717	1718	1719	
4	1720	1721	1722	1723	
4	1724	1725	1726	1727	
4	1728	1729	1730	1731	
4	1732	1733	1734	1735	
4	1736	1737	1738	1739	
4	1740	1741	1742	1743	
4	1744	1745	1746	1747	
4	1748	1749	1750	1751	
4	1752	1753	1754	1755	
4	1756	1757	1758	1759	
4	1760	1761	1762	1763	
4	1764	1765	1766	1767	
4	1768	1769	1770	1771	
4	1772	1773	1774	1775	
4	1776	1777	1778	1779	
4	1780	1781	1782	1783	
4	1784	1785	1786	1787	
4	1788	1789	1790	1791	
4	1792	1793	1794	1795	
4	1796	1797	1798	1799	
4	1800	1801	1802	1803	
4	1804	1805	1806	1807	
4	1808	1809	1810	1811	
4	1812	1813	1814	1815	
4	1816	1817	1818	1819	
4	1820	1821	1822	1823	
4	1824	1825	1826	1827	
4	1828	1829	1830	1831	
4	1832	1833	1834	1835	
4	1836	1837	1838	1839	
4	1840	1841	1842	1843	
4	1844	1845	1846	1847	
4	1848	1849	1850	1851	
4	1852	1853	1854	1855	
4	1856	1857	1858	1859	
4	1860	1861	1862	1863	
4	1864	1865	1866	1867	
4	1868	1869	1870	1871	
4	1872	1873	1874	1875	
4	1876	1877	1878	1879	
4	1880	1881	1882	1883	
4	1884	1885	1886	1887	
4	1888	1889	1890	1891	
4	1892	1893	1894	1895	
4	1896	1897	1898	1899	
4	1900	1901	1902	1903	
4	1904	1905	1906	1907	
4	1908	1909	1910	1911	
4	1912	1913	1914	1915	
4	1916	1917	1918	1919	
4	1920	1921	1922	1923	
4	1924	1925	1926	1927	
4	1928	1929	1930	1931	
4	1932	1933	1934	1935	
4	1936	1937	1938	1939	
4	1940	1941	1942	1943	
4	1944	1945	1946	1947	
4	1948	1949	1950	1951	
4	1952	1953	1954	1955	
4	1956	1957	1958	1959	
4	1960	1961	1962	1963	
4	1964	1965	1966	1967	
4	1968	1969	1970	1971	
4	1972	1973	1974	1975	
4	1976	1977	1978	1979	
4	1980	1981	1982	1983	
4	1984	1985	1986	1987	
4	1988	1989	1990	1991	
4	1992	1993	1994	1995	
4	1996	1997	1998	1999	
4	2000	2001	2002	2003	
4	2004	2005	2006	2007	
4	2008	2009	2010	2011	
4	2012	2013	2014	2015	
4	2016	2017	2018	2019	
4	2020	2021	2022	2023	
4	2024	2025	2026	2027	
4	2028	2029	2030	2031	
4	2032	2033	2034	2035	
4	2036	2037	2038	2039	
4	2040	2041	2042	2043	
4	2044	2045	2046	2047	
4	2048	2049	2050	2051	
4	2052	2053	2054	2055	
4	2056	2057	2058	2059	
4	2060	2061	2062	2063	
4	2064	2065	2066	2067	
4	2068	2069	2070	2071	
4	2072	2073	2074	2075	
4	2076	2077	2078	2079	
4	2080	2081	2082	2083	
4	2084	2085	2086	2087	
4	2088	2089	2090	2091	
4	2092	2093	2094	2095	
4	2096	2097	2098	2099	
4	2100	2101	2102	2103	
4	2104	2105	2106	2107	
4	2108	2109	2110	2111	
4	2112	2113	2114	2115	
4	2116	2117	2118	2119	
4	2120	2121	2122	2123	
4	2124	2125	2126	2127	
4	2128	2129	2130	2131	
4	2132	2133	2134	2135	
4	2136	2137	2138	2139	
4	2140	2141	2142	2143	
4	2144	2145	2146	2147	
4	2148	2149	2150	2151	
4	2152	2153	2154	2155	
4	2156	2157	2158	2159	
4	2160	2161	2162	2163	
4	2164	2165	2166	2167	
4	2168	2169	2170	2171	
4	2172	2173	2174	2175	
4	2176	2177	2178	2179	
4	2180	2181	2182	2183	
4	2184	2185	2186	2187	
4	2188	2189	2190	2191	
4	2192	2193	2194	2195	
4	2196	2197	2198	2199	
4	2200	2201	2202	2203	
4	2204	2205	2206	2207	
4	2208	2209	2210	2211	
4	2212	2213	2214	2215	
4	2216	2217	2218	2219	
4	2220	2221	2222	2223	
4	2224	2225	2226	2227	
4	2228	2229	2230	2231	
4	2232	2233	2234	2235	
4	2236	2237	2238	2239	
4	2240	2241	2242	2243	
4	2244	2245	2246	2247	
4	2248	2249	2250	2251	
4	2252	2253	2254	2255	
4	2256	2257	2258	2259	
4	2260	2261	2262	2263	
4	2264	2265	2266	2267	
4	2268	2269	2270	2271	
4	2272	2273	2274	2275	
4	2276	2277	2278	2279	
4	2280	2281	2282	2283	
4	2284	2285	2286	2287	
4	2288	2289	2290	2291	
4	2292	2293	2294	2295	
4	2296	2297	2298	2299	
4	2300	2301	2302	2303	
4	2304	2305	2306	2307	
4	2308	2309	2310	2311	
4	2312	2313	2314	2315	
4	2316	2317	2318	2319	
4	2320	2321	2322	2323	
4	2324	2325	2326	2327	
4	2328	2329	2330	2331	
4	2332	2333	2334	2335	
4	2336	2337	2338	2339	
4	2340	2341	2342	2343	
4	2344	2345	2346	2347	
4	2348	2349	2350	2351	
4	2352	2353	2354	2355	
4	2356	2357	2358	2359	
4	2360	2361	2362	2363	
4	2364	2365	2366	2367	
4	2368	2369	2370	2371	
4	2372	2373	2374	2375	
4	2376	2377	2378	2379	
4	2380	2381	2382	2383	
4	2384	2385	2386	2387	
4	2388	2389	2390	2391	
4	2392	2393	2394	2395	
4	2396	2397	2398	2399	
4	2400	2401	2402	2403	
4	2404	2405	2406	2407	
4	2408	2409	2410	2411	
4	2412	2413	2414	2415	
4	2416	2417	2418	2419	
4	2420	2421	2422	2423	
4	2424	2425	2426	2427	
4	2428	2429	2430	2431	
4	2432	2433	2434	2435	
4	2436	2437	2438	2439	
4	2440	2441	2442	2443	
4	2444	2445	2446	2447	
4	2448	2449	2450	2451	
4	2452	2453	2454	2455	
4	2456	2457	2458	2459	
4	2460	2461	2462	2463	
4	2464	2465	2466	2467	
4	2468	2469	2470	2471	
4	2472	2473	2474	2475	
4	2476	2477	2478	2479	
4	2480	2481	2482	2483	
4	2484	2485	2486	2487	
4	2488	2489	2490	2491	
4	2492	2493	2494	2495	
4	2496	2497	2498	2499	
4	2500	2501	2502	2503	
4	2504	2505	2506	2507	
4	2508	2509	2510	2511	
4	2512	2513	2514	2515	
4	2516	2517	2518	2519	
4	2520	2521	2522	2523	
4	2524	2525	2526	2527	
4	2528	2529	2530	2531	
4	2532	2533	2534	2535	
4	2536	2537	2538	2539	
4	2540	2541	2542	2543	
4	2544	2545	2546	2547	
4	2548	2549	2550	2551	
4	2552	2553	2554	2555	
4	2556	2557	2558	2559	
4	2560	2561	2562	2563	
4	2564	2565	2566	2567	
4	2568	2569	2570	2571	
4	2572	2573	2574	2575	
4	2576	2577	2578	2579	
4	2580	2581	2582	2583	
4	2584	2585	2586	2587	
4	2588	2589	2590	2591	
4	2592	2593	2594	2595	
4	2596	2597	2598	2599	
4	2600	2601	2602	2603	
4	2604	2605	2606	2607	
4	2608	2609	2610	2611	
4	2612	2613	2614	2615	
4	2616	2617	2618	2619	
4	2620	2621	2622	2623	
4	2624	2625	2626	2627	
4	2628	2629	2630	2631	
4	2632	2633	2634	2635	
4	2636	2637	2638	2639	
4	2640	2641	2642	2643	
4	2644	2645	2646	2647	
4	2648	2649	2650	2651	
4	2652	2653	2654	2655	
4	2656	2657	2658	2659	
4	2660	2661	2662	2663	
4	2664	2665	2666	2667	
4	2668	2669	2670	2671	
4	2672	2673	2674	2675	
4	2676	2677	2678	2679	
4	2680	2681	2682	2683	
4	2684	2685	2686	2687	
4	2688	2689	2690	2691	
4	2692	2693	2694	2695	
4	2696	2697	2698	2699	
4	2700	2701	2702	2703	
4	2704	2705	2706	2707	
4	2708	2709	2710	2711	
4	2712	2713	2714	2715	
4	2716	2717	2718	2719	
4	2720	2721	2722	2723	
4	2724	2725	2726	2727	
4	2728	2729	2730	2731	
4	2732	2733	2734	2735	
4	2736	2737	2738	2739	
4	2740	2741	2742	2743	
4	2744	2745	2746	2747	
4	2748	2749	2750	2751	
4	2752	2753	2754	2755	
4	2756	2757	2758	2759	
4	2760	2761	2762	2763	
4	2764	2765	2766	2767	
4	2768	2769	2770	2771	
4	2772	2773	2774	2775	
4	2776	2777	2778	2779	
4	2780	2781	2782	2783	
4	2784	2785	2786	2787	
4	2788	2789	2790	2791	
4	2792	2793	2794	2795	
4	2796	2797	2798	2799	
4	2800	2801	2802	2803	
4	2804	2805	2806	2807	
4	2808	2809	2810	2811	
4	2812	2813	2814	2815	
4	2816	2817	2818	2819	
4	2820	2821	2822	2823	
4	2824	2825	2826	2827	
4	2828	2829	2830	2831	
4	2832	2833	2834	2835	
4	2836	2837	2838	2839	
4	2840	2841	2842	2843	
4	2844	2845	2846	2847	
4	2848	2849	2850	2851	
4	2852	2853	2854	2855	
4	2856	2857	2858	2859	
4	2860	2861	2862	2863	
4	2864	2865	2866	2867	
4	2868	2869	2870	2871	
4	2872	2873	2874	2875	
4	2876	2877	2878	2879	
4	2880	2881	2882	2883	
4	2884	2885	2886	2887	
4	2888	2889	2890	2891	
4	2892	2893	2894	2895	
4	2896	2897	2898	2899	
4	2900	2901	2902	2903	
4	2904	2905	2906	2907	
4	2908	2909	2910	2911	
4	2912	2913	2914	2915	
4	2916	2917	2918	2919	
4	2920	2921	2922	2923	
4	2924	2925	2926	2927	
4	2928	2929	2930	2931	
4	2932	2933	2934	2935	
4	2936	2937	2938	2939	
4	2940	2941	2942	2943	
4	2944	2945	2946	2947	
4	2948	2949	2950	2951	
4	2952	2953	2954	2955	
4	2956	2957	2958	2959	
4	2960	2961	2962	2963	
4	2964	2965	2966	2967	
4	2968	2969	2970	2971	
4	2972	2973	2974	2975	
4	2976	2977	2978	2979	
4	2980	2981	2982	2983	
4	2984	2985	2986	2987	
4	2988	2989	2990	2991	
4	2992	2993	2994	2995	
4	2996	2997	2998	2999	
4	3000	3001	3002	3003	
4	3004	3005	3006	3007	
4	3008	3009	3010	3011	
4	3012	3013	3014	3015	
4	3016	3017	3018	3019	
4	3020	3021	3022	3023	
4	3024	3025	3026	3027	
4	3028	3029	3030	3031	
4	3032	3033	3034	3035	
4	3036	3037	3038	3039	
4	3040	3041	3042	3043	
4	3044	3045	3046	3047	
4	3048	3049	3050	3051	
4	3052	3053	3054	3055	
4	3056	3057	3058	3059	
4	3060	3061	3062	3063	
4	3064	3065	3066	3067	
4	3068	3069	3070	3071	
4	3072	3073	3074	3075	
4	3076	3077	3078	3079	
4	3080	3081	3082	3083	
4	3084	3085	3086	3087	
4	3088	3089	3090	3091	
4	3092	3093	3094	3095	
4	3096	3097	3098	3099	
4	3100	3101	3102	3103	
4	3104	3105	3106	3107	
4	3108	3109	3110	3111	
4	3112	3113	3114	3115	
4	3116	3117	3118	3119	
4	3120	3121	3122	3123	
4	3124	3125	3126	3127	
4	3128	3129	3130	3131	
4	3132	3133	3134	3135	
4	3136	3137	3138	3139	
4	3140	3141	3142	3143	
4	3144	3145	3146	3147	
4	3148	3149	3150	3151	
4	3152	3153	3154	3155	
4	3156	3157	3158	3159	
4	3160	3161	3162	3163	
4	3164	3165	3166	3167	
4	3168	3169	3170	3171	
4	3172	3173	3174	3175	
4	3176	3177	3178	3179	
4	3180	3181	3182	3183	
4	3184	3185	3186	3187	
4	3188	3189	3190	3191	
4	3192	3193	3194	3195	
4	3196	3197	3198	3199	
4	3200	3201	3202	3203	
4	3204	3205	3206	3207	
4	3208	3209	3210	3211	
4	3212	3213	3214	3215	
4	3216	3217	3218	3219	
4	3220	3221	3222	3223	
4	3224	3225	3226	3227	
4	3228	3229	3230	3231	
4	3232	3233	3234	3235	
4	3236	3237	3238	3239	
4	3240	3241	3242	3243	
4	3244	3245	3246	3247	
4	3248	3249	3250	3251	
4	3252	3253	3254	3255	
4	3256	3257	3258	3259	
4	3260	3261	3262	3263	
4	3264	3265	3266	3267	
4	3268	3269	3270	3271	
4	3272	3273	3274	3275	
4	3276	3277	3278	3279	
4	3280	3281	3282	3283	
4	3284	3285	3286	3287	
4	3288	3289	3290	3291	
4	3292	3293	3294	3295	
4	3296	3297	3298	3299	
4	3300	3301	3302	3303	
4	3304	3305	3306	3307	
4	3308	3309	3310	3311	
4	3312	3313	3314	3315	
4	3316	3317	3318	3319	
4	3320	3321	3322	3323	
4	3324	3325	3326	3327	
4	3328	3329	3330	3331	
4	3332	3333	3334	3335	
4	3336	3337	3338	3339	
4	3340	3341	3342	3343	
4	3344	3345	3346	3347	
4	3348	3349	3350	3351	
4	3352	3353	3354	3355	
4	3356	3357	3358	3359	
4	3360	3361	3362	3363	
4	3364	3365	3366	3367	
4	3368	3369	3370	3371	
4	3372	3373	3374	3375	
4	3376	3377	3378	3379	
4	3380	3381	3382	3383	
4	3384	3385	3386	3387	
4	3388	3389	3390	3391	
4	3392	3393	3394	3395	
4	3396	3397	3398	3399	
4	3400	3401	3402	3403	
4	3404	3405	3406	3407	
4	3408	3409	3410	3411	
4	3412	3413	3414	3415	
4	3416	3417	3418	3419	
4	3420	3421	3422	3423	
4	3424	3425	3426	3427	
4	3428	3429	3430	3431	
4	3432	3433	3434	3435	
4	3436	3437	3438	3439	
4	3440	3441	3442	3443	
4	3444	3445	3446	3447	
4	3448	3449	3450	3451	
4	3452	3453	3454	3455	
4	3456	3457	3458	3459	
4	3460	3461	3462	3463	
4	3464	3465	3466	3467	
4	3468	3469	3470	3471	
4	3472	3473	3474	3475	
4	3476	3477	3478	3479	
4	3480	3481	3482	3483	
4	3484	3485	3486	3487	
4	3488	3489	3490	3491	
4	3492	3493	3494	3495	
4	3496	3497	3498	3499	
4	3500	3501	3502	3503	
4	3504	3505	3506	3507	
4	3508	3509	3510	3511	
4	3512	3513	3514	3515	
4	3516	3517	3518	3519	
4	3520	3521	3522	3523	
4	3524	3525	3526	3527	
4	3528	3529	3530	3531	
4	3532	3533	3534	3535	
4	3536	3537	3538	3539	
4	3540	3541	3542	3543	
4	3544	3545	3546	3547	
4	3548	3549	3550	3551	
4	3552	3553	3554	3555	
4	3556	3557	3558	3559	
4	3560	3561	3562	3563	
4	3564	3565	3566	3567	
4	3568	3569	3570	3571	
4	3572	3573	3574	3575	
4	3576	3577	3578	3579	
4	3580	3581	3582	3583	
4	3584	3585	3586	3587	
4	3588	3589	3590	3591	
4	3592	3593	3594	3595	
4	3596	3597	3598	3599	
4	3600	3601	3602	3603	
4	3604	3605	3606	3607	
4	3608	3609	3610	3611	
4	3612	3613	3614	3615	
4	3616	3617	3618	3619	
4	3620	3621	3622	3623	
4	3624	3625	3626	3627	
4	3628	3629	3630	3631	
4	3632	3633	3634	3635	
4	3636	3637	3638	3639	
4	3640	3641	3642	3643	
4	3644	3645	3646	3647	
4	3648	3649	3650	3651	
4	3652	3653	3654	3655	
4	3656	3657	3658	3659	
4	3660	3661	3662	3663	
4	3664	3665	3666	3667	
4	3668	3669	3670	3671	
4	3672	3673	3674	3675	
4	3676	3677	3678	3679	
4	3680	3681	3682	3683	
4	3684	3685	3686	3687	
4	3688	3689	3690	3691	
4	3692	3693	3694	3695	
4	3696	3697	3698	3699	
4	3700	3701	3702	3703	
4	3704	3705	3706	3707	
4	3708	3709	3710	3711	
4	3712	3713	3714	3715	
4	3716	3717	3718	3719	
4	3720	3721	3722	3723	
4	3724	3725	3726	3727	
4	3728	3729	3730	3731	
4	3732	3733	3734	3735	
4	3736	3737	3738	3739	
4	3740	3741	3742	3743	
4	3744	3745	3746	3747	
4	3748	3749	3750	3751	
4	3752	3753	3754	3755	
4	3756	3757	3758	3759	
4	3760	3761	3762	3763	
4	3764	3765	3766	3767	
4	3768	3769	3770	3771	
4	3772	3773	3774	3775	
4	3776	3777	3778	3779	
4	3780	3781	3782	3783	
4	3784	3785	3786	3787	
4	3788	3789	3790	3791	
4	3792	3793	3794	3795	
4	3796	3797	3798	3799	
4	3800	3801	3802	3803	
4	3804	3805	3806	3807	
4	3808	3809	3810	3811	
4	3812	3813	3814	3815	
4	3816	3817	3818	3819	
4	3820	3821	3822	3823	
4	3824	3825	3826	3827	
4	3828	3829	3830	3831	
4	3832	3833	3834	3835	
4	3836	3837	3838	3839	
4	3840	3841	3842	3843	
4	3844	3845	3846	3847	
4	3848	3849	3850	3851	
4	3852	3853	3854	3855	
4	3856	3857	3858	3859	
4	3860	3861	3862	3863	
4	3864	3865	3866	3867	
4	3868	3869	3870	3871	
4	3872	3873	3874	3875	
4	3876	3877	3878	3879	
4	3880	3881	3882	3883	
4	3884	3885	3886	3887	
4	3888	3889	3890	3891	
4	3892	3893	3894	3895	
4	3896	3897	3898	3899	
4	3900	3901	3902	3903	
4	3904	3905	3906	3907	
4	3908	3909	3910	3911	
4	3912	3913	3914	3915	
4	3916	3917	3918	3919	
4	3920	3921	3922	3923	
4	3924	3925	3926	3927	
4	3928	3929	3930	3931	
4	3932	3933	3934	3935	
4	3936	3937	3938	3939	
4	3940	3941	3942	3943	
4	3944	3945	3946	3947	
4	3948	3949	3950	3951	
4	3952	3953	3954	3955	
4	3956	3957	3958	3959	
4	3960	3961	3962	3963	
4	3964	3965	3966	3967	
4	3968	3969	3970	3971	
4	3972	3973	3974	3975	
4	3976	3977	3978	3979	
4	3980	3981	3982	3983	
4	3984	3985	3986	3987	
4	3988	3989	3990	3991	
4	3992	3993	3994	3995	
4	3996	3997	3998	3999	
4	4000	4001	4002	4003	
4	4004	4005	4006	4007	
4	4008	4009	4010	4011	
4	4012	4013	4014	4015	
4	4016	4017	4018	4019	
4	4020	4021	4022	4023	
4	4024	4025	4026	4027	
4	4028	4029	4030	4031	
4	4032	4033	4034	4035	
4	4036	4037	4038	4039	
4	4040	4041	4042	4043	
4	4044	4045	4046	4047	
4	4048	4049	4050	4051	
4	4052	4053	4054	4055	
4	4056	4057	4058	4059	
4	4060	4061	4062	4063	
4	4064	4065	4066	4067	
4	4068	4069	4070	4071	
4	4072	4073	4074	4075	
4	4076	4077	4078	4079	
4	4080	4081	4082	4083	
4	4084	4085	4086	4087	
4	4088	4089	4090	4091	
4	4092	4093	4094	4095	
4	4096	4097	4098	4099	
4	4100	4101	4102	4103	
4	4104	4105	4106	4107	
4	4108	4109	4110	4111	
4	4112	4113	4114	4115	
4	4116	4117	4118	4119	
4	4120	4121	4122	4123	
4	4124	4125	4126	4127	
4	4128	4129	4130	4131	
4	4132	4133	4134	4135	
4	4136	4137	4138	4139	
4	4140	4141	4142	4143	
4	4144	4145	4146	4147	
4	4148	4149	4150	4151	
4	4152	4153	4154	4155	
4	4156	4157	4158	4159	
4	4160	4161	4162	4163	
4	4164	4165	4166	4167	
4	4168	4169	4170	4171	
4	4172	4173	4174	4175	
4	4176	4177	4178	4179	
4	4180	4181	4182	4183	
4	4184	4185	4186	4187	
4	4188	4189	4190	4191	
4	4192	4193	4194	4195	
4	4196	4197	4198	4199	
4	4200	4201	4202	4203	
4	4204	4205	4206	4207	
4	4208	4209	4210	4211	
4	4212	4213	4214	4215	
4	4216	4217	4218	4219	
4	4220	4221	4222	4223	
4	4224	4225	4226	4227	
4	4228	4229	4230	4231	
4	4232	4233	4234	4235	
4	4236	4237	4238	4239	
4	4240	4241	4242	4243	
4	4244	4245	4246	4247	
4	4248	4249	4250	4251	
4	4252	4253	4254	4255	
4	4256	4257	4258	4259	
4	4260	4261	4262	4263	
4	4264	4265	4266	4267	
4	4268	4269	4270	4271	
4	4272	4273	4274	4275	
4	4276	4277	4278	4279	
4	4280	4281	4282	4283	
4	4284	4285	4286	4287	
4	4288	4289	4290	4291	
4	4292	4293	4294	4295	
4	4296	4297	4298	4299	
4	4300	4301	4302	4303	
4	4304	4305	4306	4307	
4	4308	4309	4310	4311	
4	4312	4313	4314	4315	
4	4316	4317	4318	4319	
4	4320	4321	4322	4323	
4	4324	4325	4326	4327	
4	4328	4329	4330	4331	
4	4332	4333	4334	4335	
4	4336	4337	4338	4339	
4	4340	4341	4342	4343	
4	4344	4345	4346	4347	
4	4348	4349	4350	4351	
4	4352	4353	4354	4355	
4	4356	4357	4358	4359	
4	4360	4361	4362	4363	
4	4364	4365	4366	4367	
4	4368	4369	4370	4371	
4	4372	4373	4374	4375	
4	4376	4377	4378	4379	
4	4380	4381	4382	4383	
4	4384	4385	4386	4387	
4	4388	4389	4390	4391	
4	4392	4393	4394	4395	
4	4396	4397	4398	4399	
4	4400	4401	4402	4403	
4	4404	4405	4406	4407	
4	4408	4409	4410	4411	
4	4412	4413	4414	4415	
4	4416	4417	4418	4419	
4	4420	4421	4422	4423	
4	4424	4425	4426	4427	
4	4428	4429	4430	4431	
4	4432	4433	4434	4435	
4	4436	4437	4438	4439	
4	4440	4441	4442	4443	
4	4444	4445	4446	4447	
4	4448	4449	4450	4451	
4	4452	4453	4454	4455	
4	4456	4457	4458	4459	
4	4460	4461	4462	4463	
4	4464	4465	4466	4467	
4	4468	4469	4470	4471	
4	4472	4473	4474	4475	
4	4476	4477	4478	4479	
4	4480	4481	4482	4483	
4	4484	4485	4486	4487	
4	4488	4489	4490	4491	
4	4492	4493	4494	4495	
4	4496	4497	4498	4499	
4	4500	4501	4502	4503	
4	4504	4505	4506	4507	
4	4508	4509	4510	4511	
4	4512	4513	4514	4515	
4	4516	4517	4518	4519	
4	4520	4521	4522	4523	
4	4524	4525	4526	4527	
4	4528	4529	4530	4531	
4	4532	4533	4534	4535	
4	4536	4537	4538	4539	
4	4540	4541	4542	4543	
4	4544	4545	4546	4547	
4	4548	4549	4550	4551	
4	4552	4553	4554	4555	
4	4556	4557	4558	4559	
4	4560	4561	4562	4563	
4	4564	4565	4566	4567	
4	4568	4569	4570	4571	
4	4572	4573	4574	4575	
4	4576	4577	4578	4579	
4	4580	4581	4582	4583	
4	4584	4585	4586	4587	
4	4588	4589	4590	4591	
4	4592	4593	4594	4595	
4	4596	4597	4598	4599	
4	4600	4601	4602	4603	
4	4604	4605	4606	4607	
4	4608	4609	4610	4611	
4	4612	4613	4614	4615	
4	4616	4617	4618	4619	
4	4620	4621	4622	4623	
4	4624	4625	4626	4627	
4	4628	4629	4630	4631	
4	4632	4633	4634	4635	
4	4636	4637	4638	4639	
4	4640	4641	4642	4643	
4	4644	4645	4646	4647	
4	4648	4649	4650	4651	
4	4652	4653	4654	4655	
4	4656	4657	4658	4659	
4	4660	4661	4662	4663	
4	4664	4665	4666	4667	
4	4668	4669	4670	4671	
4	4672	4673	4674	4675	
4	4676	4677	4678	4679	
4	4680	4681	4682	4683	
4	4684	4685	4686	4687	
4	4688	4689	4690	4691	
4	4692	4693	4694	4695	
4	4696	4697	4698	4699	
4	4700	4701	4702	4703	
4	4704	4705	4706	4707	
4	4708	4709	4710	4711	
4	4712	4713	4714	4715	
4	4716	4717	4718	4719	
4	4720	4721	4722	4723	
4	4724	4725	4726	4727	
4	4728	4729	4730	4731	
4	4732	4733	4734	4735	
4	4736	4737	4738	4739	
4	4740	4741	4742	4743	
4	4744	4745	4746	4747	
4	4748	4749	4750	4751	
4	4752	4753	4754	4755	
4	4756	4757	4758	4759	
4	4760	4761	4762	4763	
4	4764	4765	4766	4767	
4	4768	4769	4770	4771	
4	4772	4773	4774	4775	
4	4776	4777	4778	4779	
4	4780	4781	4782	4783	
4	4784	4785	4786	4787	
4	4788	4789	4790	4791	
4	4792	4793	4794	4795	
4	4796	4797	4798	4799	
4	4800	4801	4802	4803	
4	4804	4805	4806	4807	
4	4808	4809	4810	4811	
4	4812	4813	4814	4815	
4	4816	4817	4818	4819	
4	4820	4821	4822	4823	
4	4824	4825	4826	4827	
4	4828	4829	4830	4831	
4	4832	4833	4834	4835	
4	4836	4837	4838	4839	
4	4840	4841	4842	4843	
4	4844	4845	4846	4847	
4	4848	4849	4850	4851	
4	4852	4853	4854	4855	
4	4856	4857	4858	4859	
4	4860	4861	4862	4863	
4	4864	4865	4866	4867	
4	4868	4869	4870	4871	
4	4872	4873	4874	4875	
4	4876	4877	4878	4879	
4	4880	4881	4882	4883	
4	4884	4885	4886	4887	
4	4888	4889	4890	4891	
4	4892	4893	4894	4895	
4	4896	4897	4898	4899	
4	4900	4901	4902	4903	
4	4904	4905	4906	4907	
4	4908	4909	4910	4911	
4	4912	4913	4914	4915	
4	4916	4917	4918	4919	
4	4920	4921	4922	4923	
4	4924	4925	4926	4927	
4	4928	4929	4930	4931	
4	4932	4933	4934	4935	
4	4936	4937	4938	4939	
4	4940	4941	4942	4943	
4	4944	4945	4946	4947	
4	4948	4949	4950	4951	
4	4952	4953	4954	4955	
4	4956	4957	4958	4959	
4	4960	4961	4962	4963	
4	4964	4965	4966	4967	
4	4968	4969	4970	4971	
4	4972	4973	4974	4975	
4	4976	4977	4978	4979	
4	4980	4981	4982	4983	
4	4984	4985	4986	4987	
4	4988	4989	4990	4991	
4	4992	4993	4994	4995	
4	4996	4997	4998	4999	
4	5000	5001	5002	5003	
4	5004	5005	5006	5007	
4	5008	5009	5010	5011	
4	5012	5013	5014	5015	
4	5016	5017	5018	5019	
4	5020	5021	5022	5023	
4	5024	5025	5026	5027	
4	5028	5029	5030	5031	
4	5032	5033	5034	5035	
4	5036	5037	5038	5039	
4	5040	5041	5042	5043	
4	5044	5045	5046	5047	
4	5048	5049	5050	5051	
4	5052	5053	5054	5055	
4	5056	5057	5058	5059	
4	5060	5061	5062	5063	
4	5064	5065	5066	5067	
4	5068	5069	5070	5071	
4	5072	5073	5074	5075	
4	5076	5077	5078	5079	
4	5080	5081	5082	5083	
4	5084	5085	5086	5087	
4	5088	5089	5090	5091	
4	5092	5093	5094	5095	
4	5096	5097	5098	5099	
4	5100	5101	5102	5103	
4	5104	5105	5106	5107	
4	5108	5109	5110	5111	
4	5112	5113	5114	5115	
4	5116	5117	5118	5119	
4	5120	5121	5122	5123	
4	5124	5125	5126	5127	
4	5128	5129	5130	5131	
4	5132	5133	5134	5135	
4	5136	5137	5138	5139	
4	5140	5141	5142	5143	
4	5144	5145	5146	5147	
4	5148	5149	5150	5151	
4	5152	5153	5154	5155	
4	5156	5157	5158	5159	
4	5160	5161	5162	5163	
4	5164	5165	5166	5167	
4	5168	5169	5170	5171	
4	5172	5173	5174	5175	
4	5176	5177	5178	5179	
4	5180	5181	5182	5183	
4	5184	5185	5186	5187	
4	5188	5189	5190	5191	
4	5192	5193	5194	5195	
4	5196	5197	5198	5199	
4	5200	5201	5202	5203	
4	5204	5205	5206	5207	
4	5208	5209	5210	5211	
4	5212	5213	5214	5215	
4	5216	5217	5218	5219	
4	5220	5221	5222	5223	
4	5224	5225	5226	5227	
4	5228	5229	5230	5231	
4	5232	5233	5234	5235	
4	5236	5237	5238	5239	
4	5240	5241	5242	5243	
4	5244	5245	5246	5247	
4	5248	5249	5250	5251	
4	5252	5253	5254	5255	
4	5256	5257	5258	5259	
4	5260	5261	5262	5263	
4	5264	5265	5266	5267	
4	5268	5269	5270	5271	
4	5272	5273	5274	5275	
4	5276	5277	5278	5279	
4	5280	5281	5282	5283	
4	5284	5285	5286	5287	
4	5288	5289	5290	5291	
4	5292	5293	5294	5295	
4	5296	5297	5298	5299	
4	5300	5301	5302	5303	
4	5304	5305	5306	5307	
4	5308	5309	5310	5311	
4	5312	5313	5314	5315	
4	5316	5317	5318	5319	
4	5320	5321	5322	5323	
4	5324	5325	5326	5327	
4	5328	5329	5330	5331	
4	5332	5333	5334	5335	
4	5336	5337	5338	5339	
4	5340	5341	5342	5343	
4	5344	5345	5346	5347	
4	5348	5349	5350	5351	
4	5352	5353	5354	5355	
4	5356	5357	5358	5359	
4	5360	5361	5362	5363	
4	5364	5365	5366	5367	
4	5368	5369	5370	5371	
4	5372	5373	5374	5375	
4	5376	5377	5378	5379	
4	5380	5381	5382	5383	
4	5384	5385	5386	5387	
4	5388	5389	5390	5391	
4	5392	5393	5394	5395	
4	5396	5397	5398	5399	
4	5400	5401	5402	5403	
4	5404	5405	5406	5407	
4	5408	5409	5410	5411	
4	5412	5413	5414	5415	
4	5416	5417	5418	5419	
4	5420	5421	5422	5423	
4	5424	5425	5426	5427	
4	5428	5429	5430	5431	
4	5432	5433	5434	5435	
4	5436	5437	5438	5439	
4	5440	5441	5442	5443	
4	5444	5445	5446	5447	
4	5448	5449	5450	5451	
4	5452	5453	5454	5455	
4	5456	5457	5458	5459	
4	5460	5461	5462	5463	
4	5464	5465	5466	5467	
4	5468	5469	5470	5471	
4	5472	5473	5474	5475	
4	5476	5477	5478	5479	
4	5480	5481	5482	5483	
4	5484	5485	5486	5487	
4	5488	5489	5490	5491	
4	5492	5493	5494	5495	
4	5496	5497	5498	5499	
4	5500	5501	5502	5503	
4	5504	5505	5506	5507	
4	5508	5509	5510	5511	
4	5512	5513	5514	5515	
4	5516	5517	5518	5519	
4	5520	5521	5522	5523	
4	5524	5525	5526	5527	
4	5528	5529	5530	5531	
4	5532	5533	5534	5535	
4	5536	5537	5538	5539	
4	5540	5541	5542	5543	
4	5544	5545	5546	5547	
4	5548	5549	5550	5551	
4	5552	5553	5554	5555	
4	5556	5557	5558	5559	
4	5560	5561	5562	5563	
4	5564	5565	5566	5567	
4	5568	5569	5570	5571	
4	5572	5573	5574	5575	
4	5576	5577	5578	5579	
4	5580	5581	5582	5583	
4	5584	5585	5586	5587	
4	5588	5589	5590	5591	
4	5592	5593	5594	5595	
4	5596	5597	5598	5599	
4	5600	5601	5602	5603	
4	5604	5605	5606	5607	
4	5608	5609	5610	5611	
4	5612	5613	5614	5615	
4	5616	5617	5618	5619	
4	5620	5621	5622	5623	
4	5624	5625	5626	5627	
4	5628	5629	5630	5631	
4	5632	5633	5634	5635	
4	5636	5637	5638	5639	
4	5640	5641	5642	5643	
4	5644	5645	5646	5647	
4	5648	5649	5650	5651	
4	5652	5653	5654	5655	
4	5656	5657	5658	5659	
4	5660	5661	5662	5663	
4	5664	5665	5666	5667	
4	5668	5669	5670	5671	
4	5672	5673	5674	5675	
4	5676	5677	5678	5679	
4	5680	5681	5682	5683	
4	5684	5685	5686	5687	
4	5688	5689	5690	5691	
4	5692	5693	5694	5695	
4	5696	5697	5698	5699	
4	5700	5701	5702	5703	
4	5704	5705	5706	5707	
4	5708	5709	5710	5711	
4	5712	5713	5714	5715	
4	5716	5717	5718	5719	
4	5720	5721	5722	5723	
4	5724	5725	5726	5727	
4	5728	5729	5730	5731	
4	5732	5733	5734	5735	
4	5736	5737	5738	5739	
4	5740	5741	5742	5743	
4	5744	5745	5746	5747	
4	5748	5749	5750	5751	
4	5752	5753	5754	5755	
4	5756	5757	5758	5759	
4	5760	5761	5762	5763	
4	5764	5765	5766	5767	
4	5768	5769	5770	5771	
4	5772	5773	5774	5775	
4	5776	5777	5778	5779	
4	5780	5781	5782	5783	
4	5784	5785	5786	5787	
4	5788	5789	5790	5791	
4	5792	5793	5794	5795	
4	5796	5797	5798	5799	
4	5800	5801	5802	5803	
4	5804	5805	5806	5807	
4	5808	5809	5810	5811	
4	5812	5813	5814	5815	
4	5816	5817	5818	5819	
4	5820	5821	5822	5823	
4	5824	5825	5826	5827	
4	5828	5829	5830	5831	
4	5832	5833	5834	5835	
4	5836	5837	5838	5839	
4	5840	5841	5842	5843	
4	5844	5845	5846	5847	
4	5848	5849	5850	5851	
4	5852	5853	5854	5855	
4	5856	5857	5858	5859	
4	5860	5861	5862	5863	
4	5864	5865	5866	5867	
4	5868	5869	5870	5871	
4	5872	5873	5874	5875	
4	5876	5877	5878	5879	
4	5880	5881	5882	5883	
4	5884	5885	5886	5887	
4	5888	5889	5890	5891	
4	5892	5893	5894	5895	
4	5896	5897	5898	5899	
4	5900	5901	5902	5903	
4	5904	5905	5906	5907	
4	5908	5909	5910	5911	
4	5912	5913	5914	5915	
4	5916	5917	5918	5919	
4	5920	5921	5922	5923	
4	5924	5925	5926	5927	
4	5928	5929	5930	5931	
4	5932	5933	5934	5935	
4	5936	5937	5938	5939	
4	5940	5941	5942	5943	
4	5944	5945	5946	5947	
4	5948	5949	5950	5951	
4	5952	5953	5954	5955	
4	5956	5957	5958	5959	
4	5960	5961	5962	5963	
4	5964	5965	5966	5967	
4	5968	5969	5970	5971	
4	5972	5973	5974	5975	
4	5976	5977	5978	5979	
4	5980	5981	5982	5983	
4	5984	5985	5986	5987	
4	5988	5989	5990	5991	
4	5992	5993	5994	5995	
4	5996	5997	5998	5999	
4	6000	6001	6002	6003	
4	6004	6005	6006	6007	
4	6008	6009	6010	6011	
4	6012	6013	6014	6015	
4	6016	6017	6018	6019	
4	6020	6021	6022	6023	
4	6024	6025	6026	6027	
4	6028	6029	6030	6031	
4	6032	6033	6034	6035	
4	6036	6037	6038	6039	
4	6040	6041	6042	6043	
4	6044	6045	6046	6047	
4	6048	6049	6050	6051	
4	6052	6053	6054	6055	
4	6056	6057	6058	6059	
4	6060	6061	6062	6063	
4	6064	6065	6066	6067	
4	6068	6069	6070	6071	
4	6072	6073	6074	6075	
4	6076	6077	6078	6079	
4	6080	6081	6082	6083	
4	6084	6085	6086	6087	
4	6088	6089	6090	6091	
4	6092	6093	6094	6095	
4	6096	6097	6098	6099	
4	6100	6101	6102	6103	
4	6104	6105	6106	6107	
4	6108	6109	6110	6111	
4	6112	6113	6114	6115	
4	6116	6117	6118	6119	
4	6120	6121	6122	6123	
4	6124	6125	6126	6127	
4	6128	6129	6130	6131	
4	6132	6133	6134	6135	
4	6136	6137	6138	6139	
4	6140	6141	6142	6143	
4	6144	6145	6146	6147	
4	6148	6149	6150	6151	
4	6152	6153	6154	6155	
4	6156	6157	6158	6159	
4	6160	6161	6162	6163	
4	6164	6165	6166	6167	
4	6168	6169	6170	6171	
4	6172	6173	6174	6175	
4	6176	6177	6178	6179	
4	6180	6181	6182	6183	
4	6184	6185	6186	6187	
4	6188	6189	6190	6191	
4	6192	6193	6194	6195	
4	6196	6197	6198	6199	
4	6200	6201	6202	6203	
4	6204	6205	6206	6207	
4	6208	6209	6210	6211	
4	6212	6213	6214	6215	
4	6216	6217	6218	6219	
4	6220	6221	6222	6223	
4	6224	6225	6226	6227	
4	6228	6229	6230	6231	
4	6232	6233	6234	6235	
4	6236	6237	6238	6239	
4	6240	6241	6242	6243	
4	6244	6245	6246	6247	
4	6248	6249	6250	6251	
4	6252	6253	6254	6255	
4	6256	6257	6258	6259	
4	6260	6261	6262	6263	
4	6264	6265	6266	6267	
4	6268	6269	6270	6271	
4	6272	6273	6274	6275	
4	6276	6277	6278	6279	
4	6280	6281	6282	6283	
4	6284	6285	6286	6287	
4	6288	6289	6290	6291	
4	6292	6293	6294	6295	
4	6296	6297	6298	6299	
4	6300	6301	6302	6303	
4	6304	6305	6306	6307	
4	6308	6309	6310	6311	
4	6312	6313	6314	6315	
4	6316	6317	6318	6319	
4	6320	6321	6322	6323	
4	6324	6325	6326	6327	
4	6328	6329	6330	6331	
4	6332	6333	6334	6335	
4	6336	6337	6338	6339	
4	6340	6341	6342	6343	
4	6344	6345	6346	6347	
4	6348	6349	6350	6351	
4	6352	6353	6354	6355	
4	6356	6357	6358	6359	
4	6360	6361	6362	6363	
4	6364	6365	6366	6367	
4	6368	6369	6370	6371	
4	6372	6373	6374	6375	
4	6376	6377	6378	6379	
4	6380	6381	6382	6383	
4	6384	6385	6386	6387	
4	6388	6389	6390	6391	
4	6392	6393	6394	6395	
4	6396	6397	6398	6399	
4	6400	6401	6402	6403	
4	6404	6405	6406	6407	
4	6408	6409	6410	6411	
4	6412	6413	6414	6415	
4	6416	6417	6418	6419	
4	6420	6421	6422	6423	
4	6424	6425	6426	6427	
4	6428	6429	6430	6431	
4	6432	6433	6434	6435	
4	6436	6437	6438	6439	
4	6440	6441	6442	6443	
4	6444	6445	6446	6447	
4	6448	6449	6450	6451	
4	6452	6453	6454	6455	
4	6456	6457	6458	6459	
4	6460	6461	6462	6463	
4	6464	6465	6466	6467	
4	6468	6469	6470	6471	
4	6472	6473	6474	6475	
4	6476	6477	6478	6479	
4	6480	6481	6482	6483	
4	6484	6485	6486	6487	
4	6488	6489	6490	6491	
4	6492	6493	6494	6495	
4	6496	6497	6498	6499	
4	6500	6501	6502	6503	
4	6504	6505	6506	6507	
4	6508	6509	6510	6511	
4	6512	6513	6514	6515	
4	6516	6517	6518	6519	
4	6520	6521	6522	6523	
4	6524	6525	6526	6527	
4	6528	6529	6530	6531	
4	6532	6533	6534	6535	
4	6536	6537	6538	6539	
4	6540	6541	6542	6543	
4	6544	6545	6546	6547	
4	6548	6549	6550	6551	
4	6552	6553	6554	6555	
4	6556	6557	6558	6559	
4	6560	6561	6562	6563	
4	6564	6565	6566	6567	
4	6568	6569	6570	6571	
4	6572	6573	6574	6575	
4	6576	6577	6578	6579	
4	6580	6581	6582	6583	
4	6584	6585	6586	6587	
4	6588	6589	6590	6591	
4	6592	6593	6594	6595	
4	6596	6597	6598	6599	
4	6600	6601	6602	6603	
4	6604	6605	6606	6607	
4	6608	6609	6610	6611	
4	6612	6613	6614	6615	
4	6616	6617	6618	6619	
4	6620	6621	6622	6623	
4	6624	6625	6626	6627	
4	6628	6629	6630	6631	
4	6632	6633	6634	6635	
4	6636	6637	6638	6639	
4	6640	6641	6642	6643	
4	6644	6645	6646	6647	
4	6648	6649	6650	6651	
4	6652	6653	6654	6655	
4	6656	6657	6658	6659	
4	6660	6661	6662	6663	
4	6664	6665	6666	6667	
4	6668	6669	6670	6671	
4	6672	6673	6674	6675	
4	6676	6677	6678	6679	
4	6680	6681	6682	6683	
4	6684	6685	6686	6687	
4	6688	6689	6690	6691	
4	6692	6693	6694	6695	
4	6696	6697	6698	6699	
4	6700	6701	6702	6703	
4	6704	6705	6706	6707	
4	6708	6709	6710	6711	
4	6712	6713	6714	6715	
4	6716	6717	6718	6719	
4	6720	6721	6722	6723	
4	6724	6725	6726	6727	
4	6728	6729	6730	6731	
4	6732	6733	6734	6735	
4	6736	6737	6738	6739	
4	6740	6741	6742	6743	
4	6744	6745	6746	6747	
4	6748	6749	6750	6751	
4	6752	6753	6754	6755	
4	6756	6757	6758	6759	
4	6760	6761	6762	6763	
4	6764	6765	6766	6767	
4	6768	6769	6770	6771	
4	6772	6773	6774	6775	
4	6776	6777	6778	6779	
4	6780	6781	6782	6783	
4	6784	6785	6786	6787	
4	6788	6789	6790	6791	
4	6792	6793	6794	6795	
4	6796	6797	6798	6799	
4	6800	6801	6802	6803	
4	6804	6805	6806	6807	
4	6808	6809	6810	6811	
4	6812	6813	6814	6815	
4	6816	6817	6818	6819	
4	6820	6821	6822	6823	
4	6824	6825	6826	6827	
4	6828	6829	6830	6831	
4	6832	6833	6834	6835	
4	6836	6837	6838	6839	
4	6840	6841	6842	6843	
4	6844	6845	6846	6847	
4	6848	6849	6850	6851	
4	6852	6853	6854	6855	
4	6856	6857	6858	6859	
4	6860	6861	6862	6863	
4	6864	6865	6866	6867	
4	6868	6869	6870	6871	
4	6872	6873	6874	6875	
4	6876	6877	6878	6879	
4	6880	6881	6882	6883	
4	6884	6885	6886	6887	
4	6888	6889	6890	6891	
4	6892	6893	6894	6895	
4	6896	6897	6898	6899	
4	6900	6901	6902	6903	
4	6904	6905	6906	6907	
4	6908	6909	6910	6911	
4	6912	6913	6914	6915	
4	6916	6917	6918	6919	
4	6920	6921	6922	6923	
4	6924	6925	6926	6927	
4	6928	6929	6930	6931	
4	6932	6933	6934	6935	
4	6936	6937	6938	6939	
4	6940	6941	6942	6943	
4	6944	6945	6946	6947	
4	6948	6949	6950	6951	
4	6952	6953	6954	6955	
4	6956	6957	6958	6959	
4	6960	6961	6962	6963	
4	6964	6965	6966	6967	
4	6968	6969	6970	6971	
4	6972	6973	6974	6975	
4	6976	6977	6978	6979	
4	6980	6981	6982	6983	
4	6984	6985	6986	6987	
4	6988	6989	6990	6991	
4	6992	6993	6994	6995	
4	6996	6997	6998	6999	
4	7000	7001	7002	7003	
4	7004	7005	7006	7007	
4	7008	7009	7010	7011	
4	7012	7013	7014	7015	
4	7016	7017	7018	7019	
4	7020	7021	7022	7023	
4	7024	7025	7026	7027	
4	7028	7029	7030	7031	
4	7032	7033	7034	7035	
4	7036	7037	7038	7039	
4	7040	7041	7042	7043	
4	7044	7045	7046	7047	
4	7048	7049	7050	7051	
4	7052	7053	7054	7055	
4	7056	7057	7058	7059	
4	7060	7061	7062	7063	
4	7064	7065	7066	7067	
4	7068	7069	7070	7071	
4	7072	7073	7074	7075	
4	7076	7077	7078	7079	
4	7080	7081	7082	7083	
4	7084	7085	7086	7087	
4	7088	7089	7090	7091	
4	7092	7093	7094	7095	
4	7096	7097	7098	7099	
4	7100	7101	7102	7103	
4	7104	7105	7106	7107	
4	7108	7109	7110	7111	
4	7112	7113	7114	7115	
4	7116	7117	7118	7119	
4	7120	7121	7122	7123	
4	7124	7125	7126	7127	
4	7128	7129	7130	7131	
4	7132	7133	7134	7135	
4	7136	7137	7138	7139	
4	7140	7141	7142	7143	
4	7144	7145	7146	7147	
4	7148	7149	7150	7151	
4	7152	7153	7154	7155	
4	7156	7157	7158	7159	
4	7160	7161	7162	7163	
4	7164	7165	7166	7167	
4	7168	7169	7170	7171	
4	7172	7173	7174	7175	
4	7176	7177	7178	7179	
4	7180	7181	7182	7183	
4	7184	7185	7186	7187	
4	7188	7189	7190	7191	
4	7192	7193	7194	7195	
4	7196	7197	7198	7199	
4	7200	7201	7202	7203	
4	7204	7205	7206	7207	
4	7208	7209	7210	7211	
4	7212	7213	7214	7215	
4	7216	7217	7218	7219	
4	7220	7221	7222	7223	
4	7224	7225	7226	7227	
4	7228	7229	7230	7231	
4	7232	7233	7234	7235	
4	7236	7237	7238	7239	
4	7240	7241	7242	7243	
4	7244	7245	7246	7247	
4	7248	7249	7250	7251	
4	7252	7253	7254	7255	
4	7256	7257	7258	7259	
4	7260	7261	7262	7263	
4	7264	7265	7266	7267	
4	7268	7269	7270	7271	
4	7272	7273	7274	7275	
4	7276	7277	7278	7279	
4	7280	7281	7282	7283	
4	7284	7285	7286	7287	
4	7288	7289	7290	7291	
4	7292	7293	7294	7295	
4	7296	7297	7298	7299	
4	7300	7301	7302	7303	
4	7304	7305	7306	7307	
4	7308	7309	7310	7311	
4	7312	7313	7314	7315	
4	7316	7317	7318	7319	
4	7320	7321	7322	7323	
4	7324	7325	7326	7327	
4	7328	7329	7330	7331	
4	7332	7333	7334	7335	
4	7336	7337	7338	7339	
4	7340	7341	7342	7343	
4	7344	7345	7346	7347	
4	7348	7349	7350	7351	
4	7352	7353	7354	7355	
4	7356	7357	7358	7359	
4	7360	7361	7362	7363	
4	7364	7365	7366	7367	
4	7368	7369	7370	7371	
4	7372	7373	7374	7375	
4	7376	7377	7378	7379	
4	7380	7381	7382	7383	
4	7384	7385	7386	7387	
4	7388	7389	7390	7391	
4	7392	7393	7394	7395	
4	7396	7397	7398	7399	
4	7400	7401	7402	7403	
4	7404	7405	7406	7407	
4	7408	7409	7410	7411	
4	7412	7413	7414	7415	
4	7416	7417	7418	7419	
4	7420	7421	7422	7423	
4	7424	7425	7426	7427	
4	7428	7429	7430	7431	
4	7432	7433	7434	7435	
4	7436	7437	7438	7439	
4	7440	7441	7442	7443	
4	7444	7445	7446	7447	
4	7448	7449	7450	7451	
4	7452	7453	7454	7455	
4	7456	7457	7458	7459	
4	7460	7461	7462	7463	
4	7464	7465	7466	7467	
4	7468	7469	7470	7471	
4	7472	7473	7474	7475	
4	7476	7477	7478	7479	
4	7480	7481	7482	7483	
4	7484	7485	7486	7487	
4	7488	7489	7490	7491	
4	7492	7493	7494	7495	
4	7496	7497	7498	7499	
4	7500	7501	7502	7503	
4	7504	7505	7506	7507	
4	7508	7509	7510	7511	
4	7512	7513	7514	7515	
4	7516	7517	7518	7519	
4	7520	7521	7522	7523	
4	7524	7525	7526	7527	
4	7528	7529	7530	7531	
4	7532	7533	7534	7535	
4	7536	7537	7538	7539	
4	7540	7541	7542	7543	
4	7544	7545	7546	7547	
4	7548	7549	7550	7551	
4	7552	7553	7554	7555	
4	7556	7557	7558	7559	
4	7560	7561	7562	7563	
4	7564	7565	7566	7567	
4	7568	7569	7570	7571	
4	7572	7573	7574	7575	
4	7576	7577	7578	7579	
4	7580	7581	7582	7583	
4	7584	7585	7586	7587	
4	7588	7589	7590	7591	
4	7592	7593	7594	7595	
4	7596	7597	7598	7599	
4	7600	7601	7602	7603	
4	7604	7605	7606	7607	
4	7608	7609	7610	7611	
4	7612	7613	7614	7615	
4	7616	7617	7618	7619	
4	7620	7621	7622	7623	
4	7624	7625	7626	7627	
4	7628	7629	7630	7631	
4	7632	7633	7634	7635	
4	7636	7637	7638	7639	
4	7640	7641	7642	7643	
4	7644	7645	7646	7647	
4	7648	7649	7650	7651	
4	7652	7653	7654	7655	
4	7656	7657	7658	7659	
4	7660	7661	7662	7663	
4	7664	7665	7666	7667	
4	7668	7669	7670	7671	
4	7672	7673	7674	7675	
4	7676	7677	7678	7679	
4	7680	7681	7682	7683	
4	7684	7685	7686	7687	
4	7688	7689	7690	7691	
4	7692	7693	7694	7695	
4	7696	7697	7698	7699	
4	7700	7701	7702	7703	
4	7704	7705	7706	7707	
4	7708	7709	7710	7711	
4	7712	7713	7714	7715	
4	7716	7717	7718	7719	
4	7720	7721	7722	7723	
4	7724	7725	7726	7727	
4	7728	7729	7730	7731	
4	7732	7733	7734	7735	
4	7736	7737	7738	7739	
4	7740	7741	7742	7743	
4	7744	7745	7746	7747	
4	7748	7749	7750	7751	
4	7752	7753	7754	7755	
4	7756	7757	7758	7759	
4	7760	7761	7762	7763	
4	7764	7765	7766	7767	
4	7768	7769	7770	7771	
4	7772	7773	7774	7775	
4	7776	7777	7778	7779	
4	7780	7781	7782	7783	
4	7784	7785	7786	7787	
4	7788	7789	7790	7791	
4	7792	7793	7794	7795	
4	7796	7797	7798	7799	
4	7800	7801	7802	7803	
4	7804	7805	7806	7807	
4	7808	7809	7810	7811	
4	7812	7813	7814	7815	
4	7816	7817	7818	7819	
4	7820	7821	7822	7823	
4	7824	7825	7826	7827	
4	7828	7829	7830	7831	
4	7832	7833	7834	7835	
4	7836	7837	7838	7839	
4	7840	7841	7842	7843	
4	7844	7845	7846	7847	
4	7848	7849	7850	7851	
4	7852	7853	7854	7855	
4	7856	7857	7858	7859	
4	7860	7861	7862	7863	
4	7864	7865	7866	7867	
4	7868	7869	7870	7871	
4	7872	7873	7874	7875	
4	7876	7877	7878	7879	
4	7880	7881	7882	7883	
4	7884	7885	7886	7887	
4	7888	7889	7890	7891	
4	7892	7893	7894	7895	
4	7896	7897	7898	7899	
4	7900	7901	7902	7903	
4	7904	7905	7906	7907	
4	7908	7909	7910	7911	
4	7912	7913	7914	7915	
4	7916	7917	7918	7919	
4	7920	7921	7922	7923	
4	7924	7925	7926	7927	
4	7928	7929	7930	7931	
4	7932	7933	7934	7935	
4	7936	7937	7938	7939	
4	7940	7941	7942	7943	
4	7944	7945	7946	7947	
4	7948	7949	7950	7951	
4	7952	7953	7954	7955	
4	7956	7957	7958	7959	
4	7960	7961	7962	7963	
4	7964	7965	7966	7967	
4	7968	7969	7970	7971	
4	7972	7973	7974	7975	
4	7976	7977	7978	7979	
4	7980	7981	7982	7983	
4	7984	7985	7986	7987	
4	7988	7989	7990	7991	
4	7992	7993	7994	7995	
4	7996	7997	7998	7999	
4	8000	8001	8002	8003	
4	8004	8005	8006	8007	
4	8008	8009	8010	8011	
4	8012	8013	8014	8015	
4	8016	8017	8018	8019	
4	8020	8021	8022	8023	
4	8024	8025	8026	8027	
4	8028	8029	8030	8031	
4	8032	8033	8034	8035	
4	8036	8037	8038	8039	
4	8040	8041	8042	8043	
4	8044	8045	8046	8047	
4	8048	8049	8050	8051	
4	8052	8053	8054	8055	
4	8056	8057	8058	8059	
4	8060	8061	8062	8063	
4	8064	8065	8066	8067	
4	8068	8069	8070	8071	
4	8072	8073	8074	8075	
4	8076	8077	8078	8079	
4	8080	8081	8082	8083	
4	8084	8085	8086	8087	
4	8088	8089	8090	8091	
4	8092	8093	8094	8095	
4	8096	8097	8098	8099	
4	8100	8101	8102	8103	
4	8104	8105	8106	8107	
4	8108	8109	8110	8111	
4	8112	8113	8114	8115	
4	8116	8117	8118	8119	
4	8120	8121	8122	8123	
4	8124	8125	8126	8127	
4	8128	8129	8130	8131	
4	8132	8133	8134	8135	
4	8136	8137	8138	8139	
4	8140	8141	8142	8143	
4	8144	8145	8146	8147	
4	8148	8149	8150	8151	
4	8152	8153	8154	8155	
4	8156	8157	8158	8159	
4	8160	8161	8162	8163	
4	8164	8165	8166	8167	
4	8168	8169	8170	8171	
4	8172	8173	8174	8175	
4	8176	8177	8178	8179	
4	8180	8181	8182	8183	
4	8184	8185	8186	8187	
4	8188	8189	8190	8191	
4	8192	8193	8194	8195	
4	8196	8197	8198	8199	
4	8200	8201	8202	8203	
4	8204	8205	8206	8207	
4	8208	8209	8210	8211	
4	8212	8213	8214	8215	
4	8216	8217	8218	8219	
4	8220	8221	8222	8223	
4	8224	8225	8226	8227	
4	8228	8229	8230	8231	
4	8232	8233	8234	8235	
4	8236	8237	8238	8239	
4	8240	8241	8242	8243	
4	8244	8245	8246	8247	
4	8248	8249	8250	8251	
4	8252	8253	8254	8255	
4	8256	8257	8258	8259	
4	8260	8261	8262	8263	
4	8264	8265	8266	8267	
4	8268	8269	8270	8271	
4	8272	8273	8274	8275	
4	8276	8277	8278	8279	
4	8280	8281	8282	8283	
4	8284	8285	8286	8287	
4	8288	8289	8290	8291	
4	8292	8293	8294	8295	
4	8296	8297	8298	8299	
4	8300	8301	8302	8303	
4	8304	8305	8306	8307	
4	8308	8309	8310	8311	
4	8312	8313	8314	8315	
4	8316	8317	8318	8319	
4	8320	8321	8322	8323	
4	8324	8325	8326	8327	
4	8328	8329	8330	8331	
4	8332	8333	8334	8335	
4	8336	8337	8338	8339	
4	8340	8341	8342	8343	
4	8344	8345	8346	8347	
4	8348	8349	8350	8351	
4	8352	8353	8354	8355	
4	8356	8357	8358	8359	
4	8360	8361	8362	8363	
4	8364	8365	8366	8367	
4	8368	8369	8370	8371	
4	8372	8373	8374	8375	
4	8376	8377	8378	8379	
4	8380	8381	8382	8383	
4	8384	8385	8386	8387	
4	8388	8389	8390	8391	
4	8392	8393	8394	8395	
4	8396	8397	8398	8399	
4	8400	8401	8402	8403	
4	8404	8405	8406	8407	
4	8408	8409	8410	8411	
4	8412	8413	8414	8415	
4	8416	8417	8418	8419	
4	8420	8421	8422	8423	
4	8424	8425	8426	8427	
4	8428	8429	8430	8431	
4	8432	8433	8434	8435	
4	8436	8437	8438	8439	
4	8440	8441	8442	8443	
4	8444	8445	8446	8447	
4	8448	8449	8450	8451	
4	8452	8453	8454	8455	
4	8456	8457	8458	8459	
4	8460	8461	8462	8463	
4	8464	8465	8466	8467	
4	8468	8469	8470	8471	
4	8472	8473	8474	8475	
4	8476	8477	8478	8479	
4	8480	8481	8482	8483	
4	8484	8485	8486	8487	
4	8488	8489	8490	8491	
4	8492	8493	8494	8495	
4	8496	8497	8498	8499	
4	8500	8501	8502	8503	
4	8504	8505	8506	8507	
4	8508	8509	8510	8511	
4	8512	8513	8514	8515	
4	8516	8517	8518	8519	
4	8520	8521	8522	8523	
4	8524	8525	8526	8527	
4	8528	8529	8530	8531	
4	8532	8533	8534	8535	
4	8536	8537	8538	8539	
4	8540	8541	8542	8543	
4	8544	8545	8546	8547	
4	8548	8549	8550	8551	
4	8552	8553	8554	8555	
4	8556	8557	8558	8559	
4	8560	8561	8562	8563	
4	8564	8565	8566	8567	
4	8568	8569	8570	8571	
4	8572	8573	8574	8575	
4	8576	8577	8578	8579	
4	8580	8581	8582	8583	
4	8584	8585	8586	8587	
4	8588	8589	8590	8591	
4	8592	8593	8594	8595	
4	8596	8597	8598	8599	
4	8600	8601	8602	8603	
4	8604	8605	8606	8607	
4	8608	8609	8610	8611	
4	8612	8613	8614	8615	
4	8616	8617	8618	8619	
4	8620	8621	8622	8623	
4	8624	8625	8626	8627	
4	8628	8629	8630	8631	
4	8632	8633	8634	8635	
4	8636	8637	8638	8639	
4	8640	8641	8642	8643	
4	8644	8645	8646	8647	
4	8648	8649	8650	8651	
4	8652	8653	8654	8655	
4	8656	8657	8658	8659	
4	8660	8661	8662	8663	
4	8664	8665	8666	8667	
4	8668	8669	8670	8671	
4	8672	8673	8674	8675	
4	8676	8677	8678	8679	
4	8680	8681	8682	8683	
4	8684	8685	8686	8687	
4	8688	8689	8690	8691	
4	8692	8693	8694	8695	
4	8696	8697	8698	8699	
4	8700	8701	8702	8703	
4	8704	8705	8706	8707	
4	8708	8709	8710	8711	
4	8712	8713	8714	8715	
4	8716	8717	8718	8719	
4	8720	8721	8722	8723	
4	8724	8725	8726	8727	
4	8728	8729	8730	8731	
4	8732	8733	8734	8735	
4	8736	8737	8738	8739	
4	8740	8741	8742	8743	
4	8744	8745	8746	8747	
4	8748	8749	8750	8751	
4	8752	8753	8754	8755	
4	8756	8757	8758	8759	
4	8760	8761	8762	8763	
4	8764	8765	8766	8767	
4	8768	8769	8770	8771	
4	8772	8773	8774	8775	
4	8776	8777	8778	8779	
4	8780	8781	8782	8783	
4	8784	8785	8786	8787	
4	8788	8789	8790	8791	
4	8792	8793	8794	8795	
4	8796	8797	8798	8799	
4	8800	8801	8802	8803	
4	8804	8805	8806	8807	
4	8808	8809	8810	8811	
4	8812	8813	8814	8815	
4	8816	8817	8818	8819	
4	8820	8821	8822	8823	
4	8824	8825	8826	8827	
4	8828	8829	8830	8831	
4	8832	8833	8834	8835	
4	8836	8837	8838	8839	
4	8840	8841	8842	8843	
4	8844	8845	8846	8847	
4	8848	8849	8850	8851	
4	8852	8853	8854	8855	
4	8856	8857	8858	8859	
4	8860	8861	8862	8863	
4	8864	8865	8866	8867	
4	8868	8869	8870	8871	
4	8872	8873	8874	8875	
4	8876	8877	8878	8879	
4	8880	8881	8882	8883	
4	8884	8885	8886	8887	
4	8888	8889	8890	8891	
4	8892	8893	8894	8895	
4	8896	8897	8898	8899	
4	8900	8901	8902	8903	
4	8904	8905	8906	8907	
4	8908	8909	8910	8911	
4	8912	8913	8914	8915	
4	8916	8917	8918	8919	
4	8920	8921	8922	8923	
4	8924	8925	8926	8927	
4	8928	8929	8930	8931	
4	8932	8933	8934	8935	
4	8936	8937	8938	8939	
4	8940	8941	8942	8943	
4	8944	8945	8946	8947	
4	8948	8949	8950	8951	
4	8952	8953	8954	8955	
4	8956	8957	8958	8959	
4	8960	8961	8962	8963	
4	8964	8965	8966	8967	
4	8968	8969	8970	8971	
4	8972	8973	8974	8975	
4	8976	8977	8978	8979	
4	8980	8981	8982	8983	
4	8984	8985	8986	8987	
4	8988	8989	8990	8991	
4	8992	8993	8994	8995	
4	8996	8997	8998	8999	
4	9000	9001	9002	9003	
4	9004	9005	9006	9007	
4	9008	9009	9010	9011	
4	9012	9013	9014	9015	
4	9016	9017	9018	9019	
4	9020	9021	9022	9023	
4	9024	9025	9026	9027	
4	9028	9029	9030	9031	
4	9032	9033	9034	9035	
4	9036	9037	9038	9039	
4	9040	9041	9042	9043	
4	9044	9045	9046	9047	
4	9048	9049	9050	9051	
4	9052	9053	9054	9055	
4	9056	9057	9058	9059	
4	9060	9061	9062	9063	
4	9064	9065	9066	9067	
4	9068	9069	9070	9071	
4	9072	9073	9074	9075	
4	9076	9077	9078	9079	
4	9080	9081	9082	9083	
4	9084	9085	9086	9087	
4	9088	9089	9090	9091	
4	9092	9093	9094	9095	
4	9096	9097	9098	9099	
4	9100	9101	9102	9103	
4	9104	9105	9106	9107	
4	9108	9109	9110	9111	
4	9112	9113	9114	9115	
4	9116	9117	9118	9119	
4	9120	9121	9122	9123	
4	9124	9125	9126	9127	
4	9128	9129	9130	9131	
4	9132	9133	9134	9135	
4	9136	9137	9138	9139	
4	9140	9141	9142	9143	
4	9144	9145	9146	9147	
4	9148	9149	9150	9151	
4	9152	9153	9154	9155	
4	9156	9157	9158	9159	
4	9160	9161	9162	9163	
4	9164	9165	9166	9167	
4	9168	9169	9170	9171	
4	9172	9173	9174	9175	
4	9176	9177	9178	9179	
4	9180	9181	9182	9183	
4	9184	9185	9186	9187	
4	9188	9189	9190	9191	
4	9192	9193	9194	9195	
4	9196	9197	9198	9199	
4	9200	9201	9202	9203	
4	9204	9205	9206	9207	
4	9208	9209	9210	9211	
4	9212	9213	9214	9215	
4	9216	9217	9218	9219	
4	9220	9221	9222	9223	
4	9224	9225	9226	9227	
4	9228	9229	9230	9231	
4	9232	9233	9234	9235	
4	9236	9237	9238	9239	
4	9240	9241	9242	9243	
4	9244	9245	9246	9247	
4	9248	9249	9250	9251	
4	9252	9253	9254	9255	
4	9256	9257	9258	9259	
4	9260	9261	9262	9263	
4	9264	9265	9266	9267	
4	9268	9269	9270	9271	
4	9272	9273	9274	9275	
4	9276	9277	9278	9279	
4	9280	9281	9282	9283	
4	9284	9285	9286	9287	
4	9288	9289	9290	9291	
4	9292	9293	9294	9295	
4	9296	9297	9298	9299	
4	9300	9301	9302	9303	
4	9304	9305	9306	9307	
4	9308	9309	9310	9311	
4	9312	9313	9314	9315	
4	9316	9317	9318	9319	
4	9320	9321	9322	9323	
4	9324	9325	9326	9327	
4	9328	9329	9330	9331	
4	9332	9333	9334	9335	
4	9336	9337	9338	9339	
4	9340	9341	9342	9343	
4	9344	9345	9346	9347	
4	9348	9349	9350	9351	
4	9352	9353	9354	9355	
4	9356	9357	9358	9359	
4	9360	9361	9362	9363	
4	9364	9365	9366	9367	
4	9368	9369	9370	9371	
4	9372	9373	9374	9375	
4	9376	9377	9378	9379	
4	9380	9381	9382	9383	
4	9384	9385	9386	9387	
4	9388	9389	9390	9391	
4	9392	9393	9394	9395	
4	9396	9397	9398	9399	
4	9400	9401	9402	9403	
4	9404	9405	9406	9407	
4	9408	9409	9410	9411	
4	9412	9413	9414	9415	
4	9416	9417	9418	9419	
4	9420	9421	9422	9423	
4	9424	9425	9426	9427	
4	9428	9429	9430	9431	
4	9432	9433	9434	9435	
4	9436	9437	9438	9439	
4	9440	9441	9442	9443	
4	9444	9445	9446	9447	
4	9448	9449	9450	9451	
4	9452	9453	9454	9455	
4	9456	9457	9458	9459	
4	9460	9461	9462	9463	
4	9464	9465	9466	9467	
4	9468	9469	9470	9471	
4	9472	9473	9474	9475	
4	9476	9477	9478	9479	
4	9480	9481	9482	9483	
4	9484	9485	9486	9487	
4	9488	9489	9490	9491	
4	9492	9493	9494	9495	
4	9496	9497	9498	9499	
4	9500	9501	9502	9503	
4	9504	9505	9506	9507	
4	9508	9509	9510	9511	
4	9512	9513	9514	9515	
4	9516	9517	9518	9519	
4	9520	9521	9522	9523	
4	9524	9525	9526	9527	
4	9528	9529	9530	9531	
4	9532	9533	9534	9535	
4	9536	9537	9538	9539	
4	9540	9541	9542	9543	
4	9544	9545	9546	9547	
4	9548	9549	9550	9551	
4	9552	9553	9554	9555	
4	9556	9557	9558	9559	
4	9560	9561	9562	9563	
4	9564	9565	9566	9567	
4	9568	9569	9570	9571	
4	9572	9573	9574	9575	
4	9576	9577	9578	9579	
4	9580	9581	9582	9583	
4	9584	9585	9586	9587	
4	9588	9589	9590	9591	
4	9592	9593	9594	9595	
4	9596	9597	9598	9599	
4	9600	9601	9602	9603	
4	9604	9605	9606	9607	
4	9608	9609	9610	9611	
4	9612	9613	9614	9615	
4	9616	9617	9618	9619	
4	9620	9621	9622	9623	
4	9624	9625	9626	9627	
4	9628	9629	9630	9631	
4	9632	9633	9634	9635	
4	9636	9637	9638	9639	
4	9640	9641	9642	9643	
4	9644	9645	9646	9647	
4	9648	9649	9650	9651	
4	9652	9653	9654	9655	
4	9656	9657	9658	9659	
4	9660	9661	9662	9663	
4	9664	9665	9666	9667	
4	9668	9669	9670	9671	
4	9672	9673	9674	9675	
4	9676	9677	9678	9679	
4	9680	9681	9682	9683	
4	9684	9685	9686	9687	
4	9688	9689	9690	9691	
4	9692	9693	9694	9695	
4	9696	9697	9698	9699	
4	9700	9701	9702	9703	
4	9704	9705	9706	9707	
4	9708	9709	9710	9711	
4	9712	9713	9714	9715	
4	9716	9717	9718	9719	
4	9720	9721	9722	9723	
4	9724	9725	9726	9727	
4	9728	9729	9730	9731	
4	9732	9733	9734	9735	
4	9736	9737	9738	9739	
4	9740	9741	9742	9743	
4	9744	9745	9746	9747	
4	9748	9749	9750	9751	
4	9752	9753	9754	9755	
4	9756	9757	9758	9759	
4	9760	9761	9762	9763	
4	9764	9765	9766	9767	
4	9768	9769	9770	9771	
4	9772	9773	9774	9775	
4	9776	9777	9778	9779	
4	9780	9781	9782	9783	
4	9784	9785	9786	9787	
4	9788	9789	9790	9791	
4	9792	9793	9794	9795	
4	9796	9797	9798	9799	
4	9800	9801	9802	9803	
4	9804	9805	9806	9807	
4	9808	9809	9810	9811	
4	9812	9813	9814	9815	
4	9816	9817	9818	9819	
4	9820	9821	9822	9823	
4	9824	9825	9826	9827	
4	9828	9829	9830	9831	
4	9832	9833	9834	9835	
4	9836	9837	9838	9839	
4	9840	9841	9842	9843	
4	9844	9845	9846	9847	
4	9848	9849	9850	9851	
4	9852	9853	9854	9855	
4	9856	9857	9858	9859	
4	9860	9861	9862	9863	
4	9864	9865	9866	9867	
4	9868	9869	9870	9871	
4	9872	9873	9874	9875	
4	9876	9877	9878	9879	
4	9880	9881	9882	9883	
4	9884	9885	9886	9887	
4	9888	9889	9890	9891	
4	9892	9893	9894	9895	
4	9896	9897	9898	9899	
4	9900	9901	9902	9903	
4	9904	9905	9906	9907	
4	9908	9909	9910	9911	
4	9912	9913	9914	9915	
4	9916	9917	9918	9919	
4	9920	9921	9922	9923	
4	9924	9925	9926	9927	
4	9928	9929	9930	9931	
4	9932	9933	9934	9935	
4	9936	9937	9938	9939	
4	9940	9941	9942	9943	
4	9944	9945	9946	9947	
4	9948	9949	9950	9951	
4	9952	9953	9954	9955	
4	9956	9957	9958	9959	
4	9960	9961	9962	9963	
4	9964	9965	9966	9967	
4	9968	9969	9970	9971	
4	9972	9973	9974	9975	
4	9976	9977	9978	9979	
4	9980	9981	9982	9983	
4	9984	9985	9986	9987	
4	9988	9989	9990	9991	
4	9992	9993	9994	9995	
4	9996	9997	9998	9999	
4	10000	10001	10002	10003	
4	10004	10005	10006	10007	
4	10008	10009	10010	10011	
4	10012	10013	10014	10015	
4	10016	10017	10018	10019	
4	10020	10021	10022	10023	
4	10024	10025	10026	10027	
4	10028	10029	10030	10031	
4	10032	10033	10034	10035	
4	10036	10037	10038	10039	
4	10040	10041	10042	10043	
4	10044	10045	10046	10047	
4	10048	10049	10050	10051	
4	10052	10053	10054	10055	
4	10056	10057	10058	10059	
4	10060	10061	10062	10063	
4	10064	10065	10066	10067	
4	10068	10069	10070	10071	
4	10072	10073	10074	10075	
4	10076	10077	10078	10079	
4	10080	10081	10082	10083	
4	10084	10085	10086	10087	
4	10088	10089	10090	10091	
4	10092	10093	10094	10095	
4	10096	10097	10098	10099	
4	10100	10101	10102	10103	
4	10104	10105	10106	10107	
4	10108	10109	10110	10111	
4	10112	10113	10114	10115	
4	10116	10117	10118	10119	
4	10120	10121	10122	10123	
4	10124	10125	10126	10127	
4	10128	10129	10130	10131	
4	10132	10133	10134	10135	
4	10136	10137	10138	10139	
4	10140	10141	10142	10143	
4	10144	10145	10146	10147	
4	10148	10149	10150	10151	
4	10152	10153	10154	10155	
4	10156	10157	10158	10159	
4	10160	10161	10162	10163	
4	10164	10165	10166	10167	
4	10168	10169	10170	10171	
4	10172	10173	10174	10175	
4	10176	10177	10178	10179	
4	10180	10181	10182	10183	
4	10184	10185	10186	10187	
4	10188	10189	10190	10191	
4	10192	10193	10194	10195	
4	10196	10197	10198	10199	
4	10200	10201	10202	10203	
4	10204	10205	10206	10207	
4	10208	10209	10210	10211	
4	10212	10213	10214	10215	
4	10216	10217	10218	10219	
4	10220	10221	10222	10223	
4	10224	10225	10226	10227	
4	10228	10229	10230	10231	
4	10232	10233	10234	10235	
4	10236	10237	10238	10239	
4	10240	10241	10242	10243	
4	10244	10245	10246	10247	
4	10248	10249	10250	10251	
4	10252	10253	10254	10255	
4	10256	10257	10258	10259	
4	10260	10261	10262	10263	
4	10264	10265	10266	10267	
4	10268	10269	10270	10271	
4	10272	10273	10274	10275	
4	10276	10277	10278	10279	
4	10280	10281	10282	10283	
4	10284	10285	10286	10287	
4	10288	10289	10290	10291	
4	10292	10293	10294	10295	
4	10296	10297	10298	10299	
4	10300	10301	10302	10303	
4	10304	10305	10306	10307	
4	10308	10309	10310	10311	
4	10312	10313	10314	10315	
4	10316	10317	10318	10319	
4	10320	10321	10322	10323	
4	10324	10325	10326	10327	
4	10328	10329	10330	10331	
4	10332	10333	10334	10335	
4	10336	10337	10338	10339	
4	10340	10341	10342	10343	
4	10344	10345	10346	10347	
4	10348	10349	10350	10351	
4	10352	10353	10354	10355	
4	10356	10357	10358	10359	
4	10360	10361	10362	10363	
4	10364	10365	10366	10367	
4	10368	10369	10370	10371	
4	10372	10373	10374	10375	
4	10376	10377	10378	10379	
4	10380	10381	10382	10383	
4	10384	10385	10386	10387	
4	10388	10389	10390	10391	
4	10392	10393	10394	10395	
4	10396	10397	10398	10399	
4	10400	10401	10402	10403	
4	10404	10405	10406	10407	
4	10408	10409	10410	10411	
4	10412	10413	10414	10415	
4	10416	10417	10418	10419	
4	10420	10421	10422	10423	
4	10424	10425	10426	10427	
4	10428	10429	10430	10431	
4	10432	10433	10434	10435	
4	10436	10437	10438	10439	
4	10440	10441	10442	10443	
4	10444	10445	10446	10447	
4	10448	10449	10450	10451	
4	10452	10453	10454	10455	
4	10456	10457	10458	10459	
4	10460	10461	10462	10463	
4	10464	10465	10466	10467	
4	10468	10469	10470	10471	
4	10472	10473	10474	10475	
4	10476	10477	10478	10479	
4	10480	10481	10482	10483	
4	10484	10485	10486	10487	
4	10488	10489	10490	10491	
4	10492	10493	10494	10495	
4	10496	10497	10498	10499	
4	10500	10501	10502	10503	
4	10504	10505	10506	10507	
4	10508	10509	10510	10511	
4	10512	10513	10514	10515	
4	10516	10517	10518	10519	
4	10520	10521	10522	10523	
4	10524	10525	10526	10527	
4	10528	10529	10530	10531	
4	10532	10533	10534	10535	
4	10536	10537	10538	10539	
4	10540	10541	10542	10543	
4	10544	10545	10546	10547	
4	10548	10549	10550	10551	
4	10552	10553	10554	10555	
4	10556	10557	10558	10559	
4	10560	10561	10562	10563	
4	10564	10565	10566	10567	
4	10568	10569	10570	10571	
4	10572	10573	10574	10575	
4	10576	10577	10578	10579	
4	10580	10581	10582	10583	
4	10584	10585	10586	10587	
4	10588	10589	10590	10591	
4	10592	10593	10594	10595	
4	10596	10597	10598	10599	
4	10600	10601	10602	10603	
4	10604	10605	10606	10607	
4	10608	10609	10610	10611	
4	10612	10613	10614	10615	
4	10616	10617	10618	10619	
4	10620	10621	10622	10623	
4	10624	10625	10626	10627	
4	10628	10629	10630	10631	
4	10632	10633	10634	10635	
4	10636	10637	10638	10639	
4	10640	10641	10642	10643	
4	10644	10645	10646	10647	
4	10648	10649	10650	10651	
4	10652	10653	10654	10655	
4	10656	10657	10658	10659	
4	10660	10661	10662	10663	
4	10664	10665	10666	10667	
4	10668	10669	10670	10671	
4	10672	10673	10674	10675	
4	10676	10677	10678	10679	
4	10680	10681	10682	10683	
4	10684	10685	10686	10687	
4	10688	10689	10690	10691	
4	10692	10693	10694	10695	
4	10696	10697	10698	10699	
4	10700	10701	10702	10703	
4	10704	10705	10706	10707	
4	10708	10709	10710	10711	
4	10712	10713	10714	10715	
4	10716	10717	10718	10719	
4	10720	10721	10722	10723	
4	10724	10725	10726	10727	
4	10728	10729	10730	10731	
4	10732	10733	10734	10735	
4	10736	10737	10738	10739	
4	10740	10741	10742	10743	
4	10744	10745	10746	10747	
4	10748	10749	10750	10751	
4	10752	10753	10754	10755	
4	10756	10757	10758	10759	
4	10760	10761	10762	10763	
4	10764	10765	10766	10767	
4	10768	10769	10770	10771	
4	10772	10773	10774	10775	
4	10776	10777	10778	10779	
4	10780	10781	10782	10783	
4	10784	10785	10786	10787	
4	10788	10789	10790	10791	
4	10792	10793	10794	10795	
4	10796	10797	10798	10799	
4	10800	10801	10802	10803	
4	10804	10805	10806	10807	
4	10808	10809	10810	10811	
4	10812	10813	10814	10815	
4	10816	10817	10818	10819	
4	10820	10821	10822	10823	
4	10824	10825	10826	10827	
4	10828	10829	10830	10831	
4	10832	10833	10834	10835	
4	10836	10837	10838	10839	
4	10840	10841	10842	10843	
4	10844	10845	10846	10847	
4	10848	10849	10850	10851	
4	10852	10853	10854	10855	
4	10856	10857	10858	10859	
4	10860	10861	10862	10863	
4	10864	10865	10866	10867	
4	10868	10869	10870	10871	
4	10872	10873	10874	10875	
4	10876	10877	10878	10879	
4	10880	10881	10882	10883	
4	10884	10885	10886	10887	
4	10888	10889	10890	10891	
4	10892	10893	10894	10895	
4	10896	10897	10898	10899	
4	10900	10901	10902	10903	
4	10904	10905	10906	10907	
4	10908	10909	10910	10911	
4	10912	10913	10914	10915	
4	10916	10917	10918	10919	
4	10920	10921	10922	10923	
4	10924	10925	10926	10927	
4	10928	10929	10930	10931	
4	10932	10933	10934	10935	
4	10936	10937	10938	10939	
4	10940	10941	10942	10943	
4	10944	10945	10946	10947	
4	10948	10949	10950	10951	
4	10952	10953	10954	10955	
4	10956	10957	10958	10959	
4	10960	10961	10962	10963	
4	10964	10965	10966	10967	
4	10968	10969	10970	10971	
4	10972	10973	10974	10975	
4	10976	10977	10978	10979	
4	10980	10981	10982	10983	
4	10984	10985	10986	10987	
4	10988	10989	10990	10991	
4	10992	10993	10994	10995	
4	10996	10997	10998	10999	
4	11000	11001	11002	11003	
4	11004	11005	11006	11007	
4	11008	11009	11010	11011	
4	11012	11013	11014	11015	
4	11016	11017	11018	11019	
4	11020	11021	11022	11023	
4	11024	11025	11026	11027	
4	11028	11029	11030	11031	
4	11032	11033	11034	11035	
4	11036	11037	11038	11039	
4	11040	11041	11042	11043	
4	11044	11045	11046	11047	
4	11048	11049	11050	11051	
4	11052	11053	11054	11055	
4	11056	11057	11058	11059	
4	11060	11061	11062	11063	
4	11064	11065	11066	11067	
4	11068	11069	11070	11071	
4	11072	11073	11074	11075	
4	11076	11077	11078	11079	
4	11080	11081	11082	11083	
4	11084	11085	11086	11087	
4	11088	11089	11090	11091	
4	11092	11093	11094	11095	
4	11096	11097	11098	11099	
4	11100	11101	11102	11103	
4	11104	11105	11106	11107	
4	11108	11109	11110	11111	
4	11112	11113	11114	11115	
4	11116	11117	11118	11119	
4	11120	11121	11122	11123	
4	11124	11125	11126	11127	
4	11128	11129	11130	11131	
4	11132	11133	11134	11135	
4	11136	11137	11138	11139	
4	11140	11141	11142	11143	
4	11144	11145	11146	11147	
4	11148	11149	11150	11151	
4	11152	11153	11154	11155	
4	11156	11157	11158	11159	
4	11160	11161	11162	11163	
4	11164	11165	11166	11167	
4	11168	11169	11170	11171	
4	11172	11173	11174	11175	
4	11176	11177	11178	11179	
4	11180	11181	11182	11183	
4	11184	11185	11186	11187	
4	11188	11189	11190	11191	
4	11192	11193	11194	11195	
4	11196	11197	11198	11199	
4	11200	11201	11202	11203	
4	11204	11205	11206	11207	
4	11208	11209	11210	11211	
4	11212	11213	11214	11215	
4	11216	11217	11218	11219	
4	11220	11221	11222	11223	
4	11224	11225	11226	11227	
4	11228	11229	11230	11231	
4	11232	11233	11234	11235	
4	11236	11237	11238	11239	
4	11240	11241	11242	11243	
4	11244	11245	11246	11247	
4	11248	11249	11250	11251	
4	11252	11253	11254	11255	
4	11256	11257	11258	11259	
4	11260	11261	11262	11263	
4	11264	11265	11266	11267	
4	11268	11269	11270	11271	
4	11272	11273	11274	11275	
4	11276	11277	11278	11279	
4	11280	11281	11282	11283	
4	11284	11285	11286	11287	
4	11288	11289	11290	11291	
4	11292	11293	11294	11295	
4	11296	11297	11298	11299	
4	11300	11301	11302	11303	
4	11304	11305	11306	11307	
4	11308	11309	11310	11311	
4	11312	11313	11314	11315	
4	11316	11317	11318	11319	
4	11320	11321	11322	11323	
4	11324	11325	11326	11327	
4	11328	11329	11330	11331	
4	11332	11333	11334	11335	
4	11336	11337	11338	11339	
4	11340	11341	11342	11343	
4	11344	11345	11346	11347	
4	11348	11349	11350	11351	
4	11352	11353	11354	11355	
4	11356	11357	11358	11359	
4	11360	11361	11362	11363	
4	11364	11365	11366	11367	
4	11368	11369	11370	11371	
4	11372	11373	11374	11375	
4	11376	11377	11378	11379	
4	11380	11381	11382	11383	
4	11384	11385	11386	11387	
4	11388	11389	11390	11391	
4	11392	11393	11394	11395	
4	11396	11397	11398	11399	
4	11400	11401	11402	11403	
4	11404	11405	11406	11407	
4	11408	11409	11410	11411	
4	11412	11413	11414	11415	
4	11416	11417	11418	11419	
4	11420	11421	11422	11423	
4	11424	11425	11426	11427	
4	11428	11429	11430	11431	
4	11432	11433	11434	11435	
4	11436	11437	11438	11439	
4	11440	11441	11442	11443	
4	11444	11445	11446	11447	
4	11448	11449	11450	11451	
4	11452	11453	11454	11455	
4	11456	11457	11458	11459	
4	11460	11461	11462	11463	
4	11464	11465	11466	11467	
4	11468	11469	11470	11471	
4	11472	11473	11474	11475	
4	11476	11477	11478	11479	
4	11480	11481	11482	11483	
4	11484	11485	11486	11487	
4	11488	11489	11490	11491	
4	11492	11493	11494	11495	
4	11496	11497	11498	11499	
4	11500	11501	11502	11503	
4	11504	11505	11506	11507	
4	11508	11509	11510	11511	
4	11512	11513	11514	11515	
4	11516	11517	11518	11519	
4	11520	11521	11522	11523	
4	11524	11525	11526	11527	
4	11528	11529	11530	11531	
4	11532	11533	11534	11535	
4	11536	11537	11538	11539	
4	11540	11541	11542	11543	
4	11544	11545	11546	11547	
4	11548	11549	11550	11551	
4	11552	11553	11554	11555	
4	11556	11557	11558	11559	
4	11560	11561	11562	11563	
4	11564	11565	11566	11567	
4	11568	11569	11570	11571	
4	11572	11573	11574	11575	
4	11576	11577	11578	11579	
4	11580	11581	11582	11583	
4	11584	11585	11586	11587	
4	11588	11589	11590	11591	
4	11592	11593	11594	11595	
4	11596	11597	11598	11599	
4	11600	11601	11602	11603	
4	11604	11605	11606	11607	
4	11608	11609	11610	11611	
4	11612	11613	11614	11615	
4	11616	11617	11618	11619	
4	11620	11621	11622	11623	
4	11624	11625	11626	11627	
4	11628	11629	11630	11631	
4	11632	11633	11634	11635	
4	11636	11637	11638	11639	
4	11640	11641	11642	11643	
4	11644	11645	11646	11647	
4	11648	11649	11650	11651	
4	11652	11653	11654	11655	
4	11656	11657	11658	11659	
4	11660	11661	11662	11663	
4	11664	11665	11666	11667	
4	11668	11669	11670	11671	
4	11672	11673	11674	11675	
4	11676	11677	11678	11679	
4	11680	11681	11682	11683	
4	11684	11685	11686	11687	
4	11688	11689	11690	11691	
4	11692	11693	11694	11695	
4	11696	11697	11698	11699	
4	11700	11701	11702	11703	
4	11704	11705	11706	11707	
4	11708	11709	11710	11711	
4	11712	11713	11714	11715	
4	11716	11717	11718	11719	
4	11720	11721	11722	11723	
4	11724	11725	11726	11727	
4	11728	11729	11730	11731	
4	11732	11733	11734	11735	
4	11736	11737	11738	11739	
4	11740	11741	11742	11743	
4	11744	11745	11746	11747	
4	11748	11749	11750	11751	
4	11752	11753	11754	11755	
4	11756	11757	11758	11759	
4	11760	11761	11762	11763	
4	11764	11765	11766	11767	
4	11768	11769	11770	11771	
4	11772	11773	11774	11775	
4	11776	11777	11778	11779	
4	11780	11781	11782	11783	
4	11784	11785	11786	11787	
4	11788	11789	11790	11791	
4	11792	11793	11794	11795	
4	11796	11797	11798	11799	
4	11800	11801	11802	11803	
4	11804	11805	11806	11807	
4	11808	11809	11810	11811	
4	11812	11813	11814	11815	
4	11816	11817	11818	11819	
4	11820	11821	11822	11823	
4	11824	11825	11826	11827	
4	11828	11829	11830	11831	
4	11832	11833	11834	11835	
4	11836	11837	11838	11839	
4	11840	11841	11842	11843	
4	11844	11845	11846	11847	
4	11848	11849	11850	11851	
4	11852	11853	11854	11855	
4	11856	11857	11858	11859	
4	11860	11861	11862	11863	
4	11864	11865	11866	11867	
4	11868	11869	11870	11871	
4	11872	11873	11874	11875	
4	11876	11877	11878	11879	
4	11880	11881	11882	11883	
4	11884	11885	11886	11887	
4	11888	11889	11890	11891	
4	11892	11893	11894	11895	
4	11896	11897	11898	11899	
4	11900	11901	11902	11903	
4	11904	11905	11906	11907	
4	11908	11909	11910	11911	
4	11912	11913	11914	11915	
4	11916	11917	11918	11919	
4	11920	11921	11922	11923	
4	11924	11925	11926	11927	
4	11928	11929	11930	11931	
4	11932	11933	11934	11935	
4	11936	11937	11938	11939	
4	11940	11941	11942	11943	
4	11944	11945	11946	11947	
4	11948	11949	11950	11951	
4	11952	11953	11954	11955	
4	11956	11957	11958	11959	
4	11960	11961	11962	11963	
4	11964	11965	11966	11967	
4	11968	11969	11970	11971	
4	11972	11973	11974	11975	
4	11976	11977	11978	11979	
4	11980	11981	11982	11983	
4	11984	11985	11986	11987	
4	11988	11989	11990	11991	
4	11992	11993	11994	11995	
4	11996	11997	11998	11999	
4	12000	12001	12002	12003	
4	12004	12005	12006	12007	
4	12008	12009	12010	12011	
4	12012	12013	12014	12015	
4	12016	12017	12018	12019	
4	12020	12021	12022	12023	
4	12024	12025	12026	12027	
4	12028	12029	12030	12031	
4	12032	12033	12034	12035	
4	12036	12037	12038	12039	
4	12040	12041	12042	12043	
4	12044	12045	12046	12047	
4	12048	12049	12050	12051	
4	12052	12053	12054	12055	
4	12056	12057	12058	12059	
4	12060	12061	12062	12063	
4	12064	12065	12066	12067	
4	12068	12069	12070	12071	
4	12072	12073	12074	12075	
4	12076	12077	12078	12079	
4	12080	12081	12082	12083	
4	12084	12085	12086	12087	
4	12088	12089	12090	12091	
4	12092	12093	12094	12095	
4	12096	12097	12098	12099	
4	12100	12101	12102	12103	
4	12104	12105	12106	12107	
4	12108	12109	12110	12111	
4	12112	12113	12114	12115	
4	12116	12117	12118	12119	
4	12120	12121	12122	12123	
4	12124	12125	12126	12127	
4	12128	12129	12130	12131	
4	12132	12133	12134	12135	
4	12136	12137	12138	12139	
4	12140	12141	12142	12143	
4	12144	12145	12146	12147	
4	12148	12149	12150	12151	
4	12152	12153	12154	12155	
4	12156	12157	12158	12159	
4	12160	12161	12162	12163	
4	12164	12165	12166	12167	
4	12168	12169	12170	12171	
4	12172	12173	12174	12175	
4	12176	12177	12178	12179	
4	12180	12181	12182	12183	
4	12184	12185	12186	12187	
4	12188	12189	12190	12191	
4	12192	12193	12194	12195	
4	12196	12197	12198	12199	
4	12200	12201	12202	12203	
4	12204	12205	12206	12207	
4	12208	12209	12210	12211	
4	12212	12213	12214	12215	
4	12216	12217	12218	12219	
4	12220	12221	12222	12223	
4	12224	12225	12226	12227	
4	12228	12229	12230	12231	
4	12232	12233	12234	12235	
4	12236	12237	12238	12239	
4	12240	12241	12242	12243	
4	12244	12245	12246	12247	
4	12248	12249	12250	12251	
4	12252	12253	12254	12255	
4	12256	12257	12258	12259	
4	12260	12261	12262	12263	
4	12264	12265	12266	12267	
4	12268	12269	12270	12271	
4	12272	12273	12274	12275	
4	12276	12277	12278	12279	
4	12280	12281	12282	12283	
4	12284	12285	12286	12287	
4	12288	12289	12290	12291	
4	12292	12293	12294	12295	
4	12296	12297	12298	12299	
4	12300	12301	12302	12303	
4	12304	12305	12306	12307	
4	12308	12309	12310	12311	
4	12312	12313	12314	12315	
4	12316	12317	12318	12319	
4	12320	12321	12322	12323	
4	12324	12325	12326	12327	
4	12328	12329	12330	12331	
4	12332	12333	12334	12335	
4	12336	12337	12338	12339	
4	12340	12341	12342	12343	
4	12344	12345	12346	12347	
4	12348	12349	12350	12351	
4	12352	12353	12354	12355	
4	12356	12357	12358	12359	
4	12360	12361	12362	12363	
4	12364	12365	12366	12367	
4	12368	12369	12370	12371	
4	12372	12373	12374	12375	
4	12376	12377	12378	12379	
4	12380	12381	12382	12383	
4	12384	12385	12386	12387	
4	12388	12389	12390	12391	
4	12392	12393	12394	12395	
4	12396	12397	12398	12399	
4	12400	12401	12402	12403	
4	12404	12405	12406	12407	
4	12408	12409	12410	12411	
4	12412	12413	12414	12415	
4	12416	12417	12418	12419	
4	12420	12421	12422	12423	
4	12424	12425	12426	12427	
4	12428	12429	12430	12431	
4	12432	12433	12434	12435	
4	12436	12437	12438	12439	
4	12440	12441	12442	12443	
4	12444	12445	12446	12447	
4	12448	12449	12450	12451	
4	12452	12453	12454	12455	
4	12456	12457	12458	12459	
4	12460	12461	12462	12463	
4	12464	12465	12466	12467	
4	12468	12469	12470	12471	
4	12472	12473	12474	12475	
4	12476	12477	12478	12479	
4	12480	12481	12482	12483	
4	12484	12485	12486	12487	
4	12488	12489	12490	12491	
4	12492	12493	12494	12495	
4	12496	12497	12498	12499	
4	12500	12501	12502	12503	
4	12504	12505	12506	12507	
4	12508	12509	12510	12511	
4	12512	12513	12514	12515	
4	12516	12517	12518	12519	
4	12520	12521	12522	12523	
4	12524	12525	12526	12527	
4	12528	12529	12530	12531	
4	12532	12533	12534	12535	
4	12536	12537	12538	12539	
4	12540	12541	12542	12543	
4	12544	12545	12546	12547	
4	12548	12549	12550	12551	
4	12552	12553	12554	12555	
4	12556	12557	12558	12559	
4	12560	12561	12562	12563	
4	12564	12565	12566	12567	
4	12568	12569	12570	12571	
4	12572	12573	12574	12575	
4	12576	12577	12578	12579	
4	12580	12581	12582	12583	
4	12584	12585	12586	12587	
4	12588	12589	12590	12591	
4	12592	12593	12594	12595	
4	12596	12597	12598	12599	
4	12600	12601	12602	12603	
4	12604	12605	12606	12607	
4	12608	12609	12610	12611	
4	12612	12613	12614	12615	
4	12616	12617	12618	12619	
4	12620	12621	12622	12623	
4	12624	12625	12626	12627	
4	12628	12629	12630	12631	
4	12632	12633	12634	12635	
4	12636	12637	12638	12639	
4	12640	12641	12642	12643	
4	12644	12645	12646	12647	
4	12648	12649	12650	12651	
4	12652	12653	12654	12655	
4	12656	12657	12658	12659	
4	12660	12661	12662	12663	
4	12664	12665	12666	12667	
4	12668	12669	12670	12671	
4	12672	12673	12674	12675	
4	12676	12677	12678	12679	
4	12680	12681	12682	12683	
4	12684	12685	12686	12687	
4	12688	12689	12690	12691	
4	12692	12693	12694	12695	
4	12696	12697	12698	12699	
4	12700	12701	12702	12703	
4	12704	12705	12706	12707	
4	12708	12709	12710	12711	
4	12712	12713	12714	12715	
4	12716	12717	12718	12719	
4	12720	12721	12722	12723	
4	12724	12725	12726	12727	
4	12728	12729	12730	12731	
4	12732	12733	12734	12735	
4	12736	12737	12738	12739	
4	12740	12741	12742	12743	
4	12744	12745	12746	12747	
4	12748	12749	12750	12751	
4	12752	12753	12754	12755	
4	12756	12757	12758	12759	
4	12760	12761	12762	12763	
4	12764	12765	12766	12767	
4	12768	12769	12770	12771	
4	12772	12773	12774	12775	
4	12776	12777	12778	12779	
4	12780	12781	12782	12783	
4	12784	12785	12786	12787	
4	12788	12789	12790	12791	
4	12792	12793	12794	12795	
4	12796	12797	12798	12799	
4	12800	12801	12802	12803	
4	12804	12805	12806	12807	
4	12808	12809	12810	12811	
4	12812	12813	12814	12815	
4	12816	12817	12818	12819	
4	12820	12821	12822	12823	
4	12824	12825	12826	12827	
4	12828	12829	12830	12831	
4	12832	12833	12834	12835	
4	12836	12837	12838	12839	
4	12840	12841	12842	12843	
4	12844	12845	12846	12847	
4	12848	12849	12850	12851	
4	12852	12853	12854	12855	
4	12856	12857	12858	12859	
4	12860	12861	12862	12863	
4	12864	12865	12866	12867	
4	12868	12869	12870	12871	
4	12872	12873	12874	12875	
4	12876	12877	12878	12879	
4	12880	12881	12882	12883	
4	12884	12885	12886	12887	
4	12888	12889	12890	12891	
4	12892	12893	12894	12895	
4	12896	12897	12898	12899	
4	12900	12901	12902	12903	
4	12904	12905	12906	12907	
4	12908	12909	12910	12911	
4	12912	12913	12914	12915	
4	12916	12917	12918	12919	
4	12920	12921	12922	12923	
4	12924	12925	12926	12927	
4	12928	12929	12930	12931	
4	12932	12933	12934	12935	
4	12936	12937	12938	12939	
4	12940	12941	12942	12943	
4	12944	12945	12946	12947	
4	12948	12949	12950	12951	
4	12952	12953	12954	12955	
4	12956	12957	12958	12959	
4	12960	12961	12962	12963	
4	12964	12965	12966	12967	
4	12968	12969	12970	12971	
4	12972	12973	12974	12975	
4	12976	12977	12978	12979	
4	12980	12981	12982	12983	
4	12984	12985	12986	12987	
4	12988	12989	12990	12991	
4	12992	12993	12994	12995	
4	12996	12997	12998	12999	
4	13000	13001	13002	13003	
4	13004	13005	13006	13007	
4	13008	13009	13010	13011	
4	13012	13013	13014	13015	
4	13016	13017	13018	13019	
4	13020	13021	13022	13023	
4	13024	13025	13026	13027	
4	13028	13029	13030	13031	
4	13032	13033	13034	13035	
4	13036	13037	13038	13039	
4	13040	13041	13042	13043	
4	13044	13045	13046	13047	
4	13048	13049	13050	13051	
4	13052	13053	13054	13055	
4	13056	13057	13058	13059	
4	13060	13061	13062	13063	
4	13064	13065	13066	13067	
4	13068	13069	13070	13071	
4	13072	13073	13074	13075	
4	13076	13077	13078	13079	
4	13080	13081	13082	13083	
4	13084	13085	13086	13087	
4	13088	13089	13090	13091	
4	13092	13093	13094	13095	
4	13096	13097	13098	13099	
4	13100	13101	13102	13103	
4	13104	13105	13106	13107	
4	13108	13109	13110	13111	
4	13112	13113	13114	13115	
4	13116	13117	13118	13119	
4	13120	13121	13122	13123	
4	13124	13125	13126	13127	
4	13128	13129	13130	13131	
4	13132	13133	13134	13135	
4	13136	13137	13138	13139	
4	13140	13141	13142	13143	
4	13144	13145	13146	13147	
4	13148	13149	13150	13151	
4	13152	13153	13154	13155	
4	13156	13157	13158	13159	
4	13160	13161	13162	13163	
4	13164	13165	13166	13167	
4	13168	13169	13170	13171	
4	13172	13173	13174	13175	
4	13176	13177	13178	13179	
4	13180	13181	13182	13183	
4	13184	13185	13186	13187	
4	13188	13189	13190	13191	
4	13192	13193	13194	13195	
4	13196	13197	13198	13199	
4	13200	13201	13202	13203	
4	13204	13205	13206	13207	
4	13208	13209	13210	13211	
4	13212	13213	13214	13215	
4	13216	13217	13218	13219	
4	13220	13221	13222	13223	
4	13224	13225	13226	13227	
4	13228	13229	13230	13231	
4	13232	13233	13234	13235	
4	13236	13237	13238	13239	
4	13240	13241	13242	13243	
4	13244	13245	13246	13247	
4	13248	13249	13250	13251	
4	13252	13253	13254	13255	
4	13256	13257	13258	13259	
4	13260	13261	13262	13263	
4	13264	13265	13266	13267	
4	13268	13269	13270	13271	
4	13272	13273	13274	13275	
4	13276	13277	13278	13279	
4	13280	13281	13282	13283	
4	13284	13285	13286	13287	
4	13288	13289	13290	13291	
4	13292	13293	13294	13295	
4	13296	13297	13298	13299	
4	13300	13301	13302	13303	
4	13304	13305	13306	13307	
4	13308	13309	13310	13311	
4	13312	13313	13314	13315	
4	13316	13317	13318	13319	
4	13320	13321	13322	13323	
4	13324	13325	13326	13327	
4	13328	13329	13330	13331	
4	13332	13333	13334	13335	
4	13336	13337	13338	13339	
4	13340	13341	13342	13343	
4	13344	13345	13346	13347	
4	13348	13349	13350	13351	
4	13352	13353	13354	13355	
4	13356	13357	13358	13359	
4	13360	13361	13362	13363	
4	13364	13365	13366	13367	
4	13368	13369	13370	13371	
4	13372	13373	13374	13375	
4	13376	13377	13378	13379	
4	13380	13381	13382	13383	
4	13384	13385	13386	13387	
4	13388	13389	13390	13391	
4	13392	13393	13394	13395	
4	13396	13397	13398	13399	
4	13400	13401	13402	13403	
4	13404	13405	13406	13407	
4	13408	13409	13410	13411	
4	13412	13413	13414	13415	
4	13416	13417	13418	13419	
4	13420	13421	13422	13423	
4	13424	13425	13426	13427	
4	13428	13429	13430	13431	
4	13432	13433	13434	13435	
4	13436	13437	13438	13439	
4	13440	13441	13442	13443	
4	13444	13445	13446	13447	
4	13448	13449	13450	13451	
4	13452	13453	13454	13455	
4	13456	13457	13458	13459	
4	13460	13461	13462	13463	
4	13464	13465	13466	13467	
4	13468	13469	13470	13471	
4	13472	13473	13474	13475	
4	13476	13477	13478	13479	
4	13480	13481	13482	13483	
4	13484	13485	13486	13487	
4	13488	13489	13490	13491	
4	13492	13493	13494	13495	
4	13496	13497	13498	13499	
4	13500	13501	13502	13503	
4	13504	13505	13506	13507	
4	13508	13509	13510	13511	
4	13512	13513	13514	13515	
4	13516	13517	13518	13519	
4	13520	13521	13522	13523	
4	13524	13525	13526	13527	
4	13528	13529	13530	13531	
4	13532	13533	13534	13535	
4	13536	13537	13538	13539	
4	13540	13541	13542	13543	
4	13544	13545	13546	13547	
4	13548	13549	13550	13551	
4	13552	13553	13554	13555	
4	13556	13557	13558	13559	
4	13560	13561	13562	13563	
4	13564	13565	13566	13567	
4	13568	13569	13570	13571	
4	13572	13573	13574	13575	
4	13576	13577	13578	13579	
4	13580	13581	13582	13583	
4	13584	13585	13586	13587	
4	13588	13589	13590	13591	
4	13592	13593	13594	13595	
4	13596	13597	13598	13599	
4	13600	13601	13602	13603	
4	13604	13605	13606	13607	
4	13608	13609	13610	13611	
4	13612	13613	13614	13615	
4	13616	13617	13618	13619	
4	13620	13621	13622	13623	
4	13624	13625	13626	13627	
4	13628	13629	13630	13631	
4	13632	13633	13634	13635	
4	13636	13637	13638	13639	
4	13640	13641	13642	13643	
4	13644	13645	13646	13647	
4	13648	13649	13650	13651	
4	13652	13653	13654	13655	
4	13656	13657	13658	13659	
4	13660	13661	13662	13663	
4	13664	13665	13666	13667	
4	13668	13669	13670	13671	
4	13672	13673	13674	13675	
4	13676	13677	13678	13679	
4	13680	13681	13682	13683	
4	13684	13685	13686	13687	
4	13688	13689	13690	13691	
4	13692	13693	13694	13695	
4	13696	13697	13698	13699	
4	13700	13701	13702	13703	
4	13704	13705	13706	13707	
4	13708	13709	13710	13711	
4	13712	13713	13714	13715	
4	13716	13717	13718	13719	
4	13720	13721	13722	13723	
4	13724	13725	13726	13727	
4	13728	13729	13730	13731	
4	13732	13733	13734	13735	
4	13736	13737	13738	13739	
4	13740	13741	13742	13743	
4	13744	13745	13746	13747	
4	13748	13749	13750	13751	
4	13752	13753	13754	13755	
4	13756	13757	13758	13759	
4	13760	13761	13762	13763	
4	13764	13765	13766	13767	
4	13768	13769	13770	13771	
4	13772	13773	13774	13775	
4	13776	13777	13778	13779	
4	13780	13781	13782	13783	
4	13784	13785	13786	13787	
4	13788	13789	13790	13791	
4	13792	13793	13794	13795	
4	13796	13797	13798	13799	
4	13800	13801	13802	13803	
4	13804	13805	13806	13807	
4	13808	13809	13810	13811	
4	13812	13813	13814	13815	
4	13816	13817	13818	13819	
4	13820	13821	13822	13823	
4	13824	13825	13826	13827	
4	13828	13829	13830	13831	
4	13832	13833	13834	13835	
4	13836	13837	13838	13839	
4	13840	13841	13842	13843	
4	13844	13845	13846	13847	
4	13848	13849	13850	13851	
4	13852	13853	13854	13855	
4	13856	13857	13858	13859	
4	13860	13861	13862	13863	
4	13864	13865	13866	13867	
4	13868	13869	13870	13871	
4	13872	13873	13874	13875	
4	13876	13877	13878	13879	
4	13880	13881	13882	13883	
4	13884	13885	13886	13887	
4	13888	13889	13890	13891	
4	13892	13893	13894	13895	
4	13896	13897	13898	13899	
4	13900	13901	13902	13903	
4	13904	13905	13906	13907	
4	13908	13909	13910	13911	
4	13912	13913	13914	13915	
4	13916	13917	13918	13919	
4	13920	13921	13922	13923	
4	13924	13925	13926	13927	
4	13928	13929	13930	13931	
4	13932	13933	13934	13935	
4	13936	13937	13938	13939	
4	13940	13941	13942	13943	
4	13944	13945	13946	13947	
4	13948	13949	13950	13951	
4	13952	13953	13954	13955	
4	13956	13957	13958	13959	
4	13960	13961	13962	13963	
4	13964	13965	13966	13967	
4	13968	13969	13970	13971	
4	13972	13973	13974	13975	
4	13976	13977	13978	13979	
4	13980	13981	13982	13983	
4	13984	13985	13986	13987	
4	13988	13989	13990	13991	
4	13992	13993	13994	13995	
4	13996	13997	13998	13999	
4	14000	14001	14002	14003	
4	14004	14005	14006	14007	
4	14008	14009	14010	14011	
4	14012	14013	14014	14015	
4	14016	14017	14018	14019	
4	14020	14021	14022	14023	
4	14024	14025	14026	14027	
4	14028	14029	14030	14031	
4	14032	14033	14034	14035	
4	14036	14037	14038	14039	
4	14040	14041	14042	14043	
4	14044	14045	14046	14047	
4	14048	14049	14050	14051	
4	14052	14053	14054	14055	
4	14056	14057	14058	14059	
4	14060	14061	14062	14063	
4	14064	14065	14066	14067	
4	14068	14069	14070	14071	
4	14072	14073	14074	14075	
4	14076	14077	14078	14079	
4	14080	14081	14082	14083	
4	14084	14085	14086	14087	
4	14088	14089	14090	14091	
4	14092	14093	14094	14095	
4	14096	14097	14098	14099	
4	14100	14101	14102	14103	
4	14104	14105	14106	14107	
4	14108	14109	14110	14111	
4	14112	14113	14114	14115	
4	14116	14117	14118	14119	
4	14120	14121	14122	14123	
4	14124	14125	14126	14127	
4	14128	14129	14130	14131	
4	14132	14133	14134	14135	
4	14136	14137	14138	14139	
4	14140	14141	14142	14143	
4	14144	14145	14146	14147	
4	14148	14149	14150	14151	
4	14152	14153	14154	14155	
4	14156	14157	14158	14159	
4	14160	14161	14162	14163	
4	14164	14165	14166	14167	
4	14168	14169	14170	14171	
4	14172	14173	14174	14175	
4	14176	14177	14178	14179	
4	14180	14181	14182	14183	
4	14184	14185	14186	14187	
4	14188	14189	14190	14191	
4	14192	14193	14194	14195	
4	14196	14197	14198	14199	
4	14200	14201	14202	14203	
4	14204	14205	14206	14207	
4	14208	14209	14210	14211	
4	14212	14213	14214	14215	
4	14216	14217	14218	14219	
4	14220	14221	14222	14223	
4	14224	14225	14226	14227	
4	14228	14229	14230	14231	
4	14232	14233	14234	14235	
4	14236	14237	14238	14239	
4	14240	14241	14242	14243	
4	14244	14245	14246	14247	
4	14248	14249	14250	14251	
4	14252	14253	14254	14255	
4	14256	14257	14258	14259	
4	14260	14261	14262	14263	
4	14264	14265	14266	14267	
4	14268	14269	14270	14271	
4	14272	14273	14274	14275	
4	14276	14277	14278	14279	
4	14280	14281	14282	14283	
4	14284	14285	14286	14287	
4	14288	14289	14290	14291	
4	14292	14293	14294	14295	
4	14296	14297	14298	14299	
4	14300	14301	14302	14303	
4	14304	14305	14306	14307	
4	14308	14309	14310	14311	
4	14312	14313	14314	14315	
4	14316	14317	14318	14319	
4	14320	14321	14322	14323	
4	14324	14325	14326	14327	
4	14328	14329	14330	14331	
4	14332	14333	14334	14335	
4	14336	14337	14338	14339	
4	14340	14341	14342	14343	
4	14344	14345	14346	14347	
4	14348	14349	14350	14351	
4	14352	14353	14354	14355	
4	14356	14357	14358	14359	
4	14360	14361	14362	14363	
4	14364	14365	14366	14367	
4	14368	14369	14370	14371	
4	14372	14373	14374	14375	
4	14376	14377	14378	14379	
4	14380	14381	14382	14383	
4	14384	14385	14386	14387	
4	14388	14389	14390	14391	
4	14392	14393	14394	14395	
4	14396	14397	14398	14399	
4	14400	14401	14402	14403	
4	14404	14405	14406	14407	
4	14408	14409	14410	14411	
4	14412	14413	14414	14415	
4	14416	14417	14418	14419	
4	14420	14421	14422	14423	
4	14424	14425	14426	14427	
4	14428	14429	14430	14431	
4	14432	14433	14434	14435	
4	14436	14437	14438	14439	
4	14440	14441	14442	14443	
4	14444	14445	14446	14447	
4	14448	14449	14450	14451	
4	14452	14453	14454	14455	
4	14456	14457	14458	14459	
4	14460	14461	14462	14463	
4	14464	14465	14466	14467	
4	14468	14469	14470	14471	
4	14472	14473	14474	14475	
4	14476	14477	14478	14479	
4	14480	14481	14482	14483	
4	14484	14485	14486	14487	
4	14488	14489	14490	14491	
4	14492	14493	14494	14495	
4	14496	14497	14498	14499	
4	14500	14501	14502	14503	
4	14504	14505	14506	14507	
4	14508	14509	14510	14511	
4	14512	14513	14514	14515	
4	14516	14517	14518	14519	
4	14520	14521	14522	14523	
4	14524	14525	14526	14527	
4	14528	14529	14530	14531	
4	14532	14533	14534	14535	
4	14536	14537	14538	14539	
4	14540	14541	14542	14543	
4	14544	14545	14546	14547	
4	14548	14549	14550	14551	
4	14552	14553	14554	14555	
4	14556	14557	14558	14559	
4	14560	14561	14562	14563	
4	14564	14565	14566	14567	
4	14568	14569	14570	14571	
4	14572	14573	14574	14575	
4	14576	14577	14578	14579	
4	14580	14581	14582	14583	
4	14584	14585	14586	14587	
4	14588	14589	14590	14591	
4	14592	14593	14594	14595	
4	14596	14597	14598	14599	
4	14600	14601	14602	14603	
4	14604	14605	14606	14607	
4	14608	14609	14610	14611	
4	14612	14613	14614	14615	
4	14616	14617	14618	14619	
4	14620	14621	14622	14623	
4	14624	14625	14626	14627	
4	14628	14629	14630	14631	
4	14632	14633	14634	14635	
4	14636	14637	14638	14639	
4	14640	14641	14642	14643	
4	14644	14645	14646	14647	
4	14648	14649	14650	14651	
4	14652	14653	14654	14655	
4	14656	14657	14658	14659	
4	14660	14661	14662	14663	
4	14664	14665	14666	14667	
4	14668	14669	14670	14671	
4	14672	14673	14674	14675	
4	14676	14677	14678	14679	
4	14680	14681	14682	14683	
4	14684	14685	14686	14687	
4	14688	14689	14690	14691	
4	14692	14693	14694	14695	
4	14696	14697	14698	14699	
4	14700	14701	14702	14703	
4	14704	14705	14706	14707	
4	14708	14709	14710	14711	
4	14712	14713	14714	14715	
4	14716	14717	14718	14719	
4	14720	14721	14722	14723	
4	14724	14725	14726	14727	
4	14728	14729	14730	14731	
4	14732	14733	14734	14735	
4	14736	14737	14738	14739	
4	14740	14741	14742	14743	
4	14744	14745	14746	14747	
4	14748	14749	14750	14751	
4	14752	14753	14754	14755	
4	14756	14757	14758	14759	
4	14760	14761	14762	14763	
4	14764	14765	14766	14767	
4	14768	14769	14770	14771	
4	14772	14773	14774	14775	
4	14776	14777	14778	14779	
4	14780	14781	14782	14783	
4	14784	14785	14786	14787	
4	14788	14789	14790	14791	
4	14792	14793	14794	14795	
4	14796	14797	14798	14799	
4	14800	14801	14802	14803	
4	14804	14805	14806	14807	
4	14808	14809	14810	14811	
4	14812	14813	14814	14815	
4	14816	14817	14818	14819	
4	14820	14821	14822	14823	
4	14824	14825	14826	14827	
4	14828	14829	14830	14831	
4	14832	14833	14834	14835	
4	14836	14837	14838	14839	
4	14840	14841	14842	14843	
4	14844	14845	14846	14847	
4	14848	14849	14850	14851	
4	14852	14853	14854	14855	
4	14856	14857	14858	14859	
4	14860	14861	14862	14863	
4	14864	14865	14866	14867	
4	14868	14869	14870	14871	
4	14872	14873	14874	14875	
4	14876	14877	14878	14879	
4	14880	14881	14882	14883	
4	14884	14885	14886	14887	
4	14888	14889	14890	14891	
4	14892	14893	14894	14895	
4	14896	14897	14898	14899	
4	14900	14901	14902	14903	
4	14904	14905	14906	14907	
4	14908	14909	14910	14911	
4	14912	14913	14914	14915	
4	14916	14917	14918	14919	
4	14920	14921	14922	14923	
4	14924	14925	14926	14927	
4	14928	14929	14930	14931	
4	14932	14933	14934	14935	
4	14936	14937	14938	14939	
4	14940	14941	14942	14943	
4	14944	14945	14946	14947	
4	14948	14949	14950	14951	
4	14952	14953	14954	14955	
4	14956	14957	14958	14959	
4	14960	14961	14962	14963	
4	14964	14965	14966	14967	
4	14968	14969	14970	14971	
4	14972	14973	14974	14975	
4	14976	14977	14978	14979	
4	14980	14981	14982	14983	
4	14984	14985	14986	14987	
4	14988	14989	14990	14991	
4	14992	14993	14994	14995	
4	14996	14997	14998	14999	
4	15000	15001	15002	15003	
4	15004	15005	15006	15007	
4	15008	15009	15010	15011	
4	15012	15013	15014	15015	
4	15016	15017	15018	15019	
4	15020	15021	15022	15023	
4	15024	15025	15026	15027	
4	15028	15029	15030	15031	
4	15032	15033	15034	15035	
4	15036	15037	15038	15039	
4	15040	15041	15042	15043	
4	15044	15045	15046	15047	
4	15048	15049	15050	15051	
4	15052	15053	15054	15055	
4	15056	15057	15058	15059	
4	15060	15061	15062	15063	
4	15064	15065	15066	15067	
4	15068	15069	15070	15071	
4	15072	15073	15074	15075	
4	15076	15077	15078	15079	
4	15080	15081	15082	15083	
4	15084	15085	15086	15087	
4	15088	15089	15090	15091	
4	15092	15093	15094	15095	
4	15096	15097	15098	15099	
4	15100	15101	15102	15103	
4	15104	15105	15106	15107	
4	15108	15109	15110	15111	
4	15112	15113	15114	15115	
4	15116	15117	15118	15119	
4	15120	15121	15122	15123	
4	15124	15125	15126	15127	
4	15128	15129	15130	15131	
4	15132	15133	15134	15135	
4	15136	15137	15138	15139	
4	15140	15141	15142	15143	
4	15144	15145	15146	15147	
4	15148	15149	15150	15151	
4	15152	15153	15154	15155	
4	15156	15157	15158	15159	
4	15160	15161	15162	15163	
4	15164	15165	15166	15167	
4	15168	15169	15170	15171	
4	15172	15173	15174	15175	
4	15176	15177	15178	15179	
4	15180	15181	15182	15183	
4	15184	15185	15186	15187	
4	15188	15189	15190	15191	
4	15192	15193	15194	15195	
4	15196	15197	15198	15199	
4	15200	15201	15202	15203	
4	15204	15205	15206	15207	
4	15208	15209	15210	15211	
4	15212	15213	15214	15215	
4	15216	15217	15218	15219	
4	15220	15221	15222	15223	
4	15224	15225	15226	15227	
4	15228	15229	15230	15231	
4	15232	15233	15234	15235	
4	15236	15237	15238	15239	
4	15240	15241	15242	15243	
4	15244	15245	15246	15247	
4	15248	15249	15250	15251	
4	15252	15253	15254	15255	
4	15256	15257	15258	15259	
4	15260	15261	15262	15263	
4	15264	15265	15266	15267	
4	15268	15269	15270	15271	
4	15272	15273	15274	15275	
4	15276	15277	15278	15279	
4	15280	15281	15282	15283	
4	15284	15285	15286	15287	
4	15288	15289	15290	15291	
4	15292	15293	15294	15295	
4	15296	15297	15298	15299	
4	15300	15301	15302	15303	
4	15304	15305	15306	15307	
4	15308	15309	15310	15311	
4	15312	15313	15314	15315	
4	15316	15317	15318	15319	
4	15320	15321	15322	15323	
4	15324	15325	15326	15327	
4	15328	15329	15330	15331	
4	15332	15333	15334	15335	
4	15336	15337	15338	15339	
4	15340	15341	15342	15343	
4	15344	15345	15346	15347	
4	15348	15349	15350	15351	
4	15352	15353	15354	15355	
4	15356	15357	15358	15359	
4	15360	15361	15362	15363	
4	15364	15365	15366	15367	
4	15368	15369	15370	15371	
4	15372	15373	15374	15375	
4	15376	15377	15378	15379	
4	15380	15381	15382	15383	
4	15384	15385	15386	15387	
4	15388	15389	15390	15391	
4	15392	15393	15394	15395	
4	15396	15397	15398	15399	
4	15400	15401	15402	15403	
4	15404	15405	15406	15407	
4	15408	15409	15410	15411	
4	15412	15413	15414	15415	
4	15416	15417	15418	15419	
4	15420	15421	15422	15423	
4	15424	15425	15426	15427	
4	15428	15429	15430	15431	
4	15432	15433	15434	15435	
4	15436	15437	15438	15439	
4	15440	15441	15442	15443	
4	15444	15445	15446	15447	
4	15448	15449	15450	15451	
4	15452	15453	15454	15455	
4	15456	15457	15458	15459	
4	15460	15461	15462	15463	
4	15464	15465	15466	15467	
4	15468	15469	15470	15471	
4	15472	15473	15474	15475	
4	15476	15477	15478	15479	
4	15480	15481	15482	15483	
4	15484	15485	15486	15487	
4	15488	15489	15490	15491	
4	15492	15493	15494	15495	
4	15496	15497	15498	15499	
4	15500	15501	15502	15503	
4	15504	15505	15506	15507	
4	15508	15509	15510	15511	
4	15512	15513	15514	15515	
4	15516	15517	15518	15519	
4	15520	15521	15522	15523	
4	15524	15525	15526	15527	
4	15528	15529	15530	15531	
4	15532	15533	15534	15535	
4	15536	15537	15538	15539	
4	15540	15541	15542	15543	
4	15544	15545	15546	15547	
4	15548	15549	15550	15551	
4	15552	15553	15554	15555	
4	15556	15557	15558	15559	
4	15560	15561	15562	15563	
4	15564	15565	15566	15567	
4	15568	15569	15570	15571	
4	15572	15573	15574	15575	
4	15576	15577	15578	15579	
4	15580	15581	15582	15583	
4	15584	15585	15586	15587	
4	15588	15589	15590	15591	
4	15592	15593	15594	15595	
4	15596	15597	15598	15599	
4	15600	15601	15602	15603	
4	15604	15605	15606	15607	
4	15608	15609	15610	15611	
4	15612	15613	15614	15615	
4	15616	15617	15618	15619	
4	15620	15621	15622	15623	
4	15624	15625	15626	15627	
4	15628	15629	15630	15631	
4	15632	15633	15634	15635	
4	15636	15637	15638	15639	
4	15640	15641	15642	15643	
4	15644	15645	15646	15647	
4	15648	15649	15650	15651	
4	15652	15653	15654	15655	
4	15656	15657	15658	15659	
4	15660	15661	15662	15663	
4	15664	15665	15666	15667	
4	15668	15669	15670	15671	
4	15672	15673	15674	15675	
4	15676	15677	15678	15679	
4	15680	15681	15682	15683	
4	15684	15685	15686	15687	
4	15688	15689	15690	15691	
4	15692	15693	15694	15695	
4	15696	15697	15698	15699	
4	15700	15701	15702	15703	
4	15704	15705	15706	15707	
4	15708	15709	15710	15711	
4	15712	15713	15714	15715	
4	15716	15717	15718	15719	
4	15720	15721	15722	15723	
4	15724	15725	15726	15727	
4	15728	15729	15730	15731	
4	15732	15733	15734	15735	
4	15736	15737	15738	15739	
4	15740	15741	15742	15743	
4	15744	15745	15746	15747	
4	15748	15749	15750	15751	
4	15752	15753	15754	15755	
4	15756	15757	15758	15759	
4	15760	15761	15762	15763	
4	15764	15765	15766	15767	
4	15768	15769	15770	15771	
4	15772	15773	15774	15775	
4	15776	15777	15778	15779	
4	15780	15781	15782	15783	
4	15784	15785	15786	15787	
4	15788	15789	15790	15791	
4	15792	15793	15794	15795	
4	15796	15797	15798	15799	
4	15800	15801	15802	15803	
4	15804	15805	15806	15807	
4	15808	15809	15810	15811	
4	15812	15813	15814	15815	
4	15816	15817	15818	15819	
4	15820	15821	15822	15823	
4	15824	15825	15826	15827	
4	15828	15829	15830	15831	
4	15832	15833	15834	15835	
4	15836	15837	15838	15839	
4	15840	15841	15842	15843	
4	15844	15845	15846	15847	
4	15848	15849	15850	15851	
4	15852	15853	15854	15855	
4	15856	15857	15858	15859	
4	15860	15861	15862	15863	
4	15864	15865	15866	15867	
4	15868	15869	15870	15871	
4	15872	15873	15874	15875	
4	15876	15877	15878	15879	
4	15880	15881	15882	15883	
4	15884	15885	15886	15887	
4	15888	15889	15890	15891	
4	15892	15893	15894	15895	
4	15896	15897	15898	15899	
4	15900	15901	15902	15903	
4	15904	15905	15906	15907	
4	15908	15909	15910	15911	
4	15912	15913	15914	15915	
4	15916	15917	15918	15919	
4	15920	15921	15922	15923	
4	15924	15925	15926	15927	
4	15928	15929	15930	15931	
4	15932	15933	15934	15935	
4	15936	15937	15938	15939	
4	15940	15941	15942	15943	
4	15944	15945	15946	15947	
4	15948	15949	15950	15951	
4	15952	15953	15954	15955	
4	15956	15957	15958	15959	
4	15960	15961	15962	15963	
4	15964	15965	15966	15967	
4	15968	15969	15970	15971	
4	15972	15973	15974	15975	
4	15976	15977	15978	15979	
4	15980	15981	15982	15983	
4	15984	15985	15986	15987	
4	15988	15989	15990	15991	
4	15992	15993	15994	15995	
4	15996	15997	15998	15999	
4	16000	16001	16002	16003	
4	16004	16005	16006	16007	
4	16008	16009	16010	16011	
4	16012	16013	16014	16015	
4	16016	16017	16018	16019	
4	16020	16021	16022	16023	
4	16024	16025	16026	16027	
4	16028	16029	16030	16031	
4	16032	16033	16034	16035	
4	16036	16037	16038	16039	
4	16040	16041	16042	16043	
4	16044	16045	16046	16047	
4	16048	16049	16050	16051	
4	16052	16053	16054	16055	
4	16056	16057	16058	16059	
4	16060	16061	16062	16063	
4	16064	16065	16066	16067	
4	16068	16069	16070	16071	
4	16072	16073	16074	16075	
4	16076	16077	16078	16079	
4	16080	16081	16082	16083	
4	16084	16085	16086	16087	
4	16088	16089	16090	16091	
4	16092	16093	16094	16095	
4	16096	16097	16098	16099	
4	16100	16101	16102	16103	
4	16104	16105	16106	16107	
4	16108	16109	16110	16111	
4	16112	16113	16114	16115	
4	16116	16117	16118	16119	
4	16120	16121	16122	16123	
4	16124	16125	16126	16127	
4	16128	16129	16130	16131	
4	16132	16133	16134	16135	
4	16136	16137	16138	16139	
4	16140	16141	16142	16143	
4	16144	16145	16146	16147	
4	16148	16149	16150	16151	
4	16152	16153	16154	16155	
4	16156	16157	16158	16159	
4	16160	16161	16162	16163	
4	16164	16165	16166	16167	
4	16168	16169	16170	16171	
4	16172	16173	16174	16175	
4	16176	16177	16178	16179	
4	16180	16181	16182	16183	
4	16184	16185	16186	16187	
4	16188	16189	16190	16191	
4	16192	16193	16194	16195	
4	16196	16197	16198	16199	
4	16200	16201	16202	16203	
4	16204	16205	16206	16207	
4	16208	16209	16210	16211	
4	16212	16213	16214	16215	
4	16216	16217	16218	16219	
4	16220	16221	16222	16223	
4	16224	16225	16226	16227	
4	16228	16229	16230	16231	
4	16232	16233	16234	16235	
4	16236	16237	16238	16239	
4	16240	16241	16242	16243	
4	16244	16245	16246	16247	
4	16248	16249	16250	16251	
4	16252	16253	16254	16255	
4	16256	16257	16258	16259	
4	16260	16261	16262	16263	
4	16264	16265	16266	16267	
4	16268	16269	16270	16271	
4	16272	16273	16274	16275	
4	16276	16277	16278	16279	
4	16280	16281	16282	16283	
4	16284	16285	16286	16287	
4	16288	16289	16290	16291	
4	16292	16293	16294	16295	
4	16296	16297	16298	16299	
4	16300	16301	16302	16303	
4	16304	16305	16306	16307	
4	16308	16309	16310	16311	
4	16312	16313	16314	16315	
4	16316	16317	16318	16319	
4	16320	16321	16322	16323	
4	16324	16325	16326	16327	
4	16328	16329	16330	16331	
4	16332	16333	16334	16335	
4	16336	16337	16338	16339	
4	16340	16341	16342	16343	
4	16344	16345	16346	16347	
4	16348	16349	16350	16351	
4	16352	16353	16354	16355	
4	16356	16357	16358	16359	
4	16360	16361	16362	16363	
4	16364	16365	16366	16367	
4	16368	16369	16370	16371	
4	16372	16373	16374	16375	
4	16376	16377	16378	16379	
4	16380	16381	16382	16383	
4	16384	16385	16386	16387	
4	16388	16389	16390	16391	
4	16392	16393	16394	16395	
4	16396	16397	16398	16399	
4	16400	16401	16402	16403	
4	16404	16405	16406	16407	
4	16408	16409	16410	16411	
4	16412	16413	16414	16415	
4	16416	16417	16418	16419	
4	16420	16421	16422	16423	
4	16424	16425	16426	16427	
4	16428	16429	16430	16431	
4	16432	16433	16434	16435	
4	16436	16437	16438	16439	
4	16440	16441	16442	16443	
4	16444	16445	16446	16447	
4	16448	16449	16450	16451	
4	16452	16453	16454	16455	
4	16456	16457	16458	16459	
4	16460	16461	16462	16463	
4	16464	16465	16466	16467	
4	16468	16469	16470	16471	
4	16472	16473	16474	16475	
4	16476	16477	16478	16479	
4	16480	16481	16482	16483	
4	16484	16485	16486	16487	
4	16488	16489	16490	16491	
4	16492	16493	16494	16495	
4	16496	16497	16498	16499	
4	16500	16501	16502	16503	
4	16504	16505	16506	16507	
4	16508	16509	16510	16511	
4	16512	16513	16514	16515	
4	16516	16517	16518	16519	
4	16520	16521	16522	16523	
4	16524	16525	16526	16527	
4	16528	16529	16530	16531	
4	16532	16533	16534	16535	
4	16536	16537	16538	16539	
4	16540	16541	16542	16543	
4	16544	16545	16546	16547	
4	16548	16549	16550	16551	
4	16552	16553	16554	16555	
4	16556	16557	16558	16559	
4	16560	16561	16562	16563	
4	16564	16565	16566	16567	
4	16568	16569	16570	16571	
4	16572	16573	16574	16575	
4	16576	16577	16578	16579	
4	16580	16581	16582	16583	
4	16584	16585	16586	16587	
4	16588	16589	16590	16591	
4	16592	16593	16594	16595	
4	16596	16597	16598	16599	
4	16600	16601	16602	16603	
4	16604	16605	16606	16607	
4	16608	16609	16610	16611	
4	16612	16613	16614	16615	
4	16616	16617	16618	16619	
4	16620	16621	16622	16623	
4	16624	16625	16626	16627	
4	16628	16629	16630	16631	
4	16632	16633	16634	16635	
4	16636	16637	16638	16639	
4	16640	16641	16642	16643	
4	16644	16645	16646	16647	
4	16648	16649	16650	16651	
4	16652	16653	16654	16655	
4	16656	16657	16658	16659	
4	16660	16661	16662	16663	
4	16664	16665	16666	16667	
4	16668	16669	16670	16671	
4	16672	16673	16674	16675	
4	16676	16677	16678	16679	
4	16680	16681	16682	16683	
4	16684	16685	16686	16687	
4	16688	16689	16690	16691	
4	16692	16693	16694	16695	
4	16696	16697	16698	16699	
4	16700	16701	16702	16703	
4	16704	16705	16706	16707	
4	16708	16709	16710	16711	
4	16712	16713	16714	16715	
4	16716	16717	16718	16719	
4	16720	16721	16722	16723	
4	16724	16725	16726	16727	
4	16728	16729	16730	16731	
4	16732	16733	16734	16735	
4	16736	16737	16738	16739	
4	16740	16741	16742	16743	
4	16744	16745	16746	16747	
4	16748	16749	16750	16751	
4	16752	16753	16754	16755	
4	16756	16757	16758	16759	
4	16760	16761	16762	16763	
4	16764	16765	16766	16767	
4	16768	16769	16770	16771	
4	16772	16773	16774	16775	
4	16776	16777	16778	16779	
4	16780	16781	16782	16783	
4	16784	16785	16786	16787	
4	16788	16789	16790	16791	
4	16792	16793	16794	16795	
4	16796	16797	16798	16799	
4	16800	16801	16802	16803	
4	16804	16805	16806	16807	
4	16808	16809	16810	16811	
4	16812	16813	16814	16815	
4	16816	16817	16818	16819	
4	16820	16821	16822	16823	
4	16824	16825	16826	16827	
4	16828	16829	16830	16831	
4	16832	16833	16834	16835	
4	16836	16837	16838	16839	
4	16840	16841	16842	16843	
4	16844	16845	16846	16847	
4	16848	16849	16850	16851	
4	16852	16853	16854	16855	
4	16856	16857	16858	16859	
4	16860	16861	16862	16863	
4	16864	16865	16866	16867	
4	16868	16869	16870	16871	
4	16872	16873	16874	16875	
4	16876	16877	16878	16879	
4	16880	16881	16882	16883	
4	16884	16885	16886	16887	
4	16888	16889	16890	16891	
4	16892	16893	16894	16895	
4	16896	16897	16898	16899	
4	16900	16901	16902	16903	
4	16904	16905	16906	16907	
4	16908	16909	16910	16911	
4	16912	16913	16914	16915	
4	16916	16917	16918	16919	
4	16920	16921	16922	16923	
4	16924	16925	16926	16927	
4	16928	16929	16930	16931	
4	16932	16933	16934	16935	
4	16936	16937	16938	16939	
4	16940	16941	16942	16943	
4	16944	16945	16946	16947	
4	16948	16949	16950	16951	
4	16952	16953	16954	16955	
4	16956	16957	16958	16959	
4	16960	16961	16962	16963	
4	16964	16965	16966	16967	
4	16968	16969	16970	16971	
4	16972	16973	16974	16975	
4	16976	16977	16978	16979	
4	16980	16981	16982	16983	
4	16984	16985	16986	16987	
4	16988	16989	16990	16991	
4	16992	16993	16994	16995	
4	16996	16997	16998	16999	
4	17000	17001	17002	17003	
4	17004	17005	17006	17007	
4	17008	17009	17010	17011	
4	17012	17013	17014	17015	
4	17016	17017	17018	17019	
CELL_TYPES 4255
10
10
10
10
10
10
10
10
10
10
10
10
10
10
10
10
10
10
10
10
10
10
10
10
10
10
10
10
10
10
10
10
10
10
10
10
10
10
10
10
10
10
10
10
10
10
10
10
10
10
10
10
10
10
10
10
10
10
10
10
10
10
10
10
10
10
10
10
10
10
10
10
10
10
10
10
10
10
10
10
10
10
10
10
10
10
10
10
10
10
10
10
10
10
10
10
10
10
10
10
10
10
10
10
10
10
10
10
10
10
10
10
10
10
10
10
10
10
10
10
10
10
10
10
10
10
10
10
10
10
10
10
10
10
10
10
10
10
10
10
10
10
10
10
10
10
10
10
10
10
10
10
10
10
10
10
10
10
10
10
10
10
10
10
10
10
10
10
10
10
10
10
10
10
10
10
10
10
10
10
10
10
10
10
10
10
10
10
10
10
10
10
10
10
10
10
10
10
10
10
10
10
10
10
10
10
10
10
10
10
10
10
10
10
10
10
10
10
10
10
10
10
10
10
10
10
10
10
10
10
10
10
10
10
10
10
10
10
10
10
10
10
10
10
10
10
10
10
10
10
10
10
10
10
10
10
10
10
10
10
10
10
10
10
10
10
10
10
10
10
10
10
10
10
10
10
10
10
10
10
10
10
10
10
10
10
10
10
10
10
10
10
10
10
10
10
10
10
10
10
10
10
10
10
10
10
10
10
10
10
10
10
10
10
10
10
10
10
10
10
10
10
10
10
10
10
10
10
10
10
10
10
10
10
10
10
10
10
10
10
10
10
10
10
10
10
10
10
10
10
10
10
10
10
10
10
10
10
10
10
10
10
10
10
10
10
10
10
10
10
10
10
10
10
10
10
10
10
10
10
10
10
10
10
10
10
10
10
10
10
10
10
10
10
10
10
10
10
10
10
10
10
10
10
10
10
10
10
10
10
10
10
10
10
10
10
10
10
10
10
10
10
10
10
10
10
10
10
10
10
10
10
10
10
10
10
10
10
10
10
10
10
10
10
10
10
10
10
10
10
10
10
10
10
10
10
10
10
10
10
10
10
10
10
10
10
10
10
10
10
10
10
10
10
10
10
10
10
10
10
10
10
10
10
10
10
10
10
10
10
10
10
10
10
10
10
10
10
10
10
10
10
10
10
10
10
10
10
10
10
10
10
10
10
10
10
10
10
10
10
10
10
10
10
10
10
10
10
10
10
10
10
10
10
10
10
10
10
10
10
10
10
10
10
10
10
10
10
10
10
10
10
10
10
10
10
10
10
10
10
10
10
10
10
10
10
10
10
10
10
10
10
10
10
10
10
10
10
10
10
10
10
10
10
10
10
10
10
10
10
10
10
10
10
10
10
10
10
10
10
10
10
10
10
10
10
10
10
10
10
10
10
10
10
10
10
10
10
10
10
10
10
10
10
10
10
10
10
10
10
10
10
10
10
10
10
10
10
10
10
10
10
10
10
10
10
10
10
10
10
10
10
10
10
10
10
10
10
10
10
10
10
10
10
10
10
10
10
10
10
10
10
10
10
10
10
10
10
10
10
10
10
10
10
10
10
10
10
10
10
10
10
10
10
10
10
10
10
10
10
10
10
10
10
10
10
10
10
10
10
10
10
10
10
10
10
10
10
10
10
10
10
10
10
10
10
10
10
10
10
10
10
10
10
10
10
10
10
10
10
10
10
10
10
10
10
10
10
10
10
10
10
10
10
10
10
10
10
10
10
10
10
10
10
10
10
10
10
10
10
10
10
10
10
10
10
10
10
10
10
10
10
10
10
10
10
10
10
10
10
10
10
10
10
10
10
10
10
10
10
10
10
10
10
10
10
10
10
10
10
10
10
10
10
10
10
10
10
10
10
10
10
10
10
10
10
10
10
10
10
10
10
10
10
10
10
10
10
10
10
10
10
10
10
10
10
10
10
10
10
10
10
10
10
10
10
10
10
10
10
10
10
10
10
10
10
10
10
10
10
10
10
10
10
10
10
10
10
10
10
10
10
10
10
10
10
10
10
10
10
10
10
10
10
10
10
10
10
10
10
10
10
10
10
10
10
10
10
10
10
10
10
10
10
10
10
10
10
10
10
10
10
10
10
10
10
10
10
10
10
10
10
10
10
10
10
10
10
10
10
10
10
10
10
10
10
10
10
10
10
10
10
10
10
10
10
10
10
10
10
10
10
10
10
10
10
10
10
10
10
10
10
10
10
10
10
10
10
10
10
10
10
10
10
10
10
10
10
10
10
10
10
10
10
10
10
10
10
10
10
10
10
10
10
10
10
10
10
10
10
10
10
10
10
10
10
10
10
10
10
10
10
10
10
10
10
10
10
10
10
10
10
10
10
10
10
10
10
10
10
10
10
10
10
10
10
10
10
10
10
10
10
10
10
10
10
10
10
10
10
10
10
10
10
10
10
10
10
10
10
10
10
10
10
10
10
10
10
10
10
10
10
10
10
10
10
10
10
10
10
10
10
10
10
10
10
10
10
10
10
10
10
10
10
10
10
10
10
10
10
10
10
10
10
10
10
10
10
10
10
10
10
10
10
10
10
10
10
10
10
10
10
10
10
10
10
10
10
10
10
10
10
10
10
10
10
10
10
10
10
10
10
10
10
10
10
10
10
10
10
10
10
10
10
10
10
10
10
10
10
10
10
10
10
10
10
10
10
10
10
10
10
10
10
10
10
10
10
10
10
10
10
10
10
10
10
10
10
10
10
10
10
10
10
10
10
10
10
10
10
10
10
10
10
10
10
10
10
10
10
10
10
10
10
10
10
10
10
10
10
10
10
10
10
10
10
10
10
10
10
10
10
10
10
10
10
10
10
10
10
10
10
10
10
10
10
10
10
10
10
10
10
10
10
10
10
10
10
10
10
10
10
10
10
10
10
10
10
10
10
10
10
10
10
10
10
10
10
10
10
10
10
10
10
10
10
10
10
10
10
10
10
10
10
10
10
10
10
10
10
10
10
10
10
10
10
10
10
10
10
10
10
10
10
10
10
10
10
10
10
10
10
10
10
10
10
10
10
10
10
10
10
10
10
10
10
10
10
10
10
10
10
10
10
10
10
10
10
10
10
10
10
10
10
10
10
10
10
10
10
10
10
10
10
10
10
10
10
10
10
10
10
10
10
10
10
10
10
10
10
10
10
10
10
10
10
10
10
10
10
10
10
10
10
10
10
10
10
10
10
10
10
10
10
10
10
10
10
10
10
10
10
10
10
10
10
10
10
10
10
10
10
10
10
10
10
10
10
10
10
10
10
10
10
10
10
10
10
10
10
10
10
10
10
10
10
10
10
10
10
10
10
10
10
10
10
10
10
10
10
10
10
10
10
10
10
10
10
10
10
10
10
10
10
10
10
10
10
10
10
10
10
10
10
10
10
10
10
10
10
10
10
10
10
10
10
10
10
10
10
10
10
10
10
10
10
10
10
10
10
10
10
10
10
10
10
10
10
10
10
10
10
10
10
10
10
10
10
10
10
10
10
10
10
10
10
10
10
10
10
10
10
10
10
10
10
10
10
10
10
10
10
10
10
10
10
10
10
10
10
10
10
10
10
10
10
10
10
10
10
10
10
10
10
10
10
10
10
10
10
10
10
10
10
10
10
10
10
10
10
10
10
10
10
10
10
10
10
10
10
10
10
10
10
10
10
10
10
10
10
10
10
10
10
10
10
10
10
10
10
10
10
10
10
10
10
10
10
10
10
10
10
10
10
10
10
10
10
10
10
10
10
10
10
10
10
10
10
10
10
10
10
10
10
10
10
10
10
10
10
10
10
10
10
10
10
10
10
10
10
10
10
10
10
10
10
10
10
10
10
10
10
10
10
10
10
10
10
10
10
10
10
10
10
10
10
10
10
10
10
10
10
10
10
10
10
10
10
10
10
10
10
10
10
10
10
10
10
10
10
10
10
10
10
10
10
10
10
10
10
10
10
10
10
10
10
10
10
10
10
10
10
10
10
10
10
10
10
10
10
10
10
10
10
10
10
10
10
10
10
10
10
10
10
10
10
10
10
10
10
10
10
10
10
10
10
10
10
10
10
10
10
10
10
10
10
10
10
10
10
10
10
10
10
10
10
10
10
10
10
10
10
10
10
10
10
10
10
10
10
10
10
10
10
10
10
10
10
10
10
10
10
10
10
10
10
10
10
10
10
10
10
10
10
10
10
10
10
10
10
10
10
10
10
10
10
10
10
10
10
10
10
10
10
10
10
10
10
10
10
10
10
10
10
10
10
10
10
10
10
10
10
10
10
10
10
10
10
10
10
10
10
10
10
10
10
10
10
10
10
10
10
10
10
10
10
10
10
10
10
10
10
10
10
10
10
10
10
10
10
10
10
10
10
10
10
10
10
10
10
10
10
10
10
10
10
10
10
10
10
10
10
10
10
10
10
10
10
10
10
10
10
10
10
10
10
10
10
10
10
10
10
10
10
10
10
10
10
10
10
10
10
10
10
10
10
10
10
10
10
10
10
10
10
10
10
10
10
10
10
10
10
10
10
10
10
10
10
10
10
10
10
10
10
10
10
10
10
10
10
10
10
10
10
10
10
10
10
10
10
10
10
10
10
10
10
10
10
10
10
10
10
10
10
10
10
10
10
10
10
10
10
10
10
10
10
10
10
10
10
10
10
10
10
10
10
10
10
10
10
10
10
10
10
10
10
10
10
10
10
10
10
10
10
10
10
10
10
10
10
10
10
10
10
10
10
10
10
10
10
10
10
10
10
10
10
10
10
10
10
10
10
10
10
10
10
10
10
10
10
10
10
10
10
10
10
10
10
10
10
10
10
10
10
10
10
10
10
10
10
10
10
10
10
10
10
10
10
10
10
10
10
10
10
10
10
10
10
10
10
10
10
10
10
10
10
10
10
10
10
10
10
10
10
10
10
10
10
10
10
10
10
10
10
10
10
10
10
10
10
10
10
10
10
10
10
10
10
10
10
10
10
10
10
10
10
10
10
10
10
10
10
10
10
10
10
10
10
10
10
10
10
10
10
10
10
10
10
10
10
10
10
10
10
10
10
10
10
10
10
10
10
10
10
10
10
10
10
10
10
10
10
10
10
10
10
10
10
10
10
10
10
10
10
10
10
10
10
10
10
10
10
10
10
10
10
10
10
10
10
10
10
10
10
10
10
10
10
10
10
10
10
10
10
10
10
10
10
10
10
10
10
10
10
10
10
10
10
10
10
10
10
10
10
10
10
10
10
10
10
10
10
10
10
10
10
10
10
10
10
10
10
10
10
10
10
10
10
10
10
10
10
10
10
10
10
10
10
10
10
10
10
10
10
10
10
10
10
10
10
10
10
10
10
10
10
10
10
10
10
10
10
10
10
10
10
10
10
10
10
10
10
10
10
10
10
10
10
10
10
10
10
10
10
10
10
10
10
10
10
10
10
10
10
10
10
10
10
10
10
10
10
10
10
10
10
10
10
10
10
10
10
10
10
10
10
10
10
10
10
10
10
10
10
10
10
10
10
10
10
10
10
10
10
10
10
10
10
10
10
10
10
10
10
10
10
10
10
10
10
10
10
10
10
10
10
10
10
10
10
10
10
10
10
10
10
10
10
10
10
10
10
10
10
10
10
10
10
10
10
10
10
10
10
10
10
10
10
10
10
10
10
10
10
10
10
10
10
10
10
10
10
10
10
10
10
10
10
10
10
10
10
10
10
10
10
10
10
10
10
10
10
10
10
10
10
10
10
10
10
10
10
10
10
10
10
10
10
10
10
10
10
10
10
10
10
10
10
10
10
10
10
10
10
10
10
10
10
10
10
10
10
10
10
10
10
10
10
10
10
10
10
10
10
10
10
10
10
10
10
10
10
10
10
10
10
10
10
10
10
10
10
10
10
10
10
10
10
10
10
10
10
10
10
10
10
10
10
10
10
10
10
10
10
10
10
10
10
10
10
10
10
10
10
10
10
10
10
10
10
10
10
10
10
10
10
10
10
10
10
10
10
10
10
10
10
10
10
10
10
10
10
10
10
10
10
10
10
10
10
10
10
10
10
10
10
10
10
10
10
10
10
10
10
10
10
10
10
10
10
10
10
10
10
10
10
10
10
10
10
10
10
10
10
10
10
10
10
10
10
10
10
10
10
10
10
10
10
10
10
10
10
10
10
10
10
10
10
10
10
10
10
10
10
10
10
10
10
10
10
10
10
10
10
10
10
10
10
10
10
10
10
10
10
10
10
10
10
10
10
10
10
10
10
10
10
10
10
10
10
10
10
10
10
10
10
10
10
10
10
10
10
10
10
10
10
10
10
10
10
10
10
10
10
10
10
10
10
10
10
10
10
10
10
10
10
10
10
10
10
10
10
10
10
10
10
10
10
10
10
10
10
10
10
10
10
10
10
10
10
10
10
10
10
10
10
10
10
10
10
10
10
10
10
10
10
10
10
10
10
10
10
10
10
10
10
10
10
10
10
10
10
10
10
10
10
10
10
10
10
10
10
10
10
10
10
10
10
10
10
10
10
10
10
10
10
10
10
10
10
10
10
10
10
10
10
10
10
10
10
10
10
10
10
10
10
10
10
10
10
10
10
10
10
10
10
10
10
10
10
10
10
10
10
10
10
10
10
10
10
10
10
10
10
10
10
10
10
10
10
10
10
10
10
10
10
10
10
10
10
10
10
10
10
10
10
10
10
10
10
10
10
10
10
10
10
10
10
10
10
10
10
10
10
10
10
10
10
10
10
10
10
10
10
10
10
10
10
10
10
10
10
10
10
10
10
10
10
10
10
10
10
10
10
10
10
10
10
10
10
10
10
10
10
10
10
10
10
10
10
10
10
10
10
10
10
10
10
10
10
10
10
10
10
10
10
10
10
10
10
10
10
10
10
10
10
10
10
10
10
10
10
10
10
10
10
10
10
10
10
10
10
10
10
10
10
10
10
10
10
10
10
10
10
10
10
10
10
10
10
10
10
10
10
10
10
10
10
10
10
10
10
10
10
10
10
10
10
10
10
10
10
10
10
10
10
10
10
10
10
10
10
10
10
10
10
10
10
10
10
10
10
10
10
10
10
10
10
10
10
10
10
10
10
10
10
10
10
10
10
10
10
10
10
10
10
10
10
10
10
10
10
10
10
10
10
10
10
10
10
10
10
10
10
10
10
10
10
10
10
10
10
10
10
10
10
10
10
10
10
10
10
10
10
10
10
10
10
10
10
10
10
10
10
10
10
10
10
10
10
10
10
10
10
10
10
10
10
10
10
10
10
10
10
10
10
10
10
10
10
10
10
10
10
10
10
10
10
10
10
10
10
10
10
10
10
10
10
10
10
10
10
10
10
10
10
10
10
10
10
10
10
10
10
10
10
10
10
10
10
10
10
10
10
10
10
10
10
10
10
10
10
10
10
10
10
10
10
10
10
10
10
10
10
10
10
10
10
10
10
10
10
10
10
10
10
10
10
10
10
10
10
10
10
10
10
10
10
10
10
10
10
10
10
10
10
10
10
10
10
10
10
10
10
10
10
10
10
10
10
10
10
10
10
10
10
10
10
10
10
10
10
10
10
10
10
10
10
10
10
10
10
10
10
10
10
10
10
10
10
10
10
10
10
10
10
10
10
10
10
10
10
10
10
10
10
10
10
10
10
10
10
10
10
10
10
10
10
10
10
10
10
10
10
10
10
10
10
10
10
10
10
10
10
10
10
10
10
10
10
10
10
10
10
10
10
10
10
10
10
10
10
10
10
10
10
10
10
10
10
10
10
10
10
10
10
10
10
10
10
10
10
10
10
10
10
10
10
10
10
10
10
10
10
10
10
10
10
10
10
10
10
10
10
10
10
10
10
10
10
10
10
10
10
10
10
10
10
10
10
10
10
10
10
10
10
10
10
10
10
10
10
10
10
10
10
10
10
10
10
10
10
10
10
10
10
10
10
10
10
10
10
10
10
10
10
10
10
10
10
10
10
10
10
10
10
10
10
10
10
10
10
10
10
10
10
10
10
10
10
10
10
10
10
10
10
10
10
10
10
10
10
10
10
10
10
10
10
10
10
10
10
10
10
10
10
10
10
10
10
10
10
10
10
10
10
10
10
10
10
10
10
10
10
10
10
10
10
10
10
10
10
10
10
10
10
10
10
10
10
10
10
10
10
10
10
10
10
10
10
10
10
10
10
10
10
10
10
10
10
10
10
10
10
10
10
10
10
10
10
10
10
10
10
10
10
10
10
10
10
10
10
10
10
10
10
10
10
10
10
10
10
10
10
10
10
10
10
10
10
10
10
10
10
10
10
10
10
10
10
10
10
10
10
10
10
10
10
10
10
10
10
10
10
10
10
10
10
10
10
10
10
10
10
10
10
10
10
10
10
10
10
10
10
10
10
10
10
10
10
10
10
10
10
10
10
10
10
10
10
10
10
10
10
10
10
10
10
10
10
10
10
10
10
10
10
10
10
10
10
10
10
10
10
10
10
10
10
10
10
10
10
10
10
10
10
10
10
10
10
10
10
10
10
10
10
10
10
10
10
10
10
10
10
10
10
10
10
10
10
10
10
10
10
10
10
10
10
10
10
10
10
10
10
10
10
10
10
10
10
10
10
10
10
10
10
10
10
10
10
10
10
10
10
10
10
10
10
10
10
10
10
10
10
10
10
10
10
10
10
10
10
10
10
10
10
10
10
10
10
10
10
10
10
10
10
10
10
10
10
10
10
10
10
10
10
10
10
10
10
10
10
10
10
10
10
10
10
10
10
10
10
10
10
10
10
10
10
10
10
10
10
10
10
10
10
10
10
10
10
10
10
10
10
10
10
10
10
10
10
10
10
10
10
10
10
10
10
10
10
10
10
10
10
10
10
10
10
10
10
10
10
10
10
10
10
10
10
10
10
10
10
10
10
10
10
10
10
10
10
10
10
10
10
10
10
10
10
10
10
10
10
10
10
10
10
10
10
10
10
10
10
10
10
10
10
10
10
10
10
10
10
10
10
10
10
10
10
10
10
10
10
10
10
10
10
10
10
10
10
10
10
10
10
10
10
10
10
10
10
10
10
10
10
10
10
10
10
10
10
10
10
10
10
10
10
10
10
10
10
10
10
10
10
10
10
10
10
10
10
10
10
10
10
10
10
10
10
10
10
10
10
10
10
10
10
10
10
10
10
10
10
10
10
10
10
10
10
10
10
10
10
10
10
10
10
10
10
10
10
10
10
10
10
10
10
10
10
10
10
10
10
10
10
10
10
10
10
10
10
10
10
10
10
10
10
10
10
10
10
10
10
10
10
10
10
10
10
10
10
10
10
10
10
10
10
10
10
10
10
10
10
10
10
10
10
10
10
10
10
10
10
10
10
10
10
10
10
10
10
10
10
10
10
10
10
10
10
10
10
10
10
10
10
10
10
10
10
10
10
10
10
10
10
10
10
10
10
10
10
10
10
10
10
10
10
10
10
10
10
10
10
10
10
10
10
10
10
10
10
10
10
10
10
10
10
10
10
10
10
10
10
10
10
10
10
10
10
10
10
10
10
10
10
10
10
10
10
10
10
10
10
10
10
10
10
10
10
10
10
10
10
10
10
10
10
10
10
10
10
10
10
10
10
10
10
10
10
10
10
10
10
10
10
10
10
10
10
10
10
10
10
10
10
10
CELL_DATA 4255
POINT_DATA 17020
SCALARS Pressure float 
LOOKUP_TABLE default
9.28663 9.28663 9.28663 9.28663 9.56342 9.56342 9.56342 9.56342 9.24925 9.24925 9.24925 9.24925 8.96581 8.96581 8.96581 8.96581 9.32891 9.32891 9.32891 9.32891 9.44655 9.44655 9.44655 9.44655 9.6281 9.6281 9.6281 9.6281 8.98807 8.98807 8.98807 8.98807 9.09714 9.09714 9.09714 9.09714 9.33731 9.33731 9.33731 9.33731 9.84492 9.84492 9.84492 9.84492 9.46638 9.46638 9.46638 9.46638 9.30677 9.30677 9.30677 9.30677 9.46278 9.46278 9.46278 9.46278 9.64845 9.64845 9.64845 9.64845 9.36392 9.36392 9.36392 9.36392 9.27066 9.27066 9.27066 9.27066 9.76546 9.76546 9.76546 9.76546 9.39934 9.39934 9.39934 9.39934 9.88858 9.88858 9.88858 9.88858 9.16923 9.16923 9.16923 9.16923 9.63179 9.63179 9.63179 9.63179 9.43974 9.43974 9.43974 9.43974 9.85778 9.85778 9.85778 9.85778 9.41532 9.41532 9.41532 9.41532 9.35377 9.35377 9.35377 9.35377 9.28799 9.28799 9.28799 9.28799 9.14533 9.14533 9.14533 9.14533 9.87557 9.87557 9.87557 9.87557 9.86108 9.86108 9.86108 9.86108 9.11002 9.11002 9.11002 9.11002 9.61584 9.61584 9.61584 9.61584 9.41534 9.41534 9.41534 9.41534 9.3057 9.3057 9.3057 9.3057 9.59546 9.59546 9.59546 9.59546 9.59595 9.59595 9.59595 9.59595 9.36714 9.36714 9.36714 9.36714 9.36794 9.36794 9.36794 9.36794 9.42061 9.42061 9.42061 9.42061 5.36213 5.36213 5.36213 5.36213 9.55644 9.55644 9.55644 9.55644 9.53939 9.53939 9.53939 9.53939 9.81755 9.81755 9.81755 9.81755 9.47573 9.47573 9.47573 9.47573 9.77947 9.77947 9.77947 9.77947 9.48754 9.48754 9.48754 9.48754 9.33474 9.33474 9.33474 9.33474 9.74331 9.74331 9.74331 9.74331 9.23013 9.23013 9.23013 9.23013 9.18211 9.18211 9.18211 9.18211 9.48449 9.48449 9.48449 9.48449 6.35291 6.35291 6.35291 6.35291 9.39698 9.39698 9.39698 9.39698 8.46774 8.46774 8.46774 8.46774 8.54218 8.54218 8.54218 8.54218 9.34855 9.34855 9.34855 9.34855 9.47845 9.47845 9.47845 9.47845 9.33788 9.33788 9.33788 9.33788 9.29268 9.29268 9.29268 9.29268 9.2382 9.2382 9.2382 9.2382 9.39467 9.39467 9.39467 9.39467 9.64446 9.64446 9.64446 9.64446 9.2857 9.2857 9.2857 9.2857 9.35645 9.35645 9.35645 9.35645 9.43084 9.43084 9.43084 9.43084 9.50135 9.50135 9.50135 9.50135 9.50036 9.50036 9.50036 9.50036 8.01331 8.01331 8.01331 8.01331 9.45939 9.45939 9.45939 9.45939 9.16041 9.16041 9.16041 9.16041 9.42682 9.42682 9.42682 9.42682 9.59315 9.59315 9.59315 9.59315 9.55812 9.55812 9.55812 9.55812 9.44779 9.44779 9.44779 9.44779 9.84955 9.84955 9.84955 9.84955 9.73046 9.73046 9.73046 9.73046 7.38025 7.38025 7.38025 7.38025 9.13649 9.13649 9.13649 9.13649 9.53091 9.53091 9.53091 9.53091 9.12965 9.12965 9.12965 9.12965 9.11591 9.11591 9.11591 9.11591 9.78885 9.78885 9.78885 9.78885 9.81754 9.81754 9.81754 9.81754 9.64717 9.64717 9.64717 9.64717 9.46183 9.46183 9.46183 9.46183 9.55243 9.55243 9.55243 9.55243 9.47369 9.47369 9.47369 9.47369 9.84233 9.84233 9.84233 9.84233 9.63749 9.63749 9.63749 9.63749 6.93827 6.93827 6.93827 6.93827 9.21443 9.21443 9.21443 9.21443 9.97428 9.97428 9.97428 9.97428 9.62343 9.62343 9.62343 9.62343 9.36593 9.36593 9.36593 9.36593 9.45956 9.45956 9.45956 9.45956 9.47096 9.47096 9.47096 9.47096 9.71663 9.71663 9.71663 9.71663 9.58713 9.58713 9.58713 9.58713 9.70628 9.70628 9.70628 9.70628 9.51192 9.51192 9.51192 9.51192 9.4132 9.4132 9.4132 9.4132 9.71765 9.71765 9.71765 9.71765 6.14835 6.14835 6.14835 6.14835 9.32421 9.32421 9.32421 9.32421 10.4767 10.4767 10.4767 10.4767 9.128 9.128 9.128 9.128 9.75954 9.75954 9.75954 9.75954 9.81157 9.81157 9.81157 9.81157 9.67539 9.67539 9.67539 9.67539 9.41878 9.41878 9.41878 9.41878 9.12282 9.12282 9.12282 9.12282 9.49568 9.49568 9.49568 9.49568 9.26987 9.26987 9.26987 9.26987 9.5099 9.5099 9.5099 9.5099 9.22399 9.22399 9.22399 9.22399 9.9251 9.9251 9.9251 9.9251 9.29854 9.29854 9.29854 9.29854 9.52559 9.52559 9.52559 9.52559 9.33191 9.33191 9.33191 9.33191 9.33284 9.33284 9.33284 9.33284 9.41981 9.41981 9.41981 9.41981 8.86714 8.86714 8.86714 8.86714 9.43407 9.43407 9.43407 9.43407 9.89717 9.89717 9.89717 9.89717 9.66632 9.66632 9.66632 9.66632 3.51891 3.51891 3.51891 3.51891 9.36516 9.36516 9.36516 9.36516 8.40891 8.40891 8.40891 8.40891 9.3165 9.3165 9.3165 9.3165 9.94797 9.94797 9.94797 9.94797 8.96283 8.96283 8.96283 8.96283 9.71481 9.71481 9.71481 9.71481 9.30142 9.30142 9.30142 9.30142 8.56798 8.56798 8.56798 8.56798 9.65573 9.65573 9.65573 9.65573 9.46093 9.46093 9.46093 9.46093 8.46941 8.46941 8.46941 8.46941 9.6173 9.6173 9.6173 9.6173 9.60081 9.60081 9.60081 9.60081 7.81113 7.81113 7.81113 7.81113 9.36314 9.36314 9.36314 9.36314 9.33002 9.33002 9.33002 9.33002 9.64905 9.64905 9.64905 9.64905 9.61579 9.61579 9.61579 9.61579 7.17489 7.17489 7.17489 7.17489 9.7342 9.7342 9.7342 9.7342 9.35446 9.35446 9.35446 9.35446 9.93402 9.93402 9.93402 9.93402 12.0372 12.0372 12.0372 12.0372 9.55668 9.55668 9.55668 9.55668 9.35465 9.35465 9.35465 9.35465 10.1044 10.1044 10.1044 10.1044 9.5459 9.5459 9.5459 9.5459 9.61769 9.61769 9.61769 9.61769 9.43986 9.43986 9.43986 9.43986 9.88936 9.88936 9.88936 9.88936 10.0181 10.0181 10.0181 10.0181 9.91766 9.91766 9.91766 9.91766 9.57615 9.57615 9.57615 9.57615 9.04616 9.04616 9.04616 9.04616 10.5819 10.5819 10.5819 10.5819 9.38038 9.38038 9.38038 9.38038 9.52203 9.52203 9.52203 9.52203 9.56983 9.56983 9.56983 9.56983 8.23642 8.23642 8.23642 8.23642 9.16057 9.16057 9.16057 9.16057 8.70429 8.70429 8.70429 8.70429 9.40057 9.40057 9.40057 9.40057 9.55504 9.55504 9.55504 9.55504 10.1933 10.1933 10.1933 10.1933 10.7552 10.7552 10.7552 10.7552 9.38995 9.38995 9.38995 9.38995 9.49817 9.49817 9.49817 9.49817 9.48224 9.48224 9.48224 9.48224 7.66335 7.66335 7.66335 7.66335 9.84664 9.84664 9.84664 9.84664 9.65932 9.65932 9.65932 9.65932 9.6557 9.6557 9.6557 9.6557 9.50939 9.50939 9.50939 9.50939 8.53346 8.53346 8.53346 8.53346 9.4136 9.4136 9.4136 9.4136 8.5886 8.5886 8.5886 8.5886 9.54368 9.54368 9.54368 9.54368 9.33941 9.33941 9.33941 9.33941 9.39227 9.39227 9.39227 9.39227 9.40511 9.40511 9.40511 9.40511 9.65061 9.65061 9.65061 9.65061 9.53861 9.53861 9.53861 9.53861 9.68333 9.68333 9.68333 9.68333 9.10461 9.10461 9.10461 9.10461 9.36624 9.36624 9.36624 9.36624 9.30269 9.30269 9.30269 9.30269 3.5569 3.5569 3.5569 3.5569 9.70387 9.70387 9.70387 9.70387 9.50945 9.50945 9.50945 9.50945 8.85196 8.85196 8.85196 8.85196 9.38648 9.38648 9.38648 9.38648 5.70182 5.70182 5.70182 5.70182 9.46739 9.46739 9.46739 9.46739 9.90292 9.90292 9.90292 9.90292 9.65127 9.65127 9.65127 9.65127 9.66036 9.66036 9.66036 9.66036 9.62841 9.62841 9.62841 9.62841 9.7686 9.7686 9.7686 9.7686 9.72023 9.72023 9.72023 9.72023 9.3434 9.3434 9.3434 9.3434 11.213 11.213 11.213 11.213 9.05658 9.05658 9.05658 9.05658 9.75832 9.75832 9.75832 9.75832 9.58351 9.58351 9.58351 9.58351 9.40797 9.40797 9.40797 9.40797 8.55667 8.55667 8.55667 8.55667 9.65544 9.65544 9.65544 9.65544 9.63173 9.63173 9.63173 9.63173 9.60445 9.60445 9.60445 9.60445 9.38987 9.38987 9.38987 9.38987 9.04672 9.04672 9.04672 9.04672 9.62584 9.62584 9.62584 9.62584 9.4488 9.4488 9.4488 9.4488 9.40301 9.40301 9.40301 9.40301 9.95884 9.95884 9.95884 9.95884 9.73644 9.73644 9.73644 9.73644 2.57275 2.57275 2.57275 2.57275 9.74797 9.74797 9.74797 9.74797 9.45563 9.45563 9.45563 9.45563 10.0887 10.0887 10.0887 10.0887 9.46336 9.46336 9.46336 9.46336 9.37558 9.37558 9.37558 9.37558 8.9503 8.9503 8.9503 8.9503 10.0647 10.0647 10.0647 10.0647 10.0011 10.0011 10.0011 10.0011 8.56175 8.56175 8.56175 8.56175 9.55036 9.55036 9.55036 9.55036 8.06289 8.06289 8.06289 8.06289 9.79948 9.79948 9.79948 9.79948 9.43423 9.43423 9.43423 9.43423 8.92779 8.92779 8.92779 8.92779 10.1093 10.1093 10.1093 10.1093 9.46415 9.46415 9.46415 9.46415 9.53566 9.53566 9.53566 9.53566 8.95093 8.95093 8.95093 8.95093 8.86288 8.86288 8.86288 8.86288 9.64107 9.64107 9.64107 9.64107 9.97173 9.97173 9.97173 9.97173 9.52414 9.52414 9.52414 9.52414 9.69344 9.69344 9.69344 9.69344 8.86942 8.86942 8.86942 8.86942 9.27489 9.27489 9.27489 9.27489 9.63277 9.63277 9.63277 9.63277 9.34128 9.34128 9.34128 9.34128 9.85962 9.85962 9.85962 9.85962 8.84444 8.84444 8.84444 8.84444 8.52793 8.52793 8.52793 8.52793 8.93455 8.93455 8.93455 8.93455 8.62924 8.62924 8.62924 8.62924 9.26724 9.26724 9.26724 9.26724 9.73753 9.73753 9.73753 9.73753 10.0551 10.0551 10.0551 10.0551 9.41338 9.41338 9.41338 9.41338 7.17901 7.17901 7.17901 7.17901 9.45365 9.45365 9.45365 9.45365 9.78107 9.78107 9.78107 9.78107 9.03266 9.03266 9.03266 9.03266 9.69729 9.69729 9.69729 9.69729 9.41652 9.41652 9.41652 9.41652 8.32005 8.32005 8.32005 8.32005 9.33345 9.33345 9.33345 9.33345 6.13238 6.13238 6.13238 6.13238 9.23208 9.23208 9.23208 9.23208 9.47697 9.47697 9.47697 9.47697 9.75846 9.75846 9.75846 9.75846 9.65404 9.65404 9.65404 9.65404 9.97429 9.97429 9.97429 9.97429 9.68945 9.68945 9.68945 9.68945 9.59656 9.59656 9.59656 9.59656 8.56002 8.56002 8.56002 8.56002 9.71531 9.71531 9.71531 9.71531 9.31518 9.31518 9.31518 9.31518 9.44782 9.44782 9.44782 9.44782 9.76121 9.76121 9.76121 9.76121 9.43897 9.43897 9.43897 9.43897 7.7329 7.7329 7.7329 7.7329 9.60615 9.60615 9.60615 9.60615 9.55981 9.55981 9.55981 9.55981 9.44416 9.44416 9.44416 9.44416 9.26461 9.26461 9.26461 9.26461 9.03025 9.03025 9.03025 9.03025 9.376 9.376 9.376 9.376 9.67193 9.67193 9.67193 9.67193 9.74772 9.74772 9.74772 9.74772 9.05057 9.05057 9.05057 9.05057 9.73574 9.73574 9.73574 9.73574 9.00044 9.00044 9.00044 9.00044 9.66678 9.66678 9.66678 9.66678 9.47981 9.47981 9.47981 9.47981 8.5977 8.5977 8.5977 8.5977 9.70607 9.70607 9.70607 9.70607 9.29902 9.29902 9.29902 9.29902 5.13355 5.13355 5.13355 5.13355 9.65091 9.65091 9.65091 9.65091 9.34242 9.34242 9.34242 9.34242 9.43808 9.43808 9.43808 9.43808 9.88992 9.88992 9.88992 9.88992 9.68952 9.68952 9.68952 9.68952 6.67116 6.67116 6.67116 6.67116 9.11061 9.11061 9.11061 9.11061 9.47936 9.47936 9.47936 9.47936 9.40662 9.40662 9.40662 9.40662 8.83654 8.83654 8.83654 8.83654 9.94504 9.94504 9.94504 9.94504 9.8395 9.8395 9.8395 9.8395 10.0407 10.0407 10.0407 10.0407 4.27066 4.27066 4.27066 4.27066 10.1867 10.1867 10.1867 10.1867 9.65134 9.65134 9.65134 9.65134 9.58377 9.58377 9.58377 9.58377 9.89908 9.89908 9.89908 9.89908 9.36693 9.36693 9.36693 9.36693 9.43209 9.43209 9.43209 9.43209 9.54505 9.54505 9.54505 9.54505 9.46161 9.46161 9.46161 9.46161 9.3214 9.3214 9.3214 9.3214 9.63018 9.63018 9.63018 9.63018 9.83114 9.83114 9.83114 9.83114 8.63141 8.63141 8.63141 8.63141 9.81555 9.81555 9.81555 9.81555 9.50797 9.50797 9.50797 9.50797 9.58236 9.58236 9.58236 9.58236 9.85043 9.85043 9.85043 9.85043 9.61182 9.61182 9.61182 9.61182 9.7556 9.7556 9.7556 9.7556 9.45413 9.45413 9.45413 9.45413 9.32393 9.32393 9.32393 9.32393 9.17623 9.17623 9.17623 9.17623 9.70252 9.70252 9.70252 9.70252 8.1751 8.1751 8.1751 8.1751 9.66928 9.66928 9.66928 9.66928 9.45675 9.45675 9.45675 9.45675 10.0397 10.0397 10.0397 10.0397 7.85675 7.85675 7.85675 7.85675 9.5946 9.5946 9.5946 9.5946 7.80066 7.80066 7.80066 7.80066 5.56439 5.56439 5.56439 5.56439 7.1915 7.1915 7.1915 7.1915 8.71102 8.71102 8.71102 8.71102 9.04882 9.04882 9.04882 9.04882 6.44915 6.44915 6.44915 6.44915 9.74866 9.74866 9.74866 9.74866 9.76833 9.76833 9.76833 9.76833 9.4954 9.4954 9.4954 9.4954 8.93255 8.93255 8.93255 8.93255 9.37974 9.37974 9.37974 9.37974 9.7162 9.7162 9.7162 9.7162 3.4391 3.4391 3.4391 3.4391 9.70016 9.70016 9.70016 9.70016 9.05353 9.05353 9.05353 9.05353 9.86604 9.86604 9.86604 9.86604 9.45669 9.45669 9.45669 9.45669 9.46947 9.46947 9.46947 9.46947 9.54979 9.54979 9.54979 9.54979 6.60582 6.60582 6.60582 6.60582 9.86947 9.86947 9.86947 9.86947 9.39464 9.39464 9.39464 9.39464 9.5602 9.5602 9.5602 9.5602 9.63558 9.63558 9.63558 9.63558 9.95794 9.95794 9.95794 9.95794 9.70052 9.70052 9.70052 9.70052 9.56053 9.56053 9.56053 9.56053 9.70236 9.70236 9.70236 9.70236 10.4864 10.4864 10.4864 10.4864 9.46838 9.46838 9.46838 9.46838 9.8528 9.8528 9.8528 9.8528 9.13854 9.13854 9.13854 9.13854 9.5814 9.5814 9.5814 9.5814 8.59084 8.59084 8.59084 8.59084 8.75412 8.75412 8.75412 8.75412 10.0396 10.0396 10.0396 10.0396 9.43984 9.43984 9.43984 9.43984 9.39433 9.39433 9.39433 9.39433 9.82516 9.82516 9.82516 9.82516 9.5841 9.5841 9.5841 9.5841 9.82902 9.82902 9.82902 9.82902 9.6492 9.6492 9.6492 9.6492 9.46035 9.46035 9.46035 9.46035 8.39882 8.39882 8.39882 8.39882 9.86291 9.86291 9.86291 9.86291 9.67695 9.67695 9.67695 9.67695 9.42529 9.42529 9.42529 9.42529 9.68091 9.68091 9.68091 9.68091 9.84041 9.84041 9.84041 9.84041 9.66999 9.66999 9.66999 9.66999 6.44154 6.44154 6.44154 6.44154 9.3412 9.3412 9.3412 9.3412 9.37993 9.37993 9.37993 9.37993 9.81651 9.81651 9.81651 9.81651 9.5564 9.5564 9.5564 9.5564 9.32822 9.32822 9.32822 9.32822 9.89654 9.89654 9.89654 9.89654 7.47509 7.47509 7.47509 7.47509 9.50033 9.50033 9.50033 9.50033 9.82233 9.82233 9.82233 9.82233 8.62074 8.62074 8.62074 8.62074 9.83503 9.83503 9.83503 9.83503 7.01062 7.01062 7.01062 7.01062 5.81078 5.81078 5.81078 5.81078 3.8387 3.8387 3.8387 3.8387 9.95534 9.95534 9.95534 9.95534 9.48368 9.48368 9.48368 9.48368 9.6229 9.6229 9.6229 9.6229 9.88152 9.88152 9.88152 9.88152 9.2845 9.2845 9.2845 9.2845 9.90812 9.90812 9.90812 9.90812 9.67809 9.67809 9.67809 9.67809 8.30546 8.30546 8.30546 8.30546 9.77097 9.77097 9.77097 9.77097 9.45547 9.45547 9.45547 9.45547 7.5107 7.5107 7.5107 7.5107 9.36084 9.36084 9.36084 9.36084 8.28005 8.28005 8.28005 8.28005 9.45164 9.45164 9.45164 9.45164 9.07881 9.07881 9.07881 9.07881 9.97833 9.97833 9.97833 9.97833 9.65493 9.65493 9.65493 9.65493 9.7558 9.7558 9.7558 9.7558 3.18728 3.18728 3.18728 3.18728 9.21707 9.21707 9.21707 9.21707 9.28185 9.28185 9.28185 9.28185 9.17387 9.17387 9.17387 9.17387 9.76997 9.76997 9.76997 9.76997 7.4078 7.4078 7.4078 7.4078 8.54693 8.54693 8.54693 8.54693 9.93109 9.93109 9.93109 9.93109 9.60825 9.60825 9.60825 9.60825 9.41183 9.41183 9.41183 9.41183 10.0521 10.0521 10.0521 10.0521 9.74615 9.74615 9.74615 9.74615 4.35058 4.35058 4.35058 4.35058 9.6977 9.6977 9.6977 9.6977 9.57949 9.57949 9.57949 9.57949 9.31963 9.31963 9.31963 9.31963 10.3636 10.3636 10.3636 10.3636 9.68644 9.68644 9.68644 9.68644 9.38858 9.38858 9.38858 9.38858 9.57969 9.57969 9.57969 9.57969 9.40154 9.40154 9.40154 9.40154 9.49138 9.49138 9.49138 9.49138 9.44774 9.44774 9.44774 9.44774 9.46673 9.46673 9.46673 9.46673 9.5532 9.5532 9.5532 9.5532 9.39922 9.39922 9.39922 9.39922 9.43823 9.43823 9.43823 9.43823 9.94306 9.94306 9.94306 9.94306 9.84716 9.84716 9.84716 9.84716 11.8919 11.8919 11.8919 11.8919 9.64694 9.64694 9.64694 9.64694 9.6045 9.6045 9.6045 9.6045 9.61115 9.61115 9.61115 9.61115 9.91281 9.91281 9.91281 9.91281 9.31562 9.31562 9.31562 9.31562 9.42731 9.42731 9.42731 9.42731 9.75618 9.75618 9.75618 9.75618 9.80589 9.80589 9.80589 9.80589 9.56437 9.56437 9.56437 9.56437 9.68625 9.68625 9.68625 9.68625 8.52326 8.52326 8.52326 8.52326 9.66413 9.66413 9.66413 9.66413 9.02305 9.02305 9.02305 9.02305 9.71873 9.71873 9.71873 9.71873 9.58224 9.58224 9.58224 9.58224 9.72537 9.72537 9.72537 9.72537 9.59291 9.59291 9.59291 9.59291 9.60757 9.60757 9.60757 9.60757 9.5442 9.5442 9.5442 9.5442 9.41216 9.41216 9.41216 9.41216 9.94102 9.94102 9.94102 9.94102 9.7181 9.7181 9.7181 9.7181 9.39111 9.39111 9.39111 9.39111 5.82183 5.82183 5.82183 5.82183 9.56878 9.56878 9.56878 9.56878 9.84528 9.84528 9.84528 9.84528 9.46107 9.46107 9.46107 9.46107 9.39479 9.39479 9.39479 9.39479 7.86254 7.86254 7.86254 7.86254 9.38113 9.38113 9.38113 9.38113 9.36888 9.36888 9.36888 9.36888 9.67929 9.67929 9.67929 9.67929 9.68725 9.68725 9.68725 9.68725 9.7063 9.7063 9.7063 9.7063 9.73419 9.73419 9.73419 9.73419 9.58535 9.58535 9.58535 9.58535 9.72927 9.72927 9.72927 9.72927 9.7759 9.7759 9.7759 9.7759 9.81878 9.81878 9.81878 9.81878 9.76946 9.76946 9.76946 9.76946 8.86513 8.86513 8.86513 8.86513 8.95607 8.95607 8.95607 8.95607 9.46822 9.46822 9.46822 9.46822 9.59165 9.59165 9.59165 9.59165 9.58057 9.58057 9.58057 9.58057 8.42163 8.42163 8.42163 8.42163 10.7732 10.7732 10.7732 10.7732 8.85014 8.85014 8.85014 8.85014 9.17395 9.17395 9.17395 9.17395 10.2087 10.2087 10.2087 10.2087 9.31676 9.31676 9.31676 9.31676 9.29169 9.29169 9.29169 9.29169 9.68628 9.68628 9.68628 9.68628 9.42538 9.42538 9.42538 9.42538 8.90794 8.90794 8.90794 8.90794 9.3104 9.3104 9.3104 9.3104 8.96597 8.96597 8.96597 8.96597 10.0561 10.0561 10.0561 10.0561 9.60351 9.60351 9.60351 9.60351 10.0087 10.0087 10.0087 10.0087 9.83124 9.83124 9.83124 9.83124 9.68953 9.68953 9.68953 9.68953 9.95487 9.95487 9.95487 9.95487 9.51175 9.51175 9.51175 9.51175 9.5135 9.5135 9.5135 9.5135 10.3653 10.3653 10.3653 10.3653 9.48828 9.48828 9.48828 9.48828 9.53611 9.53611 9.53611 9.53611 9.51762 9.51762 9.51762 9.51762 10.1158 10.1158 10.1158 10.1158 5.34554 5.34554 5.34554 5.34554 7.46837 7.46837 7.46837 7.46837 9.66216 9.66216 9.66216 9.66216 9.41051 9.41051 9.41051 9.41051 9.76117 9.76117 9.76117 9.76117 9.43396 9.43396 9.43396 9.43396 9.69352 9.69352 9.69352 9.69352 6.98897 6.98897 6.98897 6.98897 9.33632 9.33632 9.33632 9.33632 5.25229 5.25229 5.25229 5.25229 9.77178 9.77178 9.77178 9.77178 10.5425 10.5425 10.5425 10.5425 9.45343 9.45343 9.45343 9.45343 9.73866 9.73866 9.73866 9.73866 9.49069 9.49069 9.49069 9.49069 9.40986 9.40986 9.40986 9.40986 9.21208 9.21208 9.21208 9.21208 14.4568 14.4568 14.4568 14.4568 10.6139 10.6139 10.6139 10.6139 10.4086 10.4086 10.4086 10.4086 9.77321 9.77321 9.77321 9.77321 9.74274 9.74274 9.74274 9.74274 9.62976 9.62976 9.62976 9.62976 9.53353 9.53353 9.53353 9.53353 6.86156 6.86156 6.86156 6.86156 9.83353 9.83353 9.83353 9.83353 2.55955 2.55955 2.55955 2.55955 11.2098 11.2098 11.2098 11.2098 12.9389 12.9389 12.9389 12.9389 9.98896 9.98896 9.98896 9.98896 9.68724 9.68724 9.68724 9.68724 10.0092 10.0092 10.0092 10.0092 9.62512 9.62512 9.62512 9.62512 3.5495 3.5495 3.5495 3.5495 9.71178 9.71178 9.71178 9.71178 9.67318 9.67318 9.67318 9.67318 7.29193 7.29193 7.29193 7.29193 10.3684 10.3684 10.3684 10.3684 9.75555 9.75555 9.75555 9.75555 9.52477 9.52477 9.52477 9.52477 9.88821 9.88821 9.88821 9.88821 9.75966 9.75966 9.75966 9.75966 2.18156 2.18156 2.18156 2.18156 9.37842 9.37842 9.37842 9.37842 9.59275 9.59275 9.59275 9.59275 9.44237 9.44237 9.44237 9.44237 10.6273 10.6273 10.6273 10.6273 9.71411 9.71411 9.71411 9.71411 5.93643 5.93643 5.93643 5.93643 9.64883 9.64883 9.64883 9.64883 9.8897 9.8897 9.8897 9.8897 9.87328 9.87328 9.87328 9.87328 9.49802 9.49802 9.49802 9.49802 9.40143 9.40143 9.40143 9.40143 9.85122 9.85122 9.85122 9.85122 8.90522 8.90522 8.90522 8.90522 9.47947 9.47947 9.47947 9.47947 9.64796 9.64796 9.64796 9.64796 9.66807 9.66807 9.66807 9.66807 9.41354 9.41354 9.41354 9.41354 9.82125 9.82125 9.82125 9.82125 9.48349 9.48349 9.48349 9.48349 8.88426 8.88426 8.88426 8.88426 9.3524 9.3524 9.3524 9.3524 9.62474 9.62474 9.62474 9.62474 9.87751 9.87751 9.87751 9.87751 9.87507 9.87507 9.87507 9.87507 9.81294 9.81294 9.81294 9.81294 9.21297 9.21297 9.21297 9.21297 9.73692 9.73692 9.73692 9.73692 9.14785 9.14785 9.14785 9.14785 9.63319 9.63319 9.63319 9.63319 9.4749 9.4749 9.4749 9.4749 9.38024 9.38024 9.38024 9.38024 8.46642 8.46642 8.46642 8.46642 9.55214 9.55214 9.55214 9.55214 9.77724 9.77724 9.77724 9.77724 9.68056 9.68056 9.68056 9.68056 9.19287 9.19287 9.19287 9.19287 9.46174 9.46174 9.46174 9.46174 9.93582 9.93582 9.93582 9.93582 9.36295 9.36295 9.36295 9.36295 9.75165 9.75165 9.75165 9.75165 9.45989 9.45989 9.45989 9.45989 9.46858 9.46858 9.46858 9.46858 8.81921 8.81921 8.81921 8.81921 9.41638 9.41638 9.41638 9.41638 9.78781 9.78781 9.78781 9.78781 9.42803 9.42803 9.42803 9.42803 11.2226 11.2226 11.2226 11.2226 8.38531 8.38531 8.38531 8.38531 9.3422 9.3422 9.3422 9.3422 2.18175 2.18175 2.18175 2.18175 10.2075 10.2075 10.2075 10.2075 9.44703 9.44703 9.44703 9.44703 9.92058 9.92058 9.92058 9.92058 9.62507 9.62507 9.62507 9.62507 9.48094 9.48094 9.48094 9.48094 9.44845 9.44845 9.44845 9.44845 9.53421 9.53421 9.53421 9.53421 10.0897 10.0897 10.0897 10.0897 9.53909 9.53909 9.53909 9.53909 9.88121 9.88121 9.88121 9.88121 9.49454 9.49454 9.49454 9.49454 9.35996 9.35996 9.35996 9.35996 9.8107 9.8107 9.8107 9.8107 9.05372 9.05372 9.05372 9.05372 9.44831 9.44831 9.44831 9.44831 9.25251 9.25251 9.25251 9.25251 9.8175 9.8175 9.8175 9.8175 5.04622 5.04622 5.04622 5.04622 8.87856 8.87856 8.87856 8.87856 9.4522 9.4522 9.4522 9.4522 6.71657 6.71657 6.71657 6.71657 9.38933 9.38933 9.38933 9.38933 8.82134 8.82134 8.82134 8.82134 8.80317 8.80317 8.80317 8.80317 7.92489 7.92489 7.92489 7.92489 9.73541 9.73541 9.73541 9.73541 9.74471 9.74471 9.74471 9.74471 9.52433 9.52433 9.52433 9.52433 9.59098 9.59098 9.59098 9.59098 8.19726 8.19726 8.19726 8.19726 9.98115 9.98115 9.98115 9.98115 9.43012 9.43012 9.43012 9.43012 9.69293 9.69293 9.69293 9.69293 10.3033 10.3033 10.3033 10.3033 9.09801 9.09801 9.09801 9.09801 4.80264 4.80264 4.80264 4.80264 9.51793 9.51793 9.51793 9.51793 4.8611 4.8611 4.8611 4.8611 9.7397 9.7397 9.7397 9.7397 9.54253 9.54253 9.54253 9.54253 10.1616 10.1616 10.1616 10.1616 8.08299 8.08299 8.08299 8.08299 9.46271 9.46271 9.46271 9.46271 9.54504 9.54504 9.54504 9.54504 11.4531 11.4531 11.4531 11.4531 9.73201 9.73201 9.73201 9.73201 7.04941 7.04941 7.04941 7.04941 9.42019 9.42019 9.42019 9.42019 9.36357 9.36357 9.36357 9.36357 9.74237 9.74237 9.74237 9.74237 9.53698 9.53698 9.53698 9.53698 10.0637 10.0637 10.0637 10.0637 9.85382 9.85382 9.85382 9.85382 9.69592 9.69592 9.69592 9.69592 9.6573 9.6573 9.6573 9.6573 2.41705 2.41705 2.41705 2.41705 9.82916 9.82916 9.82916 9.82916 5.62182 5.62182 5.62182 5.62182 6.13532 6.13532 6.13532 6.13532 9.91446 9.91446 9.91446 9.91446 9.39428 9.39428 9.39428 9.39428 9.79838 9.79838 9.79838 9.79838 9.4221 9.4221 9.4221 9.4221 9.89255 9.89255 9.89255 9.89255 9.38851 9.38851 9.38851 9.38851 9.31521 9.31521 9.31521 9.31521 9.19757 9.19757 9.19757 9.19757 9.14118 9.14118 9.14118 9.14118 9.86002 9.86002 9.86002 9.86002 9.32406 9.32406 9.32406 9.32406 3.05729 3.05729 3.05729 3.05729 9.82114 9.82114 9.82114 9.82114 9.48802 9.48802 9.48802 9.48802 9.6277 9.6277 9.6277 9.6277 9.5119 9.5119 9.5119 9.5119 9.48464 9.48464 9.48464 9.48464 5.5343 5.5343 5.5343 5.5343 9.52589 9.52589 9.52589 9.52589 9.54262 9.54262 9.54262 9.54262 9.42455 9.42455 9.42455 9.42455 9.37853 9.37853 9.37853 9.37853 9.29103 9.29103 9.29103 9.29103 9.89695 9.89695 9.89695 9.89695 9.74702 9.74702 9.74702 9.74702 9.50318 9.50318 9.50318 9.50318 8.06327 8.06327 8.06327 8.06327 8.93522 8.93522 8.93522 8.93522 9.42144 9.42144 9.42144 9.42144 7.55399 7.55399 7.55399 7.55399 9.70119 9.70119 9.70119 9.70119 9.2567 9.2567 9.2567 9.2567 9.71509 9.71509 9.71509 9.71509 9.45568 9.45568 9.45568 9.45568 9.19898 9.19898 9.19898 9.19898 9.53194 9.53194 9.53194 9.53194 9.30086 9.30086 9.30086 9.30086 3.94407 3.94407 3.94407 3.94407 9.57348 9.57348 9.57348 9.57348 9.79139 9.79139 9.79139 9.79139 10.0346 10.0346 10.0346 10.0346 9.97557 9.97557 9.97557 9.97557 8.97719 8.97719 8.97719 8.97719 9.8716 9.8716 9.8716 9.8716 9.76257 9.76257 9.76257 9.76257 9.88674 9.88674 9.88674 9.88674 9.83433 9.83433 9.83433 9.83433 4.04102 4.04102 4.04102 4.04102 10.0652 10.0652 10.0652 10.0652 9.73849 9.73849 9.73849 9.73849 9.74212 9.74212 9.74212 9.74212 9.1575 9.1575 9.1575 9.1575 9.46756 9.46756 9.46756 9.46756 1.65634 1.65634 1.65634 1.65634 9.36296 9.36296 9.36296 9.36296 6.17161 6.17161 6.17161 6.17161 9.49751 9.49751 9.49751 9.49751 9.83926 9.83926 9.83926 9.83926 11.3602 11.3602 11.3602 11.3602 9.35259 9.35259 9.35259 9.35259 9.67105 9.67105 9.67105 9.67105 11.3208 11.3208 11.3208 11.3208 9.48241 9.48241 9.48241 9.48241 9.49017 9.49017 9.49017 9.49017 8.83893 8.83893 8.83893 8.83893 7.50422 7.50422 7.50422 7.50422 9.43609 9.43609 9.43609 9.43609 8.62911 8.62911 8.62911 8.62911 9.24421 9.24421 9.24421 9.24421 10.0728 10.0728 10.0728 10.0728 9.52886 9.52886 9.52886 9.52886 8.99333 8.99333 8.99333 8.99333 9.53687 9.53687 9.53687 9.53687 3.12071 3.12071 3.12071 3.12071 9.55601 9.55601 9.55601 9.55601 9.80221 9.80221 9.80221 9.80221 9.78772 9.78772 9.78772 9.78772 9.48357 9.48357 9.48357 9.48357 9.52828 9.52828 9.52828 9.52828 9.26386 9.26386 9.26386 9.26386 9.40949 9.40949 9.40949 9.40949 9.58544 9.58544 9.58544 9.58544 9.7075 9.7075 9.7075 9.7075 9.38429 9.38429 9.38429 9.38429 5.6077 5.6077 5.6077 5.6077 9.37361 9.37361 9.37361 9.37361 9.45469 9.45469 9.45469 9.45469 9.54342 9.54342 9.54342 9.54342 8.91709 8.91709 8.91709 8.91709 9.76906 9.76906 9.76906 9.76906 10.7393 10.7393 10.7393 10.7393 9.67478 9.67478 9.67478 9.67478 1.45428 1.45428 1.45428 1.45428 9.92639 9.92639 9.92639 9.92639 9.29023 9.29023 9.29023 9.29023 6.04701 6.04701 6.04701 6.04701 9.54143 9.54143 9.54143 9.54143 9.53859 9.53859 9.53859 9.53859 9.75746 9.75746 9.75746 9.75746 9.71109 9.71109 9.71109 9.71109 9.54379 9.54379 9.54379 9.54379 8.61956 8.61956 8.61956 8.61956 9.12031 9.12031 9.12031 9.12031 9.42527 9.42527 9.42527 9.42527 9.49084 9.49084 9.49084 9.49084 13.5859 13.5859 13.5859 13.5859 9.57658 9.57658 9.57658 9.57658 9.80899 9.80899 9.80899 9.80899 9.49964 9.49964 9.49964 9.49964 9.46222 9.46222 9.46222 9.46222 9.69135 9.69135 9.69135 9.69135 9.34173 9.34173 9.34173 9.34173 8.81834 8.81834 8.81834 8.81834 9.84301 9.84301 9.84301 9.84301 9.72373 9.72373 9.72373 9.72373 9.73214 9.73214 9.73214 9.73214 9.40009 9.40009 9.40009 9.40009 9.44762 9.44762 9.44762 9.44762 9.73307 9.73307 9.73307 9.73307 8.66606 8.66606 8.66606 8.66606 9.75468 9.75468 9.75468 9.75468 8.91739 8.91739 8.91739 8.91739 10.3517 10.3517 10.3517 10.3517 5.33063 5.33063 5.33063 5.33063 9.48665 9.48665 9.48665 9.48665 9.21748 9.21748 9.21748 9.21748 9.48808 9.48808 9.48808 9.48808 10.6364 10.6364 10.6364 10.6364 7.69086 7.69086 7.69086 7.69086 9.45374 9.45374 9.45374 9.45374 10.187 10.187 10.187 10.187 9.45592 9.45592 9.45592 9.45592 9.80384 9.80384 9.80384 9.80384 9.54425 9.54425 9.54425 9.54425 9.83112 9.83112 9.83112 9.83112 9.08986 9.08986 9.08986 9.08986 9.7459 9.7459 9.7459 9.7459 9.72292 9.72292 9.72292 9.72292 9.38417 9.38417 9.38417 9.38417 10.0008 10.0008 10.0008 10.0008 9.79253 9.79253 9.79253 9.79253 5.1639 5.1639 5.1639 5.1639 9.76559 9.76559 9.76559 9.76559 9.55413 9.55413 9.55413 9.55413 9.66308 9.66308 9.66308 9.66308 9.49397 9.49397 9.49397 9.49397 9.61306 9.61306 9.61306 9.61306 9.41224 9.41224 9.41224 9.41224 9.79901 9.79901 9.79901 9.79901 9.57528 9.57528 9.57528 9.57528 9.33954 9.33954 9.33954 9.33954 9.4933 9.4933 9.4933 9.4933 9.82618 9.82618 9.82618 9.82618 9.75369 9.75369 9.75369 9.75369 9.43343 9.43343 9.43343 9.43343 9.45357 9.45357 9.45357 9.45357 3.9202 3.9202 3.9202 3.9202 2.54032 2.54032 2.54032 2.54032 9.98034 9.98034 9.98034 9.98034 9.35652 9.35652 9.35652 9.35652 9.72772 9.72772 9.72772 9.72772 9.33722 9.33722 9.33722 9.33722 9.28716 9.28716 9.28716 9.28716 9.82975 9.82975 9.82975 9.82975 9.71937 9.71937 9.71937 9.71937 9.21498 9.21498 9.21498 9.21498 10.2176 10.2176 10.2176 10.2176 10.4697 10.4697 10.4697 10.4697 10.2466 10.2466 10.2466 10.2466 9.4406 9.4406 9.4406 9.4406 9.10105 9.10105 9.10105 9.10105 9.53367 9.53367 9.53367 9.53367 9.70512 9.70512 9.70512 9.70512 11.3992 11.3992 11.3992 11.3992 8.85156 8.85156 8.85156 8.85156 9.34596 9.34596 9.34596 9.34596 10.9317 10.9317 10.9317 10.9317 9.60037 9.60037 9.60037 9.60037 9.95929 9.95929 9.95929 9.95929 9.72396 9.72396 9.72396 9.72396 9.86524 9.86524 9.86524 9.86524 9.40657 9.40657 9.40657 9.40657 9.82534 9.82534 9.82534 9.82534 9.45101 9.45101 9.45101 9.45101 11.1974 11.1974 11.1974 11.1974 10.5842 10.5842 10.5842 10.5842 5.10916 5.10916 5.10916 5.10916 9.68418 9.68418 9.68418 9.68418 9.61025 9.61025 9.61025 9.61025 9.34746 9.34746 9.34746 9.34746 9.95946 9.95946 9.95946 9.95946 9.22945 9.22945 9.22945 9.22945 10.4015 10.4015 10.4015 10.4015 9.44545 9.44545 9.44545 9.44545 5.57102 5.57102 5.57102 5.57102 9.33801 9.33801 9.33801 9.33801 5.54176 5.54176 5.54176 5.54176 9.62841 9.62841 9.62841 9.62841 9.44061 9.44061 9.44061 9.44061 9.54272 9.54272 9.54272 9.54272 9.92307 9.92307 9.92307 9.92307 9.86604 9.86604 9.86604 9.86604 8.84766 8.84766 8.84766 8.84766 9.52889 9.52889 9.52889 9.52889 9.48556 9.48556 9.48556 9.48556 9.95139 9.95139 9.95139 9.95139 9.20218 9.20218 9.20218 9.20218 9.4034 9.4034 9.4034 9.4034 9.53706 9.53706 9.53706 9.53706 10.411 10.411 10.411 10.411 9.84074 9.84074 9.84074 9.84074 9.79735 9.79735 9.79735 9.79735 9.90751 9.90751 9.90751 9.90751 9.41 9.41 9.41 9.41 9.92474 9.92474 9.92474 9.92474 12.9552 12.9552 12.9552 12.9552 7.21062 7.21062 7.21062 7.21062 9.44658 9.44658 9.44658 9.44658 10.4889 10.4889 10.4889 10.4889 9.05268 9.05268 9.05268 9.05268 9.38879 9.38879 9.38879 9.38879 10.4603 10.4603 10.4603 10.4603 9.91838 9.91838 9.91838 9.91838 9.2436 9.2436 9.2436 9.2436 9.77247 9.77247 9.77247 9.77247 8.49473 8.49473 8.49473 8.49473 9.80744 9.80744 9.80744 9.80744 10.3216 10.3216 10.3216 10.3216 9.56547 9.56547 9.56547 9.56547 9.92893 9.92893 9.92893 9.92893 9.44186 9.44186 9.44186 9.44186 9.96864 9.96864 9.96864 9.96864 10.2172 10.2172 10.2172 10.2172 5.81034 5.81034 5.81034 5.81034 9.00897 9.00897 9.00897 9.00897 10.5045 10.5045 10.5045 10.5045 9.39908 9.39908 9.39908 9.39908 9.95069 9.95069 9.95069 9.95069 9.86663 9.86663 9.86663 9.86663 12.7843 12.7843 12.7843 12.7843 9.48552 9.48552 9.48552 9.48552 9.61471 9.61471 9.61471 9.61471 3.33566 3.33566 3.33566 3.33566 9.85341 9.85341 9.85341 9.85341 9.39937 9.39937 9.39937 9.39937 9.45557 9.45557 9.45557 9.45557 9.90521 9.90521 9.90521 9.90521 9.80488 9.80488 9.80488 9.80488 9.33729 9.33729 9.33729 9.33729 9.53778 9.53778 9.53778 9.53778 9.41908 9.41908 9.41908 9.41908 9.71213 9.71213 9.71213 9.71213 9.34571 9.34571 9.34571 9.34571 9.64771 9.64771 9.64771 9.64771 4.29126 4.29126 4.29126 4.29126 6.57807 6.57807 6.57807 6.57807 9.28979 9.28979 9.28979 9.28979 9.86248 9.86248 9.86248 9.86248 9.47623 9.47623 9.47623 9.47623 9.52041 9.52041 9.52041 9.52041 8.6751 8.6751 8.6751 8.6751 10.4815 10.4815 10.4815 10.4815 11.4892 11.4892 11.4892 11.4892 9.48212 9.48212 9.48212 9.48212 9.77607 9.77607 9.77607 9.77607 8.89976 8.89976 8.89976 8.89976 9.54688 9.54688 9.54688 9.54688 10.211 10.211 10.211 10.211 9.43137 9.43137 9.43137 9.43137 5.08836 5.08836 5.08836 5.08836 8.28556 8.28556 8.28556 8.28556 9.40176 9.40176 9.40176 9.40176 9.38269 9.38269 9.38269 9.38269 2.27508 2.27508 2.27508 2.27508 7.30004 7.30004 7.30004 7.30004 10.3605 10.3605 10.3605 10.3605 9.58538 9.58538 9.58538 9.58538 9.8534 9.8534 9.8534 9.8534 9.90731 9.90731 9.90731 9.90731 9.79551 9.79551 9.79551 9.79551 9.88665 9.88665 9.88665 9.88665 9.48495 9.48495 9.48495 9.48495 9.61274 9.61274 9.61274 9.61274 10.2315 10.2315 10.2315 10.2315 9.72664 9.72664 9.72664 9.72664 13.5669 13.5669 13.5669 13.5669 9.57033 9.57033 9.57033 9.57033 9.74516 9.74516 9.74516 9.74516 9.82605 9.82605 9.82605 9.82605 9.44831 9.44831 9.44831 9.44831 9.71879 9.71879 9.71879 9.71879 7.34035 7.34035 7.34035 7.34035 9.89998 9.89998 9.89998 9.89998 1.8819 1.8819 1.8819 1.8819 9.78898 9.78898 9.78898 9.78898 9.75518 9.75518 9.75518 9.75518 9.889 9.889 9.889 9.889 10.0661 10.0661 10.0661 10.0661 9.53988 9.53988 9.53988 9.53988 9.66402 9.66402 9.66402 9.66402 10.2864 10.2864 10.2864 10.2864 9.9612 9.9612 9.9612 9.9612 9.88178 9.88178 9.88178 9.88178 10.2493 10.2493 10.2493 10.2493 9.50937 9.50937 9.50937 9.50937 9.01998 9.01998 9.01998 9.01998 9.17955 9.17955 9.17955 9.17955 9.64175 9.64175 9.64175 9.64175 9.66139 9.66139 9.66139 9.66139 8.89806 8.89806 8.89806 8.89806 9.20984 9.20984 9.20984 9.20984 10.1072 10.1072 10.1072 10.1072 9.86157 9.86157 9.86157 9.86157 9.42276 9.42276 9.42276 9.42276 2.76419 2.76419 2.76419 2.76419 8.50001 8.50001 8.50001 8.50001 9.6084 9.6084 9.6084 9.6084 3.96587 3.96587 3.96587 3.96587 5.58065 5.58065 5.58065 5.58065 9.92902 9.92902 9.92902 9.92902 9.38535 9.38535 9.38535 9.38535 9.41478 9.41478 9.41478 9.41478 9.39346 9.39346 9.39346 9.39346 10.4591 10.4591 10.4591 10.4591 9.45538 9.45538 9.45538 9.45538 9.48062 9.48062 9.48062 9.48062 9.91289 9.91289 9.91289 9.91289 9.52617 9.52617 9.52617 9.52617 9.51696 9.51696 9.51696 9.51696 9.78666 9.78666 9.78666 9.78666 9.91671 9.91671 9.91671 9.91671 9.4726 9.4726 9.4726 9.4726 9.74334 9.74334 9.74334 9.74334 3.1355 3.1355 3.1355 3.1355 9.14807 9.14807 9.14807 9.14807 4.31205 4.31205 4.31205 4.31205 9.43421 9.43421 9.43421 9.43421 9.86716 9.86716 9.86716 9.86716 9.53188 9.53188 9.53188 9.53188 3.80852 3.80852 3.80852 3.80852 9.46049 9.46049 9.46049 9.46049 9.42345 9.42345 9.42345 9.42345 9.52377 9.52377 9.52377 9.52377 9.356 9.356 9.356 9.356 9.62883 9.62883 9.62883 9.62883 9.41328 9.41328 9.41328 9.41328 9.8116 9.8116 9.8116 9.8116 9.53347 9.53347 9.53347 9.53347 9.31679 9.31679 9.31679 9.31679 9.51799 9.51799 9.51799 9.51799 13.5245 13.5245 13.5245 13.5245 11.545 11.545 11.545 11.545 9.60587 9.60587 9.60587 9.60587 9.45282 9.45282 9.45282 9.45282 9.52538 9.52538 9.52538 9.52538 9.40129 9.40129 9.40129 9.40129 9.13585 9.13585 9.13585 9.13585 8.5924 8.5924 8.5924 8.5924 9.43919 9.43919 9.43919 9.43919 9.7208 9.7208 9.7208 9.7208 9.90701 9.90701 9.90701 9.90701 7.17523 7.17523 7.17523 7.17523 9.41336 9.41336 9.41336 9.41336 10.8459 10.8459 10.8459 10.8459 9.68786 9.68786 9.68786 9.68786 9.21157 9.21157 9.21157 9.21157 9.86644 9.86644 9.86644 9.86644 9.87962 9.87962 9.87962 9.87962 9.96316 9.96316 9.96316 9.96316 8.33411 8.33411 8.33411 8.33411 9.5063 9.5063 9.5063 9.5063 7.22146 7.22146 7.22146 7.22146 10.0608 10.0608 10.0608 10.0608 9.83689 9.83689 9.83689 9.83689 9.47186 9.47186 9.47186 9.47186 10.438 10.438 10.438 10.438 10.5697 10.5697 10.5697 10.5697 10.0847 10.0847 10.0847 10.0847 7.1997 7.1997 7.1997 7.1997 7.90169 7.90169 7.90169 7.90169 9.57179 9.57179 9.57179 9.57179 10.8864 10.8864 10.8864 10.8864 10.0641 10.0641 10.0641 10.0641 9.52974 9.52974 9.52974 9.52974 10.1685 10.1685 10.1685 10.1685 9.47515 9.47515 9.47515 9.47515 9.56729 9.56729 9.56729 9.56729 9.77466 9.77466 9.77466 9.77466 9.77272 9.77272 9.77272 9.77272 9.56951 9.56951 9.56951 9.56951 9.66469 9.66469 9.66469 9.66469 9.84752 9.84752 9.84752 9.84752 9.40355 9.40355 9.40355 9.40355 9.39166 9.39166 9.39166 9.39166 9.4391 9.4391 9.4391 9.4391 9.82465 9.82465 9.82465 9.82465 10.2088 10.2088 10.2088 10.2088 9.53783 9.53783 9.53783 9.53783 8.62248 8.62248 8.62248 8.62248 9.42173 9.42173 9.42173 9.42173 9.39065 9.39065 9.39065 9.39065 8.9283 8.9283 8.9283 8.9283 9.68207 9.68207 9.68207 9.68207 9.55781 9.55781 9.55781 9.55781 9.74526 9.74526 9.74526 9.74526 9.43237 9.43237 9.43237 9.43237 9.8913 9.8913 9.8913 9.8913 9.56024 9.56024 9.56024 9.56024 9.99928 9.99928 9.99928 9.99928 12.8957 12.8957 12.8957 12.8957 9.49302 9.49302 9.49302 9.49302 4.84094 4.84094 4.84094 4.84094 9.2792 9.2792 9.2792 9.2792 9.57246 9.57246 9.57246 9.57246 13.3706 13.3706 13.3706 13.3706 4.15563 4.15563 4.15563 4.15563 9.46209 9.46209 9.46209 9.46209 9.86304 9.86304 9.86304 9.86304 9.85047 9.85047 9.85047 9.85047 9.70882 9.70882 9.70882 9.70882 9.56547 9.56547 9.56547 9.56547 9.4453 9.4453 9.4453 9.4453 9.81285 9.81285 9.81285 9.81285 8.95723 8.95723 8.95723 8.95723 9.83075 9.83075 9.83075 9.83075 8.88692 8.88692 8.88692 8.88692 9.43608 9.43608 9.43608 9.43608 9.42848 9.42848 9.42848 9.42848 7.01357 7.01357 7.01357 7.01357 9.21887 9.21887 9.21887 9.21887 9.63841 9.63841 9.63841 9.63841 9.43808 9.43808 9.43808 9.43808 9.39404 9.39404 9.39404 9.39404 7.23288 7.23288 7.23288 7.23288 9.53309 9.53309 9.53309 9.53309 8.96515 8.96515 8.96515 8.96515 10.4761 10.4761 10.4761 10.4761 9.57238 9.57238 9.57238 9.57238 9.43526 9.43526 9.43526 9.43526 9.75349 9.75349 9.75349 9.75349 10.1086 10.1086 10.1086 10.1086 9.85772 9.85772 9.85772 9.85772 10.0886 10.0886 10.0886 10.0886 10.401 10.401 10.401 10.401 11.5134 11.5134 11.5134 11.5134 9.03777 9.03777 9.03777 9.03777 10.2125 10.2125 10.2125 10.2125 9.86776 9.86776 9.86776 9.86776 9.84755 9.84755 9.84755 9.84755 9.84411 9.84411 9.84411 9.84411 9.43995 9.43995 9.43995 9.43995 9.44764 9.44764 9.44764 9.44764 9.67062 9.67062 9.67062 9.67062 9.42808 9.42808 9.42808 9.42808 9.81137 9.81137 9.81137 9.81137 9.49976 9.49976 9.49976 9.49976 9.58966 9.58966 9.58966 9.58966 7.20901 7.20901 7.20901 7.20901 9.74354 9.74354 9.74354 9.74354 9.73285 9.73285 9.73285 9.73285 10.4204 10.4204 10.4204 10.4204 8.71792 8.71792 8.71792 8.71792 11.0548 11.0548 11.0548 11.0548 9.34092 9.34092 9.34092 9.34092 11.5274 11.5274 11.5274 11.5274 9.17476 9.17476 9.17476 9.17476 9.87352 9.87352 9.87352 9.87352 10.1427 10.1427 10.1427 10.1427 9.37122 9.37122 9.37122 9.37122 9.49139 9.49139 9.49139 9.49139 9.58945 9.58945 9.58945 9.58945 9.27687 9.27687 9.27687 9.27687 9.63548 9.63548 9.63548 9.63548 9.43745 9.43745 9.43745 9.43745 9.25517 9.25517 9.25517 9.25517 9.34238 9.34238 9.34238 9.34238 10.8339 10.8339 10.8339 10.8339 9.66263 9.66263 9.66263 9.66263 9.92915 9.92915 9.92915 9.92915 9.28098 9.28098 9.28098 9.28098 9.87533 9.87533 9.87533 9.87533 9.85911 9.85911 9.85911 9.85911 10.4453 10.4453 10.4453 10.4453 9.4073 9.4073 9.4073 9.4073 8.02946 8.02946 8.02946 8.02946 3.75349 3.75349 3.75349 3.75349 9.44409 9.44409 9.44409 9.44409 9.80432 9.80432 9.80432 9.80432 7.96864 7.96864 7.96864 7.96864 7.6402 7.6402 7.6402 7.6402 9.82054 9.82054 9.82054 9.82054 9.37378 9.37378 9.37378 9.37378 7.78667 7.78667 7.78667 7.78667 9.75997 9.75997 9.75997 9.75997 9.48428 9.48428 9.48428 9.48428 9.50878 9.50878 9.50878 9.50878 7.17834 7.17834 7.17834 7.17834 9.87906 9.87906 9.87906 9.87906 9.96674 9.96674 9.96674 9.96674 9.41462 9.41462 9.41462 9.41462 6.20393 6.20393 6.20393 6.20393 9.01528 9.01528 9.01528 9.01528 9.53811 9.53811 9.53811 9.53811 9.24993 9.24993 9.24993 9.24993 10.681 10.681 10.681 10.681 3.40822 3.40822 3.40822 3.40822 9.58967 9.58967 9.58967 9.58967 8.32251 8.32251 8.32251 8.32251 9.3887 9.3887 9.3887 9.3887 9.4939 9.4939 9.4939 9.4939 9.56851 9.56851 9.56851 9.56851 6.41801 6.41801 6.41801 6.41801 3.9404 3.9404 3.9404 3.9404 13.5062 13.5062 13.5062 13.5062 7.59959 7.59959 7.59959 7.59959 9.36155 9.36155 9.36155 9.36155 9.76976 9.76976 9.76976 9.76976 3.40597 3.40597 3.40597 3.40597 9.45009 9.45009 9.45009 9.45009 7.62243 7.62243 7.62243 7.62243 9.47738 9.47738 9.47738 9.47738 9.87321 9.87321 9.87321 9.87321 10.8152 10.8152 10.8152 10.8152 8.58859 8.58859 8.58859 8.58859 9.77148 9.77148 9.77148 9.77148 13.9516 13.9516 13.9516 13.9516 9.91903 9.91903 9.91903 9.91903 9.85637 9.85637 9.85637 9.85637 9.41568 9.41568 9.41568 9.41568 10.788 10.788 10.788 10.788 9.45515 9.45515 9.45515 9.45515 3.36717 3.36717 3.36717 3.36717 9.64946 9.64946 9.64946 9.64946 9.44925 9.44925 9.44925 9.44925 10.7137 10.7137 10.7137 10.7137 9.63322 9.63322 9.63322 9.63322 10.403 10.403 10.403 10.403 9.39738 9.39738 9.39738 9.39738 10.7895 10.7895 10.7895 10.7895 9.52084 9.52084 9.52084 9.52084 8.66003 8.66003 8.66003 8.66003 13.2371 13.2371 13.2371 13.2371 9.43467 9.43467 9.43467 9.43467 8.5423 8.5423 8.5423 8.5423 8.35844 8.35844 8.35844 8.35844 9.40708 9.40708 9.40708 9.40708 9.69645 9.69645 9.69645 9.69645 9.59468 9.59468 9.59468 9.59468 10.8294 10.8294 10.8294 10.8294 10.439 10.439 10.439 10.439 9.40525 9.40525 9.40525 9.40525 2.97026 2.97026 2.97026 2.97026 9.44445 9.44445 9.44445 9.44445 8.9928 8.9928 8.9928 8.9928 9.86876 9.86876 9.86876 9.86876 9.33474 9.33474 9.33474 9.33474 10.085 10.085 10.085 10.085 9.77824 9.77824 9.77824 9.77824 9.61736 9.61736 9.61736 9.61736 9.79846 9.79846 9.79846 9.79846 9.35642 9.35642 9.35642 9.35642 6.87335 6.87335 6.87335 6.87335 10.3853 10.3853 10.3853 10.3853 7.76303 7.76303 7.76303 7.76303 7.6954 7.6954 7.6954 7.6954 9.71068 9.71068 9.71068 9.71068 9.41534 9.41534 9.41534 9.41534 6.50505 6.50505 6.50505 6.50505 9.49872 9.49872 9.49872 9.49872 9.45554 9.45554 9.45554 9.45554 10.4588 10.4588 10.4588 10.4588 1.47056 1.47056 1.47056 1.47056 9.57434 9.57434 9.57434 9.57434 9.74346 9.74346 9.74346 9.74346 9.45555 9.45555 9.45555 9.45555 9.88532 9.88532 9.88532 9.88532 3.37259 3.37259 3.37259 3.37259 9.42282 9.42282 9.42282 9.42282 9.5791 9.5791 9.5791 9.5791 9.96501 9.96501 9.96501 9.96501 8.27308 8.27308 8.27308 8.27308 8.2122 8.2122 8.2122 8.2122 6.81699 6.81699 6.81699 6.81699 9.59996 9.59996 9.59996 9.59996 13.9946 13.9946 13.9946 13.9946 9.58334 9.58334 9.58334 9.58334 10.0011 10.0011 10.0011 10.0011 9.39797 9.39797 9.39797 9.39797 9.94768 9.94768 9.94768 9.94768 9.92128 9.92128 9.92128 9.92128 10.0867 10.0867 10.0867 10.0867 9.62281 9.62281 9.62281 9.62281 9.97887 9.97887 9.97887 9.97887 9.56549 9.56549 9.56549 9.56549 9.82128 9.82128 9.82128 9.82128 13.457 13.457 13.457 13.457 9.7594 9.7594 9.7594 9.7594 9.86724 9.86724 9.86724 9.86724 9.67236 9.67236 9.67236 9.67236 9.80333 9.80333 9.80333 9.80333 9.92356 9.92356 9.92356 9.92356 8.63857 8.63857 8.63857 8.63857 9.93639 9.93639 9.93639 9.93639 9.62228 9.62228 9.62228 9.62228 10.4451 10.4451 10.4451 10.4451 7.95151 7.95151 7.95151 7.95151 9.76038 9.76038 9.76038 9.76038 9.33451 9.33451 9.33451 9.33451 3.21112 3.21112 3.21112 3.21112 9.95532 9.95532 9.95532 9.95532 3.47108 3.47108 3.47108 3.47108 5.84671 5.84671 5.84671 5.84671 9.65313 9.65313 9.65313 9.65313 3.10776 3.10776 3.10776 3.10776 9.94019 9.94019 9.94019 9.94019 2.37995 2.37995 2.37995 2.37995 9.82538 9.82538 9.82538 9.82538 9.97515 9.97515 9.97515 9.97515 3.94709 3.94709 3.94709 3.94709 9.63002 9.63002 9.63002 9.63002 10.7029 10.7029 10.7029 10.7029 9.40768 9.40768 9.40768 9.40768 9.91529 9.91529 9.91529 9.91529 9.74117 9.74117 9.74117 9.74117 9.45278 9.45278 9.45278 9.45278 10.4907 10.4907 10.4907 10.4907 1.87689 1.87689 1.87689 1.87689 9.9415 9.9415 9.9415 9.9415 9.83682 9.83682 9.83682 9.83682 9.93981 9.93981 9.93981 9.93981 7.18758 7.18758 7.18758 7.18758 9.96659 9.96659 9.96659 9.96659 9.99439 9.99439 9.99439 9.99439 10.4177 10.4177 10.4177 10.4177 9.57806 9.57806 9.57806 9.57806 9.84481 9.84481 9.84481 9.84481 9.46182 9.46182 9.46182 9.46182 3.66652 3.66652 3.66652 3.66652 10.0721 10.0721 10.0721 10.0721 3.91241 3.91241 3.91241 3.91241 9.91179 9.91179 9.91179 9.91179 9.48664 9.48664 9.48664 9.48664 7.91042 7.91042 7.91042 7.91042 9.45025 9.45025 9.45025 9.45025 8.76821 8.76821 8.76821 8.76821 9.87546 9.87546 9.87546 9.87546 9.57011 9.57011 9.57011 9.57011 8.89357 8.89357 8.89357 8.89357 10.3381 10.3381 10.3381 10.3381 9.85201 9.85201 9.85201 9.85201 10.1117 10.1117 10.1117 10.1117 9.47826 9.47826 9.47826 9.47826 8.65432 8.65432 8.65432 8.65432 9.83446 9.83446 9.83446 9.83446 13.5435 13.5435 13.5435 13.5435 9.38192 9.38192 9.38192 9.38192 9.69784 9.69784 9.69784 9.69784 9.82294 9.82294 9.82294 9.82294 9.52835 9.52835 9.52835 9.52835 9.54494 9.54494 9.54494 9.54494 9.73409 9.73409 9.73409 9.73409 9.48239 9.48239 9.48239 9.48239 9.45734 9.45734 9.45734 9.45734 9.93176 9.93176 9.93176 9.93176 9.34818 9.34818 9.34818 9.34818 9.9438 9.9438 9.9438 9.9438 9.53192 9.53192 9.53192 9.53192 9.55031 9.55031 9.55031 9.55031 9.61209 9.61209 9.61209 9.61209 6.67432 6.67432 6.67432 6.67432 10.041 10.041 10.041 10.041 8.5571 8.5571 8.5571 8.5571 9.51002 9.51002 9.51002 9.51002 9.77932 9.77932 9.77932 9.77932 9.63369 9.63369 9.63369 9.63369 10.54 10.54 10.54 10.54 9.72379 9.72379 9.72379 9.72379 9.97405 9.97405 9.97405 9.97405 9.36192 9.36192 9.36192 9.36192 4.83786 4.83786 4.83786 4.83786 9.75053 9.75053 9.75053 9.75053 8.85276 8.85276 8.85276 8.85276 10.2007 10.2007 10.2007 10.2007 3.88504 3.88504 3.88504 3.88504 9.93925 9.93925 9.93925 9.93925 9.86709 9.86709 9.86709 9.86709 9.57093 9.57093 9.57093 9.57093 8.00842 8.00842 8.00842 8.00842 9.95002 9.95002 9.95002 9.95002 2.67429 2.67429 2.67429 2.67429 12.3884 12.3884 12.3884 12.3884 9.82195 9.82195 9.82195 9.82195 9.59391 9.59391 9.59391 9.59391 10.4712 10.4712 10.4712 10.4712 9.64444 9.64444 9.64444 9.64444 2.3302 2.3302 2.3302 2.3302 9.45593 9.45593 9.45593 9.45593 10.6309 10.6309 10.6309 10.6309 9.64171 9.64171 9.64171 9.64171 9.40082 9.40082 9.40082 9.40082 10.0855 10.0855 10.0855 10.0855 2.40612 2.40612 2.40612 2.40612 9.41291 9.41291 9.41291 9.41291 10.3123 10.3123 10.3123 10.3123 2.32523 2.32523 2.32523 2.32523 9.43457 9.43457 9.43457 9.43457 9.92372 9.92372 9.92372 9.92372 9.40576 9.40576 9.40576 9.40576 2.20166 2.20166 2.20166 2.20166 9.41809 9.41809 9.41809 9.41809 9.89005 9.89005 9.89005 9.89005 10.5082 10.5082 10.5082 10.5082 10.0819 10.0819 10.0819 10.0819 10.5258 10.5258 10.5258 10.5258 10.6322 10.6322 10.6322 10.6322 9.94919 9.94919 9.94919 9.94919 14.2489 14.2489 14.2489 14.2489 9.74933 9.74933 9.74933 9.74933 9.56844 9.56844 9.56844 9.56844 10.7887 10.7887 10.7887 10.7887 9.5184 9.5184 9.5184 9.5184 8.0027 8.0027 8.0027 8.0027 9.62048 9.62048 9.62048 9.62048 3.47424 3.47424 3.47424 3.47424 9.79231 9.79231 9.79231 9.79231 9.55321 9.55321 9.55321 9.55321 9.47373 9.47373 9.47373 9.47373 9.89142 9.89142 9.89142 9.89142 2.52737 2.52737 2.52737 2.52737 13.0316 13.0316 13.0316 13.0316 9.38341 9.38341 9.38341 9.38341 9.75222 9.75222 9.75222 9.75222 9.8896 9.8896 9.8896 9.8896 10.2418 10.2418 10.2418 10.2418 9.45765 9.45765 9.45765 9.45765 9.57507 9.57507 9.57507 9.57507 9.73952 9.73952 9.73952 9.73952 10.0018 10.0018 10.0018 10.0018 9.77662 9.77662 9.77662 9.77662 7.93506 7.93506 7.93506 7.93506 9.44048 9.44048 9.44048 9.44048 9.41945 9.41945 9.41945 9.41945 9.42164 9.42164 9.42164 9.42164 8.49616 8.49616 8.49616 8.49616 9.54198 9.54198 9.54198 9.54198 7.80531 7.80531 7.80531 7.80531 7.04979 7.04979 7.04979 7.04979 9.65293 9.65293 9.65293 9.65293 9.76263 9.76263 9.76263 9.76263 9.80219 9.80219 9.80219 9.80219 9.64591 9.64591 9.64591 9.64591 9.52983 9.52983 9.52983 9.52983 9.90345 9.90345 9.90345 9.90345 11.1504 11.1504 11.1504 11.1504 10.0675 10.0675 10.0675 10.0675 9.82433 9.82433 9.82433 9.82433 9.72317 9.72317 9.72317 9.72317 10.039 10.039 10.039 10.039 6.63664 6.63664 6.63664 6.63664 9.82448 9.82448 9.82448 9.82448 9.93587 9.93587 9.93587 9.93587 3.38337 3.38337 3.38337 3.38337 10.888 10.888 10.888 10.888 9.61681 9.61681 9.61681 9.61681 7.18331 7.18331 7.18331 7.18331 5.82745 5.82745 5.82745 5.82745 9.48098 9.48098 9.48098 9.48098 9.26685 9.26685 9.26685 9.26685 9.79292 9.79292 9.79292 9.79292 9.84865 9.84865 9.84865 9.84865 9.3749 9.3749 9.3749 9.3749 8.66102 8.66102 8.66102 8.66102 9.89168 9.89168 9.89168 9.89168 10.5939 10.5939 10.5939 10.5939 9.39979 9.39979 9.39979 9.39979 9.74507 9.74507 9.74507 9.74507 9.34968 9.34968 9.34968 9.34968 9.83081 9.83081 9.83081 9.83081 10.1209 10.1209 10.1209 10.1209 2.50121 2.50121 2.50121 2.50121 9.73667 9.73667 9.73667 9.73667 9.50458 9.50458 9.50458 9.50458 9.74857 9.74857 9.74857 9.74857 9.41394 9.41394 9.41394 9.41394 9.94354 9.94354 9.94354 9.94354 9.87473 9.87473 9.87473 9.87473 9.38307 9.38307 9.38307 9.38307 5.34622 5.34622 5.34622 5.34622 7.28737 7.28737 7.28737 7.28737 9.82857 9.82857 9.82857 9.82857 9.91575 9.91575 9.91575 9.91575 9.83698 9.83698 9.83698 9.83698 9.97168 9.97168 9.97168 9.97168 1.89812 1.89812 1.89812 1.89812 9.3942 9.3942 9.3942 9.3942 9.96711 9.96711 9.96711 9.96711 9.5085 9.5085 9.5085 9.5085 9.58387 9.58387 9.58387 9.58387 9.93164 9.93164 9.93164 9.93164 10.0012 10.0012 10.0012 10.0012 9.39581 9.39581 9.39581 9.39581 9.64251 9.64251 9.64251 9.64251 9.896 9.896 9.896 9.896 10.0402 10.0402 10.0402 10.0402 9.92449 9.92449 9.92449 9.92449 6.97333 6.97333 6.97333 6.97333 9.52448 9.52448 9.52448 9.52448 9.47855 9.47855 9.47855 9.47855 13.7584 13.7584 13.7584 13.7584 9.49419 9.49419 9.49419 9.49419 9.76016 9.76016 9.76016 9.76016 9.62913 9.62913 9.62913 9.62913 10.0942 10.0942 10.0942 10.0942 9.89549 9.89549 9.89549 9.89549 4.42639 4.42639 4.42639 4.42639 10.1746 10.1746 10.1746 10.1746 10.0055 10.0055 10.0055 10.0055 9.92085 9.92085 9.92085 9.92085 9.39708 9.39708 9.39708 9.39708 9.7208 9.7208 9.7208 9.7208 8.39399 8.39399 8.39399 8.39399 10.1088 10.1088 10.1088 10.1088 9.44533 9.44533 9.44533 9.44533 9.78695 9.78695 9.78695 9.78695 9.75772 9.75772 9.75772 9.75772 9.74737 9.74737 9.74737 9.74737 9.5199 9.5199 9.5199 9.5199 1.412 1.412 1.412 1.412 10.0229 10.0229 10.0229 10.0229 9.86614 9.86614 9.86614 9.86614 9.38446 9.38446 9.38446 9.38446 11.0045 11.0045 11.0045 11.0045 9.97459 9.97459 9.97459 9.97459 7.05107 7.05107 7.05107 7.05107 9.47831 9.47831 9.47831 9.47831 9.962 9.962 9.962 9.962 9.55912 9.55912 9.55912 9.55912 6.53944 6.53944 6.53944 6.53944 9.50613 9.50613 9.50613 9.50613 9.62745 9.62745 9.62745 9.62745 14.3065 14.3065 14.3065 14.3065 9.46095 9.46095 9.46095 9.46095 2.67272 2.67272 2.67272 2.67272 9.34318 9.34318 9.34318 9.34318 10.1499 10.1499 10.1499 10.1499 8.62191 8.62191 8.62191 8.62191 10.1934 10.1934 10.1934 10.1934 9.77077 9.77077 9.77077 9.77077 9.51449 9.51449 9.51449 9.51449 9.91722 9.91722 9.91722 9.91722 10.6206 10.6206 10.6206 10.6206 13.7695 13.7695 13.7695 13.7695 5.79449 5.79449 5.79449 5.79449 9.51513 9.51513 9.51513 9.51513 9.6628 9.6628 9.6628 9.6628 9.73157 9.73157 9.73157 9.73157 9.39573 9.39573 9.39573 9.39573 9.92628 9.92628 9.92628 9.92628 9.62543 9.62543 9.62543 9.62543 9.37021 9.37021 9.37021 9.37021 7.13916 7.13916 7.13916 7.13916 8.44188 8.44188 8.44188 8.44188 5.32367 5.32367 5.32367 5.32367 9.76483 9.76483 9.76483 9.76483 6.19759 6.19759 6.19759 6.19759 9.82303 9.82303 9.82303 9.82303 9.87919 9.87919 9.87919 9.87919 9.83348 9.83348 9.83348 9.83348 9.57598 9.57598 9.57598 9.57598 9.83805 9.83805 9.83805 9.83805 9.41498 9.41498 9.41498 9.41498 9.65393 9.65393 9.65393 9.65393 9.55218 9.55218 9.55218 9.55218 9.88195 9.88195 9.88195 9.88195 9.71256 9.71256 9.71256 9.71256 10.0899 10.0899 10.0899 10.0899 9.70679 9.70679 9.70679 9.70679 9.47673 9.47673 9.47673 9.47673 10.3353 10.3353 10.3353 10.3353 8.27014 8.27014 8.27014 8.27014 9.96026 9.96026 9.96026 9.96026 9.4597 9.4597 9.4597 9.4597 9.73638 9.73638 9.73638 9.73638 10.5063 10.5063 10.5063 10.5063 10.1357 10.1357 10.1357 10.1357 9.34229 9.34229 9.34229 9.34229 9.91481 9.91481 9.91481 9.91481 7.12264 7.12264 7.12264 7.12264 1.38603 1.38603 1.38603 1.38603 9.86561 9.86561 9.86561 9.86561 10.3196 10.3196 10.3196 10.3196 9.92379 9.92379 9.92379 9.92379 9.53667 9.53667 9.53667 9.53667 9.81041 9.81041 9.81041 9.81041 9.94551 9.94551 9.94551 9.94551 10.0553 10.0553 10.0553 10.0553 10.3002 10.3002 10.3002 10.3002 9.84451 9.84451 9.84451 9.84451 9.82622 9.82622 9.82622 9.82622 9.52999 9.52999 9.52999 9.52999 9.7462 9.7462 9.7462 9.7462 9.52627 9.52627 9.52627 9.52627 10.4778 10.4778 10.4778 10.4778 2.60947 2.60947 2.60947 2.60947 9.71752 9.71752 9.71752 9.71752 9.44209 9.44209 9.44209 9.44209 9.86893 9.86893 9.86893 9.86893 8.50361 8.50361 8.50361 8.50361 9.80799 9.80799 9.80799 9.80799 9.45919 9.45919 9.45919 9.45919 9.88079 9.88079 9.88079 9.88079 9.54647 9.54647 9.54647 9.54647 10.0522 10.0522 10.0522 10.0522 8.32633 8.32633 8.32633 8.32633 5.22214 5.22214 5.22214 5.22214 9.44651 9.44651 9.44651 9.44651 6.02919 6.02919 6.02919 6.02919 9.73054 9.73054 9.73054 9.73054 9.92749 9.92749 9.92749 9.92749 8.85623 8.85623 8.85623 8.85623 2.4457 2.4457 2.4457 2.4457 9.80973 9.80973 9.80973 9.80973 9.94374 9.94374 9.94374 9.94374 9.68883 9.68883 9.68883 9.68883 9.48851 9.48851 9.48851 9.48851 9.74 9.74 9.74 9.74 9.76756 9.76756 9.76756 9.76756 9.9112 9.9112 9.9112 9.9112 9.48766 9.48766 9.48766 9.48766 9.81652 9.81652 9.81652 9.81652 9.82155 9.82155 9.82155 9.82155 8.134 8.134 8.134 8.134 7.96881 7.96881 7.96881 7.96881 10.0731 10.0731 10.0731 10.0731 10.0093 10.0093 10.0093 10.0093 9.93443 9.93443 9.93443 9.93443 9.84465 9.84465 9.84465 9.84465 9.49962 9.49962 9.49962 9.49962 11.6001 11.6001 11.6001 11.6001 9.44527 9.44527 9.44527 9.44527 9.9449 9.9449 9.9449 9.9449 10.8516 10.8516 10.8516 10.8516 9.91189 9.91189 9.91189 9.91189 9.73029 9.73029 9.73029 9.73029 9.87263 9.87263 9.87263 9.87263 1.75661 1.75661 1.75661 1.75661 13.3274 13.3274 13.3274 13.3274 8.06277 8.06277 8.06277 8.06277 9.84464 9.84464 9.84464 9.84464 9.37317 9.37317 9.37317 9.37317 9.93907 9.93907 9.93907 9.93907 9.91994 9.91994 9.91994 9.91994 9.57318 9.57318 9.57318 9.57318 9.89282 9.89282 9.89282 9.89282 1.5635 1.5635 1.5635 1.5635 11.3195 11.3195 11.3195 11.3195 10.1058 10.1058 10.1058 10.1058 9.99054 9.99054 9.99054 9.99054 9.24993 9.24993 9.24993 9.24993 2.65048 2.65048 2.65048 2.65048 9.99925 9.99925 9.99925 9.99925 10.6635 10.6635 10.6635 10.6635 9.83828 9.83828 9.83828 9.83828 9.60231 9.60231 9.60231 9.60231 8.53227 8.53227 8.53227 8.53227 9.81441 9.81441 9.81441 9.81441 9.79399 9.79399 9.79399 9.79399 10.0288 10.0288 10.0288 10.0288 9.56647 9.56647 9.56647 9.56647 9.66776 9.66776 9.66776 9.66776 9.94721 9.94721 9.94721 9.94721 1.91801 1.91801 1.91801 1.91801 9.95976 9.95976 9.95976 9.95976 9.90029 9.90029 9.90029 9.90029 9.92014 9.92014 9.92014 9.92014 9.93729 9.93729 9.93729 9.93729 9.91591 9.91591 9.91591 9.91591 9.90244 9.90244 9.90244 9.90244 10.064 10.064 10.064 10.064 10.0444 10.0444 10.0444 10.0444 9.45273 9.45273 9.45273 9.45273 9.52891 9.52891 9.52891 9.52891 9.74047 9.74047 9.74047 9.74047 9.93833 9.93833 9.93833 9.93833 9.9 9.9 9.9 9.9 5.18462 5.18462 5.18462 5.18462 10.024 10.024 10.024 10.024 10.1496 10.1496 10.1496 10.1496 9.89906 9.89906 9.89906 9.89906 10.1004 10.1004 10.1004 10.1004 9.4855 9.4855 9.4855 9.4855 9.61516 9.61516 9.61516 9.61516 9.97526 9.97526 9.97526 9.97526 9.82237 9.82237 9.82237 9.82237 9.84906 9.84906 9.84906 9.84906 9.87271 9.87271 9.87271 9.87271 9.88399 9.88399 9.88399 9.88399 1.75489 1.75489 1.75489 1.75489 7.82179 7.82179 7.82179 7.82179 9.90682 9.90682 9.90682 9.90682 1.49174 1.49174 1.49174 1.49174 9.93402 9.93402 9.93402 9.93402 9.62217 9.62217 9.62217 9.62217 10.1549 10.1549 10.1549 10.1549 9.89441 9.89441 9.89441 9.89441 9.64417 9.64417 9.64417 9.64417 1.76008 1.76008 1.76008 1.76008 9.49368 9.49368 9.49368 9.49368 10.133 10.133 10.133 10.133 9.50931 9.50931 9.50931 9.50931 9.85637 9.85637 9.85637 9.85637 9.94242 9.94242 9.94242 9.94242 9.57343 9.57343 9.57343 9.57343 9.44069 9.44069 9.44069 9.44069 10.0062 10.0062 10.0062 10.0062 7.41793 7.41793 7.41793 7.41793 9.97875 9.97875 9.97875 9.97875 9.69874 9.69874 9.69874 9.69874 9.35744 9.35744 9.35744 9.35744 10.1361 10.1361 10.1361 10.1361 10.0438 10.0438 10.0438 10.0438 10.8445 10.8445 10.8445 10.8445 9.44981 9.44981 9.44981 9.44981 9.93786 9.93786 9.93786 9.93786 10.0269 10.0269 10.0269 10.0269 10.0653 10.0653 10.0653 10.0653 9.95596 9.95596 9.95596 9.95596 10.0156 10.0156 10.0156 10.0156 6.29501 6.29501 6.29501 6.29501 9.83451 9.83451 9.83451 9.83451 9.89162 9.89162 9.89162 9.89162 9.65494 9.65494 9.65494 9.65494 9.10472 9.10472 9.10472 9.10472 9.88914 9.88914 9.88914 9.88914 10.817 10.817 10.817 10.817 9.93155 9.93155 9.93155 9.93155 10.1433 10.1433 10.1433 10.1433 9.51232 9.51232 9.51232 9.51232 9.88547 9.88547 9.88547 9.88547 10.1213 10.1213 10.1213 10.1213 10.0321 10.0321 10.0321 10.0321 9.90677 9.90677 9.90677 9.90677 10.0616 10.0616 10.0616 10.0616 9.82516 9.82516 9.82516 9.82516 10.1356 10.1356 10.1356 10.1356 9.44509 9.44509 9.44509 9.44509 9.8865 9.8865 9.8865 9.8865 10.1054 10.1054 10.1054 10.1054 10.1807 10.1807 10.1807 10.1807 6.23155 6.23155 6.23155 6.23155 10.4369 10.4369 10.4369 10.4369 10.1198 10.1198 10.1198 10.1198 10.1401 10.1401 10.1401 10.1401 9.64384 9.64384 9.64384 9.64384 9.76776 9.76776 9.76776 9.76776 9.92275 9.92275 9.92275 9.92275 13.5664 13.5664 13.5664 13.5664 9.97143 9.97143 9.97143 9.97143 8.14049 8.14049 8.14049 8.14049 10.048 10.048 10.048 10.048 9.18426 9.18426 9.18426 9.18426 1.81105 1.81105 1.81105 1.81105 9.61195 9.61195 9.61195 9.61195 10.0199 10.0199 10.0199 10.0199 9.84184 9.84184 9.84184 9.84184 9.76389 9.76389 9.76389 9.76389 10.3615 10.3615 10.3615 10.3615 8.14112 8.14112 8.14112 8.14112 10.1981 10.1981 10.1981 10.1981 10.1071 10.1071 10.1071 10.1071 9.94148 9.94148 9.94148 9.94148 9.97332 9.97332 9.97332 9.97332 10.0828 10.0828 10.0828 10.0828 9.83728 9.83728 9.83728 9.83728 9.54449 9.54449 9.54449 9.54449 9.40666 9.40666 9.40666 9.40666 9.55654 9.55654 9.55654 9.55654 9.96552 9.96552 9.96552 9.96552 6.23985 6.23985 6.23985 6.23985 10.9658 10.9658 10.9658 10.9658 9.51236 9.51236 9.51236 9.51236 9.83204 9.83204 9.83204 9.83204 9.88821 9.88821 9.88821 9.88821 14.0716 14.0716 14.0716 14.0716 9.53101 9.53101 9.53101 9.53101 9.91968 9.91968 9.91968 9.91968 9.82531 9.82531 9.82531 9.82531 10.0839 10.0839 10.0839 10.0839 10.0571 10.0571 10.0571 10.0571 9.4267 9.4267 9.4267 9.4267 9.46535 9.46535 9.46535 9.46535 9.46841 9.46841 9.46841 9.46841 13.5224 13.5224 13.5224 13.5224 9.77072 9.77072 9.77072 9.77072 9.89635 9.89635 9.89635 9.89635 11.2248 11.2248 11.2248 11.2248 10.1228 10.1228 10.1228 10.1228 9.89462 9.89462 9.89462 9.89462 9.84824 9.84824 9.84824 9.84824 9.55934 9.55934 9.55934 9.55934 9.77967 9.77967 9.77967 9.77967 10.1813 10.1813 10.1813 10.1813 9.50435 9.50435 9.50435 9.50435 10.3758 10.3758 10.3758 10.3758 9.94579 9.94579 9.94579 9.94579 10.0057 10.0057 10.0057 10.0057 7.45875 7.45875 7.45875 7.45875 9.80199 9.80199 9.80199 9.80199 2.03085 2.03085 2.03085 2.03085 1.63195 1.63195 1.63195 1.63195 9.91581 9.91581 9.91581 9.91581 10.0418 10.0418 10.0418 10.0418 9.5381 9.5381 9.5381 9.5381 9.83341 9.83341 9.83341 9.83341 9.62526 9.62526 9.62526 9.62526 9.42086 9.42086 9.42086 9.42086 9.83721 9.83721 9.83721 9.83721 9.51657 9.51657 9.51657 9.51657 10.051 10.051 10.051 10.051 9.83528 9.83528 9.83528 9.83528 9.91153 9.91153 9.91153 9.91153 10.7272 10.7272 10.7272 10.7272 10.1404 10.1404 10.1404 10.1404 9.95937 9.95937 9.95937 9.95937 9.95606 9.95606 9.95606 9.95606 9.88596 9.88596 9.88596 9.88596 9.5971 9.5971 9.5971 9.5971 9.43941 9.43941 9.43941 9.43941 9.93674 9.93674 9.93674 9.93674 9.79019 9.79019 9.79019 9.79019 9.74284 9.74284 9.74284 9.74284 13.9501 13.9501 13.9501 13.9501 14.9378 14.9378 14.9378 14.9378 9.85533 9.85533 9.85533 9.85533 9.99865 9.99865 9.99865 9.99865 9.4173 9.4173 9.4173 9.4173 9.90547 9.90547 9.90547 9.90547 8.73593 8.73593 8.73593 8.73593 14.0414 14.0414 14.0414 14.0414 9.3632 9.3632 9.3632 9.3632 10.0014 10.0014 10.0014 10.0014 10.0199 10.0199 10.0199 10.0199 9.8266 9.8266 9.8266 9.8266 10.0993 10.0993 10.0993 10.0993 9.90322 9.90322 9.90322 9.90322 9.94667 9.94667 9.94667 9.94667 9.73257 9.73257 9.73257 9.73257 4.99864 4.99864 4.99864 4.99864 10.1088 10.1088 10.1088 10.1088 9.60714 9.60714 9.60714 9.60714 13.8524 13.8524 13.8524 13.8524 9.92556 9.92556 9.92556 9.92556 10.1212 10.1212 10.1212 10.1212 9.38543 9.38543 9.38543 9.38543 9.88938 9.88938 9.88938 9.88938 9.96653 9.96653 9.96653 9.96653 9.84895 9.84895 9.84895 9.84895 10.2685 10.2685 10.2685 10.2685 9.60882 9.60882 9.60882 9.60882 9.96339 9.96339 9.96339 9.96339 1.83036 1.83036 1.83036 1.83036 9.94478 9.94478 9.94478 9.94478 1.93308 1.93308 1.93308 1.93308 9.82866 9.82866 9.82866 9.82866 9.81761 9.81761 9.81761 9.81761 9.8883 9.8883 9.8883 9.8883 9.94268 9.94268 9.94268 9.94268 9.69943 9.69943 9.69943 9.69943 9.89471 9.89471 9.89471 9.89471 9.85883 9.85883 9.85883 9.85883 9.92663 9.92663 9.92663 9.92663 10.088 10.088 10.088 10.088 2.21349 2.21349 2.21349 2.21349 9.45218 9.45218 9.45218 9.45218 9.74179 9.74179 9.74179 9.74179 9.9451 9.9451 9.9451 9.9451 10.1158 10.1158 10.1158 10.1158 9.85058 9.85058 9.85058 9.85058 10.3829 10.3829 10.3829 10.3829 9.36507 9.36507 9.36507 9.36507 8.05176 8.05176 8.05176 8.05176 10.0367 10.0367 10.0367 10.0367 9.83226 9.83226 9.83226 9.83226 9.64415 9.64415 9.64415 9.64415 9.94944 9.94944 9.94944 9.94944 9.94135 9.94135 9.94135 9.94135 10.1131 10.1131 10.1131 10.1131 9.3402 9.3402 9.3402 9.3402 14.0851 14.0851 14.0851 14.0851 9.84795 9.84795 9.84795 9.84795 10.0318 10.0318 10.0318 10.0318 9.84969 9.84969 9.84969 9.84969 9.72613 9.72613 9.72613 9.72613 9.92855 9.92855 9.92855 9.92855 9.92837 9.92837 9.92837 9.92837 9.9597 9.9597 9.9597 9.9597 1.80583 1.80583 1.80583 1.80583 10.0543 10.0543 10.0543 10.0543 9.85711 9.85711 9.85711 9.85711 10.0625 10.0625 10.0625 10.0625 9.29726 9.29726 9.29726 9.29726 9.65206 9.65206 9.65206 9.65206 10.3534 10.3534 10.3534 10.3534 9.95613 9.95613 9.95613 9.95613 9.95117 9.95117 9.95117 9.95117 10.2359 10.2359 10.2359 10.2359 10.0597 10.0597 10.0597 10.0597 9.81358 9.81358 9.81358 9.81358 9.64293 9.64293 9.64293 9.64293 9.92573 9.92573 9.92573 9.92573 10.0417 10.0417 10.0417 10.0417 9.94288 9.94288 9.94288 9.94288 9.74798 9.74798 9.74798 9.74798 9.96424 9.96424 9.96424 9.96424 9.9421 9.9421 9.9421 9.9421 9.7799 9.7799 9.7799 9.7799 9.93755 9.93755 9.93755 9.93755 10.1027 10.1027 10.1027 10.1027 10.5147 10.5147 10.5147 10.5147 9.90903 9.90903 9.90903 9.90903 10.0263 10.0263 10.0263 10.0263 1.91672 1.91672 1.91672 1.91672 9.90472 9.90472 9.90472 9.90472 10.0123 10.0123 10.0123 10.0123 10.1303 10.1303 10.1303 10.1303 1.39595 1.39595 1.39595 1.39595 9.908 9.908 9.908 9.908 9.82211 9.82211 9.82211 9.82211 6.01169 6.01169 6.01169 6.01169 10.0828 10.0828 10.0828 10.0828 9.92684 9.92684 9.92684 9.92684 10.1456 10.1456 10.1456 10.1456 9.41637 9.41637 9.41637 9.41637 9.53417 9.53417 9.53417 9.53417 9.83718 9.83718 9.83718 9.83718 2.54814 2.54814 2.54814 2.54814 9.85061 9.85061 9.85061 9.85061 9.42677 9.42677 9.42677 9.42677 10.035 10.035 10.035 10.035 10.1245 10.1245 10.1245 10.1245 1.8569 1.8569 1.8569 1.8569 10.062 10.062 10.062 10.062 9.93623 9.93623 9.93623 9.93623 9.73638 9.73638 9.73638 9.73638 9.8322 9.8322 9.8322 9.8322 15.083 15.083 15.083 15.083 10.4669 10.4669 10.4669 10.4669 10.2199 10.2199 10.2199 10.2199 9.92725 9.92725 9.92725 9.92725 9.89826 9.89826 9.89826 9.89826 10.3423 10.3423 10.3423 10.3423 9.48702 9.48702 9.48702 9.48702 9.90032 9.90032 9.90032 9.90032 10.3821 10.3821 10.3821 10.3821 9.81692 9.81692 9.81692 9.81692 10.1738 10.1738 10.1738 10.1738 9.60882 9.60882 9.60882 9.60882 10.1451 10.1451 10.1451 10.1451 9.93944 9.93944 9.93944 9.93944 9.9349 9.9349 9.9349 9.9349 10.1359 10.1359 10.1359 10.1359 10.1439 10.1439 10.1439 10.1439 9.93267 9.93267 9.93267 9.93267 10.142 10.142 10.142 10.142 9.84528 9.84528 9.84528 9.84528 10.0979 10.0979 10.0979 10.0979 10.025 10.025 10.025 10.025 9.92237 9.92237 9.92237 9.92237 3.22904 3.22904 3.22904 3.22904 10.1038 10.1038 10.1038 10.1038 10.4287 10.4287 10.4287 10.4287 10.0372 10.0372 10.0372 10.0372 9.96557 9.96557 9.96557 9.96557 10.1436 10.1436 10.1436 10.1436 10.1714 10.1714 10.1714 10.1714 10.4729 10.4729 10.4729 10.4729 9.94917 9.94917 9.94917 9.94917 10.0853 10.0853 10.0853 10.0853 10.0606 10.0606 10.0606 10.0606 9.98547 9.98547 9.98547 9.98547 9.81554 9.81554 9.81554 9.81554 10.0925 10.0925 10.0925 10.0925 9.58535 9.58535 9.58535 9.58535 10.0878 10.0878 10.0878 10.0878 9.93381 9.93381 9.93381 9.93381 10.0844 10.0844 10.0844 10.0844 10.0759 10.0759 10.0759 10.0759 10.1047 10.1047 10.1047 10.1047 10.2771 10.2771 10.2771 10.2771 9.9251 9.9251 9.9251 9.9251 10.0549 10.0549 10.0549 10.0549 10.0771 10.0771 10.0771 10.0771 10.0773 10.0773 10.0773 10.0773 9.93082 9.93082 9.93082 9.93082 9.62653 9.62653 9.62653 9.62653 9.40745 9.40745 9.40745 9.40745 9.93085 9.93085 9.93085 9.93085 10.5152 10.5152 10.5152 10.5152 2.3332 2.3332 2.3332 2.3332 10.1088 10.1088 10.1088 10.1088 10.0536 10.0536 10.0536 10.0536 13.3459 13.3459 13.3459 13.3459 10.044 10.044 10.044 10.044 10.0583 10.0583 10.0583 10.0583 10.132 10.132 10.132 10.132 9.95427 9.95427 9.95427 9.95427 9.93989 9.93989 9.93989 9.93989 14.9774 14.9774 14.9774 14.9774 9.88055 9.88055 9.88055 9.88055 9.6697 9.6697 9.6697 9.6697 10.1563 10.1563 10.1563 10.1563 9.93519 9.93519 9.93519 9.93519 11.395 11.395 11.395 11.395 9.9968 9.9968 9.9968 9.9968 9.41523 9.41523 9.41523 9.41523 9.94803 9.94803 9.94803 9.94803 9.9527 9.9527 9.9527 9.9527 9.93752 9.93752 9.93752 9.93752 10.1132 10.1132 10.1132 10.1132 10.1242 10.1242 10.1242 10.1242 9.90631 9.90631 9.90631 9.90631 1.07703 1.07703 1.07703 1.07703 10.4678 10.4678 10.4678 10.4678 10.0695 10.0695 10.0695 10.0695 10.1478 10.1478 10.1478 10.1478 9.94989 9.94989 9.94989 9.94989 9.92944 9.92944 9.92944 9.92944 9.94887 9.94887 9.94887 9.94887 10.1091 10.1091 10.1091 10.1091 10.1351 10.1351 10.1351 10.1351 10.0268 10.0268 10.0268 10.0268 9.94256 9.94256 9.94256 9.94256 9.651 9.651 9.651 9.651 9.99043 9.99043 9.99043 9.99043 10.0786 10.0786 10.0786 10.0786 9.96833 9.96833 9.96833 9.96833 9.63355 9.63355 9.63355 9.63355 10.4646 10.4646 10.4646 10.4646 10.0728 10.0728 10.0728 10.0728 10.1197 10.1197 10.1197 10.1197 10.1475 10.1475 10.1475 10.1475 9.93896 9.93896 9.93896 9.93896 9.95242 9.95242 9.95242 9.95242 10.076 10.076 10.076 10.076 9.95594 9.95594 9.95594 9.95594 10.0134 10.0134 10.0134 10.0134 9.94613 9.94613 9.94613 9.94613 9.50361 9.50361 9.50361 9.50361 10.095 10.095 10.095 10.095 9.98318 9.98318 9.98318 9.98318 10.1616 10.1616 10.1616 10.1616 9.95312 9.95312 9.95312 9.95312 1.5888 1.5888 1.5888 1.5888 10.0615 10.0615 10.0615 10.0615 9.93891 9.93891 9.93891 9.93891 9.94947 9.94947 9.94947 9.94947 15.0821 15.0821 15.0821 15.0821 10.0719 10.0719 10.0719 10.0719 10.1616 10.1616 10.1616 10.1616 1.59009 1.59009 1.59009 1.59009 10.4094 10.4094 10.4094 10.4094 9.95261 9.95261 9.95261 9.95261 9.95132 9.95132 9.95132 9.95132 9.65078 9.65078 9.65078 9.65078 1.83734 1.83734 1.83734 1.83734 10.1944 10.1944 10.1944 10.1944 10.1278 10.1278 10.1278 10.1278 10.1176 10.1176 10.1176 10.1176 9.96107 9.96107 9.96107 9.96107 9.95687 9.95687 9.95687 9.95687 10.0872 10.0872 10.0872 10.0872 10.1216 10.1216 10.1216 10.1216 9.85634 9.85634 9.85634 9.85634 10.1503 10.1503 10.1503 10.1503 10.156 10.156 10.156 10.156 10.0937 10.0937 10.0937 10.0937 10.059 10.059 10.059 10.059 10.1463 10.1463 10.1463 10.1463 10.1281 10.1281 10.1281 10.1281 10.1467 10.1467 10.1467 10.1467 10.1442 10.1442 10.1442 10.1442 9.87026 9.87026 9.87026 9.87026 9.94999 9.94999 9.94999 9.94999 9.94857 9.94857 9.94857 9.94857 10.1326 10.1326 10.1326 10.1326 10.0917 10.0917 10.0917 10.0917 9.94665 9.94665 9.94665 9.94665 9.96251 9.96251 9.96251 9.96251 9.96 9.96 9.96 9.96 9.94721 9.94721 9.94721 9.94721 9.96314 9.96314 9.96314 9.96314 9.95408 9.95408 9.95408 9.95408 5.33571 5.33571 5.33571 5.33571 6.71855 6.71855 6.71855 6.71855 9.75362 9.75362 9.75362 9.75362 9.62767 9.62767 9.62767 9.62767 9.44483 9.44483 9.44483 9.44483 9.20076 9.20076 9.20076 9.20076 9.44093 9.44093 9.44093 9.44093 9.83174 9.83174 9.83174 9.83174 9.9346 9.9346 9.9346 9.9346 8.91939 8.91939 8.91939 8.91939 8.52071 8.52071 8.52071 8.52071 9.42799 9.42799 9.42799 9.42799 9.71143 9.71143 9.71143 9.71143 9.40317 9.40317 9.40317 9.40317 9.70532 9.70532 9.70532 9.70532 8.81284 8.81284 8.81284 8.81284 8.06144 8.06144 8.06144 8.06144 9.61505 9.61505 9.61505 9.61505 9.67573 9.67573 9.67573 9.67573 7.79157 7.79157 7.79157 7.79157 7.14941 7.14941 7.14941 7.14941 8.25207 8.25207 8.25207 8.25207 7.79776 7.79776 7.79776 7.79776 6.07869 6.07869 6.07869 6.07869 10.2567 10.2567 10.2567 10.2567 5.00252 5.00252 5.00252 5.00252 8.55181 8.55181 8.55181 8.55181 9.47629 9.47629 9.47629 9.47629 9.42171 9.42171 9.42171 9.42171 9.66503 9.66503 9.66503 9.66503 11.4966 11.4966 11.4966 11.4966 9.95597 9.95597 9.95597 9.95597 9.81979 9.81979 9.81979 9.81979 9.40014 9.40014 9.40014 9.40014 9.13713 9.13713 9.13713 9.13713 8.65069 8.65069 8.65069 8.65069 9.16094 9.16094 9.16094 9.16094 9.36159 9.36159 9.36159 9.36159 9.6686 9.6686 9.6686 9.6686 9.89878 9.89878 9.89878 9.89878 9.32368 9.32368 9.32368 9.32368 9.39507 9.39507 9.39507 9.39507 9.51562 9.51562 9.51562 9.51562 9.91967 9.91967 9.91967 9.91967 9.84247 9.84247 9.84247 9.84247 9.66492 9.66492 9.66492 9.66492 9.86622 9.86622 9.86622 9.86622 9.91754 9.91754 9.91754 9.91754 9.81516 9.81516 9.81516 9.81516 6.50223 6.50223 6.50223 6.50223 6.42384 6.42384 6.42384 6.42384 7.99198 7.99198 7.99198 7.99198 8.21034 8.21034 8.21034 8.21034 9.34285 9.34285 9.34285 9.34285 9.38886 9.38886 9.38886 9.38886 9.90752 9.90752 9.90752 9.90752 9.7773 9.7773 9.7773 9.7773 9.41451 9.41451 9.41451 9.41451 9.59468 9.59468 9.59468 9.59468 11.2914 11.2914 11.2914 11.2914 9.80652 9.80652 9.80652 9.80652 9.43554 9.43554 9.43554 9.43554 9.39284 9.39284 9.39284 9.39284 8.93039 8.93039 8.93039 8.93039 8.82094 8.82094 8.82094 8.82094 9.0972 9.0972 9.0972 9.0972 9.05466 9.05466 9.05466 9.05466 9.27466 9.27466 9.27466 9.27466 9.6031 9.6031 9.6031 9.6031 9.87274 9.87274 9.87274 9.87274 9.73789 9.73789 9.73789 9.73789 9.72032 9.72032 9.72032 9.72032 9.81695 9.81695 9.81695 9.81695 10.058 10.058 10.058 10.058 10.1835 10.1835 10.1835 10.1835 9.83517 9.83517 9.83517 9.83517 9.91322 9.91322 9.91322 9.91322 11.2327 11.2327 11.2327 11.2327 10.4212 10.4212 10.4212 10.4212 2.61034 2.61034 2.61034 2.61034 4.70688 4.70688 4.70688 4.70688 9.94122 9.94122 9.94122 9.94122 9.84558 9.84558 9.84558 9.84558 10.4785 10.4785 10.4785 10.4785 10.3704 10.3704 10.3704 10.3704 9.85095 9.85095 9.85095 9.85095 9.73046 9.73046 9.73046 9.73046 9.76464 9.76464 9.76464 9.76464 9.85799 9.85799 9.85799 9.85799 -5.94606 -5.94606 -5.94606 -5.94606 -9.62992 -9.62992 -9.62992 -9.62992 -9.38099 -9.38099 -9.38099 -9.38099 -9.25009 -9.25009 -9.25009 -9.25009 -9.12382 -9.12382 -9.12382 -9.12382 -9.76481 -9.76481 -9.76481 -9.76481 -9.97371 -9.97371 -9.97371 -9.97371 -9.73526 -9.73526 -9.73526 -9.73526 -9.19282 -9.19282 -9.19282 -9.19282 -9.58512 -9.58512 -9.58512 -9.58512 -9.37311 -9.37311 -9.37311 -9.37311 -9.45157 -9.45157 -9.45157 -9.45157 -4.24764 -4.24764 -4.24764 -4.24764 -9.40777 -9.40777 -9.40777 -9.40777 -9.27829 -9.27829 -9.27829 -9.27829 -9.45367 -9.45367 -9.45367 -9.45367 -9.65581 -9.65581 -9.65581 -9.65581 -9.44505 -9.44505 -9.44505 -9.44505 -9.81686 -9.81686 -9.81686 -9.81686 -9.65831 -9.65831 -9.65831 -9.65831 -7.77583 -7.77583 -7.77583 -7.77583 -9.40375 -9.40375 -9.40375 -9.40375 -7.62549 -7.62549 -7.62549 -7.62549 -9.41051 -9.41051 -9.41051 -9.41051 -9.38243 -9.38243 -9.38243 -9.38243 -9.89237 -9.89237 -9.89237 -9.89237 -9.07168 -9.07168 -9.07168 -9.07168 -9.12428 -9.12428 -9.12428 -9.12428 -9.64469 -9.64469 -9.64469 -9.64469 -6.36081 -6.36081 -6.36081 -6.36081 -9.00883 -9.00883 -9.00883 -9.00883 -9.83001 -9.83001 -9.83001 -9.83001 -9.38943 -9.38943 -9.38943 -9.38943 -9.58724 -9.58724 -9.58724 -9.58724 -9.72745 -9.72745 -9.72745 -9.72745 -6.73486 -6.73486 -6.73486 -6.73486 -9.36011 -9.36011 -9.36011 -9.36011 -9.28014 -9.28014 -9.28014 -9.28014 -9.75407 -9.75407 -9.75407 -9.75407 -9.04106 -9.04106 -9.04106 -9.04106 -4.95736 -4.95736 -4.95736 -4.95736 -9.14426 -9.14426 -9.14426 -9.14426 -9.46677 -9.46677 -9.46677 -9.46677 -9.43905 -9.43905 -9.43905 -9.43905 -9.32208 -9.32208 -9.32208 -9.32208 -9.28807 -9.28807 -9.28807 -9.28807 -9.35712 -9.35712 -9.35712 -9.35712 -9.34508 -9.34508 -9.34508 -9.34508 -9.65276 -9.65276 -9.65276 -9.65276 -10.0193 -10.0193 -10.0193 -10.0193 -9.78552 -9.78552 -9.78552 -9.78552 -8.67255 -8.67255 -8.67255 -8.67255 -9.62453 -9.62453 -9.62453 -9.62453 -9.89089 -9.89089 -9.89089 -9.89089 -9.64716 -9.64716 -9.64716 -9.64716 -9.41234 -9.41234 -9.41234 -9.41234 -9.60997 -9.60997 -9.60997 -9.60997 -9.6363 -9.6363 -9.6363 -9.6363 -9.63947 -9.63947 -9.63947 -9.63947 -7.51393 -7.51393 -7.51393 -7.51393 -9.55926 -9.55926 -9.55926 -9.55926 -9.71504 -9.71504 -9.71504 -9.71504 -7.02717 -7.02717 -7.02717 -7.02717 -8.73287 -8.73287 -8.73287 -8.73287 -9.36033 -9.36033 -9.36033 -9.36033 -8.35653 -8.35653 -8.35653 -8.35653 -9.71828 -9.71828 -9.71828 -9.71828 -9.61159 -9.61159 -9.61159 -9.61159 -9.87633 -9.87633 -9.87633 -9.87633 -9.30533 -9.30533 -9.30533 -9.30533 -9.45758 -9.45758 -9.45758 -9.45758 -9.18582 -9.18582 -9.18582 -9.18582 -9.51849 -9.51849 -9.51849 -9.51849 -8.48011 -8.48011 -8.48011 -8.48011 -9.3702 -9.3702 -9.3702 -9.3702 -9.26512 -9.26512 -9.26512 -9.26512 -9.44863 -9.44863 -9.44863 -9.44863 -9.32587 -9.32587 -9.32587 -9.32587 -4.99548 -4.99548 -4.99548 -4.99548 -9.80186 -9.80186 -9.80186 -9.80186 -9.75878 -9.75878 -9.75878 -9.75878 -9.58532 -9.58532 -9.58532 -9.58532 -9.5522 -9.5522 -9.5522 -9.5522 -8.94922 -8.94922 -8.94922 -8.94922 -9.68655 -9.68655 -9.68655 -9.68655 -9.50951 -9.50951 -9.50951 -9.50951 -5.51093 -5.51093 -5.51093 -5.51093 -9.48874 -9.48874 -9.48874 -9.48874 -9.3261 -9.3261 -9.3261 -9.3261 -9.17903 -9.17903 -9.17903 -9.17903 -9.57715 -9.57715 -9.57715 -9.57715 -9.65791 -9.65791 -9.65791 -9.65791 -9.55363 -9.55363 -9.55363 -9.55363 -9.39757 -9.39757 -9.39757 -9.39757 -9.56386 -9.56386 -9.56386 -9.56386 -9.61074 -9.61074 -9.61074 -9.61074 -9.13269 -9.13269 -9.13269 -9.13269 -9.32806 -9.32806 -9.32806 -9.32806 -9.6101 -9.6101 -9.6101 -9.6101 -9.37321 -9.37321 -9.37321 -9.37321 -10.4198 -10.4198 -10.4198 -10.4198 -9.65209 -9.65209 -9.65209 -9.65209 -9.29227 -9.29227 -9.29227 -9.29227 -7.70738 -7.70738 -7.70738 -7.70738 -9.11014 -9.11014 -9.11014 -9.11014 -7.26909 -7.26909 -7.26909 -7.26909 -9.46149 -9.46149 -9.46149 -9.46149 -9.74691 -9.74691 -9.74691 -9.74691 -10.7104 -10.7104 -10.7104 -10.7104 -9.32564 -9.32564 -9.32564 -9.32564 -4.77759 -4.77759 -4.77759 -4.77759 -9.36718 -9.36718 -9.36718 -9.36718 -9.90736 -9.90736 -9.90736 -9.90736 -8.19188 -8.19188 -8.19188 -8.19188 -8.88572 -8.88572 -8.88572 -8.88572 -9.4378 -9.4378 -9.4378 -9.4378 -9.97734 -9.97734 -9.97734 -9.97734 -9.48455 -9.48455 -9.48455 -9.48455 -9.7466 -9.7466 -9.7466 -9.7466 -9.41867 -9.41867 -9.41867 -9.41867 -9.4315 -9.4315 -9.4315 -9.4315 -8.99757 -8.99757 -8.99757 -8.99757 -9.48345 -9.48345 -9.48345 -9.48345 -9.45386 -9.45386 -9.45386 -9.45386 -9.6954 -9.6954 -9.6954 -9.6954 -6.9723 -6.9723 -6.9723 -6.9723 -9.6391 -9.6391 -9.6391 -9.6391 -9.54722 -9.54722 -9.54722 -9.54722 -9.8114 -9.8114 -9.8114 -9.8114 -9.37207 -9.37207 -9.37207 -9.37207 -9.47427 -9.47427 -9.47427 -9.47427 -9.43807 -9.43807 -9.43807 -9.43807 -13.2121 -13.2121 -13.2121 -13.2121 -9.47915 -9.47915 -9.47915 -9.47915 -9.79806 -9.79806 -9.79806 -9.79806 -9.7341 -9.7341 -9.7341 -9.7341 -9.83758 -9.83758 -9.83758 -9.83758 -7.35759 -7.35759 -7.35759 -7.35759 -9.85596 -9.85596 -9.85596 -9.85596 -9.99334 -9.99334 -9.99334 -9.99334 -9.65946 -9.65946 -9.65946 -9.65946 -9.86144 -9.86144 -9.86144 -9.86144 -9.73549 -9.73549 -9.73549 -9.73549 -9.70589 -9.70589 -9.70589 -9.70589 -9.52539 -9.52539 -9.52539 -9.52539 -9.62993 -9.62993 -9.62993 -9.62993 -9.13645 -9.13645 -9.13645 -9.13645 -9.82659 -9.82659 -9.82659 -9.82659 -9.75205 -9.75205 -9.75205 -9.75205 -9.40206 -9.40206 -9.40206 -9.40206 -5.15725 -5.15725 -5.15725 -5.15725 -8.81463 -8.81463 -8.81463 -8.81463 -9.4275 -9.4275 -9.4275 -9.4275 -11.1266 -11.1266 -11.1266 -11.1266 -4.40492 -4.40492 -4.40492 -4.40492 -8.36959 -8.36959 -8.36959 -8.36959 -5.26311 -5.26311 -5.26311 -5.26311 -9.41209 -9.41209 -9.41209 -9.41209 -9.10351 -9.10351 -9.10351 -9.10351 -9.00995 -9.00995 -9.00995 -9.00995 -8.72047 -8.72047 -8.72047 -8.72047 -8.27815 -8.27815 -8.27815 -8.27815 -9.44499 -9.44499 -9.44499 -9.44499 -9.67384 -9.67384 -9.67384 -9.67384 -9.36864 -9.36864 -9.36864 -9.36864 -9.68401 -9.68401 -9.68401 -9.68401 -10.0254 -10.0254 -10.0254 -10.0254 -9.44316 -9.44316 -9.44316 -9.44316 -9.36723 -9.36723 -9.36723 -9.36723 -9.36209 -9.36209 -9.36209 -9.36209 -8.55043 -8.55043 -8.55043 -8.55043 -9.43548 -9.43548 -9.43548 -9.43548 -9.87531 -9.87531 -9.87531 -9.87531 -9.90168 -9.90168 -9.90168 -9.90168 -9.45594 -9.45594 -9.45594 -9.45594 -9.623 -9.623 -9.623 -9.623 -9.36771 -9.36771 -9.36771 -9.36771 -9.72265 -9.72265 -9.72265 -9.72265 -9.68321 -9.68321 -9.68321 -9.68321 -8.67814 -8.67814 -8.67814 -8.67814 -9.58794 -9.58794 -9.58794 -9.58794 -9.50472 -9.50472 -9.50472 -9.50472 -9.95657 -9.95657 -9.95657 -9.95657 -9.57318 -9.57318 -9.57318 -9.57318 -8.69152 -8.69152 -8.69152 -8.69152 -9.30637 -9.30637 -9.30637 -9.30637 -9.95178 -9.95178 -9.95178 -9.95178 -9.98883 -9.98883 -9.98883 -9.98883 -11.0744 -11.0744 -11.0744 -11.0744 -10.2019 -10.2019 -10.2019 -10.2019 -3.91728 -3.91728 -3.91728 -3.91728 -9.41515 -9.41515 -9.41515 -9.41515 -7.25959 -7.25959 -7.25959 -7.25959 -9.04636 -9.04636 -9.04636 -9.04636 -4.31273 -4.31273 -4.31273 -4.31273 -9.44197 -9.44197 -9.44197 -9.44197 -3.13787 -3.13787 -3.13787 -3.13787 -9.30683 -9.30683 -9.30683 -9.30683 -9.73575 -9.73575 -9.73575 -9.73575 -9.18464 -9.18464 -9.18464 -9.18464 -9.32848 -9.32848 -9.32848 -9.32848 -9.31681 -9.31681 -9.31681 -9.31681 -10.0501 -10.0501 -10.0501 -10.0501 -8.50972 -8.50972 -8.50972 -8.50972 -9.90663 -9.90663 -9.90663 -9.90663 -8.96165 -8.96165 -8.96165 -8.96165 -9.44965 -9.44965 -9.44965 -9.44965 -9.32257 -9.32257 -9.32257 -9.32257 -1.85067 -1.85067 -1.85067 -1.85067 -10.2327 -10.2327 -10.2327 -10.2327 -9.26689 -9.26689 -9.26689 -9.26689 -9.34651 -9.34651 -9.34651 -9.34651 -9.45942 -9.45942 -9.45942 -9.45942 -9.91293 -9.91293 -9.91293 -9.91293 -9.46794 -9.46794 -9.46794 -9.46794 -9.20798 -9.20798 -9.20798 -9.20798 -9.38051 -9.38051 -9.38051 -9.38051 -9.7152 -9.7152 -9.7152 -9.7152 -8.84502 -8.84502 -8.84502 -8.84502 -9.78928 -9.78928 -9.78928 -9.78928 -9.52121 -9.52121 -9.52121 -9.52121 -9.27405 -9.27405 -9.27405 -9.27405 -9.59819 -9.59819 -9.59819 -9.59819 -9.81522 -9.81522 -9.81522 -9.81522 -7.1514 -7.1514 -7.1514 -7.1514 -9.42381 -9.42381 -9.42381 -9.42381 -8.40147 -8.40147 -8.40147 -8.40147 -9.73719 -9.73719 -9.73719 -9.73719 -9.43799 -9.43799 -9.43799 -9.43799 -9.50343 -9.50343 -9.50343 -9.50343 -9.69487 -9.69487 -9.69487 -9.69487 -9.08091 -9.08091 -9.08091 -9.08091 -9.57316 -9.57316 -9.57316 -9.57316 -9.48304 -9.48304 -9.48304 -9.48304 -9.6266 -9.6266 -9.6266 -9.6266 -9.89214 -9.89214 -9.89214 -9.89214 -9.94382 -9.94382 -9.94382 -9.94382 -9.80872 -9.80872 -9.80872 -9.80872 -6.21118 -6.21118 -6.21118 -6.21118 -10.2654 -10.2654 -10.2654 -10.2654 -7.49836 -7.49836 -7.49836 -7.49836 -9.28446 -9.28446 -9.28446 -9.28446 -9.72983 -9.72983 -9.72983 -9.72983 -9.36566 -9.36566 -9.36566 -9.36566 -8.51535 -8.51535 -8.51535 -8.51535 -9.70282 -9.70282 -9.70282 -9.70282 -8.79323 -8.79323 -8.79323 -8.79323 -9.36278 -9.36278 -9.36278 -9.36278 -9.58721 -9.58721 -9.58721 -9.58721 -9.6004 -9.6004 -9.6004 -9.6004 -8.91091 -8.91091 -8.91091 -8.91091 -9.69433 -9.69433 -9.69433 -9.69433 -9.43023 -9.43023 -9.43023 -9.43023 -9.90583 -9.90583 -9.90583 -9.90583 -9.85757 -9.85757 -9.85757 -9.85757 -9.90767 -9.90767 -9.90767 -9.90767 -9.84462 -9.84462 -9.84462 -9.84462 -9.74382 -9.74382 -9.74382 -9.74382 -9.2772 -9.2772 -9.2772 -9.2772 -9.99917 -9.99917 -9.99917 -9.99917 -2.96639 -2.96639 -2.96639 -2.96639 -5.53097 -5.53097 -5.53097 -5.53097 -10.3403 -10.3403 -10.3403 -10.3403 -9.68535 -9.68535 -9.68535 -9.68535 -8.24926 -8.24926 -8.24926 -8.24926 -9.63505 -9.63505 -9.63505 -9.63505 -10.0747 -10.0747 -10.0747 -10.0747 -9.68245 -9.68245 -9.68245 -9.68245 -9.71302 -9.71302 -9.71302 -9.71302 -9.9407 -9.9407 -9.9407 -9.9407 -7.70299 -7.70299 -7.70299 -7.70299 -9.61053 -9.61053 -9.61053 -9.61053 -9.4692 -9.4692 -9.4692 -9.4692 -9.665 -9.665 -9.665 -9.665 -9.71803 -9.71803 -9.71803 -9.71803 -8.08701 -8.08701 -8.08701 -8.08701 -9.4835 -9.4835 -9.4835 -9.4835 -9.62044 -9.62044 -9.62044 -9.62044 -9.75418 -9.75418 -9.75418 -9.75418 -9.86468 -9.86468 -9.86468 -9.86468 -8.56656 -8.56656 -8.56656 -8.56656 -8.82919 -8.82919 -8.82919 -8.82919 -9.54157 -9.54157 -9.54157 -9.54157 -9.48944 -9.48944 -9.48944 -9.48944 -8.98459 -8.98459 -8.98459 -8.98459 -10.2226 -10.2226 -10.2226 -10.2226 -11.4821 -11.4821 -11.4821 -11.4821 -9.48603 -9.48603 -9.48603 -9.48603 -7.29529 -7.29529 -7.29529 -7.29529 -6.77686 -6.77686 -6.77686 -6.77686 -9.35671 -9.35671 -9.35671 -9.35671 -9.40312 -9.40312 -9.40312 -9.40312 -9.42039 -9.42039 -9.42039 -9.42039 -8.82257 -8.82257 -8.82257 -8.82257 -9.27678 -9.27678 -9.27678 -9.27678 -9.2673 -9.2673 -9.2673 -9.2673 -9.10689 -9.10689 -9.10689 -9.10689 -9.31078 -9.31078 -9.31078 -9.31078 -7.34727 -7.34727 -7.34727 -7.34727 -10.003 -10.003 -10.003 -10.003 -9.40086 -9.40086 -9.40086 -9.40086 -7.71849 -7.71849 -7.71849 -7.71849 -9.83423 -9.83423 -9.83423 -9.83423 -9.4249 -9.4249 -9.4249 -9.4249 -9.51748 -9.51748 -9.51748 -9.51748 -9.58591 -9.58591 -9.58591 -9.58591 -9.76467 -9.76467 -9.76467 -9.76467 -9.6565 -9.6565 -9.6565 -9.6565 -8.67557 -8.67557 -8.67557 -8.67557 -8.87264 -8.87264 -8.87264 -8.87264 -8.69094 -8.69094 -8.69094 -8.69094 -7.28878 -7.28878 -7.28878 -7.28878 -7.16726 -7.16726 -7.16726 -7.16726 -9.44172 -9.44172 -9.44172 -9.44172 -9.8478 -9.8478 -9.8478 -9.8478 -9.73971 -9.73971 -9.73971 -9.73971 -9.95279 -9.95279 -9.95279 -9.95279 -10.0219 -10.0219 -10.0219 -10.0219 -7.75153 -7.75153 -7.75153 -7.75153 -9.42391 -9.42391 -9.42391 -9.42391 -9.45909 -9.45909 -9.45909 -9.45909 -9.73162 -9.73162 -9.73162 -9.73162 -8.20777 -8.20777 -8.20777 -8.20777 -8.44906 -8.44906 -8.44906 -8.44906 -9.68995 -9.68995 -9.68995 -9.68995 -2.76267 -2.76267 -2.76267 -2.76267 -9.55 -9.55 -9.55 -9.55 -9.49228 -9.49228 -9.49228 -9.49228 -9.90331 -9.90331 -9.90331 -9.90331 -9.52804 -9.52804 -9.52804 -9.52804 -5.49096 -5.49096 -5.49096 -5.49096 -10.7032 -10.7032 -10.7032 -10.7032 -9.35789 -9.35789 -9.35789 -9.35789 -9.80949 -9.80949 -9.80949 -9.80949 -9.53223 -9.53223 -9.53223 -9.53223 -9.67402 -9.67402 -9.67402 -9.67402 -7.75927 -7.75927 -7.75927 -7.75927 -9.71875 -9.71875 -9.71875 -9.71875 -9.59132 -9.59132 -9.59132 -9.59132 -8.60529 -8.60529 -8.60529 -8.60529 -3.68344 -3.68344 -3.68344 -3.68344 -7.52465 -7.52465 -7.52465 -7.52465 -9.34253 -9.34253 -9.34253 -9.34253 -10.7626 -10.7626 -10.7626 -10.7626 -9.52742 -9.52742 -9.52742 -9.52742 -9.40218 -9.40218 -9.40218 -9.40218 -9.44875 -9.44875 -9.44875 -9.44875 -7.9098 -7.9098 -7.9098 -7.9098 -9.44549 -9.44549 -9.44549 -9.44549 -9.3748 -9.3748 -9.3748 -9.3748 -11.2174 -11.2174 -11.2174 -11.2174 -9.52498 -9.52498 -9.52498 -9.52498 -5.30382 -5.30382 -5.30382 -5.30382 -5.57732 -5.57732 -5.57732 -5.57732 -9.62185 -9.62185 -9.62185 -9.62185 -9.53073 -9.53073 -9.53073 -9.53073 -7.92721 -7.92721 -7.92721 -7.92721 -9.40346 -9.40346 -9.40346 -9.40346 -9.71789 -9.71789 -9.71789 -9.71789 -8.87377 -8.87377 -8.87377 -8.87377 -9.31876 -9.31876 -9.31876 -9.31876 -9.2002 -9.2002 -9.2002 -9.2002 -9.7138 -9.7138 -9.7138 -9.7138 -9.54553 -9.54553 -9.54553 -9.54553 -8.32923 -8.32923 -8.32923 -8.32923 -9.66318 -9.66318 -9.66318 -9.66318 -9.60928 -9.60928 -9.60928 -9.60928 -8.95198 -8.95198 -8.95198 -8.95198 -9.32636 -9.32636 -9.32636 -9.32636 -8.87265 -8.87265 -8.87265 -8.87265 -10.0748 -10.0748 -10.0748 -10.0748 -9.59804 -9.59804 -9.59804 -9.59804 -7.26905 -7.26905 -7.26905 -7.26905 -9.76965 -9.76965 -9.76965 -9.76965 -7.44986 -7.44986 -7.44986 -7.44986 -9.27735 -9.27735 -9.27735 -9.27735 -9.4576 -9.4576 -9.4576 -9.4576 -9.70274 -9.70274 -9.70274 -9.70274 -8.04296 -8.04296 -8.04296 -8.04296 -9.50724 -9.50724 -9.50724 -9.50724 -6.55839 -6.55839 -6.55839 -6.55839 -9.71612 -9.71612 -9.71612 -9.71612 -10.408 -10.408 -10.408 -10.408 -9.60377 -9.60377 -9.60377 -9.60377 -8.28931 -8.28931 -8.28931 -8.28931 -9.60754 -9.60754 -9.60754 -9.60754 -9.75914 -9.75914 -9.75914 -9.75914 -6.87746 -6.87746 -6.87746 -6.87746 -9.41163 -9.41163 -9.41163 -9.41163 -9.42758 -9.42758 -9.42758 -9.42758 -8.00794 -8.00794 -8.00794 -8.00794 -9.59611 -9.59611 -9.59611 -9.59611 -8.25297 -8.25297 -8.25297 -8.25297 -9.84571 -9.84571 -9.84571 -9.84571 -9.56052 -9.56052 -9.56052 -9.56052 -9.2685 -9.2685 -9.2685 -9.2685 -9.49688 -9.49688 -9.49688 -9.49688 -4.3311 -4.3311 -4.3311 -4.3311 -9.54779 -9.54779 -9.54779 -9.54779 -10.1673 -10.1673 -10.1673 -10.1673 -9.73246 -9.73246 -9.73246 -9.73246 -8.82275 -8.82275 -8.82275 -8.82275 -9.42176 -9.42176 -9.42176 -9.42176 -9.70349 -9.70349 -9.70349 -9.70349 -9.65279 -9.65279 -9.65279 -9.65279 -9.72479 -9.72479 -9.72479 -9.72479 -9.03411 -9.03411 -9.03411 -9.03411 -9.35234 -9.35234 -9.35234 -9.35234 -9.8302 -9.8302 -9.8302 -9.8302 -9.64357 -9.64357 -9.64357 -9.64357 -7.99472 -7.99472 -7.99472 -7.99472 -9.98282 -9.98282 -9.98282 -9.98282 -9.40918 -9.40918 -9.40918 -9.40918 -3.99465 -3.99465 -3.99465 -3.99465 -9.99 -9.99 -9.99 -9.99 -9.92918 -9.92918 -9.92918 -9.92918 -9.53944 -9.53944 -9.53944 -9.53944 -9.44928 -9.44928 -9.44928 -9.44928 -9.52151 -9.52151 -9.52151 -9.52151 -9.45382 -9.45382 -9.45382 -9.45382 -9.2936 -9.2936 -9.2936 -9.2936 -9.60081 -9.60081 -9.60081 -9.60081 -3.66907 -3.66907 -3.66907 -3.66907 -9.25165 -9.25165 -9.25165 -9.25165 -9.27523 -9.27523 -9.27523 -9.27523 -3.19289 -3.19289 -3.19289 -3.19289 -9.83399 -9.83399 -9.83399 -9.83399 -9.4609 -9.4609 -9.4609 -9.4609 -9.5898 -9.5898 -9.5898 -9.5898 -9.45005 -9.45005 -9.45005 -9.45005 -9.37083 -9.37083 -9.37083 -9.37083 -9.43631 -9.43631 -9.43631 -9.43631 -9.3212 -9.3212 -9.3212 -9.3212 -9.51459 -9.51459 -9.51459 -9.51459 -11.4472 -11.4472 -11.4472 -11.4472 -9.75072 -9.75072 -9.75072 -9.75072 -9.13128 -9.13128 -9.13128 -9.13128 -6.42953 -6.42953 -6.42953 -6.42953 -9.79893 -9.79893 -9.79893 -9.79893 -9.51114 -9.51114 -9.51114 -9.51114 -9.96776 -9.96776 -9.96776 -9.96776 -9.61511 -9.61511 -9.61511 -9.61511 -9.39768 -9.39768 -9.39768 -9.39768 -4.64889 -4.64889 -4.64889 -4.64889 -9.69242 -9.69242 -9.69242 -9.69242 -9.79124 -9.79124 -9.79124 -9.79124 -9.35779 -9.35779 -9.35779 -9.35779 -8.52198 -8.52198 -8.52198 -8.52198 -9.88697 -9.88697 -9.88697 -9.88697 -9.50994 -9.50994 -9.50994 -9.50994 -10.2014 -10.2014 -10.2014 -10.2014 -9.63059 -9.63059 -9.63059 -9.63059 -9.81236 -9.81236 -9.81236 -9.81236 -5.27302 -5.27302 -5.27302 -5.27302 -9.47114 -9.47114 -9.47114 -9.47114 -8.99188 -8.99188 -8.99188 -8.99188 -9.98229 -9.98229 -9.98229 -9.98229 -9.40693 -9.40693 -9.40693 -9.40693 -8.64874 -8.64874 -8.64874 -8.64874 -9.26812 -9.26812 -9.26812 -9.26812 -9.68721 -9.68721 -9.68721 -9.68721 -9.60644 -9.60644 -9.60644 -9.60644 -9.55983 -9.55983 -9.55983 -9.55983 -8.63906 -8.63906 -8.63906 -8.63906 -9.1766 -9.1766 -9.1766 -9.1766 -9.5024 -9.5024 -9.5024 -9.5024 -9.43399 -9.43399 -9.43399 -9.43399 -9.89332 -9.89332 -9.89332 -9.89332 -8.17305 -8.17305 -8.17305 -8.17305 -9.82526 -9.82526 -9.82526 -9.82526 -9.47768 -9.47768 -9.47768 -9.47768 -7.05031 -7.05031 -7.05031 -7.05031 -8.95634 -8.95634 -8.95634 -8.95634 -9.42265 -9.42265 -9.42265 -9.42265 -9.51413 -9.51413 -9.51413 -9.51413 -7.92338 -7.92338 -7.92338 -7.92338 -10.0452 -10.0452 -10.0452 -10.0452 -9.8603 -9.8603 -9.8603 -9.8603 -9.58858 -9.58858 -9.58858 -9.58858 -9.48897 -9.48897 -9.48897 -9.48897 -9.44865 -9.44865 -9.44865 -9.44865 -9.7424 -9.7424 -9.7424 -9.7424 -1.7604 -1.7604 -1.7604 -1.7604 -9.59458 -9.59458 -9.59458 -9.59458 -9.5031 -9.5031 -9.5031 -9.5031 -9.72355 -9.72355 -9.72355 -9.72355 -3.01629 -3.01629 -3.01629 -3.01629 -9.82503 -9.82503 -9.82503 -9.82503 -9.98161 -9.98161 -9.98161 -9.98161 -9.84802 -9.84802 -9.84802 -9.84802 -10.1769 -10.1769 -10.1769 -10.1769 -9.65814 -9.65814 -9.65814 -9.65814 -9.64035 -9.64035 -9.64035 -9.64035 -5.80165 -5.80165 -5.80165 -5.80165 -8.79986 -8.79986 -8.79986 -8.79986 -10.5748 -10.5748 -10.5748 -10.5748 -9.5746 -9.5746 -9.5746 -9.5746 -9.37116 -9.37116 -9.37116 -9.37116 -9.7074 -9.7074 -9.7074 -9.7074 -9.94718 -9.94718 -9.94718 -9.94718 -9.08573 -9.08573 -9.08573 -9.08573 -9.63804 -9.63804 -9.63804 -9.63804 -9.74677 -9.74677 -9.74677 -9.74677 -9.4442 -9.4442 -9.4442 -9.4442 -9.80234 -9.80234 -9.80234 -9.80234 -9.65049 -9.65049 -9.65049 -9.65049 -9.85556 -9.85556 -9.85556 -9.85556 -8.05957 -8.05957 -8.05957 -8.05957 -9.52992 -9.52992 -9.52992 -9.52992 -1.71863 -1.71863 -1.71863 -1.71863 -9.17925 -9.17925 -9.17925 -9.17925 -9.62353 -9.62353 -9.62353 -9.62353 -9.75646 -9.75646 -9.75646 -9.75646 -9.79948 -9.79948 -9.79948 -9.79948 -9.53106 -9.53106 -9.53106 -9.53106 -9.51022 -9.51022 -9.51022 -9.51022 -9.62053 -9.62053 -9.62053 -9.62053 -9.2056 -9.2056 -9.2056 -9.2056 -9.81693 -9.81693 -9.81693 -9.81693 -9.60559 -9.60559 -9.60559 -9.60559 -9.11726 -9.11726 -9.11726 -9.11726 -11.0433 -11.0433 -11.0433 -11.0433 -6.55323 -6.55323 -6.55323 -6.55323 -9.72761 -9.72761 -9.72761 -9.72761 -5.911 -5.911 -5.911 -5.911 -9.89347 -9.89347 -9.89347 -9.89347 -9.66696 -9.66696 -9.66696 -9.66696 -9.65202 -9.65202 -9.65202 -9.65202 -9.7274 -9.7274 -9.7274 -9.7274 -9.4645 -9.4645 -9.4645 -9.4645 -7.60294 -7.60294 -7.60294 -7.60294 -9.62492 -9.62492 -9.62492 -9.62492 -11.2835 -11.2835 -11.2835 -11.2835 -9.41771 -9.41771 -9.41771 -9.41771 -9.89036 -9.89036 -9.89036 -9.89036 -8.86197 -8.86197 -8.86197 -8.86197 -10.3372 -10.3372 -10.3372 -10.3372 -9.64469 -9.64469 -9.64469 -9.64469 -9.72078 -9.72078 -9.72078 -9.72078 -9.43522 -9.43522 -9.43522 -9.43522 -7.61109 -7.61109 -7.61109 -7.61109 -9.60436 -9.60436 -9.60436 -9.60436 -7.10293 -7.10293 -7.10293 -7.10293 -9.9812 -9.9812 -9.9812 -9.9812 -9.89547 -9.89547 -9.89547 -9.89547 -9.49851 -9.49851 -9.49851 -9.49851 -9.27502 -9.27502 -9.27502 -9.27502 -9.63848 -9.63848 -9.63848 -9.63848 -9.57578 -9.57578 -9.57578 -9.57578 -9.79985 -9.79985 -9.79985 -9.79985 -9.68919 -9.68919 -9.68919 -9.68919 -9.18606 -9.18606 -9.18606 -9.18606 -9.29262 -9.29262 -9.29262 -9.29262 -4.03046 -4.03046 -4.03046 -4.03046 -9.58266 -9.58266 -9.58266 -9.58266 -9.24572 -9.24572 -9.24572 -9.24572 -8.90693 -8.90693 -8.90693 -8.90693 -8.91955 -8.91955 -8.91955 -8.91955 -9.81777 -9.81777 -9.81777 -9.81777 -9.83269 -9.83269 -9.83269 -9.83269 -10.1759 -10.1759 -10.1759 -10.1759 -9.97861 -9.97861 -9.97861 -9.97861 -9.52105 -9.52105 -9.52105 -9.52105 -9.37996 -9.37996 -9.37996 -9.37996 -9.8611 -9.8611 -9.8611 -9.8611 -8.99034 -8.99034 -8.99034 -8.99034 -9.88609 -9.88609 -9.88609 -9.88609 -9.4716 -9.4716 -9.4716 -9.4716 -10.1177 -10.1177 -10.1177 -10.1177 -9.6304 -9.6304 -9.6304 -9.6304 -9.54441 -9.54441 -9.54441 -9.54441 -9.62013 -9.62013 -9.62013 -9.62013 -9.33537 -9.33537 -9.33537 -9.33537 -9.55397 -9.55397 -9.55397 -9.55397 -9.65921 -9.65921 -9.65921 -9.65921 -9.92678 -9.92678 -9.92678 -9.92678 -10.0398 -10.0398 -10.0398 -10.0398 -9.64296 -9.64296 -9.64296 -9.64296 -9.41578 -9.41578 -9.41578 -9.41578 -9.536 -9.536 -9.536 -9.536 -10.2236 -10.2236 -10.2236 -10.2236 -9.35253 -9.35253 -9.35253 -9.35253 -9.88509 -9.88509 -9.88509 -9.88509 -9.49224 -9.49224 -9.49224 -9.49224 -11.6548 -11.6548 -11.6548 -11.6548 -9.75374 -9.75374 -9.75374 -9.75374 -9.55309 -9.55309 -9.55309 -9.55309 -13.871 -13.871 -13.871 -13.871 -9.01213 -9.01213 -9.01213 -9.01213 -9.71244 -9.71244 -9.71244 -9.71244 -9.01802 -9.01802 -9.01802 -9.01802 -9.4329 -9.4329 -9.4329 -9.4329 -9.74218 -9.74218 -9.74218 -9.74218 -7.41932 -7.41932 -7.41932 -7.41932 -9.98034 -9.98034 -9.98034 -9.98034 -9.66432 -9.66432 -9.66432 -9.66432 -9.38899 -9.38899 -9.38899 -9.38899 -9.14326 -9.14326 -9.14326 -9.14326 -8.93781 -8.93781 -8.93781 -8.93781 -9.30967 -9.30967 -9.30967 -9.30967 -9.57491 -9.57491 -9.57491 -9.57491 -10.0562 -10.0562 -10.0562 -10.0562 -9.71568 -9.71568 -9.71568 -9.71568 -10.0232 -10.0232 -10.0232 -10.0232 -9.86481 -9.86481 -9.86481 -9.86481 -9.63593 -9.63593 -9.63593 -9.63593 -9.60786 -9.60786 -9.60786 -9.60786 -9.80576 -9.80576 -9.80576 -9.80576 -9.47895 -9.47895 -9.47895 -9.47895 -9.74543 -9.74543 -9.74543 -9.74543 -11.0128 -11.0128 -11.0128 -11.0128 -11.408 -11.408 -11.408 -11.408 -9.16638 -9.16638 -9.16638 -9.16638 -4.24112 -4.24112 -4.24112 -4.24112 -13.1861 -13.1861 -13.1861 -13.1861 -9.93584 -9.93584 -9.93584 -9.93584 -9.81517 -9.81517 -9.81517 -9.81517 -10.0626 -10.0626 -10.0626 -10.0626 -9.32342 -9.32342 -9.32342 -9.32342 -9.3944 -9.3944 -9.3944 -9.3944 -8.56873 -8.56873 -8.56873 -8.56873 -10.1103 -10.1103 -10.1103 -10.1103 -9.53905 -9.53905 -9.53905 -9.53905 -9.36235 -9.36235 -9.36235 -9.36235 -9.70133 -9.70133 -9.70133 -9.70133 -9.25162 -9.25162 -9.25162 -9.25162 -9.47752 -9.47752 -9.47752 -9.47752 -9.78532 -9.78532 -9.78532 -9.78532 -10.1296 -10.1296 -10.1296 -10.1296 -9.71094 -9.71094 -9.71094 -9.71094 -9.2854 -9.2854 -9.2854 -9.2854 -9.54421 -9.54421 -9.54421 -9.54421 -9.26057 -9.26057 -9.26057 -9.26057 -8.41124 -8.41124 -8.41124 -8.41124 -10.1436 -10.1436 -10.1436 -10.1436 -9.86317 -9.86317 -9.86317 -9.86317 -9.45368 -9.45368 -9.45368 -9.45368 -9.60287 -9.60287 -9.60287 -9.60287 -10.26 -10.26 -10.26 -10.26 -9.53475 -9.53475 -9.53475 -9.53475 -9.85866 -9.85866 -9.85866 -9.85866 -9.98408 -9.98408 -9.98408 -9.98408 -10.2054 -10.2054 -10.2054 -10.2054 -9.73688 -9.73688 -9.73688 -9.73688 -9.06526 -9.06526 -9.06526 -9.06526 -12.1683 -12.1683 -12.1683 -12.1683 -9.44926 -9.44926 -9.44926 -9.44926 -9.5357 -9.5357 -9.5357 -9.5357 -9.42362 -9.42362 -9.42362 -9.42362 -9.87999 -9.87999 -9.87999 -9.87999 -8.54247 -8.54247 -8.54247 -8.54247 -9.51242 -9.51242 -9.51242 -9.51242 -9.51772 -9.51772 -9.51772 -9.51772 -9.50187 -9.50187 -9.50187 -9.50187 -9.39197 -9.39197 -9.39197 -9.39197 -9.48825 -9.48825 -9.48825 -9.48825 -9.76072 -9.76072 -9.76072 -9.76072 -10.0529 -10.0529 -10.0529 -10.0529 -9.77674 -9.77674 -9.77674 -9.77674 -9.51598 -9.51598 -9.51598 -9.51598 -10.0973 -10.0973 -10.0973 -10.0973 -10.1122 -10.1122 -10.1122 -10.1122 -9.48175 -9.48175 -9.48175 -9.48175 -9.49845 -9.49845 -9.49845 -9.49845 -9.66245 -9.66245 -9.66245 -9.66245 -9.58753 -9.58753 -9.58753 -9.58753 -10.0942 -10.0942 -10.0942 -10.0942 -9.3642 -9.3642 -9.3642 -9.3642 -11.4318 -11.4318 -11.4318 -11.4318 -9.4642 -9.4642 -9.4642 -9.4642 -5.27652 -5.27652 -5.27652 -5.27652 -11.6355 -11.6355 -11.6355 -11.6355 -12.8593 -12.8593 -12.8593 -12.8593 -9.41453 -9.41453 -9.41453 -9.41453 -9.79181 -9.79181 -9.79181 -9.79181 -8.93222 -8.93222 -8.93222 -8.93222 -9.44573 -9.44573 -9.44573 -9.44573 -9.32114 -9.32114 -9.32114 -9.32114 -9.45525 -9.45525 -9.45525 -9.45525 -6.36592 -6.36592 -6.36592 -6.36592 -8.77784 -8.77784 -8.77784 -8.77784 -9.3998 -9.3998 -9.3998 -9.3998 -9.55163 -9.55163 -9.55163 -9.55163 -9.43886 -9.43886 -9.43886 -9.43886 -9.89894 -9.89894 -9.89894 -9.89894 -3.43488 -3.43488 -3.43488 -3.43488 -8.99321 -8.99321 -8.99321 -8.99321 -9.83182 -9.83182 -9.83182 -9.83182 -8.65789 -8.65789 -8.65789 -8.65789 -9.61878 -9.61878 -9.61878 -9.61878 -10.4817 -10.4817 -10.4817 -10.4817 -9.5082 -9.5082 -9.5082 -9.5082 -1.86583 -1.86583 -1.86583 -1.86583 -9.42662 -9.42662 -9.42662 -9.42662 -12.9553 -12.9553 -12.9553 -12.9553 -9.36463 -9.36463 -9.36463 -9.36463 -9.7426 -9.7426 -9.7426 -9.7426 -10.311 -10.311 -10.311 -10.311 -6.74386 -6.74386 -6.74386 -6.74386 -10.0676 -10.0676 -10.0676 -10.0676 -9.32643 -9.32643 -9.32643 -9.32643 -9.96648 -9.96648 -9.96648 -9.96648 -9.43031 -9.43031 -9.43031 -9.43031 -9.72974 -9.72974 -9.72974 -9.72974 -9.48052 -9.48052 -9.48052 -9.48052 -9.51952 -9.51952 -9.51952 -9.51952 -8.06148 -8.06148 -8.06148 -8.06148 -9.42453 -9.42453 -9.42453 -9.42453 -9.45993 -9.45993 -9.45993 -9.45993 -9.64068 -9.64068 -9.64068 -9.64068 -8.69543 -8.69543 -8.69543 -8.69543 -9.8989 -9.8989 -9.8989 -9.8989 -8.08341 -8.08341 -8.08341 -8.08341 -9.73287 -9.73287 -9.73287 -9.73287 -8.9649 -8.9649 -8.9649 -8.9649 -7.42617 -7.42617 -7.42617 -7.42617 -9.42846 -9.42846 -9.42846 -9.42846 -9.87651 -9.87651 -9.87651 -9.87651 -9.66896 -9.66896 -9.66896 -9.66896 -9.46805 -9.46805 -9.46805 -9.46805 -9.41149 -9.41149 -9.41149 -9.41149 -9.46175 -9.46175 -9.46175 -9.46175 -9.64744 -9.64744 -9.64744 -9.64744 -9.5296 -9.5296 -9.5296 -9.5296 -9.36127 -9.36127 -9.36127 -9.36127 -9.43789 -9.43789 -9.43789 -9.43789 -9.78906 -9.78906 -9.78906 -9.78906 -9.87174 -9.87174 -9.87174 -9.87174 -9.74568 -9.74568 -9.74568 -9.74568 -8.77161 -8.77161 -8.77161 -8.77161 -9.58629 -9.58629 -9.58629 -9.58629 -9.50868 -9.50868 -9.50868 -9.50868 -6.69484 -6.69484 -6.69484 -6.69484 -9.77651 -9.77651 -9.77651 -9.77651 -9.47604 -9.47604 -9.47604 -9.47604 -10.1003 -10.1003 -10.1003 -10.1003 -1.83481 -1.83481 -1.83481 -1.83481 -10.4705 -10.4705 -10.4705 -10.4705 -9.85225 -9.85225 -9.85225 -9.85225 -8.85025 -8.85025 -8.85025 -8.85025 -2.54131 -2.54131 -2.54131 -2.54131 -9.49643 -9.49643 -9.49643 -9.49643 -9.44801 -9.44801 -9.44801 -9.44801 -9.39344 -9.39344 -9.39344 -9.39344 -4.32359 -4.32359 -4.32359 -4.32359 -9.81497 -9.81497 -9.81497 -9.81497 -6.0939 -6.0939 -6.0939 -6.0939 -13.4564 -13.4564 -13.4564 -13.4564 -9.54232 -9.54232 -9.54232 -9.54232 -9.04055 -9.04055 -9.04055 -9.04055 -1.29457 -1.29457 -1.29457 -1.29457 -9.46691 -9.46691 -9.46691 -9.46691 -7.66672 -7.66672 -7.66672 -7.66672 -9.66137 -9.66137 -9.66137 -9.66137 -9.27801 -9.27801 -9.27801 -9.27801 -9.34001 -9.34001 -9.34001 -9.34001 -9.59628 -9.59628 -9.59628 -9.59628 -9.94689 -9.94689 -9.94689 -9.94689 -9.42256 -9.42256 -9.42256 -9.42256 -9.69942 -9.69942 -9.69942 -9.69942 -9.86078 -9.86078 -9.86078 -9.86078 -6.33117 -6.33117 -6.33117 -6.33117 -8.90602 -8.90602 -8.90602 -8.90602 -9.18691 -9.18691 -9.18691 -9.18691 -9.66833 -9.66833 -9.66833 -9.66833 -9.59694 -9.59694 -9.59694 -9.59694 -9.42049 -9.42049 -9.42049 -9.42049 -9.55793 -9.55793 -9.55793 -9.55793 -9.47747 -9.47747 -9.47747 -9.47747 -9.40423 -9.40423 -9.40423 -9.40423 -8.40746 -8.40746 -8.40746 -8.40746 -9.82296 -9.82296 -9.82296 -9.82296 -9.38287 -9.38287 -9.38287 -9.38287 -9.44767 -9.44767 -9.44767 -9.44767 -9.38714 -9.38714 -9.38714 -9.38714 -7.22773 -7.22773 -7.22773 -7.22773 -6.62089 -6.62089 -6.62089 -6.62089 -9.59007 -9.59007 -9.59007 -9.59007 -7.54124 -7.54124 -7.54124 -7.54124 -9.50552 -9.50552 -9.50552 -9.50552 -9.50402 -9.50402 -9.50402 -9.50402 -9.34307 -9.34307 -9.34307 -9.34307 -4.57703 -4.57703 -4.57703 -4.57703 -9.48834 -9.48834 -9.48834 -9.48834 -10.2428 -10.2428 -10.2428 -10.2428 -7.07979 -7.07979 -7.07979 -7.07979 -7.96268 -7.96268 -7.96268 -7.96268 -9.00642 -9.00642 -9.00642 -9.00642 -10.5402 -10.5402 -10.5402 -10.5402 -9.72917 -9.72917 -9.72917 -9.72917 -9.28495 -9.28495 -9.28495 -9.28495 -9.94509 -9.94509 -9.94509 -9.94509 -9.52994 -9.52994 -9.52994 -9.52994 -9.47245 -9.47245 -9.47245 -9.47245 -9.72522 -9.72522 -9.72522 -9.72522 -7.56584 -7.56584 -7.56584 -7.56584 -9.40435 -9.40435 -9.40435 -9.40435 -9.89302 -9.89302 -9.89302 -9.89302 -11.2891 -11.2891 -11.2891 -11.2891 -9.95731 -9.95731 -9.95731 -9.95731 -9.22243 -9.22243 -9.22243 -9.22243 -9.43371 -9.43371 -9.43371 -9.43371 -8.79411 -8.79411 -8.79411 -8.79411 -9.77602 -9.77602 -9.77602 -9.77602 -9.90057 -9.90057 -9.90057 -9.90057 -9.48954 -9.48954 -9.48954 -9.48954 -10.4074 -10.4074 -10.4074 -10.4074 -9.15869 -9.15869 -9.15869 -9.15869 -2.8147 -2.8147 -2.8147 -2.8147 -9.4642 -9.4642 -9.4642 -9.4642 -9.76482 -9.76482 -9.76482 -9.76482 -2.85158 -2.85158 -2.85158 -2.85158 -9.34654 -9.34654 -9.34654 -9.34654 -9.58372 -9.58372 -9.58372 -9.58372 -9.63864 -9.63864 -9.63864 -9.63864 -9.50273 -9.50273 -9.50273 -9.50273 -9.61778 -9.61778 -9.61778 -9.61778 -9.83405 -9.83405 -9.83405 -9.83405 -9.27149 -9.27149 -9.27149 -9.27149 -6.80064 -6.80064 -6.80064 -6.80064 -9.12781 -9.12781 -9.12781 -9.12781 -9.27084 -9.27084 -9.27084 -9.27084 -8.45968 -8.45968 -8.45968 -8.45968 -9.37148 -9.37148 -9.37148 -9.37148 -9.60565 -9.60565 -9.60565 -9.60565 -9.543 -9.543 -9.543 -9.543 -9.04607 -9.04607 -9.04607 -9.04607 -9.26422 -9.26422 -9.26422 -9.26422 -8.23397 -8.23397 -8.23397 -8.23397 -9.23092 -9.23092 -9.23092 -9.23092 -10.2204 -10.2204 -10.2204 -10.2204 -5.41173 -5.41173 -5.41173 -5.41173 -9.91646 -9.91646 -9.91646 -9.91646 -8.78724 -8.78724 -8.78724 -8.78724 -9.43899 -9.43899 -9.43899 -9.43899 -9.50163 -9.50163 -9.50163 -9.50163 -9.6295 -9.6295 -9.6295 -9.6295 -8.67626 -8.67626 -8.67626 -8.67626 -8.56077 -8.56077 -8.56077 -8.56077 -11.8687 -11.8687 -11.8687 -11.8687 -9.71988 -9.71988 -9.71988 -9.71988 -9.20775 -9.20775 -9.20775 -9.20775 -9.45472 -9.45472 -9.45472 -9.45472 -2.18842 -2.18842 -2.18842 -2.18842 -4.76217 -4.76217 -4.76217 -4.76217 -9.51267 -9.51267 -9.51267 -9.51267 -9.59427 -9.59427 -9.59427 -9.59427 -9.601 -9.601 -9.601 -9.601 -11.8288 -11.8288 -11.8288 -11.8288 -7.28245 -7.28245 -7.28245 -7.28245 -9.77471 -9.77471 -9.77471 -9.77471 -9.84017 -9.84017 -9.84017 -9.84017 -9.52132 -9.52132 -9.52132 -9.52132 -9.38424 -9.38424 -9.38424 -9.38424 -2.87733 -2.87733 -2.87733 -2.87733 -9.77702 -9.77702 -9.77702 -9.77702 -8.89169 -8.89169 -8.89169 -8.89169 -9.54959 -9.54959 -9.54959 -9.54959 -9.49785 -9.49785 -9.49785 -9.49785 -9.75496 -9.75496 -9.75496 -9.75496 -9.88776 -9.88776 -9.88776 -9.88776 -9.00377 -9.00377 -9.00377 -9.00377 -9.74554 -9.74554 -9.74554 -9.74554 -9.91341 -9.91341 -9.91341 -9.91341 -9.70551 -9.70551 -9.70551 -9.70551 -9.36662 -9.36662 -9.36662 -9.36662 -9.98967 -9.98967 -9.98967 -9.98967 -9.84369 -9.84369 -9.84369 -9.84369 -9.28091 -9.28091 -9.28091 -9.28091 -9.95158 -9.95158 -9.95158 -9.95158 -9.79039 -9.79039 -9.79039 -9.79039 -9.4024 -9.4024 -9.4024 -9.4024 -4.04408 -4.04408 -4.04408 -4.04408 -2.59709 -2.59709 -2.59709 -2.59709 -9.84885 -9.84885 -9.84885 -9.84885 -10.3474 -10.3474 -10.3474 -10.3474 -9.55518 -9.55518 -9.55518 -9.55518 -3.55163 -3.55163 -3.55163 -3.55163 -10.4269 -10.4269 -10.4269 -10.4269 -9.15329 -9.15329 -9.15329 -9.15329 -9.62858 -9.62858 -9.62858 -9.62858 -9.69075 -9.69075 -9.69075 -9.69075 -10.0103 -10.0103 -10.0103 -10.0103 -9.35143 -9.35143 -9.35143 -9.35143 -9.36765 -9.36765 -9.36765 -9.36765 -4.91988 -4.91988 -4.91988 -4.91988 -9.70945 -9.70945 -9.70945 -9.70945 -8.95644 -8.95644 -8.95644 -8.95644 -9.46499 -9.46499 -9.46499 -9.46499 -8.22098 -8.22098 -8.22098 -8.22098 -9.73498 -9.73498 -9.73498 -9.73498 -9.40802 -9.40802 -9.40802 -9.40802 -9.65044 -9.65044 -9.65044 -9.65044 -9.30587 -9.30587 -9.30587 -9.30587 -9.55638 -9.55638 -9.55638 -9.55638 -9.79101 -9.79101 -9.79101 -9.79101 -9.77214 -9.77214 -9.77214 -9.77214 -3.1719 -3.1719 -3.1719 -3.1719 -9.58828 -9.58828 -9.58828 -9.58828 -9.68508 -9.68508 -9.68508 -9.68508 -10.0454 -10.0454 -10.0454 -10.0454 -9.79643 -9.79643 -9.79643 -9.79643 -9.41528 -9.41528 -9.41528 -9.41528 -9.76988 -9.76988 -9.76988 -9.76988 -9.45292 -9.45292 -9.45292 -9.45292 -9.51961 -9.51961 -9.51961 -9.51961 -9.38796 -9.38796 -9.38796 -9.38796 -9.57769 -9.57769 -9.57769 -9.57769 -9.63891 -9.63891 -9.63891 -9.63891 -9.6768 -9.6768 -9.6768 -9.6768 -9.09943 -9.09943 -9.09943 -9.09943 -2.70295 -2.70295 -2.70295 -2.70295 -9.4087 -9.4087 -9.4087 -9.4087 -9.76605 -9.76605 -9.76605 -9.76605 -9.44584 -9.44584 -9.44584 -9.44584 -10.0216 -10.0216 -10.0216 -10.0216 -9.28933 -9.28933 -9.28933 -9.28933 -9.71951 -9.71951 -9.71951 -9.71951 -9.88147 -9.88147 -9.88147 -9.88147 -9.72997 -9.72997 -9.72997 -9.72997 -10.3127 -10.3127 -10.3127 -10.3127 -8.7997 -8.7997 -8.7997 -8.7997 -4.09997 -4.09997 -4.09997 -4.09997 -9.48448 -9.48448 -9.48448 -9.48448 -9.84457 -9.84457 -9.84457 -9.84457 -9.92865 -9.92865 -9.92865 -9.92865 -9.85087 -9.85087 -9.85087 -9.85087 -9.54731 -9.54731 -9.54731 -9.54731 -1.67909 -1.67909 -1.67909 -1.67909 -9.46307 -9.46307 -9.46307 -9.46307 -9.49783 -9.49783 -9.49783 -9.49783 -9.93777 -9.93777 -9.93777 -9.93777 -9.46708 -9.46708 -9.46708 -9.46708 -9.33231 -9.33231 -9.33231 -9.33231 -8.23322 -8.23322 -8.23322 -8.23322 -9.53385 -9.53385 -9.53385 -9.53385 -8.87929 -8.87929 -8.87929 -8.87929 -9.92951 -9.92951 -9.92951 -9.92951 -7.518 -7.518 -7.518 -7.518 -9.46909 -9.46909 -9.46909 -9.46909 -10.8661 -10.8661 -10.8661 -10.8661 -9.59259 -9.59259 -9.59259 -9.59259 -9.51777 -9.51777 -9.51777 -9.51777 -9.74833 -9.74833 -9.74833 -9.74833 -6.52948 -6.52948 -6.52948 -6.52948 -9.85059 -9.85059 -9.85059 -9.85059 -9.82898 -9.82898 -9.82898 -9.82898 -7.73167 -7.73167 -7.73167 -7.73167 -10.121 -10.121 -10.121 -10.121 -9.44063 -9.44063 -9.44063 -9.44063 -5.68572 -5.68572 -5.68572 -5.68572 -10.9356 -10.9356 -10.9356 -10.9356 -9.57432 -9.57432 -9.57432 -9.57432 -9.78554 -9.78554 -9.78554 -9.78554 -9.85028 -9.85028 -9.85028 -9.85028 -9.54287 -9.54287 -9.54287 -9.54287 -8.94051 -8.94051 -8.94051 -8.94051 -9.54438 -9.54438 -9.54438 -9.54438 -9.48968 -9.48968 -9.48968 -9.48968 -2.76916 -2.76916 -2.76916 -2.76916 -3.99867 -3.99867 -3.99867 -3.99867 -2.31531 -2.31531 -2.31531 -2.31531 -8.96829 -8.96829 -8.96829 -8.96829 -9.68232 -9.68232 -9.68232 -9.68232 -9.22704 -9.22704 -9.22704 -9.22704 -7.42791 -7.42791 -7.42791 -7.42791 -9.73166 -9.73166 -9.73166 -9.73166 -5.98626 -5.98626 -5.98626 -5.98626 -9.71928 -9.71928 -9.71928 -9.71928 -9.39423 -9.39423 -9.39423 -9.39423 -9.85114 -9.85114 -9.85114 -9.85114 -10.4628 -10.4628 -10.4628 -10.4628 -9.48391 -9.48391 -9.48391 -9.48391 -8.69048 -8.69048 -8.69048 -8.69048 -9.8743 -9.8743 -9.8743 -9.8743 -9.37468 -9.37468 -9.37468 -9.37468 -9.41899 -9.41899 -9.41899 -9.41899 -9.77039 -9.77039 -9.77039 -9.77039 -9.9548 -9.9548 -9.9548 -9.9548 -1.2816 -1.2816 -1.2816 -1.2816 -8.98398 -8.98398 -8.98398 -8.98398 -9.51947 -9.51947 -9.51947 -9.51947 -9.5225 -9.5225 -9.5225 -9.5225 -9.51474 -9.51474 -9.51474 -9.51474 -9.84927 -9.84927 -9.84927 -9.84927 -9.40375 -9.40375 -9.40375 -9.40375 -9.45281 -9.45281 -9.45281 -9.45281 -9.51179 -9.51179 -9.51179 -9.51179 -9.56367 -9.56367 -9.56367 -9.56367 -10.039 -10.039 -10.039 -10.039 -10.1337 -10.1337 -10.1337 -10.1337 -13.3339 -13.3339 -13.3339 -13.3339 -9.53158 -9.53158 -9.53158 -9.53158 -2.95057 -2.95057 -2.95057 -2.95057 -9.401 -9.401 -9.401 -9.401 -9.46475 -9.46475 -9.46475 -9.46475 -9.73286 -9.73286 -9.73286 -9.73286 -8.7781 -8.7781 -8.7781 -8.7781 -9.61853 -9.61853 -9.61853 -9.61853 -9.46495 -9.46495 -9.46495 -9.46495 -9.62608 -9.62608 -9.62608 -9.62608 -9.46098 -9.46098 -9.46098 -9.46098 -9.37279 -9.37279 -9.37279 -9.37279 -9.82121 -9.82121 -9.82121 -9.82121 -9.72865 -9.72865 -9.72865 -9.72865 -9.94336 -9.94336 -9.94336 -9.94336 -9.84766 -9.84766 -9.84766 -9.84766 -9.71667 -9.71667 -9.71667 -9.71667 -9.34593 -9.34593 -9.34593 -9.34593 -13.5984 -13.5984 -13.5984 -13.5984 -9.33575 -9.33575 -9.33575 -9.33575 -9.6085 -9.6085 -9.6085 -9.6085 -9.55376 -9.55376 -9.55376 -9.55376 -9.48238 -9.48238 -9.48238 -9.48238 -9.64859 -9.64859 -9.64859 -9.64859 -9.20292 -9.20292 -9.20292 -9.20292 -9.57733 -9.57733 -9.57733 -9.57733 -10.1067 -10.1067 -10.1067 -10.1067 -9.69961 -9.69961 -9.69961 -9.69961 -9.78084 -9.78084 -9.78084 -9.78084 -9.97446 -9.97446 -9.97446 -9.97446 -9.54106 -9.54106 -9.54106 -9.54106 -9.12375 -9.12375 -9.12375 -9.12375 -9.37465 -9.37465 -9.37465 -9.37465 -7.41569 -7.41569 -7.41569 -7.41569 -9.90012 -9.90012 -9.90012 -9.90012 -9.43585 -9.43585 -9.43585 -9.43585 -10.063 -10.063 -10.063 -10.063 -4.92861 -4.92861 -4.92861 -4.92861 -9.39089 -9.39089 -9.39089 -9.39089 -9.60485 -9.60485 -9.60485 -9.60485 -9.59993 -9.59993 -9.59993 -9.59993 -10.2137 -10.2137 -10.2137 -10.2137 -9.3242 -9.3242 -9.3242 -9.3242 -9.38943 -9.38943 -9.38943 -9.38943 -9.40832 -9.40832 -9.40832 -9.40832 -8.89233 -8.89233 -8.89233 -8.89233 -10.8558 -10.8558 -10.8558 -10.8558 -9.62403 -9.62403 -9.62403 -9.62403 -9.80628 -9.80628 -9.80628 -9.80628 -8.32479 -8.32479 -8.32479 -8.32479 -10.0812 -10.0812 -10.0812 -10.0812 -9.40813 -9.40813 -9.40813 -9.40813 -9.69011 -9.69011 -9.69011 -9.69011 -9.88829 -9.88829 -9.88829 -9.88829 -8.26014 -8.26014 -8.26014 -8.26014 -9.43527 -9.43527 -9.43527 -9.43527 -10.0491 -10.0491 -10.0491 -10.0491 -5.22607 -5.22607 -5.22607 -5.22607 -9.66036 -9.66036 -9.66036 -9.66036 -9.91842 -9.91842 -9.91842 -9.91842 -9.59584 -9.59584 -9.59584 -9.59584 -10.3778 -10.3778 -10.3778 -10.3778 -9.54955 -9.54955 -9.54955 -9.54955 -9.42557 -9.42557 -9.42557 -9.42557 -9.29118 -9.29118 -9.29118 -9.29118 -13.5812 -13.5812 -13.5812 -13.5812 -10.095 -10.095 -10.095 -10.095 -9.98041 -9.98041 -9.98041 -9.98041 -9.71805 -9.71805 -9.71805 -9.71805 -9.7324 -9.7324 -9.7324 -9.7324 -9.56436 -9.56436 -9.56436 -9.56436 -9.75166 -9.75166 -9.75166 -9.75166 -10.3255 -10.3255 -10.3255 -10.3255 -9.81238 -9.81238 -9.81238 -9.81238 -9.40953 -9.40953 -9.40953 -9.40953 -9.73287 -9.73287 -9.73287 -9.73287 -3.68857 -3.68857 -3.68857 -3.68857 -9.55214 -9.55214 -9.55214 -9.55214 -9.50179 -9.50179 -9.50179 -9.50179 -10.1242 -10.1242 -10.1242 -10.1242 -9.28306 -9.28306 -9.28306 -9.28306 -9.53921 -9.53921 -9.53921 -9.53921 -9.53805 -9.53805 -9.53805 -9.53805 -10.2571 -10.2571 -10.2571 -10.2571 -9.58771 -9.58771 -9.58771 -9.58771 -10.0584 -10.0584 -10.0584 -10.0584 -8.79428 -8.79428 -8.79428 -8.79428 -9.72264 -9.72264 -9.72264 -9.72264 -9.7381 -9.7381 -9.7381 -9.7381 -9.3927 -9.3927 -9.3927 -9.3927 -7.8135 -7.8135 -7.8135 -7.8135 -9.41937 -9.41937 -9.41937 -9.41937 -9.401 -9.401 -9.401 -9.401 -9.36883 -9.36883 -9.36883 -9.36883 -9.54427 -9.54427 -9.54427 -9.54427 -9.704 -9.704 -9.704 -9.704 -8.85309 -8.85309 -8.85309 -8.85309 -9.9348 -9.9348 -9.9348 -9.9348 -10.1879 -10.1879 -10.1879 -10.1879 -3.78717 -3.78717 -3.78717 -3.78717 -9.81517 -9.81517 -9.81517 -9.81517 -4.3138 -4.3138 -4.3138 -4.3138 -5.85146 -5.85146 -5.85146 -5.85146 -9.18892 -9.18892 -9.18892 -9.18892 -9.95657 -9.95657 -9.95657 -9.95657 -10.1116 -10.1116 -10.1116 -10.1116 -9.66475 -9.66475 -9.66475 -9.66475 -9.40913 -9.40913 -9.40913 -9.40913 -10.1632 -10.1632 -10.1632 -10.1632 -9.46181 -9.46181 -9.46181 -9.46181 -9.87848 -9.87848 -9.87848 -9.87848 -9.4124 -9.4124 -9.4124 -9.4124 -9.57429 -9.57429 -9.57429 -9.57429 -10.4213 -10.4213 -10.4213 -10.4213 -9.42325 -9.42325 -9.42325 -9.42325 -9.77685 -9.77685 -9.77685 -9.77685 -9.17083 -9.17083 -9.17083 -9.17083 -9.99712 -9.99712 -9.99712 -9.99712 -8.97531 -8.97531 -8.97531 -8.97531 -9.88623 -9.88623 -9.88623 -9.88623 -9.75417 -9.75417 -9.75417 -9.75417 -13.071 -13.071 -13.071 -13.071 -9.89668 -9.89668 -9.89668 -9.89668 -9.43946 -9.43946 -9.43946 -9.43946 -10.0118 -10.0118 -10.0118 -10.0118 -5.03939 -5.03939 -5.03939 -5.03939 -9.10356 -9.10356 -9.10356 -9.10356 -9.86586 -9.86586 -9.86586 -9.86586 -9.67854 -9.67854 -9.67854 -9.67854 -6.88106 -6.88106 -6.88106 -6.88106 -9.46774 -9.46774 -9.46774 -9.46774 -13.6295 -13.6295 -13.6295 -13.6295 -9.04824 -9.04824 -9.04824 -9.04824 -9.4478 -9.4478 -9.4478 -9.4478 -9.536 -9.536 -9.536 -9.536 -10.1421 -10.1421 -10.1421 -10.1421 -13.2509 -13.2509 -13.2509 -13.2509 -10.0186 -10.0186 -10.0186 -10.0186 -10.2622 -10.2622 -10.2622 -10.2622 -9.60821 -9.60821 -9.60821 -9.60821 -3.71238 -3.71238 -3.71238 -3.71238 -8.69805 -8.69805 -8.69805 -8.69805 -8.76124 -8.76124 -8.76124 -8.76124 -9.42683 -9.42683 -9.42683 -9.42683 -9.46292 -9.46292 -9.46292 -9.46292 -10.3884 -10.3884 -10.3884 -10.3884 -9.63718 -9.63718 -9.63718 -9.63718 -1.88175 -1.88175 -1.88175 -1.88175 -9.98841 -9.98841 -9.98841 -9.98841 -9.63746 -9.63746 -9.63746 -9.63746 -9.46561 -9.46561 -9.46561 -9.46561 -8.40979 -8.40979 -8.40979 -8.40979 -9.46515 -9.46515 -9.46515 -9.46515 -9.4073 -9.4073 -9.4073 -9.4073 -13.4928 -13.4928 -13.4928 -13.4928 -9.48164 -9.48164 -9.48164 -9.48164 -9.70416 -9.70416 -9.70416 -9.70416 -9.57839 -9.57839 -9.57839 -9.57839 -9.9115 -9.9115 -9.9115 -9.9115 -9.67537 -9.67537 -9.67537 -9.67537 -9.25865 -9.25865 -9.25865 -9.25865 -6.9831 -6.9831 -6.9831 -6.9831 -9.62324 -9.62324 -9.62324 -9.62324 -9.68707 -9.68707 -9.68707 -9.68707 -9.96453 -9.96453 -9.96453 -9.96453 -9.63823 -9.63823 -9.63823 -9.63823 -9.54357 -9.54357 -9.54357 -9.54357 -9.99386 -9.99386 -9.99386 -9.99386 -9.40011 -9.40011 -9.40011 -9.40011 -9.36798 -9.36798 -9.36798 -9.36798 -9.8536 -9.8536 -9.8536 -9.8536 -9.50242 -9.50242 -9.50242 -9.50242 -10.4184 -10.4184 -10.4184 -10.4184 -8.98733 -8.98733 -8.98733 -8.98733 -9.49919 -9.49919 -9.49919 -9.49919 -6.27987 -6.27987 -6.27987 -6.27987 -8.66858 -8.66858 -8.66858 -8.66858 -9.8923 -9.8923 -9.8923 -9.8923 -9.9375 -9.9375 -9.9375 -9.9375 -9.89786 -9.89786 -9.89786 -9.89786 -9.50781 -9.50781 -9.50781 -9.50781 -9.87693 -9.87693 -9.87693 -9.87693 -9.63195 -9.63195 -9.63195 -9.63195 -9.90647 -9.90647 -9.90647 -9.90647 -10.0418 -10.0418 -10.0418 -10.0418 -9.47775 -9.47775 -9.47775 -9.47775 -9.68691 -9.68691 -9.68691 -9.68691 -10.565 -10.565 -10.565 -10.565 -10.1132 -10.1132 -10.1132 -10.1132 -13.2131 -13.2131 -13.2131 -13.2131 -4.5289 -4.5289 -4.5289 -4.5289 -11.0559 -11.0559 -11.0559 -11.0559 -8.88875 -8.88875 -8.88875 -8.88875 -9.45788 -9.45788 -9.45788 -9.45788 -9.76986 -9.76986 -9.76986 -9.76986 -9.84548 -9.84548 -9.84548 -9.84548 -10.059 -10.059 -10.059 -10.059 -9.6752 -9.6752 -9.6752 -9.6752 -9.44681 -9.44681 -9.44681 -9.44681 -10.0454 -10.0454 -10.0454 -10.0454 -9.923 -9.923 -9.923 -9.923 -9.87364 -9.87364 -9.87364 -9.87364 -9.40825 -9.40825 -9.40825 -9.40825 -9.78893 -9.78893 -9.78893 -9.78893 -8.81409 -8.81409 -8.81409 -8.81409 -9.84983 -9.84983 -9.84983 -9.84983 -9.88433 -9.88433 -9.88433 -9.88433 -9.57196 -9.57196 -9.57196 -9.57196 -9.52917 -9.52917 -9.52917 -9.52917 -8.33205 -8.33205 -8.33205 -8.33205 -9.51546 -9.51546 -9.51546 -9.51546 -9.46145 -9.46145 -9.46145 -9.46145 -7.83433 -7.83433 -7.83433 -7.83433 -9.57002 -9.57002 -9.57002 -9.57002 -9.48445 -9.48445 -9.48445 -9.48445 -6.40864 -6.40864 -6.40864 -6.40864 -9.28406 -9.28406 -9.28406 -9.28406 -9.71048 -9.71048 -9.71048 -9.71048 -9.4978 -9.4978 -9.4978 -9.4978 -10.4797 -10.4797 -10.4797 -10.4797 -9.46069 -9.46069 -9.46069 -9.46069 -9.00747 -9.00747 -9.00747 -9.00747 -9.37728 -9.37728 -9.37728 -9.37728 -5.8899 -5.8899 -5.8899 -5.8899 -10.136 -10.136 -10.136 -10.136 -9.53275 -9.53275 -9.53275 -9.53275 -2.19454 -2.19454 -2.19454 -2.19454 -9.93963 -9.93963 -9.93963 -9.93963 -9.46199 -9.46199 -9.46199 -9.46199 -9.61545 -9.61545 -9.61545 -9.61545 -9.69193 -9.69193 -9.69193 -9.69193 -10.6425 -10.6425 -10.6425 -10.6425 -9.48403 -9.48403 -9.48403 -9.48403 -8.77107 -8.77107 -8.77107 -8.77107 -9.73476 -9.73476 -9.73476 -9.73476 -9.73229 -9.73229 -9.73229 -9.73229 -10.5444 -10.5444 -10.5444 -10.5444 -9.38557 -9.38557 -9.38557 -9.38557 -9.76265 -9.76265 -9.76265 -9.76265 -9.79804 -9.79804 -9.79804 -9.79804 -9.5254 -9.5254 -9.5254 -9.5254 -8.69518 -8.69518 -8.69518 -8.69518 -9.80015 -9.80015 -9.80015 -9.80015 -9.60556 -9.60556 -9.60556 -9.60556 -9.76443 -9.76443 -9.76443 -9.76443 -4.06143 -4.06143 -4.06143 -4.06143 -4.31425 -4.31425 -4.31425 -4.31425 -9.97206 -9.97206 -9.97206 -9.97206 -9.86834 -9.86834 -9.86834 -9.86834 -9.3968 -9.3968 -9.3968 -9.3968 -9.41678 -9.41678 -9.41678 -9.41678 -9.53702 -9.53702 -9.53702 -9.53702 -6.00767 -6.00767 -6.00767 -6.00767 -9.83554 -9.83554 -9.83554 -9.83554 -9.77393 -9.77393 -9.77393 -9.77393 -9.93208 -9.93208 -9.93208 -9.93208 -9.88715 -9.88715 -9.88715 -9.88715 -9.94032 -9.94032 -9.94032 -9.94032 -9.67387 -9.67387 -9.67387 -9.67387 -2.00579 -2.00579 -2.00579 -2.00579 -9.96756 -9.96756 -9.96756 -9.96756 -9.55647 -9.55647 -9.55647 -9.55647 -9.73609 -9.73609 -9.73609 -9.73609 -9.61719 -9.61719 -9.61719 -9.61719 -8.61351 -8.61351 -8.61351 -8.61351 -9.74246 -9.74246 -9.74246 -9.74246 -3.53183 -3.53183 -3.53183 -3.53183 -9.70241 -9.70241 -9.70241 -9.70241 -9.10808 -9.10808 -9.10808 -9.10808 -9.26373 -9.26373 -9.26373 -9.26373 -9.42247 -9.42247 -9.42247 -9.42247 -9.54538 -9.54538 -9.54538 -9.54538 -10.1488 -10.1488 -10.1488 -10.1488 -9.51014 -9.51014 -9.51014 -9.51014 -10.1331 -10.1331 -10.1331 -10.1331 -13.2313 -13.2313 -13.2313 -13.2313 -10.1862 -10.1862 -10.1862 -10.1862 -9.44589 -9.44589 -9.44589 -9.44589 -5.86308 -5.86308 -5.86308 -5.86308 -10.1546 -10.1546 -10.1546 -10.1546 -9.45794 -9.45794 -9.45794 -9.45794 -9.43153 -9.43153 -9.43153 -9.43153 -9.47652 -9.47652 -9.47652 -9.47652 -9.4993 -9.4993 -9.4993 -9.4993 -3.92925 -3.92925 -3.92925 -3.92925 -10.4253 -10.4253 -10.4253 -10.4253 -9.55684 -9.55684 -9.55684 -9.55684 -9.89143 -9.89143 -9.89143 -9.89143 -9.36288 -9.36288 -9.36288 -9.36288 -9.60962 -9.60962 -9.60962 -9.60962 -4.84414 -4.84414 -4.84414 -4.84414 -9.86327 -9.86327 -9.86327 -9.86327 -2.87845 -2.87845 -2.87845 -2.87845 -9.52636 -9.52636 -9.52636 -9.52636 -5.8657 -5.8657 -5.8657 -5.8657 -10.0997 -10.0997 -10.0997 -10.0997 -9.80591 -9.80591 -9.80591 -9.80591 -9.47482 -9.47482 -9.47482 -9.47482 -13.3914 -13.3914 -13.3914 -13.3914 -9.90593 -9.90593 -9.90593 -9.90593 -9.68227 -9.68227 -9.68227 -9.68227 -9.99977 -9.99977 -9.99977 -9.99977 -9.92368 -9.92368 -9.92368 -9.92368 -9.89796 -9.89796 -9.89796 -9.89796 -9.42977 -9.42977 -9.42977 -9.42977 -13.4964 -13.4964 -13.4964 -13.4964 -10.0423 -10.0423 -10.0423 -10.0423 -9.90201 -9.90201 -9.90201 -9.90201 -9.94734 -9.94734 -9.94734 -9.94734 -8.72168 -8.72168 -8.72168 -8.72168 -8.50671 -8.50671 -8.50671 -8.50671 -9.42199 -9.42199 -9.42199 -9.42199 -9.95378 -9.95378 -9.95378 -9.95378 -9.62872 -9.62872 -9.62872 -9.62872 -9.87219 -9.87219 -9.87219 -9.87219 -1.74674 -1.74674 -1.74674 -1.74674 -9.78014 -9.78014 -9.78014 -9.78014 -9.6569 -9.6569 -9.6569 -9.6569 -9.81122 -9.81122 -9.81122 -9.81122 -2.41187 -2.41187 -2.41187 -2.41187 -8.05499 -8.05499 -8.05499 -8.05499 -9.87263 -9.87263 -9.87263 -9.87263 -10.1772 -10.1772 -10.1772 -10.1772 -9.45528 -9.45528 -9.45528 -9.45528 -9.93009 -9.93009 -9.93009 -9.93009 -5.9799 -5.9799 -5.9799 -5.9799 -9.91952 -9.91952 -9.91952 -9.91952 -10.1029 -10.1029 -10.1029 -10.1029 -10.1097 -10.1097 -10.1097 -10.1097 -9.74107 -9.74107 -9.74107 -9.74107 -9.58331 -9.58331 -9.58331 -9.58331 -9.86887 -9.86887 -9.86887 -9.86887 -9.89763 -9.89763 -9.89763 -9.89763 -9.73738 -9.73738 -9.73738 -9.73738 -9.4834 -9.4834 -9.4834 -9.4834 -10.7594 -10.7594 -10.7594 -10.7594 -10.0484 -10.0484 -10.0484 -10.0484 -9.88634 -9.88634 -9.88634 -9.88634 -9.42601 -9.42601 -9.42601 -9.42601 -9.66165 -9.66165 -9.66165 -9.66165 -9.75908 -9.75908 -9.75908 -9.75908 -10.7003 -10.7003 -10.7003 -10.7003 -10.1534 -10.1534 -10.1534 -10.1534 -10.5624 -10.5624 -10.5624 -10.5624 -11.1211 -11.1211 -11.1211 -11.1211 -10.0897 -10.0897 -10.0897 -10.0897 -10.4589 -10.4589 -10.4589 -10.4589 -9.43658 -9.43658 -9.43658 -9.43658 -9.75142 -9.75142 -9.75142 -9.75142 -9.52811 -9.52811 -9.52811 -9.52811 -9.54277 -9.54277 -9.54277 -9.54277 -9.37152 -9.37152 -9.37152 -9.37152 -9.44485 -9.44485 -9.44485 -9.44485 -9.47246 -9.47246 -9.47246 -9.47246 -9.34236 -9.34236 -9.34236 -9.34236 -9.43706 -9.43706 -9.43706 -9.43706 -10.3671 -10.3671 -10.3671 -10.3671 -10.0984 -10.0984 -10.0984 -10.0984 -9.83995 -9.83995 -9.83995 -9.83995 -10.1271 -10.1271 -10.1271 -10.1271 -3.32849 -3.32849 -3.32849 -3.32849 -9.44348 -9.44348 -9.44348 -9.44348 -9.83329 -9.83329 -9.83329 -9.83329 -9.8586 -9.8586 -9.8586 -9.8586 -10.4022 -10.4022 -10.4022 -10.4022 -9.58583 -9.58583 -9.58583 -9.58583 -9.60815 -9.60815 -9.60815 -9.60815 -9.61012 -9.61012 -9.61012 -9.61012 -8.76642 -8.76642 -8.76642 -8.76642 -9.64801 -9.64801 -9.64801 -9.64801 -10.3484 -10.3484 -10.3484 -10.3484 -10.0879 -10.0879 -10.0879 -10.0879 -9.46273 -9.46273 -9.46273 -9.46273 -9.83677 -9.83677 -9.83677 -9.83677 -2.837 -2.837 -2.837 -2.837 -9.80069 -9.80069 -9.80069 -9.80069 -9.4689 -9.4689 -9.4689 -9.4689 -9.75059 -9.75059 -9.75059 -9.75059 -10.1532 -10.1532 -10.1532 -10.1532 -9.98567 -9.98567 -9.98567 -9.98567 -9.94589 -9.94589 -9.94589 -9.94589 -14.9591 -14.9591 -14.9591 -14.9591 -9.42233 -9.42233 -9.42233 -9.42233 -9.53326 -9.53326 -9.53326 -9.53326 -10.7887 -10.7887 -10.7887 -10.7887 -9.47895 -9.47895 -9.47895 -9.47895 -9.91269 -9.91269 -9.91269 -9.91269 -9.91252 -9.91252 -9.91252 -9.91252 -9.8947 -9.8947 -9.8947 -9.8947 -9.46749 -9.46749 -9.46749 -9.46749 -9.4324 -9.4324 -9.4324 -9.4324 -9.44723 -9.44723 -9.44723 -9.44723 -9.92265 -9.92265 -9.92265 -9.92265 -10.954 -10.954 -10.954 -10.954 -5.50084 -5.50084 -5.50084 -5.50084 -9.48102 -9.48102 -9.48102 -9.48102 -9.83947 -9.83947 -9.83947 -9.83947 -9.3689 -9.3689 -9.3689 -9.3689 -9.88475 -9.88475 -9.88475 -9.88475 -9.1714 -9.1714 -9.1714 -9.1714 -9.4965 -9.4965 -9.4965 -9.4965 -9.86504 -9.86504 -9.86504 -9.86504 -9.39826 -9.39826 -9.39826 -9.39826 -9.92471 -9.92471 -9.92471 -9.92471 -9.91056 -9.91056 -9.91056 -9.91056 -9.53729 -9.53729 -9.53729 -9.53729 -9.53071 -9.53071 -9.53071 -9.53071 -9.75779 -9.75779 -9.75779 -9.75779 -9.39002 -9.39002 -9.39002 -9.39002 -9.78203 -9.78203 -9.78203 -9.78203 -10.6255 -10.6255 -10.6255 -10.6255 -9.84007 -9.84007 -9.84007 -9.84007 -2.12212 -2.12212 -2.12212 -2.12212 -9.49768 -9.49768 -9.49768 -9.49768 -4.2789 -4.2789 -4.2789 -4.2789 -9.94171 -9.94171 -9.94171 -9.94171 -9.51629 -9.51629 -9.51629 -9.51629 -9.97959 -9.97959 -9.97959 -9.97959 -9.91584 -9.91584 -9.91584 -9.91584 -1.56709 -1.56709 -1.56709 -1.56709 -9.78211 -9.78211 -9.78211 -9.78211 -9.92478 -9.92478 -9.92478 -9.92478 -9.53195 -9.53195 -9.53195 -9.53195 -9.42163 -9.42163 -9.42163 -9.42163 -10.0871 -10.0871 -10.0871 -10.0871 -9.62341 -9.62341 -9.62341 -9.62341 -9.88346 -9.88346 -9.88346 -9.88346 -10.5106 -10.5106 -10.5106 -10.5106 -9.85882 -9.85882 -9.85882 -9.85882 -9.44633 -9.44633 -9.44633 -9.44633 -9.87631 -9.87631 -9.87631 -9.87631 -10.1838 -10.1838 -10.1838 -10.1838 -9.77116 -9.77116 -9.77116 -9.77116 -9.82101 -9.82101 -9.82101 -9.82101 -9.95616 -9.95616 -9.95616 -9.95616 -9.40592 -9.40592 -9.40592 -9.40592 -9.50503 -9.50503 -9.50503 -9.50503 -9.68552 -9.68552 -9.68552 -9.68552 -9.47608 -9.47608 -9.47608 -9.47608 -13.5319 -13.5319 -13.5319 -13.5319 -9.94059 -9.94059 -9.94059 -9.94059 -9.61659 -9.61659 -9.61659 -9.61659 -9.45372 -9.45372 -9.45372 -9.45372 -10.122 -10.122 -10.122 -10.122 -9.94313 -9.94313 -9.94313 -9.94313 -9.58477 -9.58477 -9.58477 -9.58477 -9.7515 -9.7515 -9.7515 -9.7515 -9.91056 -9.91056 -9.91056 -9.91056 -9.85095 -9.85095 -9.85095 -9.85095 -9.8807 -9.8807 -9.8807 -9.8807 -9.74957 -9.74957 -9.74957 -9.74957 -9.89982 -9.89982 -9.89982 -9.89982 -9.99692 -9.99692 -9.99692 -9.99692 -13.9179 -13.9179 -13.9179 -13.9179 -9.8731 -9.8731 -9.8731 -9.8731 -9.8521 -9.8521 -9.8521 -9.8521 -9.43611 -9.43611 -9.43611 -9.43611 -9.92807 -9.92807 -9.92807 -9.92807 -9.43129 -9.43129 -9.43129 -9.43129 -9.65277 -9.65277 -9.65277 -9.65277 -9.55709 -9.55709 -9.55709 -9.55709 -9.42657 -9.42657 -9.42657 -9.42657 -9.89367 -9.89367 -9.89367 -9.89367 -9.91509 -9.91509 -9.91509 -9.91509 -9.38323 -9.38323 -9.38323 -9.38323 -3.67832 -3.67832 -3.67832 -3.67832 -9.87131 -9.87131 -9.87131 -9.87131 -9.75486 -9.75486 -9.75486 -9.75486 -9.61156 -9.61156 -9.61156 -9.61156 -9.42652 -9.42652 -9.42652 -9.42652 -10.3912 -10.3912 -10.3912 -10.3912 -9.50802 -9.50802 -9.50802 -9.50802 -9.82454 -9.82454 -9.82454 -9.82454 -10.1398 -10.1398 -10.1398 -10.1398 -9.44856 -9.44856 -9.44856 -9.44856 -9.77649 -9.77649 -9.77649 -9.77649 -9.59683 -9.59683 -9.59683 -9.59683 -9.91906 -9.91906 -9.91906 -9.91906 -9.47259 -9.47259 -9.47259 -9.47259 -9.94233 -9.94233 -9.94233 -9.94233 -7.85625 -7.85625 -7.85625 -7.85625 -4.20285 -4.20285 -4.20285 -4.20285 -9.64021 -9.64021 -9.64021 -9.64021 -9.30856 -9.30856 -9.30856 -9.30856 -9.35705 -9.35705 -9.35705 -9.35705 -10.0402 -10.0402 -10.0402 -10.0402 -9.73967 -9.73967 -9.73967 -9.73967 -9.85103 -9.85103 -9.85103 -9.85103 -9.94952 -9.94952 -9.94952 -9.94952 -9.43019 -9.43019 -9.43019 -9.43019 -9.55852 -9.55852 -9.55852 -9.55852 -10.7023 -10.7023 -10.7023 -10.7023 -9.7609 -9.7609 -9.7609 -9.7609 -9.50038 -9.50038 -9.50038 -9.50038 -9.91203 -9.91203 -9.91203 -9.91203 -9.53552 -9.53552 -9.53552 -9.53552 -9.98854 -9.98854 -9.98854 -9.98854 -9.86113 -9.86113 -9.86113 -9.86113 -9.16855 -9.16855 -9.16855 -9.16855 -10.3016 -10.3016 -10.3016 -10.3016 -9.82665 -9.82665 -9.82665 -9.82665 -9.5135 -9.5135 -9.5135 -9.5135 -9.43051 -9.43051 -9.43051 -9.43051 -9.39654 -9.39654 -9.39654 -9.39654 -9.85722 -9.85722 -9.85722 -9.85722 -9.81075 -9.81075 -9.81075 -9.81075 -11.1607 -11.1607 -11.1607 -11.1607 -9.89999 -9.89999 -9.89999 -9.89999 -9.02843 -9.02843 -9.02843 -9.02843 -9.33004 -9.33004 -9.33004 -9.33004 -9.66665 -9.66665 -9.66665 -9.66665 -9.73994 -9.73994 -9.73994 -9.73994 -11.0527 -11.0527 -11.0527 -11.0527 -10.0791 -10.0791 -10.0791 -10.0791 -9.81127 -9.81127 -9.81127 -9.81127 -10.3825 -10.3825 -10.3825 -10.3825 -9.80422 -9.80422 -9.80422 -9.80422 -9.86431 -9.86431 -9.86431 -9.86431 -9.46851 -9.46851 -9.46851 -9.46851 -10.5882 -10.5882 -10.5882 -10.5882 -9.35939 -9.35939 -9.35939 -9.35939 -9.40861 -9.40861 -9.40861 -9.40861 -10.0656 -10.0656 -10.0656 -10.0656 -9.82501 -9.82501 -9.82501 -9.82501 -8.96826 -8.96826 -8.96826 -8.96826 -9.9769 -9.9769 -9.9769 -9.9769 -9.46545 -9.46545 -9.46545 -9.46545 -9.57412 -9.57412 -9.57412 -9.57412 -9.90886 -9.90886 -9.90886 -9.90886 -9.44411 -9.44411 -9.44411 -9.44411 -9.99105 -9.99105 -9.99105 -9.99105 -9.63194 -9.63194 -9.63194 -9.63194 -9.75471 -9.75471 -9.75471 -9.75471 -10.7196 -10.7196 -10.7196 -10.7196 -10.7643 -10.7643 -10.7643 -10.7643 -9.51639 -9.51639 -9.51639 -9.51639 -9.43006 -9.43006 -9.43006 -9.43006 -9.90511 -9.90511 -9.90511 -9.90511 -10.3466 -10.3466 -10.3466 -10.3466 -10.1517 -10.1517 -10.1517 -10.1517 -10.2185 -10.2185 -10.2185 -10.2185 -10.0965 -10.0965 -10.0965 -10.0965 -9.87799 -9.87799 -9.87799 -9.87799 -9.39788 -9.39788 -9.39788 -9.39788 -9.81606 -9.81606 -9.81606 -9.81606 -10.9992 -10.9992 -10.9992 -10.9992 -10.0779 -10.0779 -10.0779 -10.0779 -9.91976 -9.91976 -9.91976 -9.91976 -11.0803 -11.0803 -11.0803 -11.0803 -4.79336 -4.79336 -4.79336 -4.79336 -9.91172 -9.91172 -9.91172 -9.91172 -9.93115 -9.93115 -9.93115 -9.93115 -9.507 -9.507 -9.507 -9.507 -9.51835 -9.51835 -9.51835 -9.51835 -10.4944 -10.4944 -10.4944 -10.4944 -10.1856 -10.1856 -10.1856 -10.1856 -6.47969 -6.47969 -6.47969 -6.47969 -9.8566 -9.8566 -9.8566 -9.8566 -9.84387 -9.84387 -9.84387 -9.84387 -9.8862 -9.8862 -9.8862 -9.8862 -9.8722 -9.8722 -9.8722 -9.8722 -9.75693 -9.75693 -9.75693 -9.75693 -10.0786 -10.0786 -10.0786 -10.0786 -9.94524 -9.94524 -9.94524 -9.94524 -1.65748 -1.65748 -1.65748 -1.65748 -13.8154 -13.8154 -13.8154 -13.8154 -9.72667 -9.72667 -9.72667 -9.72667 -10.1524 -10.1524 -10.1524 -10.1524 -9.85984 -9.85984 -9.85984 -9.85984 -9.42612 -9.42612 -9.42612 -9.42612 -14.4176 -14.4176 -14.4176 -14.4176 -9.73589 -9.73589 -9.73589 -9.73589 -13.1204 -13.1204 -13.1204 -13.1204 -9.42749 -9.42749 -9.42749 -9.42749 -9.92305 -9.92305 -9.92305 -9.92305 -10.9869 -10.9869 -10.9869 -10.9869 -9.42577 -9.42577 -9.42577 -9.42577 -9.49143 -9.49143 -9.49143 -9.49143 -9.45499 -9.45499 -9.45499 -9.45499 -9.86111 -9.86111 -9.86111 -9.86111 -10.6788 -10.6788 -10.6788 -10.6788 -10.3493 -10.3493 -10.3493 -10.3493 -9.82828 -9.82828 -9.82828 -9.82828 -9.37613 -9.37613 -9.37613 -9.37613 -9.90133 -9.90133 -9.90133 -9.90133 -9.83917 -9.83917 -9.83917 -9.83917 -9.89149 -9.89149 -9.89149 -9.89149 -9.53281 -9.53281 -9.53281 -9.53281 -9.34398 -9.34398 -9.34398 -9.34398 -9.47622 -9.47622 -9.47622 -9.47622 -9.83569 -9.83569 -9.83569 -9.83569 -10.3964 -10.3964 -10.3964 -10.3964 -9.39527 -9.39527 -9.39527 -9.39527 -9.92253 -9.92253 -9.92253 -9.92253 -9.50147 -9.50147 -9.50147 -9.50147 -11.1847 -11.1847 -11.1847 -11.1847 -10.8182 -10.8182 -10.8182 -10.8182 -9.8217 -9.8217 -9.8217 -9.8217 -9.92528 -9.92528 -9.92528 -9.92528 -9.9211 -9.9211 -9.9211 -9.9211 -10.1394 -10.1394 -10.1394 -10.1394 -9.70846 -9.70846 -9.70846 -9.70846 -7.00496 -7.00496 -7.00496 -7.00496 -9.34459 -9.34459 -9.34459 -9.34459 -9.57783 -9.57783 -9.57783 -9.57783 -9.91273 -9.91273 -9.91273 -9.91273 -9.55481 -9.55481 -9.55481 -9.55481 -9.81196 -9.81196 -9.81196 -9.81196 -3.42139 -3.42139 -3.42139 -3.42139 -10.1051 -10.1051 -10.1051 -10.1051 -9.8894 -9.8894 -9.8894 -9.8894 -9.7937 -9.7937 -9.7937 -9.7937 -14.8711 -14.8711 -14.8711 -14.8711 -9.79796 -9.79796 -9.79796 -9.79796 -10.7597 -10.7597 -10.7597 -10.7597 -9.88727 -9.88727 -9.88727 -9.88727 -9.71987 -9.71987 -9.71987 -9.71987 -9.88684 -9.88684 -9.88684 -9.88684 -14.5899 -14.5899 -14.5899 -14.5899 -9.97961 -9.97961 -9.97961 -9.97961 -9.29342 -9.29342 -9.29342 -9.29342 -9.64114 -9.64114 -9.64114 -9.64114 -9.91012 -9.91012 -9.91012 -9.91012 -10.5266 -10.5266 -10.5266 -10.5266 -11.1717 -11.1717 -11.1717 -11.1717 -9.84218 -9.84218 -9.84218 -9.84218 -9.92164 -9.92164 -9.92164 -9.92164 -9.9116 -9.9116 -9.9116 -9.9116 -10.0959 -10.0959 -10.0959 -10.0959 -9.85011 -9.85011 -9.85011 -9.85011 -9.42384 -9.42384 -9.42384 -9.42384 -9.90648 -9.90648 -9.90648 -9.90648 -9.572 -9.572 -9.572 -9.572 -10.6359 -10.6359 -10.6359 -10.6359 -9.70875 -9.70875 -9.70875 -9.70875 -9.30344 -9.30344 -9.30344 -9.30344 -9.92319 -9.92319 -9.92319 -9.92319 -9.96863 -9.96863 -9.96863 -9.96863 -9.91857 -9.91857 -9.91857 -9.91857 -9.71973 -9.71973 -9.71973 -9.71973 -9.59665 -9.59665 -9.59665 -9.59665 -9.99391 -9.99391 -9.99391 -9.99391 -9.94518 -9.94518 -9.94518 -9.94518 -10.1034 -10.1034 -10.1034 -10.1034 -9.73389 -9.73389 -9.73389 -9.73389 -9.47583 -9.47583 -9.47583 -9.47583 -10.1435 -10.1435 -10.1435 -10.1435 -9.49591 -9.49591 -9.49591 -9.49591 -9.39721 -9.39721 -9.39721 -9.39721 -9.93534 -9.93534 -9.93534 -9.93534 -9.95657 -9.95657 -9.95657 -9.95657 -2.51805 -2.51805 -2.51805 -2.51805 -10.0176 -10.0176 -10.0176 -10.0176 -9.85164 -9.85164 -9.85164 -9.85164 -9.91196 -9.91196 -9.91196 -9.91196 -9.48597 -9.48597 -9.48597 -9.48597 -9.9542 -9.9542 -9.9542 -9.9542 -9.43708 -9.43708 -9.43708 -9.43708 -9.62121 -9.62121 -9.62121 -9.62121 -9.75676 -9.75676 -9.75676 -9.75676 -9.62962 -9.62962 -9.62962 -9.62962 -10.0404 -10.0404 -10.0404 -10.0404 -9.93781 -9.93781 -9.93781 -9.93781 -10.139 -10.139 -10.139 -10.139 -2.21652 -2.21652 -2.21652 -2.21652 -9.75999 -9.75999 -9.75999 -9.75999 -9.96087 -9.96087 -9.96087 -9.96087 -9.83243 -9.83243 -9.83243 -9.83243 -9.76765 -9.76765 -9.76765 -9.76765 -9.84772 -9.84772 -9.84772 -9.84772 -9.96726 -9.96726 -9.96726 -9.96726 -10.0989 -10.0989 -10.0989 -10.0989 -9.48873 -9.48873 -9.48873 -9.48873 -10.0143 -10.0143 -10.0143 -10.0143 -9.81607 -9.81607 -9.81607 -9.81607 -10.2056 -10.2056 -10.2056 -10.2056 -9.92122 -9.92122 -9.92122 -9.92122 -9.55686 -9.55686 -9.55686 -9.55686 -9.93558 -9.93558 -9.93558 -9.93558 -9.93974 -9.93974 -9.93974 -9.93974 -9.83752 -9.83752 -9.83752 -9.83752 -10.0794 -10.0794 -10.0794 -10.0794 -9.35072 -9.35072 -9.35072 -9.35072 -9.57152 -9.57152 -9.57152 -9.57152 -9.86259 -9.86259 -9.86259 -9.86259 -9.6135 -9.6135 -9.6135 -9.6135 -9.8381 -9.8381 -9.8381 -9.8381 -1.34012 -1.34012 -1.34012 -1.34012 -9.84827 -9.84827 -9.84827 -9.84827 -9.88141 -9.88141 -9.88141 -9.88141 -9.83884 -9.83884 -9.83884 -9.83884 -9.90888 -9.90888 -9.90888 -9.90888 -9.86922 -9.86922 -9.86922 -9.86922 -6.02321 -6.02321 -6.02321 -6.02321 -9.37491 -9.37491 -9.37491 -9.37491 -10.1917 -10.1917 -10.1917 -10.1917 -9.94594 -9.94594 -9.94594 -9.94594 -10.1221 -10.1221 -10.1221 -10.1221 -1.56146 -1.56146 -1.56146 -1.56146 -9.42652 -9.42652 -9.42652 -9.42652 -10.1159 -10.1159 -10.1159 -10.1159 -10.1292 -10.1292 -10.1292 -10.1292 -9.75858 -9.75858 -9.75858 -9.75858 -14.1961 -14.1961 -14.1961 -14.1961 -9.80233 -9.80233 -9.80233 -9.80233 -10.1051 -10.1051 -10.1051 -10.1051 -10.1213 -10.1213 -10.1213 -10.1213 -9.82571 -9.82571 -9.82571 -9.82571 -9.84188 -9.84188 -9.84188 -9.84188 -1.14478 -1.14478 -1.14478 -1.14478 -9.92982 -9.92982 -9.92982 -9.92982 -10.0929 -10.0929 -10.0929 -10.0929 -10.1243 -10.1243 -10.1243 -10.1243 -10.1162 -10.1162 -10.1162 -10.1162 -9.5468 -9.5468 -9.5468 -9.5468 -8.84633 -8.84633 -8.84633 -8.84633 -10.1538 -10.1538 -10.1538 -10.1538 -10.0566 -10.0566 -10.0566 -10.0566 -9.89626 -9.89626 -9.89626 -9.89626 -9.45608 -9.45608 -9.45608 -9.45608 -9.36067 -9.36067 -9.36067 -9.36067 -9.7111 -9.7111 -9.7111 -9.7111 -9.7483 -9.7483 -9.7483 -9.7483 -9.84435 -9.84435 -9.84435 -9.84435 -10.109 -10.109 -10.109 -10.109 -9.6683 -9.6683 -9.6683 -9.6683 -10.0316 -10.0316 -10.0316 -10.0316 -9.94429 -9.94429 -9.94429 -9.94429 -9.90876 -9.90876 -9.90876 -9.90876 -10.1081 -10.1081 -10.1081 -10.1081 -13.5632 -13.5632 -13.5632 -13.5632 -10.4452 -10.4452 -10.4452 -10.4452 -10.0837 -10.0837 -10.0837 -10.0837 -9.85259 -9.85259 -9.85259 -9.85259 -9.48855 -9.48855 -9.48855 -9.48855 -9.62203 -9.62203 -9.62203 -9.62203 -10.4495 -10.4495 -10.4495 -10.4495 -9.37194 -9.37194 -9.37194 -9.37194 -9.9075 -9.9075 -9.9075 -9.9075 -2.98806 -2.98806 -2.98806 -2.98806 -10.1286 -10.1286 -10.1286 -10.1286 -9.93853 -9.93853 -9.93853 -9.93853 -9.53939 -9.53939 -9.53939 -9.53939 -10.0264 -10.0264 -10.0264 -10.0264 -9.76302 -9.76302 -9.76302 -9.76302 -10.2922 -10.2922 -10.2922 -10.2922 -9.90114 -9.90114 -9.90114 -9.90114 -10.0884 -10.0884 -10.0884 -10.0884 -10.1453 -10.1453 -10.1453 -10.1453 -10.1045 -10.1045 -10.1045 -10.1045 -9.78774 -9.78774 -9.78774 -9.78774 -9.98899 -9.98899 -9.98899 -9.98899 -9.94093 -9.94093 -9.94093 -9.94093 -9.50434 -9.50434 -9.50434 -9.50434 -9.93991 -9.93991 -9.93991 -9.93991 -9.83561 -9.83561 -9.83561 -9.83561 -9.91858 -9.91858 -9.91858 -9.91858 -9.94115 -9.94115 -9.94115 -9.94115 -10.16 -10.16 -10.16 -10.16 -9.93945 -9.93945 -9.93945 -9.93945 -9.91353 -9.91353 -9.91353 -9.91353 -13.857 -13.857 -13.857 -13.857 -9.41958 -9.41958 -9.41958 -9.41958 -10.0632 -10.0632 -10.0632 -10.0632 -9.31806 -9.31806 -9.31806 -9.31806 -10.0088 -10.0088 -10.0088 -10.0088 -9.42856 -9.42856 -9.42856 -9.42856 -9.92535 -9.92535 -9.92535 -9.92535 -9.8197 -9.8197 -9.8197 -9.8197 -9.93748 -9.93748 -9.93748 -9.93748 -9.77027 -9.77027 -9.77027 -9.77027 -10.1485 -10.1485 -10.1485 -10.1485 -9.44296 -9.44296 -9.44296 -9.44296 -9.52939 -9.52939 -9.52939 -9.52939 -9.62943 -9.62943 -9.62943 -9.62943 -10.1213 -10.1213 -10.1213 -10.1213 -9.9022 -9.9022 -9.9022 -9.9022 -9.88881 -9.88881 -9.88881 -9.88881 -3.80716 -3.80716 -3.80716 -3.80716 -9.91309 -9.91309 -9.91309 -9.91309 -9.92466 -9.92466 -9.92466 -9.92466 -10.1482 -10.1482 -10.1482 -10.1482 -10.1589 -10.1589 -10.1589 -10.1589 -10.1449 -10.1449 -10.1449 -10.1449 -9.94019 -9.94019 -9.94019 -9.94019 -9.93244 -9.93244 -9.93244 -9.93244 -10.5 -10.5 -10.5 -10.5 -10.0392 -10.0392 -10.0392 -10.0392 -10.0779 -10.0779 -10.0779 -10.0779 -9.91832 -9.91832 -9.91832 -9.91832 -9.83736 -9.83736 -9.83736 -9.83736 -9.94586 -9.94586 -9.94586 -9.94586 -9.67117 -9.67117 -9.67117 -9.67117 -14.5476 -14.5476 -14.5476 -14.5476 -9.83573 -9.83573 -9.83573 -9.83573 -9.90356 -9.90356 -9.90356 -9.90356 -9.44299 -9.44299 -9.44299 -9.44299 -10.4518 -10.4518 -10.4518 -10.4518 -10.7257 -10.7257 -10.7257 -10.7257 -9.94869 -9.94869 -9.94869 -9.94869 -9.9573 -9.9573 -9.9573 -9.9573 -9.83429 -9.83429 -9.83429 -9.83429 -9.82342 -9.82342 -9.82342 -9.82342 -10.0041 -10.0041 -10.0041 -10.0041 -9.8285 -9.8285 -9.8285 -9.8285 -1.70125 -1.70125 -1.70125 -1.70125 -9.55273 -9.55273 -9.55273 -9.55273 -9.9599 -9.9599 -9.9599 -9.9599 -10.4169 -10.4169 -10.4169 -10.4169 -9.96193 -9.96193 -9.96193 -9.96193 -9.28903 -9.28903 -9.28903 -9.28903 -9.6788 -9.6788 -9.6788 -9.6788 -9.83219 -9.83219 -9.83219 -9.83219 -10.4996 -10.4996 -10.4996 -10.4996 -9.81873 -9.81873 -9.81873 -9.81873 -9.6117 -9.6117 -9.6117 -9.6117 -10.2351 -10.2351 -10.2351 -10.2351 -9.90368 -9.90368 -9.90368 -9.90368 -10.154 -10.154 -10.154 -10.154 -9.89413 -9.89413 -9.89413 -9.89413 -2.59093 -2.59093 -2.59093 -2.59093 -10.1369 -10.1369 -10.1369 -10.1369 -9.45296 -9.45296 -9.45296 -9.45296 -9.85302 -9.85302 -9.85302 -9.85302 -9.94572 -9.94572 -9.94572 -9.94572 -9.93936 -9.93936 -9.93936 -9.93936 -9.91021 -9.91021 -9.91021 -9.91021 -9.94935 -9.94935 -9.94935 -9.94935 -9.46667 -9.46667 -9.46667 -9.46667 -2.04348 -2.04348 -2.04348 -2.04348 -9.94556 -9.94556 -9.94556 -9.94556 -10.0028 -10.0028 -10.0028 -10.0028 -9.63184 -9.63184 -9.63184 -9.63184 -10.1656 -10.1656 -10.1656 -10.1656 -10.1436 -10.1436 -10.1436 -10.1436 -9.42895 -9.42895 -9.42895 -9.42895 -9.9069 -9.9069 -9.9069 -9.9069 -9.80891 -9.80891 -9.80891 -9.80891 -10.0931 -10.0931 -10.0931 -10.0931 -9.66428 -9.66428 -9.66428 -9.66428 -9.52633 -9.52633 -9.52633 -9.52633 -9.95014 -9.95014 -9.95014 -9.95014 -1.26472 -1.26472 -1.26472 -1.26472 -9.83194 -9.83194 -9.83194 -9.83194 -9.71864 -9.71864 -9.71864 -9.71864 -10.0872 -10.0872 -10.0872 -10.0872 -9.66367 -9.66367 -9.66367 -9.66367 -10.0294 -10.0294 -10.0294 -10.0294 -10.0447 -10.0447 -10.0447 -10.0447 -10.6756 -10.6756 -10.6756 -10.6756 -9.40708 -9.40708 -9.40708 -9.40708 -10.373 -10.373 -10.373 -10.373 -9.43082 -9.43082 -9.43082 -9.43082 -10.2858 -10.2858 -10.2858 -10.2858 -9.90833 -9.90833 -9.90833 -9.90833 -9.84226 -9.84226 -9.84226 -9.84226 -10.46 -10.46 -10.46 -10.46 -9.96171 -9.96171 -9.96171 -9.96171 -10.1505 -10.1505 -10.1505 -10.1505 -10.0853 -10.0853 -10.0853 -10.0853 -9.93281 -9.93281 -9.93281 -9.93281 -1.64627 -1.64627 -1.64627 -1.64627 -10.1257 -10.1257 -10.1257 -10.1257 -9.61819 -9.61819 -9.61819 -9.61819 -9.82527 -9.82527 -9.82527 -9.82527 -10.0647 -10.0647 -10.0647 -10.0647 -9.63648 -9.63648 -9.63648 -9.63648 -9.9469 -9.9469 -9.9469 -9.9469 -9.84409 -9.84409 -9.84409 -9.84409 -9.42221 -9.42221 -9.42221 -9.42221 -10.1345 -10.1345 -10.1345 -10.1345 -10.1048 -10.1048 -10.1048 -10.1048 -9.37277 -9.37277 -9.37277 -9.37277 -1.37811 -1.37811 -1.37811 -1.37811 -10.1522 -10.1522 -10.1522 -10.1522 -1.55105 -1.55105 -1.55105 -1.55105 -10.387 -10.387 -10.387 -10.387 -10.1106 -10.1106 -10.1106 -10.1106 -9.88873 -9.88873 -9.88873 -9.88873 -9.9304 -9.9304 -9.9304 -9.9304 -10.1451 -10.1451 -10.1451 -10.1451 -9.9258 -9.9258 -9.9258 -9.9258 -9.86498 -9.86498 -9.86498 -9.86498 -9.91329 -9.91329 -9.91329 -9.91329 -10.0231 -10.0231 -10.0231 -10.0231 -10.1065 -10.1065 -10.1065 -10.1065 -9.93201 -9.93201 -9.93201 -9.93201 -9.36005 -9.36005 -9.36005 -9.36005 -9.82314 -9.82314 -9.82314 -9.82314 -9.92627 -9.92627 -9.92627 -9.92627 -10.0606 -10.0606 -10.0606 -10.0606 -10.0706 -10.0706 -10.0706 -10.0706 -9.63446 -9.63446 -9.63446 -9.63446 -10.1581 -10.1581 -10.1581 -10.1581 -10.1735 -10.1735 -10.1735 -10.1735 -10.1044 -10.1044 -10.1044 -10.1044 -2.88637 -2.88637 -2.88637 -2.88637 -10.153 -10.153 -10.153 -10.153 -10.1989 -10.1989 -10.1989 -10.1989 -10.4309 -10.4309 -10.4309 -10.4309 -10.1215 -10.1215 -10.1215 -10.1215 -9.94721 -9.94721 -9.94721 -9.94721 -1.93487 -1.93487 -1.93487 -1.93487 -10.1251 -10.1251 -10.1251 -10.1251 -10.147 -10.147 -10.147 -10.147 -10.1192 -10.1192 -10.1192 -10.1192 -10.0724 -10.0724 -10.0724 -10.0724 -10.0177 -10.0177 -10.0177 -10.0177 -10.1443 -10.1443 -10.1443 -10.1443 -9.91092 -9.91092 -9.91092 -9.91092 -9.61532 -9.61532 -9.61532 -9.61532 -10.1197 -10.1197 -10.1197 -10.1197 -10.1675 -10.1675 -10.1675 -10.1675 -9.89766 -9.89766 -9.89766 -9.89766 -9.93547 -9.93547 -9.93547 -9.93547 -10.1278 -10.1278 -10.1278 -10.1278 -10.1294 -10.1294 -10.1294 -10.1294 -9.92765 -9.92765 -9.92765 -9.92765 -9.83938 -9.83938 -9.83938 -9.83938 -10.5352 -10.5352 -10.5352 -10.5352 -10.1345 -10.1345 -10.1345 -10.1345 -9.94009 -9.94009 -9.94009 -9.94009 -10.4288 -10.4288 -10.4288 -10.4288 -10.0818 -10.0818 -10.0818 -10.0818 -9.76501 -9.76501 -9.76501 -9.76501 -15.328 -15.328 -15.328 -15.328 -1.69074 -1.69074 -1.69074 -1.69074 -9.9343 -9.9343 -9.9343 -9.9343 -10.1404 -10.1404 -10.1404 -10.1404 -10.1379 -10.1379 -10.1379 -10.1379 -10.0858 -10.0858 -10.0858 -10.0858 -10.1312 -10.1312 -10.1312 -10.1312 -10.0707 -10.0707 -10.0707 -10.0707 -9.93191 -9.93191 -9.93191 -9.93191 -9.93919 -9.93919 -9.93919 -9.93919 -9.91934 -9.91934 -9.91934 -9.91934 -9.34901 -9.34901 -9.34901 -9.34901 -10.1011 -10.1011 -10.1011 -10.1011 -9.93372 -9.93372 -9.93372 -9.93372 -10.15 -10.15 -10.15 -10.15 -10.0751 -10.0751 -10.0751 -10.0751 -10.1549 -10.1549 -10.1549 -10.1549 -9.34818 -9.34818 -9.34818 -9.34818 -9.35158 -9.35158 -9.35158 -9.35158 -10.075 -10.075 -10.075 -10.075 -9.94515 -9.94515 -9.94515 -9.94515 -1.34753 -1.34753 -1.34753 -1.34753 -9.9463 -9.9463 -9.9463 -9.9463 -10.129 -10.129 -10.129 -10.129 -10.1205 -10.1205 -10.1205 -10.1205 -10.0852 -10.0852 -10.0852 -10.0852 -9.9363 -9.9363 -9.9363 -9.9363 -9.93476 -9.93476 -9.93476 -9.93476 -9.51175 -9.51175 -9.51175 -9.51175 -10.0943 -10.0943 -10.0943 -10.0943 -10.1193 -10.1193 -10.1193 -10.1193 -10.122 -10.122 -10.122 -10.122 -10.0439 -10.0439 -10.0439 -10.0439 -10.0939 -10.0939 -10.0939 -10.0939 -10.1955 -10.1955 -10.1955 -10.1955 -9.39439 -9.39439 -9.39439 -9.39439 -9.91162 -9.91162 -9.91162 -9.91162 -10.1287 -10.1287 -10.1287 -10.1287 -9.92534 -9.92534 -9.92534 -9.92534 -10.0746 -10.0746 -10.0746 -10.0746 -9.93508 -9.93508 -9.93508 -9.93508 -10.0676 -10.0676 -10.0676 -10.0676 -10.0859 -10.0859 -10.0859 -10.0859 -10.1144 -10.1144 -10.1144 -10.1144 -9.95311 -9.95311 -9.95311 -9.95311 -10.6269 -10.6269 -10.6269 -10.6269 -9.94658 -9.94658 -9.94658 -9.94658 -10.5312 -10.5312 -10.5312 -10.5312 -9.93726 -9.93726 -9.93726 -9.93726 -9.94972 -9.94972 -9.94972 -9.94972 -10.127 -10.127 -10.127 -10.127 -10.0904 -10.0904 -10.0904 -10.0904 -10.0989 -10.0989 -10.0989 -10.0989 -9.94522 -9.94522 -9.94522 -9.94522 -10.1373 -10.1373 -10.1373 -10.1373 -10.0491 -10.0491 -10.0491 -10.0491 -10.081 -10.081 -10.081 -10.081 -10.115 -10.115 -10.115 -10.115 -9.96493 -9.96493 -9.96493 -9.96493 -9.93129 -9.93129 -9.93129 -9.93129 -9.96053 -9.96053 -9.96053 -9.96053 -9.95994 -9.95994 -9.95994 -9.95994 -10.1199 -10.1199 -10.1199 -10.1199 -10.1346 -10.1346 -10.1346 -10.1346 -10.14 -10.14 -10.14 -10.14 -9.92895 -9.92895 -9.92895 -9.92895 -10.0969 -10.0969 -10.0969 -10.0969 -10.1717 -10.1717 -10.1717 -10.1717 -10.1525 -10.1525 -10.1525 -10.1525 -9.95501 -9.95501 -9.95501 -9.95501 -2.9138 -2.9138 -2.9138 -2.9138 -9.94519 -9.94519 -9.94519 -9.94519 -10.1562 -10.1562 -10.1562 -10.1562 -1.26819 -1.26819 -1.26819 -1.26819 -10.1553 -10.1553 -10.1553 -10.1553 -10.1397 -10.1397 -10.1397 -10.1397 -10.1576 -10.1576 -10.1576 -10.1576 -9.95049 -9.95049 -9.95049 -9.95049 -9.95048 -9.95048 -9.95048 -9.95048 -9.94858 -9.94858 -9.94858 -9.94858 -10.0592 -10.0592 -10.0592 -10.0592 -9.94609 -9.94609 -9.94609 -9.94609 -9.96215 -9.96215 -9.96215 -9.96215 -9.9538 -9.9538 -9.9538 -9.9538 -10.6694 -10.6694 -10.6694 -10.6694 -9.97025 -9.97025 -9.97025 -9.97025 -9.97407 -9.97407 -9.97407 -9.97407 -9.96252 -9.96252 -9.96252 -9.96252 -9.93836 -9.93836 -9.93836 -9.93836 -9.75129 -9.75129 -9.75129 -9.75129 -4.94025 -4.94025 -4.94025 -4.94025 -3.61048 -3.61048 -3.61048 -3.61048 -9.68105 -9.68105 -9.68105 -9.68105 -9.39212 -9.39212 -9.39212 -9.39212 -3.13853 -3.13853 -3.13853 -3.13853 -3.65849 -3.65849 -3.65849 -3.65849 -9.50114 -9.50114 -9.50114 -9.50114 -9.5363 -9.5363 -9.5363 -9.5363 -9.33814 -9.33814 -9.33814 -9.33814 -9.5374 -9.5374 -9.5374 -9.5374 -9.92351 -9.92351 -9.92351 -9.92351 -9.84951 -9.84951 -9.84951 -9.84951 -13.2272 -13.2272 -13.2272 -13.2272 -10.5886 -10.5886 -10.5886 -10.5886 -9.71246 -9.71246 -9.71246 -9.71246 -9.71763 -9.71763 -9.71763 -9.71763 -9.85327 -9.85327 -9.85327 -9.85327 -9.74795 -9.74795 -9.74795 -9.74795 -3.61292 -3.61292 -3.61292 -3.61292 -5.23576 -5.23576 -5.23576 -5.23576 -9.44032 -9.44032 -9.44032 -9.44032 -9.31875 -9.31875 -9.31875 -9.31875 -9.85931 -9.85931 -9.85931 -9.85931 -9.77662 -9.77662 -9.77662 -9.77662 -9.94911 -9.94911 -9.94911 -9.94911 -9.53937 -9.53937 -9.53937 -9.53937 -9.67531 -9.67531 -9.67531 -9.67531 -9.64885 -9.64885 -9.64885 -9.64885 -2.16473 -2.16473 -2.16473 -2.16473 -4.10006 -4.10006 -4.10006 -4.10006 -9.47512 -9.47512 -9.47512 -9.47512 -9.41828 -9.41828 -9.41828 -9.41828 -9.75547 -9.75547 -9.75547 -9.75547 -9.77726 -9.77726 -9.77726 -9.77726 -9.91577 -9.91577 -9.91577 -9.91577 -9.52348 -9.52348 -9.52348 -9.52348 -10.1335 -10.1335 -10.1335 -10.1335 -10.0259 -10.0259 -10.0259 -10.0259 -9.56045 -9.56045 -9.56045 -9.56045 -9.46915 -9.46915 -9.46915 -9.46915 -9.63553 -9.63553 -9.63553 -9.63553 -9.56971 -9.56971 -9.56971 -9.56971 -9.49707 -9.49707 -9.49707 -9.49707 -9.65296 -9.65296 -9.65296 -9.65296 -6.85534 -6.85534 -6.85534 -6.85534 -7.61328 -7.61328 -7.61328 -7.61328 -9.43285 -9.43285 -9.43285 -9.43285 -9.64663 -9.64663 -9.64663 -9.64663 -9.80546 -9.80546 -9.80546 -9.80546 -9.9776 -9.9776 -9.9776 -9.9776 -9.42523 -9.42523 -9.42523 -9.42523 -9.46473 -9.46473 -9.46473 -9.46473 -5.91532 -5.91532 -5.91532 -5.91532 -6.76048 -6.76048 -6.76048 -6.76048 -9.56501 -9.56501 -9.56501 -9.56501 -10.9506 -10.9506 -10.9506 -10.9506 -9.70579 -9.70579 -9.70579 -9.70579 -9.61339 -9.61339 -9.61339 -9.61339 -9.90354 -9.90354 -9.90354 -9.90354 -9.81936 -9.81936 -9.81936 -9.81936 -10.715 -10.715 -10.715 -10.715 -13.151 -13.151 -13.151 -13.151 -9.60258 -9.60258 -9.60258 -9.60258 -9.63419 -9.63419 -9.63419 -9.63419 -9.77183 -9.77183 -9.77183 -9.77183 -9.90169 -9.90169 -9.90169 -9.90169 -9.3724 -9.3724 -9.3724 -9.3724 -9.61729 -9.61729 -9.61729 -9.61729 -6.99434 -6.99434 -6.99434 -6.99434 -6.75567 -6.75567 -6.75567 -6.75567 -7.12493 -7.12493 -7.12493 -7.12493 -7.45514 -7.45514 -7.45514 -7.45514 -9.41447 -9.41447 -9.41447 -9.41447 -9.3976 -9.3976 -9.3976 -9.3976 -9.74524 -9.74524 -9.74524 -9.74524 -9.94745 -9.94745 -9.94745 -9.94745 -9.83757 -9.83757 -9.83757 -9.83757 -9.74467 -9.74467 -9.74467 -9.74467 -11.0651 -11.0651 -11.0651 -11.0651 -10.9978 -10.9978 -10.9978 -10.9978 -9.85007 -9.85007 -9.85007 -9.85007 -9.92732 -9.92732 -9.92732 -9.92732 -10.1169 -10.1169 -10.1169 -10.1169 -10.2168 -10.2168 -10.2168 -10.2168 -10.4893 -10.4893 -10.4893 -10.4893 -10.4977 -10.4977 -10.4977 -10.4977 -9.69274 -9.69274 -9.69274 -9.69274 -9.67155 -9.67155 -9.67155 -9.67155 -9.93076 -9.93076 -9.93076 -9.93076 -9.86972 -9.86972 -9.86972 -9.86972 -9.82627 -9.82627 -9.82627 -9.82627 -9.91314 -9.91314 -9.91314 -9.91314 
VECTORS Velocity float 
0.0344366 -0.0236995 0.0579136 
0.0282795 -0.0757853 0.232186 
0.00976027 -0.0304116 0.0342992 
0.0220494 -0.109028 0.246294 
-0.014676 -0.076846 0.081641 
-0.0128325 -0.0316509 0.0302209 
0.0134627 0.0331929 -0.0163587 
0.00472986 -0.0155204 0.0176493 
-0.0250733 0.0407722 0.148117 
-0.0724627 0.105091 0.264556 
-0.0572695 0.0643254 0.0837557 
-0.0551994 0.0352722 0.189059 
0.0451624 -0.0644844 0.235675 
0.0371585 -0.00762531 0.288168 
0.0149729 -0.0159725 0.199084 
0.0432353 -0.0737287 0.369237 
-0.00857399 -0.0158114 -0.0123598 
0.00150566 0.0270956 0.0734896 
0.0126332 0.028857 0.0805658 
0.00177165 0.0211458 0.0189667 
-0.000506873 0.017351 -0.0223922 
-0.00781476 -0.0287008 0.0326438 
-0.00405968 -0.0631561 0.086072 
0.000140143 -0.0252674 0.0782483 
-4.53909e-05 -0.00150666 0.185444 
0.0130024 -0.0250756 0.217025 
0.00903251 -0.02289 0.133472 
0.00442945 -0.00862665 0.0799314 
0.0777614 0.0034073 0.240646 
0.0778493 -0.0276674 0.26908 
0.0326092 -0.0127851 0.28153 
0.0139174 -0.00440719 0.174928 
0.016445 -0.141778 0.207119 
-0.107851 -0.10673 0.230789 
-0.0237803 -0.190932 0.438011 
0.121005 -0.0961773 0.0960822 
0.0286175 -0.0167897 0.134946 
0.0288929 -0.0185121 0.0740089 
-0.0112599 0.00634537 -0.010105 
0.019657 -0.00936311 0.0770803 
0.0222079 0.0269032 0.0868885 
-0.00284897 0.0276388 0.0727183 
-0.0126059 0.074749 0.106646 
0.00564089 0.023174 0.00435469 
0.0387814 -0.0696756 0.206187 
0.00610969 -0.0269242 0.0546968 
0.000728041 -0.0259648 0.132116 
0.0085678 -0.0142422 0.0469954 
0.0404664 -0.0389997 0.046223 
0.0391408 -0.0979121 0.124256 
0.0335202 -0.0687008 0.237699 
0.0127498 -0.0988345 0.254017 
-0.0249033 -0.0343545 0.0502583 
-0.0124407 -0.0320453 0.0307812 
0.0109409 0.016615 -0.00660839 
-0.0122547 -0.0168979 0.0759299 
0.00716349 -0.0260752 0.128376 
0.0125129 -0.0270703 0.222288 
0.00088316 0.000124537 0.187698 
0.00235491 -0.0191434 0.18532 
-0.00485157 0.00225184 0.00183359 
-0.00327736 0.00235755 -0.014017 
0.0252008 -0.0155807 0.135961 
0.0205112 -0.0139336 0.0786344 
0.00742625 -0.0252009 0.114114 
0.0118534 -0.0328485 0.0343178 
0.0293225 -0.0685997 0.233226 
0.0115911 -0.0897542 0.247071 
-0.000968736 0.00124757 0.122264 
0.00162747 -0.00371736 0.184993 
0.00874788 -0.0213109 0.135031 
0.0037293 -0.00827737 0.0794106 
-0.029231 0.0480383 0.15972 
-0.0750213 0.109029 0.270126 
-0.0117162 0.046319 0.0271275 
-0.0530419 0.0583564 0.0761391 
0.0133809 0.00926447 -0.00935056 
0.00867134 0.000630929 -0.00794944 
-0.0386685 -0.0307045 0.0360605 
-0.015143 -0.00687094 0.0158364 
0.0750661 0.00124944 0.234739 
0.0788842 -0.0327228 0.275917 
0.0182265 -0.00192155 0.18512 
0.0605849 0.00205368 0.106139 
2.25073e-06 -0.000482259 0.198053 
0.0211352 -0.0213643 0.22643 
0.0249296 -0.0149954 0.143785 
0.0186771 -0.00723187 0.196422 
0.0347287 -0.0126426 0.286988 
0.0087526 -0.020182 0.3103 
0.023011 -0.0265357 0.215878 
0.0347882 -0.0624809 0.351519 
-0.00232041 0.000325931 0.14038 
-0.000304913 0.000611678 0.123486 
0.00111161 -0.00223154 0.184619 
0.00831911 -0.0210685 0.134143 
0.0041811 0.00249639 0.278726 
-0.0203922 -0.0302447 0.23664 
-0.00476273 -0.0399718 0.275116 
-0.00596529 -0.0199399 0.324909 
-0.0026842 -0.0347428 0.120403 
0.0105126 -0.0470669 0.266758 
0.0352759 -0.0623048 0.230197 
0.0206761 -0.0174157 0.224064 
-0.0784474 0.00622456 0.243252 
-0.0246629 -0.00531824 0.115089 
-0.0852779 -0.0207144 0.248357 
-0.0337118 -0.00224362 0.0376142 
0.0276869 -0.0282505 0.0624543 
0.00325166 -0.0112558 0.0347763 
0.0269952 -0.0966848 0.107666 
0.0241684 -0.106965 0.244763 
-0.000391301 0.00137454 0.139599 
0.000455378 0.00143778 0.17811 
0.000537361 -0.00190925 0.197012 
0.0216279 -0.0147214 0.148277 
0.00137543 0.000672586 0.125803 
0.0056089 -0.0211899 0.128261 
-0.00200185 0.000373179 0.144131 
0.00456197 -0.00795016 0.0823306 
0.043064 -0.0623567 0.232536 
0.0172508 -0.0181595 0.204722 
-0.00458722 -0.046525 0.272766 
0.0428737 -0.0734493 0.36711 
0.0373386 -0.0536623 0.202784 
0.000475056 -0.0249142 0.132003 
0.0117715 -0.0175255 0.106435 
0.00944362 -0.020314 0.0480568 
-0.0196774 -0.0041862 -0.0109022 
0.00661309 -0.00584699 0.0186372 
0.0354253 0.00207521 0.0393865 
0.0657032 0.00199655 0.104084 
0.050066 -0.0821064 0.208567 
0.0239411 -0.0383413 0.0628279 
-0.00412498 -0.0183158 0.0523005 
0.00273926 -0.0100782 0.0455651 
0.00462779 0.00268345 0.279189 
0.00145986 0.00256821 0.225432 
-0.00819005 -0.0438023 0.264698 
-0.0150085 -0.0279132 0.242435 
0.00159928 -0.004983 0.301615 
-0.000349314 0.00200654 0.252897 
-0.0194913 0.0227485 0.318168 
-0.00667729 0.0321155 0.313283 
-0.00495171 0.00141552 0.000623379 
0.0225382 -0.014427 0.135529 
-0.00566516 0.00404954 -0.00360843 
0.020528 -0.0145542 0.0778048 
0.00140021 0.00224327 0.264605 
-0.00823566 -0.0166693 0.324087 
-0.00182561 -0.0424951 0.281438 
0.00791148 -0.018555 0.301683 
-0.0026969 -0.000987197 -0.0181505 
0.0043574 0.0213487 0.0815666 
0.004946 0.0263288 0.133119 
0.00270001 0.00751502 0.0786911 
0.00716036 -0.140914 0.451546 
-0.106255 -0.0911908 0.458781 
-0.0373691 -0.06317 0.655356 
0.000998503 -0.0512068 0.694531 
0.00572058 -0.00929816 0.00102653 
0.00665961 -0.00407881 -0.000826152 
-0.00410225 0.0198353 0.0499402 
0.000534942 0.0243107 0.0154678 
-0.00439389 0.00704435 -0.00112105 
-0.00565648 0.00802396 -0.00238892 
-0.00813403 -0.0300336 0.0293936 
0.00232977 -0.0156363 0.0637604 
0.000269863 0.00350032 -0.00219135 
0.00112062 0.00386235 -0.0151662 
-0.0182622 -0.021782 0.045729 
-0.0101579 -0.00694938 0.0178295 
-0.00493145 0.000453524 -0.0014938 
-0.0076171 0.00116053 -0.0212924 
0.0225816 0.00184575 0.0790978 
0.0419211 -0.00469686 0.114877 
0.0015673 -0.00104786 0.153619 
-0.021313 0.0125008 0.121905 
-0.00124492 -0.00168298 0.198461 
-0.0208843 0.0179141 0.211942 
-0.0230298 -0.00984971 0.134129 
-0.080384 0.013154 0.215681 
-0.0282571 0.00721366 0.0891088 
-0.0307563 -0.00629713 0.0587635 
0.0214865 -0.0375733 0.0291914 
0.0813905 -0.120872 0.257657 
0.0428209 -0.0655939 0.25048 
0.0379449 -0.100562 0.11999 
-6.73844e-05 0.00118467 0.139932 
0.0193943 -0.0147472 0.150503 
0.00341672 -0.00211012 0.194934 
0.00699635 -0.00753977 0.104104 
0.0476462 -0.0547563 0.23128 
0.0269465 -0.0133322 0.136076 
0.0115271 -0.0240719 0.22409 
0.0710162 -0.0390435 0.253162 
-0.0982314 0.0236387 0.231842 
-0.0600952 0.00453644 0.0682164 
-0.0393935 0.0292111 0.078543 
-0.0239132 0.00772396 0.0834646 
0.0232219 -0.0266038 0.220274 
0.00808382 -0.0195283 0.308773 
-0.000530626 -0.0443252 0.270816 
0.0350747 -0.0629227 0.347589 
0.00467952 -0.105707 0.279824 
0.024047 -0.0469712 0.601433 
-0.0210363 -0.15615 0.492644 
-0.108792 -0.186879 0.0989893 
0.0408246 -0.0105815 0.282397 
0.0269609 0.00694414 0.221998 
0.0680792 0.00486075 0.234337 
0.0219979 -0.0104932 0.186556 
-0.00272905 -0.134611 0.170895 
-0.000619371 -0.0555966 0.050544 
-0.0146336 -0.129869 0.223655 
0.0389656 -0.0767525 0.117061 
0.00515364 0.0795727 0.363537 
0.0124172 0.141099 0.449966 
0.0819964 0.0954573 0.320188 
0.0297056 0.0868575 0.169829 
0.00750218 0.0369201 0.128809 
0.00483944 0.0250372 0.0802263 
-0.00721832 -0.012799 -0.0126855 
0.00439377 0.0265881 0.0739306 
0.027335 -0.0154123 0.145765 
0.0203992 -0.00134743 0.195835 
0.0708161 -0.0349951 0.238421 
0.0507344 -0.00502986 0.130674 
0.0019485 -0.00241906 0.240162 
-0.00928453 0.0344298 0.235004 
-0.0225624 0.0271496 0.331849 
-0.00643175 0.0342699 0.317717 
0.00194652 0.0314198 0.137872 
0.00538237 0.0836332 0.137502 
0.0193136 0.0725905 0.188114 
0.0133419 0.0201701 0.0627503 
0.00300852 0.00173681 0.278671 
-0.0225476 0.0170927 0.333188 
0.000602591 0.00716678 0.338449 
-0.00324578 0.0316404 0.323007 
0.0240112 -0.0155696 0.136343 
-0.00784044 0.00615413 -0.00422142 
0.0246898 -0.0204544 0.0763378 
0.00367645 -0.00400511 0.108371 
-0.0431317 0.0333425 0.0744058 
-0.0636245 -0.0234049 0.0709381 
-0.0847546 0.0201635 0.24438 
-0.123131 0.0821032 0.183038 
-0.0105473 -0.0349555 0.0363856 
-0.000818192 -0.0172041 0.0761875 
0.00218434 0.0224027 -0.0100524 
-0.0144111 -0.0610402 0.111753 
-0.0414266 0.0240012 0.0783997 
-0.0268943 0.00389024 0.089041 
-0.0556264 0.0176568 0.0710692 
-0.0140446 0.000824755 0.049538 
-0.00247446 0.000897249 -0.000464151 
0.0230082 -0.0143263 0.138169 
-0.00363873 0.00252324 -0.014386 
0.0163157 -0.00784085 0.0789889 
-0.0225468 0.0267553 0.321104 
-0.0107373 0.0299362 0.246278 
0.002607 0.000268593 0.250674 
-0.0265385 0.0217086 0.213716 
-0.000116629 -0.00354581 0.00575133 
0.00433074 0.0181625 0.0631793 
-0.000375714 -0.00218223 -0.0120045 
0.00219708 0.0195947 0.0192451 
0.0980053 0.0944903 0.326499 
0.0727062 0.00875402 0.211198 
0.151826 0.0256941 0.347185 
0.0981142 0.0422641 0.396906 
-0.0290853 0.0347601 0.155168 
-0.0169276 0.0156425 0.0606917 
-0.0544325 0.0483149 0.177358 
-0.0102122 0.0207313 0.0153337 
-0.0876485 0.0117721 0.243879 
-0.104869 -0.0143124 0.248897 
-0.0544784 0.0084903 0.061224 
-0.0190792 -0.0104898 0.0367023 
-0.00670549 0.00211126 -0.00696953 
-0.00428707 -0.000753202 -0.000356735 
0.0168103 0.000394803 0.0236161 
0.0430604 -0.00863828 0.0977419 
0.0716721 0.0736512 0.24042 
0.0417718 0.0240129 0.0937681 
0.0303282 0.0390893 0.158881 
0.0231089 0.0259359 0.0379444 
-0.0362886 -0.0572411 0.22836 
-0.0176496 -0.0271536 0.235226 
-0.0046558 -0.0259583 0.131195 
-0.0095098 -0.00982725 0.153879 
0.00149717 0.00223638 0.00558524 
0.00107648 0.00158666 0.00123815 
0.00186605 0.00271386 -0.002619 
0.00523624 -0.0140428 0.0662911 
0.000555076 0.000535702 0.129455 
0.0134114 -0.0198688 0.211757 
0.000274476 -0.000596145 0.183227 
0.00353244 -0.00879903 0.0847128 
0.00940068 -0.0138657 0.106031 
0.0158057 -0.0213506 0.215491 
0.000931975 -5.58685e-05 0.130019 
0.00150119 -0.00867088 0.0814695 
0.0943519 -0.0437997 0.480879 
0.077601 -0.0376708 0.222564 
0.152801 0.0211281 0.364218 
0.149012 -0.0700862 0.40069 
0.0331551 -0.066342 0.232776 
0.000296777 -0.0423081 0.271868 
0.00520713 -0.0234037 0.111919 
0.0136185 -0.0902654 0.248182 
-0.00238054 0.078833 0.114008 
0.0181636 0.0235301 0.0820222 
0.0026551 0.0315742 0.136509 
-0.00420107 0.0277636 0.0724839 
0.0400228 -0.0682189 0.237117 
0.0353185 -0.104835 0.112026 
0.0877457 -0.117673 0.295003 
0.0059423 -0.0922111 0.268123 
-0.0500908 -0.0682014 0.272878 
-0.101906 -0.0725159 0.172 
-0.0990453 -0.097216 0.369215 
-0.0581812 -0.0329379 0.157162 
-0.00096076 -0.000212725 0.17715 
-0.00171695 -0.0026679 0.200697 
0.0245728 -0.0131706 0.145024 
0.0195644 -0.00719705 0.194727 
-0.00307632 -0.00348933 -0.00254594 
-0.00432312 -0.00214684 -0.0170003 
0.0169381 0.0239897 0.0413695 
0.014579 0.0163877 0.0173603 
0.0926186 0.0895982 0.248451 
0.0410109 0.0244808 0.0935758 
0.0156907 0.0223851 0.035299 
0.0265551 0.0182629 -0.00394646 
-0.0029053 -0.0377281 0.021509 
-0.0143139 -0.0171847 0.0825646 
-0.0258784 -0.0381756 0.0646752 
-0.0317375 -0.0517905 0.119997 
0.123194 0.0767505 0.279794 
0.0945884 0.0551919 0.138706 
0.0551285 0.0348747 0.0870187 
-0.0219491 0.02847 -0.0405633 
-0.0241973 0.0394548 0.159289 
-0.0517795 0.0437871 0.182235 
-0.0565567 0.0670882 0.0786842 
-0.0104171 0.0142431 0.0175083 
0.00161687 0.00108696 0.154779 
0.00150092 -0.000436794 0.124539 
-0.00245341 0.00074883 0.195904 
-0.0199183 0.0100439 0.125021 
0.00053864 -0.0279239 0.134136 
0.0383941 -0.0563493 0.204864 
0.0110379 -0.0152114 0.104674 
0.0172826 -0.0244137 0.22055 
-0.0049381 -0.0984946 0.238553 
0.0184779 -0.178487 0.53305 
-0.0209443 -0.0375012 0.634933 
0.0935135 -0.15847 -0.0526726 
0.0441849 -0.0643557 0.235746 
0.0758098 -0.0382255 0.282561 
0.0775168 -0.115557 0.284378 
0.0726024 -0.0602968 0.0795623 
0.000244378 -5.41181e-05 0.283675 
-0.00323792 0.00105206 0.23415 
0.000759275 0.000909857 0.220391 
0.000306158 -0.0409342 0.249277 
0.0203913 -0.0161277 0.149993 
0.0208963 -0.0212066 0.21818 
0.00149684 -0.000120728 0.196458 
0.00773795 -0.0083486 0.103548 
-0.0859856 0.0331383 0.221385 
-0.0263725 0.000257532 0.0896122 
-0.0452117 0.0285253 0.080724 
-0.00779008 0.00146224 0.0432931 
8.06614e-05 0.00305342 0.210967 
0.00307339 -0.0461302 0.271293 
0.0187095 -0.0232538 0.22022 
0.00646425 -0.0226204 0.306616 
0.00336426 0.00193689 -0.0104414 
-0.000254287 0.0224845 0.128115 
0.0011279 0.000242442 -0.00173437 
0.000443539 0.00459633 0.078027 
-0.000548742 0.00135132 0.246079 
0.0221523 -0.0199172 0.22552 
0.000273149 0.000745932 0.195634 
0.0173237 -0.00982772 0.199364 
0.106377 0.113649 0.26514 
0.01268 0.0142344 0.0275097 
0.0196008 0.0407125 0.0640989 
0.0193557 0.00494053 -0.013736 
-0.00236458 -0.000656544 0.000960266 
-0.000315007 -0.00123042 0.0670149 
0.0136024 -0.000311639 0.119123 
0.0058719 0.00215585 0.0838667 
9.33956e-05 0.00108528 0.00516115 
0.000108424 0.00125991 -0.00214696 
0.00018428 0.00214137 -0.00803873 
0.023827 -0.00697177 0.0997538 
0.00590994 0.00423075 -0.00676428 
-0.00403395 -0.0157462 0.0744235 
0.00211353 0.00390997 0.00283799 
-0.0170464 -0.0347597 0.108413 
0.000515807 7.53426e-06 0.0632161 
-0.00109958 0.000182119 0.000917617 
-0.000723474 -0.000263643 0.000866042 
0.00983747 -0.00134815 0.119827 
0.0200654 -0.156802 0.467153 
0.00276433 -0.057033 0.580959 
0.0850901 -0.180963 0.0462285 
0.0329203 -0.0977255 0.607894 
0.0112232 0.0208216 -0.0187411 
-0.0121171 -0.0151577 0.0839856 
-0.0122816 -0.0350707 0.033664 
-0.0242659 -0.0572133 0.104987 
-0.0390212 -0.0212776 0.0625983 
-0.0102189 -0.012924 0.00832716 
0.0167775 -0.0144694 -0.0351587 
-0.0632729 -0.024581 0.0783943 
-0.023779 -0.00206874 0.114357 
-0.0373133 -0.0168222 0.280416 
-0.0744016 0.00858528 0.239767 
-0.0883274 -0.0215874 0.250993 
0.00298412 0.00059318 0.18935 
-0.000358318 0.00246031 0.137996 
0.00583191 -0.0244888 0.130809 
0.00167993 -0.019762 0.183925 
-0.000770369 -0.000389195 0.261534 
-0.0262342 0.019944 0.306074 
0.00557414 0.00415647 0.260369 
-0.0212729 0.0180685 0.215047 
0.0234552 -0.00271002 0.114885 
0.0677903 0.00932315 0.212413 
0.0276427 0.00478783 0.220692 
0.0210936 -0.00921954 0.198336 
0.00571524 0.013757 -0.00135332 
-0.00282072 -0.0201935 0.0766323 
-0.00591482 -0.0194577 0.12291 
-0.0166146 -0.044801 0.113144 
-0.0418818 -0.0704902 0.0155486 
-0.102019 -0.102515 0.37558 
-0.0504786 -0.079173 0.291427 
-0.0927213 -0.0597321 0.158517 
0.0760102 0.0816404 0.251962 
0.0295292 0.0378454 0.157546 
0.0269143 0.0473544 0.0673399 
0.0218393 0.0227314 0.0315575 
0.0517601 -0.0518941 0.232899 
0.0230996 -0.034173 0.0512666 
0.0238512 -0.0164807 0.135379 
0.0807989 -0.0386247 0.260367 
0.0387545 -0.0151123 0.277331 
0.0052262 -0.0280435 0.229735 
0.0269881 -0.0170907 0.14149 
0.0753467 -0.0359013 0.248688 
-0.0190729 -0.0668221 0.0450816 
-0.0885055 -0.0750188 0.168886 
-0.0687833 -0.0637547 0.262079 
-0.0603133 -0.0341982 0.183943 
-0.000591381 -0.0023379 -0.000703712 
0.00113416 0.00281446 -0.00223042 
-0.000178456 0.00535669 -0.0036342 
-0.015368 -0.0240916 0.0273788 
0.0881496 0.0829018 0.288521 
0.0635659 0.0250488 0.0712582 
0.0803832 0.018622 0.24392 
0.057979 0.0450657 0.258954 
-0.0012529 0.000403722 0.00492061 
0.000724459 -0.000290742 -0.00673826 
0.000504455 -0.000190398 -0.0038732 
0.00423305 0.0132238 0.0552835 
-0.0500729 0.00551522 0.0706869 
-0.0297787 0.0105484 0.0907544 
-0.0971614 0.019626 0.221519 
-0.0190371 -0.0207905 0.0506349 
0.0439533 -0.0651549 0.207645 
0.0110209 -0.0145841 0.106958 
0.025163 -0.0420774 0.0652231 
0.00424383 -0.0137507 0.0426123 
-0.0140426 3.21427e-05 -0.000508577 
0.0186161 -0.00113961 0.117207 
0.0232079 -0.00500324 0.0759401 
0.0449962 -0.00322146 0.111946 
0.046429 -0.0567194 0.237868 
0.0144617 -0.01938 0.206222 
0.0362245 -0.0132849 0.284603 
0.0666964 -0.0461387 0.270291 
0.00370484 -0.00674084 -0.00213057 
-0.00893662 0.00930753 0.102125 
-0.00336925 0.014929 0.105008 
-0.00711592 0.0149773 0.0651996 
-0.000612439 -0.000165886 0.121942 
0.00117632 0.00130159 0.13033 
0.00125699 -0.00173364 0.182434 
0.00349236 -0.00831841 0.0851476 
0.000972582 -0.00193511 0.0733085 
-0.00644413 0.0113291 0.106591 
0.00121934 -0.00272988 0.00187253 
-0.0044929 0.00990311 0.103011 
-0.00122094 -0.0136065 0.600924 
-0.00610626 -0.0695402 0.292421 
0.00134844 -0.0284878 0.537963 
0.00707708 -0.207023 0.527568 
0.0804913 0.00817456 0.215709 
0.0176914 -0.00798062 0.19617 
0.0142655 -0.00267943 0.113604 
0.0522827 -0.00324634 0.126222 
-0.000548589 0.0797892 0.352168 
0.0880342 0.0952281 0.328007 
0.00830069 0.141256 0.467505 
0.0510808 0.0453572 0.381092 
0.00419174 0.0111052 -0.00861859 
-0.0110657 -0.0328544 0.0328675 
0.00470158 0.00755808 0.00251401 
-0.0171537 -0.0463155 0.0966516 
0.115278 0.0824843 0.167525 
0.10033 0.113778 0.317013 
0.00542049 0.161491 0.232208 
0.144605 0.0114672 0.134254 
-0.0196559 -0.0314677 0.22186 
-0.00941999 -0.00806972 0.318838 
-0.0472261 -0.0400623 0.382832 
-0.0253435 -0.0715367 0.364528 
-0.0033563 0.00103135 0.00244592 
0.0144828 -0.00304904 0.119009 
-0.0015752 0.000802971 0.065054 
0.00801524 -0.00248869 0.101038 
-0.0156612 -0.000194622 -0.00501401 
0.0261631 0.00341778 0.0802994 
0.0171429 -0.00131737 0.117995 
0.0491892 -0.00267105 0.117292 
0.0773603 0.0141021 0.244581 
0.10779 0.0758494 0.319332 
0.149262 0.0238794 0.331724 
0.108923 0.0705857 0.123656 
0.0358936 -0.012852 0.274004 
0.0172766 -0.0225206 0.228566 
-0.00121023 -0.00153429 0.24239 
0.0241378 -0.00516435 0.196767 
-0.0721264 0.103046 0.261785 
-0.02474 0.0394707 0.14608 
-0.0171426 0.057564 0.0427337 
-0.0122124 0.068067 0.206802 
0.0881489 0.0886546 0.323093 
0.0600027 0.0407872 0.250214 
0.0905088 0.00120234 0.224158 
0.0972228 0.0504899 0.393303 
0.0394807 -0.0575391 0.208915 
0.0290304 -0.012231 0.151872 
0.0113025 -0.0156151 0.103684 
0.0162764 -0.0230927 0.220602 
-0.023163 0.0150939 0.1152 
-0.0245374 0.0087536 0.190791 
0.000680887 -0.0022015 0.199889 
-0.0250905 0.0155774 0.217655 
0.000223321 0.079238 0.338999 
0.00634922 0.142649 0.487711 
0.0354107 0.0549486 0.523094 
0.0497775 0.0462878 0.36442 
0.0481093 -0.0691102 0.215036 
0.0228092 -0.0394626 0.0619479 
0.0117695 -0.0159913 0.106601 
0.0261948 -0.0186386 0.0643525 
0.0295484 0.0345242 0.152134 
0.0516228 0.0189198 0.0877572 
0.0768083 0.087017 0.260579 
0.0542022 0.0459193 0.251918 
-0.0358371 -0.0550848 0.2258 
-0.0043634 -0.024819 0.129764 
-0.0147294 -0.020438 0.0767954 
-0.0108918 -0.0127134 0.15844 
0.0201441 0.0458326 0.0687123 
0.0108224 0.0225839 0.0775608 
0.0217206 0.0861598 0.136498 
-0.0110055 0.0241815 -0.0171405 
0.101596 0.0970591 0.326511 
0.0432216 0.0534868 0.537438 
0.0203302 0.122447 0.512117 
0.0393929 0.0598769 0.346189 
-0.00452268 0.00185254 0.196013 
-0.0176767 0.00884492 0.124922 
0.000320405 0.000291302 0.12404 
-0.00791665 0.00266192 0.100979 
0.00266417 -0.00584718 -0.00134603 
-0.0013439 0.033588 0.126341 
0.00414161 -0.0104743 -0.00818406 
-0.00108802 0.026806 0.0708455 
-0.0167264 -0.0128542 -0.0102105 
0.0344978 0.0346471 0.0319057 
-0.0141403 -0.00783417 -0.0117583 
0.0209788 0.0170796 0.0144884 
-0.0300996 -0.0802768 0.00367478 
-0.0359155 0.0179395 -0.0569273 
0.026276 -0.0907638 0.161199 
0.0399363 -0.0822584 0.13353 
-0.00219305 -0.00249467 -0.00546665 
0.0203165 -0.00966966 0.136963 
-0.00293708 -0.00142574 -4.40581e-05 
0.00465463 -0.00299407 0.106142 
0.0235108 0.0391131 0.157101 
0.0191105 0.00439572 0.114592 
0.043705 0.0239126 0.0939096 
0.0642804 0.041687 0.244835 
0.00693742 0.0110465 -0.0113932 
-0.0109037 -0.0289393 0.0182347 
0.00835708 0.0147939 -0.00568379 
-0.00273108 -0.0146394 0.0151971 
-0.0123012 0.0368619 0.055121 
-0.0306514 0.0456606 0.15787 
-0.0537239 0.0595882 0.0672005 
-0.00636019 0.0109725 0.019998 
-0.036821 -0.0557578 0.228819 
-0.0156138 -0.0220471 0.0758676 
-0.0209578 -0.0140735 0.130106 
-0.00975356 -0.0117832 0.155497 
-0.00189501 -0.0061105 -0.0043773 
0.000644991 0.019088 0.055692 
0.00122939 -0.00145657 0.00351077 
-0.00109743 0.0196121 0.0208071 
0.00858104 -0.0132358 -0.00878865 
-0.0367471 0.0364458 0.0436174 
0.00822993 -0.0140963 -0.0158234 
-0.0180973 0.0175441 0.0258211 
-0.00272608 -0.00256314 0.30985 
0.00193281 -0.000422978 0.282209 
-0.00378412 -0.000254107 0.261922 
0.00184226 0.0323871 0.294069 
0.00171499 0.000670939 0.220311 
0.000551516 -0.0407183 0.247674 
-0.00452882 0.00105849 0.236064 
-0.000134738 -0.0202255 0.181872 
1.11033e-05 0.000232701 0.00242758 
-4.85504e-05 -0.000389651 0.00453069 
2.56542e-05 0.000219361 -0.00206914 
0.00790023 -0.00130238 0.0139698 
0.0467722 -0.0628897 0.233597 
0.0157192 -0.012537 0.0526706 
0.0854664 -0.0582136 0.259421 
0.0637258 -0.0540675 0.0936201 
0.00525356 -0.00965912 -0.0418208 
0.0525277 0.114361 0.173446 
0.0279686 0.0469663 0.0548843 
0.0287624 0.0103167 0.019079 
-0.0720076 0.015271 0.234612 
-0.0423805 -0.007578 0.273119 
-0.0306944 -0.0145248 0.123913 
-0.0255043 0.00337429 0.189076 
-0.000450993 0.00281698 -0.0200691 
0.000644781 0.00338204 0.00167077 
-0.00743512 -0.0151908 0.0810208 
-0.0122298 -0.0342616 0.108472 
0.000516239 0.0023901 0.264204 
0.0322555 0.00430033 0.224862 
0.0292852 0.0203543 0.305801 
0.0170826 0.00193456 0.308667 
0.00430324 -0.20605 0.432008 
-0.0454421 -0.120672 0.22487 
0.00463288 -0.0654068 0.0604937 
0.0433534 -0.0698934 0.106821 
-0.00879939 -0.0601702 0.107265 
0.0309616 -0.108637 0.110868 
-2.32233e-05 -0.00344761 0.0357775 
0.0256847 -0.109796 0.242911 
0.0790725 0.011409 0.247186 
0.0337644 0.0274373 0.0584341 
0.121059 0.0815253 0.302022 
0.104867 0.057214 0.145384 
-0.0251169 0.00139276 0.0944415 
-0.00677808 0.00076733 0.0939811 
-0.0270699 -0.00147951 0.127389 
-0.0278234 -0.00185944 0.065093 
0.000214743 -0.001574 -0.00400031 
0.000650474 -0.00128819 0.00227316 
-0.0050336 0.0111442 0.106234 
-0.0044387 0.00815128 0.10267 
0.0127098 -0.0924672 0.109428 
0.0169768 -0.0873128 0.0842625 
-0.0127252 0.0225464 0.0016362 
-0.00623526 -0.0150039 -0.00960263 
0.00681946 0.0267033 -0.12487 
-0.151712 0.0607329 0.0509417 
-0.170914 -0.00320748 0.368109 
-0.0795915 0.000264456 0.348176 
-0.000558027 0.000230212 0.00297104 
0.000560985 -0.0002024 -0.00533747 
-0.00122798 0.00064073 -0.00432232 
-0.00529914 -0.00973835 0.0641579 
-0.000923035 0.000306011 -0.0117233 
-0.00123924 0.000337745 -0.00138076 
-0.000411257 8.31948e-05 0.00521664 
-0.0090624 -0.0249025 0.101328 
-0.0372106 -0.0581833 0.234469 
-0.0221575 -0.0136519 0.12934 
-0.0179867 -0.0274732 0.23651 
-0.00889753 -0.00919009 0.149382 
0.0284064 0.176227 0.488369 
0.0909604 0.0929846 0.320659 
0.016847 0.0565118 0.136954 
0.0523414 0.139488 0.222666 
-0.000689484 0.000780543 -0.00314709 
-0.00179779 0.00171387 0.00242101 
-0.000516992 0.000638504 -0.00412017 
-0.00450771 -0.0142115 0.0326754 
-0.00681395 0.0112285 0.106807 
-0.0050529 0.00967625 0.103191 
0.00161371 -0.00218047 0.072107 
-0.00856191 0.0159392 0.162995 
8.18327e-05 0.00142442 0.199607 
-0.0267837 0.00871342 0.184002 
-0.0197721 0.00920824 0.122948 
-0.00898368 0.00291031 0.0998467 
0.0422689 -0.0648891 0.212969 
0.0132381 -0.0154528 0.104988 
0.0269946 -0.00694711 0.148936 
0.0264631 -0.0218963 0.0685329 
-0.0456356 -0.0253388 0.401202 
-0.0192535 0.0190808 0.427205 
0.0230661 -0.0214754 0.408056 
-0.0813615 0.0143276 0.363075 
0.00329109 0.0314227 0.139283 
0.0242092 0.0371262 0.163279 
0.0149068 0.0396745 0.237516 
0.00455357 0.0140211 0.169 
-0.0284117 0.0259642 0.322566 
0.00993173 -0.0220804 0.407491 
-0.024337 0.0297471 0.423054 
-0.0593992 0.0157155 0.363884 
-0.00696463 -0.0153971 -0.00581099 
0.00942378 0.0200982 0.0651983 
0.0190704 0.0395969 0.0445945 
0.00239356 0.0235325 0.0186041 
-0.0409268 0.0204096 0.319831 
-0.0256051 0.00196475 0.187292 
-0.0728602 0.0197807 0.238439 
-0.0153302 0.0297244 0.217166 
0.00667393 0.0172693 -0.00477252 
-0.0057858 -0.0203096 0.126059 
-0.0117337 -0.0162688 0.0834124 
-0.0176296 -0.0476844 0.114488 
0.0190259 -0.00606921 0.0736613 
0.0219907 -0.00288235 0.0197859 
-0.016177 0.000307481 -0.0102458 
0.0503108 -0.00699973 0.110379 
0.00112821 0.00222804 0.21507 
0.0147639 -0.0251147 0.22717 
0.00173183 -0.0431059 0.25717 
-0.000205511 -0.0218289 0.18376 
0.0370586 0.0295301 0.161099 
-0.00442562 0.0366798 0.140341 
0.0138679 0.0387243 0.238256 
0.019865 0.0701049 0.190354 
-0.00552965 -0.00428908 0.301172 
0.00165988 0.0133408 0.332269 
0.00138835 -0.000511898 0.278523 
0.00353024 0.0323953 0.307668 
0.022651 0.0447532 0.0656523 
0.025881 0.0797442 0.192654 
0.0120098 0.0877431 0.142408 
0.00641442 0.0135223 0.0578681 
-0.0396206 0.0259742 0.0759299 
-0.0596898 0.0536141 0.182103 
-0.0152674 0.0142139 0.058822 
-0.00673432 0.016303 0.0135935 
0.0257528 0.0402468 0.144157 
0.0845643 0.0888021 0.27927 
0.0253967 0.0559803 0.060124 
0.0215478 0.0683814 0.196469 
0.00594375 -0.00740788 0.748919 
0.00497415 -0.169624 0.460094 
-0.0339145 -0.0255576 0.645119 
0.0107112 -0.060465 0.714256 
-0.000673713 0.00272175 0.0108737 
0.0077541 -0.000996578 -0.00532005 
-0.027345 -0.00209081 0.0347371 
-0.0167152 0.00191184 0.0151841 
0.00823988 0.0283415 0.143438 
0.0109292 0.0273577 0.0665418 
0.0196922 0.0400396 0.158302 
0.00460455 0.0133286 0.176782 
-0.0472857 -0.0690483 0.284124 
-0.102153 -0.11587 0.396188 
-0.0451793 -0.0636721 -0.00403193 
-0.0525506 -0.110635 0.225496 
0.00220424 0.00438873 -0.00147088 
0.00144412 0.00760734 -0.00166804 
-0.0160391 -0.00880083 0.0229909 
-0.0186302 -0.0148185 0.0664562 
0.00951996 0.0098209 0.548564 
-0.0306712 0.0128304 0.305202 
-0.000941267 0.0873699 0.22258 
-0.107432 0.196436 0.154853 
-0.0251867 -0.0276347 0.239151 
0.0041892 -0.0461156 0.270055 
-0.0161722 -0.0103841 0.331426 
-0.0136694 -0.0735162 0.335477 
0.00180738 -0.00120706 -0.00263978 
0.00237679 -0.00166421 0.00287433 
0.00144169 -0.000936564 -0.00427412 
-0.00214932 0.0172492 0.0258223 
0.000945781 0.00222334 0.264231 
0.0283096 0.0202508 0.302862 
0.030868 0.00495151 0.225448 
0.0235197 0.0177773 0.204059 
0.000405034 0.000993511 0.216171 
-0.00118412 0.00328178 0.276903 
0.00217532 -0.0438549 0.263073 
0.00592695 -0.0212386 0.301662 
-0.00853891 -0.0149023 -0.00585099 
0.0193669 0.0346211 0.044898 
0.0118666 0.0193302 0.0424396 
0.0171086 0.0155117 0.0166079 
-0.00109054 0.00111547 0.0582081 
0.000618323 -0.00100831 0.125986 
0.00459978 -0.00462337 0.089303 
0.00503747 -0.00796252 0.110283 
0.00272042 -0.00440655 -0.0220319 
-0.0257941 0.0181206 0.0557098 
0.00263647 -0.00189036 -0.00744658 
-0.0127178 0.0113474 0.0310127 
0.00684868 -0.00805631 -2.60661e-05 
-0.0148891 0.0175438 0.0704618 
-0.00649066 0.00757471 0.100307 
-0.0113922 0.0165959 0.0636147 
-0.0193792 -0.0790499 0.0351494 
0.0156117 -0.0948209 0.138008 
-0.03694 0.0266108 -0.0850884 
0.00682742 -0.148903 0.240703 
-0.0504008 0.115179 0.289618 
-0.0161844 0.0720952 0.203144 
-0.0419305 0.0552799 0.0136247 
-0.0185415 0.115728 0.295145 
-0.0452718 0.0263784 0.0842238 
-0.0525066 0.0174379 0.0672785 
-0.0195506 0.00292771 -0.00815583 
-0.0179112 0.00535425 0.056564 
-0.000806146 0.0370734 0.143775 
0.0207759 0.0648199 0.18169 
0.0282646 0.031567 0.158053 
0.0127306 0.0251603 0.0666375 
0.018757 -0.00102443 0.119177 
0.0212514 -0.0059439 0.19282 
0.0259144 -0.0160564 0.149469 
0.0511275 -0.00413621 0.129762 
0.148157 -0.00359705 0.359207 
0.146364 -0.0781498 0.387612 
0.0827717 -0.0402542 0.279134 
0.146521 0.00648422 0.0849894 
-0.0252098 -0.00104985 0.135436 
-0.0251394 0.00320289 0.184028 
0.00194898 -0.0018875 0.130166 
-0.00963672 0.00145611 0.0877239 
0.00103242 0.000462414 0.235998 
-0.0188147 -0.0227025 0.242963 
-0.0369998 -0.0151244 0.265455 
-0.0207964 -0.0104075 0.182349 
-0.0424794 -0.0196031 0.0852657 
-0.0161339 -0.0103956 0.0163777 
0.00618719 0.00457294 -0.0132573 
-0.0230879 -0.0101511 0.0848557 
0.0477482 0.0149371 -0.0815685 
-0.201326 -0.00452861 0.336322 
-0.0725305 0.0163215 -0.0163623 
-0.145989 0.0219282 0.27783 
0.0892846 0.0238894 0.239596 
0.0418087 0.0269241 0.0799487 
0.00552895 0.00553598 0.0990826 
0.0676739 0.0397223 0.255656 
-0.00386823 -0.0436882 0.259094 
-0.0138289 -0.027904 0.241098 
-0.00133497 0.00260503 0.228085 
-0.000470321 -0.0219868 0.183441 
0.00749888 -0.00446811 -0.00148046 
-0.0211634 0.011705 0.11513 
-0.0158056 0.00799024 0.0619814 
-0.00898542 0.00243419 0.102024 
1.82298e-05 -0.00384055 -0.00184076 
-0.00360937 0.00992594 0.0968424 
3.86961e-05 -0.00251632 -0.000363483 
-0.00785993 0.0118854 0.0671452 
0.00290476 -0.00162317 -0.00361649 
0.00303599 -0.00266098 -0.00383787 
0.00126143 -0.000782648 -0.00263183 
-0.0265487 0.0148521 0.0276163 
-0.000620002 0.00174413 0.00119947 
-6.86988e-05 -0.00585891 0.0873648 
-4.48091e-05 0.000418828 0.0713992 
0.00229873 -0.00695794 0.0948062 
-0.00152639 -0.0250949 0.547161 
-0.0189843 -0.00140127 0.604641 
0.00788319 -0.00635706 0.748695 
0.00179347 -0.192765 0.512116 
-0.000922253 0.000431761 0.053613 
-0.00162025 0.000781771 0.00120041 
0.00648047 -0.00463606 0.10406 
0.00711614 -0.00301372 0.109437 
-0.002851 -0.000567379 0.00344798 
0.0159385 -0.00449753 0.0733545 
-0.00719262 -0.00656141 -0.00855329 
0.0364825 0.00213152 0.108277 
0.000498879 0.00113764 -0.00108121 
0.00250315 0.000415081 -0.00264724 
0.00149242 -0.000536011 -0.00103452 
-0.0169539 -0.00401159 0.018584 
-0.00864862 -0.0066107 0.324323 
-0.00518006 0.00654179 0.343851 
-0.00198583 0.00449334 0.298924 
-0.0173473 0.00155585 0.27803 
-0.0395404 0.022875 0.0771976 
-0.0524619 0.0629618 0.0705307 
-0.0575901 0.0543459 0.184314 
-0.00701098 0.00799442 0.0164093 
-0.078245 0.0192968 0.24149 
-0.0172838 0.00220078 0.166958 
-0.030303 0.0220003 0.333224 
-0.0732384 0.0141625 0.341024 
0.00222169 -0.00146911 0.307004 
0.00271218 0.00284072 0.264266 
-0.000191069 0.000736577 0.262927 
-0.0245004 0.0178123 0.296278 
-0.00119727 -0.0161003 -0.0113127 
0.00961332 0.0449649 0.0330078 
-0.00169975 -0.0157117 -0.0091654 
0.00215192 0.0229577 0.0152383 
-0.0418337 -0.116505 0.245068 
0.0308491 -0.105084 0.264417 
-0.059461 -0.062725 0.265426 
-0.0271784 -0.0940572 0.356447 
0.00747371 0.0133158 -0.00536724 
-0.0158955 -0.00451907 0.016457 
-0.0268027 -0.0319067 0.0489185 
-0.0149586 -0.017136 0.0512893 
0.0953443 -0.0557047 0.475971 
0.0945593 -0.0363253 0.246285 
0.0908191 -0.106804 0.339158 
0.0242857 -0.0698736 0.405201 
0.000850649 0.00134399 -0.00583755 
0.000551348 0.000870566 -0.00375304 
0.00136006 0.00193034 0.00303202 
-0.0187352 0.00392524 0.0358624 
0.0130247 -0.0147778 0.103099 
0.0229616 -0.0192526 0.073472 
-0.00694054 0.00550437 -0.00119461 
0.00495306 -0.00484007 0.107114 
-0.0205397 0.0180275 0.336548 
-0.0426493 0.0502964 0.292918 
-0.0710608 0.0559977 0.176795 
-0.0561445 0.0207217 0.364424 
0.000688373 0.00163504 -0.00205943 
0.000228959 0.00552888 -0.00146986 
-0.000966816 -0.00274452 -0.000379764 
0.00282535 -0.00438928 0.00188662 
0.00876595 -0.0275626 0.133347 
0.0145611 -0.0307442 0.218291 
0.0101244 -0.0137724 0.105362 
0.00299153 -0.000808206 0.0787214 
0.000722044 0.00355233 0.00017546 
-0.00540514 -0.0248294 0.0373332 
0.0027784 0.00388374 -0.0187431 
-0.00614276 -0.0176581 0.068613 
-0.0366562 0.0296455 0.330508 
-0.0224758 0.0206303 0.20487 
-0.0672315 0.0242144 0.245735 
-0.0512514 0.0360583 0.190629 
0.00364883 0.0776472 0.351845 
0.00582483 0.132664 0.427462 
0.0368182 0.0959584 0.184217 
-0.017451 0.108817 0.295667 
0.0186984 0.0126731 0.126005 
0.0214854 -0.00193102 0.121365 
0.067557 0.0096469 0.203933 
0.0282696 0.00452344 0.219287 
-0.0474741 0.0096549 0.0728219 
-0.0976659 0.0569009 0.163749 
-0.0523011 0.0301013 0.0778061 
-0.0276201 -0.00209083 -0.0138005 
0.0429451 -0.0658579 0.247717 
0.0773388 -0.110776 0.255951 
0.0265026 -0.0500718 0.0312719 
0.0576377 -0.0556127 0.0863931 
0.00127188 -0.00127601 0.178378 
0.00426484 -0.000122503 0.125601 
-0.0258577 -0.00235885 0.134735 
-0.0276546 0.00131422 0.189054 
0.0418052 -0.0769268 0.224982 
0.0710469 -0.0362734 0.272292 
0.0378355 -0.00515123 0.290302 
0.0555522 -0.0631345 0.38676 
-0.0135578 -0.0154512 0.124588 
-0.00567245 -0.0231243 0.0686456 
-0.0553844 -0.0589825 0.241015 
-0.052627 -0.0375398 0.183198 
0.00602783 0.00326925 0.280627 
0.000742616 0.00157022 0.225937 
-0.0147487 -0.0275811 0.242305 
-0.0111066 -0.0231079 0.320102 
-0.0198603 -0.000583178 -0.0186409 
0.0437409 0.000694697 0.0427401 
0.0213314 0.00476422 0.0804936 
0.0559211 -0.00196126 0.112114 
-1.71417e-05 0.000605696 3.58928e-05 
-3.4185e-05 -0.000210981 0.0731448 
0.000201012 0.000245172 0.0710557 
-0.000563305 -0.00567648 0.0879809 
-0.087916 -0.00856972 -0.0104683 
-0.154101 0.0038009 0.326876 
-0.0771161 0.0225213 0.250748 
-0.126725 0.0477288 0.271131 
0.0408863 -0.0660503 0.223502 
0.082007 -0.119204 0.320065 
0.082816 -0.0230212 0.271496 
0.0481951 -0.0768848 0.387966 
0.076779 -0.0356661 0.0847134 
0.0791217 -0.0430036 0.281979 
0.0975924 -0.0939204 0.319379 
0.144892 -0.063502 0.328204 
0.0041658 -0.131857 0.415378 
0.0204659 -0.0948588 0.264155 
-0.0509 -0.132317 0.225988 
-0.0212145 -0.0786049 0.372847 
-0.0122246 -0.0115917 0.118896 
-0.0529589 -0.061455 0.243453 
-0.01179 -0.0261793 0.242465 
-0.0531828 -0.0385468 0.18476 
-0.00566751 0.00321039 0.2683 
-0.00258239 -7.48215e-05 0.218285 
0.0320399 0.00632385 0.226979 
0.0240025 0.00428844 0.307322 
-0.000631451 -0.000710188 -0.00157475 
-0.00165544 -0.00207592 -0.00271462 
0.000529756 -0.00473574 -0.00457423 
0.00750723 0.0220018 0.0208196 
0.0341499 0.0321404 0.151027 
0.0385901 0.0275738 0.0940773 
0.0188302 0.00326921 0.12642 
0.0085463 0.00853394 0.0577209 
-0.00540173 -0.124394 0.453877 
-0.0849933 -0.109007 0.46767 
-0.00510251 -0.0247768 0.537427 
-0.0220413 -0.0717504 0.352307 
-0.0386121 0.0081492 0.186415 
-0.021405 0.00215655 0.271769 
-0.0289043 0.0166443 0.322405 
-0.0590069 0.0102731 0.328194 
-0.00563303 4.55951e-05 0.255744 
0.00334483 -0.000745962 0.284023 
-0.00821164 0.0310965 0.237757 
0.00144659 0.0326832 0.299905 
-0.0343577 0.0267168 0.328451 
-0.043308 0.0559612 0.287906 
-0.0210181 0.0179 0.200967 
-0.0522982 0.0379676 0.193279 
-0.0174617 0.0120911 0.123312 
-0.0205577 0.0176213 0.210402 
-0.00137851 -0.000106187 0.156582 
-0.00780205 0.0108442 0.0981319 
0.0107245 -0.0166718 0.105933 
0.0232404 -0.0207532 0.0745145 
0.0249966 -0.038033 0.0630116 
0.00584967 -0.0161674 0.0524726 
0.0982091 -0.0548634 0.258456 
0.052746 0.00605891 0.39521 
0.0975026 -0.0366506 0.470819 
0.0877657 0.0323084 0.411305 
0.0086132 -0.00170971 -0.0075072 
-0.028084 -0.000976416 0.126714 
-0.00784391 0.000816963 0.0924138 
-0.026165 -0.0017812 0.0678103 
-0.0219488 0.0662245 0.511768 
-0.0887191 0.0875474 0.608945 
-0.113542 0.131035 0.277988 
-0.0263637 0.159914 0.239215 
-0.0180651 0.0250646 0.343645 
-0.0595244 0.0482203 0.185195 
-0.0838583 0.0149044 0.23344 
-0.0676351 0.0205277 0.351227 
0.0245772 0.0370181 0.151627 
0.00913703 0.0225925 0.0753043 
0.00200553 0.00698151 0.0960761 
0.0054161 0.0152785 0.173038 
-0.00505048 -0.00417183 0.220556 
0.0147043 -0.0218024 0.222766 
0.000482597 -0.000200573 0.245548 
0.0117237 -0.0199841 0.30011 
0.000138075 0.000636116 -0.003116 
0.000336739 -0.0043823 0.0869104 
0.0002447 0.000719759 0.00161865 
0.000742665 -0.00699781 0.0946783 
0.00411098 0.00107 0.280875 
-0.00238876 -0.000767526 0.275803 
0.00231238 -0.00373106 0.231797 
-0.0117338 -0.0145915 0.312298 
0.00740907 0.00644942 0.305291 
0.00054165 -0.000246135 0.283603 
-0.01835 -0.00394037 0.321551 
-0.01667 -0.00122034 0.276123 
0.000800955 0.00346035 -0.0063936 
-0.0075024 -0.00101501 0.0907056 
-0.0205634 -0.00505815 0.126567 
-0.00588892 -0.00142984 0.0736521 
-0.0455614 -0.0660106 0.249243 
-0.00889042 -0.0166829 0.195763 
-0.0554964 -0.0511252 0.402628 
-0.0286004 -0.0802959 0.376076 
-0.000928843 0.00151267 0.266897 
0.0279713 0.0078093 0.228283 
-0.000863082 -0.000493044 0.218487 
0.0237077 0.0142241 0.204969 
0.0399369 0.0253425 0.0922122 
0.0436737 -0.00160746 0.0442143 
0.096829 0.0150241 0.211367 
0.0205568 0.00697278 0.0695789 
0.00222832 -0.000490885 0.00080863 
-0.0132701 0.00498113 0.0650536 
0.00178014 -0.00238418 -0.00295344 
-0.00922553 0.00414782 0.0962924 
-0.000327175 -0.000226469 0.215698 
-0.0209216 -0.023802 0.23965 
-0.000448589 0.00286123 0.239057 
-0.0174252 -0.0105843 0.184361 
-0.000832273 0.00116157 0.241198 
0.0155646 -0.0263583 0.218407 
0.0365426 -0.0163449 0.287048 
0.0153117 -0.0162477 0.307318 
0.00828581 -0.130284 0.470769 
0.0521063 -0.156763 0.0723536 
0.0878366 -0.105717 0.318163 
0.0687217 -0.124924 0.579835 
-0.00326199 -0.000939583 0.152501 
0.0291996 0.00898398 0.226127 
0.0215776 0.00805393 0.11789 
0.0235672 0.0138213 0.205268 
0.058806 -0.0312528 0.0842597 
0.149779 -0.0723162 0.306547 
0.0429859 -0.0577296 0.0720929 
0.117225 -0.018141 0.152592 
-0.0215889 0.016495 0.321591 
0.00286353 0.00198549 0.286801 
-0.00101549 0.00788731 0.346408 
-0.0258299 0.000662761 0.279669 
0.073037 0.0169729 0.227513 
0.0172719 0.0101946 0.107638 
0.0243317 0.000340889 0.225495 
0.0643154 0.0374532 0.25272 
-0.0467778 -0.128158 0.212181 
-0.022082 -0.0521771 0.117349 
-0.0439581 -0.0647336 0.268113 
0.0125036 -0.101278 0.26496 
-0.0143098 -0.00785233 0.0185477 
-0.0202164 -0.0143028 0.0592784 
0.00763965 0.00838106 -0.00916909 
-0.0207101 -0.0146262 0.080064 
-0.0041698 -0.0011557 0.00253391 
-0.0013802 8.54869e-06 0.08465 
0.0154656 0.00728293 0.120083 
0.00876189 0.00491842 0.0957942 
0.000191949 0.000238181 0.108113 
0.00178513 0.0089082 0.078963 
-0.000254646 0.00710821 0.087647 
0.000843186 0.0160941 0.182969 
0.0578837 -0.0439405 0.110326 
0.0951853 -0.0291618 0.262992 
0.110267 -0.0207597 0.148065 
0.0500928 0.00261764 0.113799 
0.000907611 -0.00015848 0.128956 
0.0160784 -0.0216242 0.21606 
0.00934478 -0.0138154 0.105869 
0.00779933 -0.00594628 0.104784 
-0.00182212 -0.0277189 0.393196 
-0.0211268 -0.00371572 0.322017 
0.00955224 -0.0551221 0.270337 
-0.0123634 -0.0713797 0.359516 
-0.0030265 0.00197685 -0.00260698 
0.0182131 -0.0103943 0.138223 
0.00998468 -0.00135462 0.103257 
0.00585902 -0.00720959 0.10895 
0.00526212 0.00455941 -0.0146409 
-0.0228825 -0.00670404 0.0601977 
-0.0482151 -0.0206469 0.0865213 
-0.0187577 -0.00948279 0.0851346 
-0.0363228 -0.00829672 -0.00779855 
-0.062317 -0.128254 0.228599 
-0.116147 -0.180966 0.401597 
-0.0899637 -0.0532911 0.157152 
-0.00169564 0.000632735 0.272994 
-0.0147106 -0.0247788 0.239838 
0.0018865 -0.00243368 0.232008 
-0.0116005 -0.0176697 0.314107 
0.00109489 -0.000538632 -0.00650402 
0.00192526 -0.000869016 0.00424083 
0.00294543 -0.00136299 -0.00023336 
-0.0107453 -0.00490519 0.070233 
0.00127482 -0.0551051 0.256291 
-0.00493898 0.000591007 0.472972 
0.172845 -0.229133 0.243279 
0.0800215 -0.0930636 0.668876 
-0.00101799 -0.0015961 0.24285 
0.0353598 -0.0129591 0.274502 
0.0250479 -0.00484461 0.195045 
0.017967 -0.00118146 0.309769 
-0.0436189 -0.021694 0.270869 
-0.0295956 -0.00233496 0.126677 
-0.020118 -0.00896988 0.178731 
-0.0496979 -0.0280228 0.187367 
-0.000761503 0.00323185 -0.0091848 
0.0039858 -0.0230776 0.122023 
-0.000888776 0.00313735 0.00247378 
0.000781341 -0.0161631 0.0754788 
-5.54687e-05 -0.000362668 0.0676754 
-0.000177819 0.000868633 0.058669 
-0.000169843 -0.000940865 0.125492 
0.00507674 -0.00448718 0.0897184 
-0.0185513 0.0126392 0.118647 
-0.00775625 0.0078381 0.102068 
-0.000885995 0.000717674 0.157347 
-0.00275512 0.00178273 0.075598 
0.00213413 -0.137933 0.45021 
-0.0996251 -0.106152 0.464321 
0.00247105 -0.0327178 0.688292 
-0.00629721 -0.0164548 0.540768 
0.0722436 0.0110178 0.237427 
0.0267699 0.00598788 0.210624 
0.0341174 -0.0199393 0.286737 
0.0701602 0.00526402 0.370874 
-0.0382375 -0.016037 0.275784 
-0.0492599 -0.0314153 0.358319 
-0.0177891 -0.0379377 0.241619 
-0.0101909 -0.0127083 0.324334 
-0.0243221 -0.00314423 0.124622 
-0.0221555 -0.00365411 0.0669415 
0.00237739 0.0018614 -0.00410756 
-0.00342567 -0.00174694 0.0731973 
0.0106555 -0.0252372 0.392518 
0.0107159 -0.0208323 0.295522 
0.044077 -0.00918268 0.283475 
0.0317567 -0.0606463 0.382808 
0.0139418 -0.00366808 -0.000518927 
-0.0117599 -0.0296209 0.0321992 
-0.0152172 -0.0779962 0.0805276 
0.00773999 -0.0175481 0.0161337 
-0.00107397 0.00340305 0.157293 
0.000292021 -0.000541208 0.162621 
0.019986 0.00768797 0.122687 
0.0264386 0.00276337 0.217882 
-0.000696517 0.000160435 -0.000362724 
0.00172122 0.000829448 0.00140882 
-0.00216974 -6.14905e-05 -0.00226293 
0.0101083 0.00366643 0.0131369 
-0.0293261 0.00352156 0.582863 
-0.0822836 0.0768131 0.653271 
-0.039292 -0.00566042 0.536041 
-0.00865498 0.257419 0.180063 
-0.00620759 -0.0259041 -0.0347004 
-0.0304884 0.0442708 0.0481878 
-0.0260226 0.0403554 0.0656238 
-0.0174977 0.0176394 0.0271266 
0.0652198 0.0131863 0.202464 
0.0234536 -0.00465072 0.122651 
0.0171984 0.0128317 0.124661 
0.0273981 0.00535817 0.0743985 
0.00354227 0.021472 0.130544 
-0.000178507 0.00678976 0.0885958 
-0.00245907 0.000477434 -0.00401963 
0.00213346 0.00621464 0.0790802 
0.0016178 -0.000749191 0.138776 
-0.000929624 3.5207e-05 0.0708025 
-0.000341211 -4.49496e-05 0.0720585 
0.000103997 -0.0057871 0.0892003 
-0.0134568 0.008226 -0.0100136 
0.0252431 -0.0106506 0.0776165 
0.0275185 -0.0202781 0.0734188 
0.0124886 -0.00847224 0.0183387 
-0.0404429 -0.0165521 0.275562 
-0.0879652 -0.0214112 0.240422 
-0.0235162 -0.00232667 0.127383 
-0.0505618 -0.0350288 0.181371 
-0.00864848 0.0331708 0.2474 
0.00158264 0.0331128 0.303757 
0.00220927 -0.00125352 0.271491 
0.0103507 0.017299 0.281449 
0.0894514 -0.10678 0.299355 
0.09268 -0.0336045 0.294919 
0.0801888 -0.0263064 0.0998485 
0.0540271 -0.0760197 0.0539172 
0.010092 0.000299826 -0.00353262 
-0.00658401 0.000816511 0.0929166 
-0.0243089 0.00122591 0.0895982 
-0.0280155 -0.00314157 0.0647801 
-0.00292968 0.00553423 -0.00148035 
0.00441999 -0.0194895 0.122573 
0.00612039 -0.00673553 0.08618 
-0.00280098 -0.00849874 0.0941195 
-0.000239233 -2.0873e-05 0.156308 
0.000387789 -0.00124291 0.127678 
-0.0174455 0.0118178 0.118311 
-0.00434903 0.00270834 0.075239 
0.0052867 -0.027546 0.399771 
0.0491889 0.00939375 0.39851 
0.03626 0.0373549 0.313541 
0.00267076 0.0250807 0.431458 
0.000424886 0.000888701 0.0845467 
0.0143526 -0.000473235 0.120583 
-0.000781473 -0.000329445 0.0659181 
0.00626641 0.00070693 0.0849564 
0.0247213 0.00640063 -0.0165954 
-0.016885 -0.010165 0.0170053 
-0.0575046 -0.021361 0.0875255 
-0.0298207 -0.00614139 0.061421 
-0.0323022 0.0052489 0.189056 
-0.0228124 0.0265832 0.218169 
-0.0350888 0.020521 0.318716 
-0.0220003 -0.0021613 0.276402 
0.00067164 -0.000888231 0.161345 
-0.0014896 -0.000164119 0.114306 
-1.98018e-05 0.00151566 0.154768 
0.0188594 0.00753369 0.127782 
0.0256375 -0.0176006 0.141948 
0.0125034 -0.0261293 0.22743 
0.0400409 -0.0175735 0.277476 
0.0266576 -0.000905988 0.196623 
-0.0020975 0.00120764 0.21881 
-0.0010179 4.75955e-05 0.185136 
0.0130396 -0.0272833 0.223589 
0.00387387 -0.0185232 0.185957 
-0.00489365 0.00729903 -0.000639769 
0.00331876 -0.0187464 0.0774476 
0.00513087 -0.0240555 0.122897 
-0.00157331 -0.00624319 0.093056 
-0.00461718 0.012214 -0.001639 
0.00837717 -0.0290151 0.124653 
0.0076024 -0.0238316 0.0617268 
0.0062306 -0.0121988 0.0518329 
-0.11113 -0.0215039 0.238891 
-0.0149809 -0.00270387 0.0421381 
-0.0467839 -0.0292122 0.103598 
-0.0886941 -0.0212784 0.108317 
0.00158563 0.00141606 0.153114 
0.0168696 0.00940539 0.125576 
-0.00246813 -0.00162174 0.0804068 
0.00878609 0.00639283 0.097207 
0.0755921 -0.110762 0.319076 
0.0490511 -0.1135 0.0841603 
0.00890838 -0.145493 0.4667 
0.0150576 -0.100603 0.247575 
-0.0822224 0.0228022 0.250655 
-0.14124 -0.017091 0.284118 
-0.0864361 0.014804 0.0395165 
-0.0795938 -0.0204637 0.26577 
-0.031109 0.00891841 0.330273 
0.0114053 0.0118471 0.342169 
-0.0059065 -0.0122714 0.323684 
-0.0379324 -0.000334641 0.280377 
-0.00259785 -0.00123694 -0.0029205 
-0.00204592 -0.00291851 -0.00302642 
-0.0019475 -0.000975551 -0.00228426 
0.011137 0.0205486 0.0217316 
-0.0547331 -0.0345536 0.390096 
-0.0234429 -0.0357034 0.524318 
-0.0810942 -0.0841101 0.457704 
-0.0130048 -0.0913011 0.372853 
0.0015532 -0.0503014 0.262815 
0.0202328 -0.0182233 0.223761 
0.00848938 -0.0300546 0.125429 
-0.00310799 -0.024513 0.184796 
0.0495387 -0.152033 0.207251 
0.0928343 -0.0719974 0.319949 
0.00491555 -0.0951594 0.0422103 
0.0956804 -0.167201 0.597302 
-0.0580237 0.0718305 0.240679 
0.0117259 0.0120982 0.550391 
-0.0675854 0.00777443 0.291219 
-0.23037 0.0280976 0.0742241 
0.0045984 0.072145 0.50736 
0.0829847 0.168214 0.213585 
0.0208845 0.154055 0.498236 
-0.0584301 0.146134 0.260436 
0.0695289 0.103914 0.331208 
0.0160141 0.06892 0.352766 
0.0169812 0.101472 0.183211 
0.0442125 0.0484838 0.382388 
-0.0398816 0.0125579 0.0584891 
-0.00419495 -0.00225324 0.0301246 
-0.118056 -0.0217547 0.254859 
-0.0946136 -0.0215591 0.107764 
-0.0742979 -0.0342727 0.554676 
-0.159991 0.0156528 0.399792 
-0.0739549 -0.0213454 0.258131 
-0.153466 0.135522 0.156186 
0.00160996 -0.000741703 0.144173 
0.00720572 0.00984632 0.0991634 
0.00454394 0.0101374 0.0965403 
0.00860999 0.0139487 0.173037 
-1.5093e-05 -0.00249916 0.140021 
0.000172554 0.000945355 0.06991 
0.000411877 -0.00627717 0.0888077 
0.00199534 -0.00717941 0.0953483 
-0.000431062 -9.11443e-05 0.0015518 
-0.000932147 -0.000341627 -0.00646424 
0.000357553 0.000101229 0.000454002 
0.00331413 -0.0135169 0.120976 
0.0780408 0.012674 0.242436 
0.0268851 0.0247805 0.315102 
0.0214667 0.0044283 0.200872 
0.071736 0.00575036 0.376438 
-0.00626113 0.00119798 -0.00437348 
-0.00451001 0.0024357 0.0027652 
0.0130632 -0.0122159 0.0989364 
0.0197881 -0.0158269 0.0692421 
0.00132117 -0.00137057 0.220628 
-0.00121916 0.0310011 0.243236 
-0.00147861 -0.00167493 0.278267 
0.00354142 0.0206461 0.280997 
0.000474882 -0.0271085 0.5644 
-0.00541207 -0.20058 0.483837 
0.0126619 0.00211487 0.760073 
0.0300238 -0.0962818 0.62011 
0.000454568 -0.000766755 0.143915 
0.0166072 0.0193639 0.204331 
0.00967249 0.00843485 0.0921565 
0.00846255 0.0148841 0.177846 
-0.0233714 0.0356147 0.139808 
-0.0725547 0.107876 0.269326 
-0.0422059 0.0614458 0.284751 
-0.00688064 0.0678622 0.205184 
-0.00172927 0.000627858 0.112056 
0.000627296 -0.000190307 0.176858 
-0.00047112 -0.000860669 0.141347 
0.0216433 -0.0112006 0.146734 
-0.00190088 0.00732567 -0.000852068 
0.00171251 -0.0033027 0.0837305 
0.00726162 -0.022979 0.121949 
0.00523512 -0.0172207 0.055571 
-0.00530833 0.0041499 -0.00208007 
0.0238479 -0.0143175 0.137858 
0.0173409 -0.00844786 0.0791108 
0.00801902 -0.000961536 0.102751 
0.0366183 -0.017713 0.288419 
0.0385634 0.0122796 0.220661 
0.0287723 0.0221904 0.313625 
0.054964 -0.00165081 0.357343 
-0.154783 0.0085129 0.372044 
-0.162947 0.13136 0.216218 
-0.0740021 -0.00141233 0.534672 
-0.122836 0.0522884 0.586999 
0.00321827 0.000632086 0.000122323 
0.00144879 -0.00121478 -0.000412578 
0.00566923 -0.00402312 -0.0059362 
-0.0154848 0.00592422 0.0141292 
-0.00404152 0.000396627 -6.81705e-05 
-0.0058173 0.00108943 -0.00284913 
0.0188613 -0.00402562 0.115024 
0.0188694 -0.00330325 0.0788105 
1.10986e-05 -0.000135291 0.00056179 
-9.10166e-05 0.00110949 0.00220739 
3.07022e-05 -0.000374259 -0.00456102 
0.00971106 -0.00201321 0.117006 
0.0262947 0.00628296 0.116527 
0.0223392 0.0169439 0.20546 
0.0290425 0.00233602 0.226582 
0.0522527 0.0408055 0.242489 
0.00011115 0.00174587 -0.0015251 
-1.04203e-05 -0.000286473 0.000885346 
0.000103022 0.0021107 -0.00439097 
-0.00939433 -0.00701268 0.022941 
0.017199 0.00871831 0.12483 
0.00913208 0.0111159 0.0909721 
0.00132113 -0.00156963 0.157254 
0.0218323 0.0140427 0.200333 
-0.0418199 -0.0210452 0.269952 
-0.0126466 -0.0212419 0.240097 
-0.0190566 -0.0184393 0.12439 
-0.0244906 -0.0103639 0.183632 
0.00245354 -0.00170859 0.20445 
0.00460864 -0.00110028 0.256473 
-0.0185248 0.0287982 0.241908 
-0.0194813 0.0227094 0.217763 
-0.000191879 -0.00228407 -0.000183789 
-0.00120302 -0.00294169 -0.00858392 
-0.0256535 0.0189403 0.0200581 
-0.0082843 0.0116331 0.0268084 
-0.00619828 -0.00990941 -0.0167722 
0.023094 0.00809827 0.0775168 
0.0316695 0.0211438 0.0829369 
0.0105015 0.0107974 0.0648089 
-0.0482729 -0.021867 0.0968586 
-0.0184586 -0.0170313 0.0606417 
-0.0155749 -0.0131109 -0.00118059 
-0.0215817 -0.00717604 0.0952146 
0.0688506 -0.0211766 0.109618 
0.0966789 -0.0785666 0.255943 
0.0154593 -0.01026 0.0568899 
0.0525279 -0.0389356 0.085184 
0.0254753 0.0332217 0.157254 
0.0223056 0.0167994 0.204843 
0.0272145 0.00689485 0.119379 
0.0506312 0.0396429 0.237109 
0.00137144 -0.0152644 0.399794 
0.0412707 -0.0175742 0.271424 
0.0577536 -0.00817771 0.39455 
0.0459006 -0.0546615 0.398183 
0.00338171 -0.0105943 0.396401 
0.0409392 0.0268186 0.31772 
0.00667722 0.0112578 0.327785 
-0.00884866 0.0253776 0.424546 
-0.00412401 -0.077698 0.127708 
-0.00765416 -0.0245856 0.00280028 
0.0151166 -0.000948159 -0.0211026 
-0.0415919 -0.132031 0.162866 
-0.000237199 -0.000333332 -0.00256439 
-0.000203153 -0.000356098 -3.8372e-05 
0.000146465 0.000247514 0.000309389 
-0.00255174 0.00221791 0.0728165 
-0.00381986 -0.000752932 0.00158647 
0.017804 0.000940914 0.115759 
-0.00542795 -0.00306225 -0.0041059 
0.0215314 0.00415766 0.0804127 
-0.00252903 0.000256778 0.177844 
-0.0220297 -0.00467533 0.130277 
0.00149391 0.00160415 0.129151 
-0.00686569 -0.00196467 0.0726642 
0.000375829 -7.91878e-05 0.00278932 
0.000817974 -0.000148749 0.00459517 
0.00193072 -0.000121547 -0.00350763 
-0.00226318 0.0107976 0.011452 
8.6514e-05 -0.000786061 -0.000820455 
0.000573984 0.000397968 0.0841185 
-0.000950065 0.000245758 0.0660771 
0.006606 -0.000530718 0.0859013 
-0.000483039 -0.000165491 -0.00390244 
0.00686956 -0.003424 0.103956 
-0.00136463 0.000692519 0.00126067 
0.00632999 -0.0038714 0.109416 
-0.0214461 -0.00190006 -0.00985406 
0.0254859 0.00409936 0.0701562 
0.037591 0.00386372 0.0345445 
0.0277305 0.0105685 0.0236632 
0.00429033 -0.0185077 0.396074 
-0.0479386 -0.0348793 0.399129 
-0.0107221 -0.0143424 0.289123 
-0.0236057 -0.0690658 0.381887 
0.0112511 -0.00214733 -0.0128348 
-0.0468396 0.0184903 0.0432298 
0.0168825 -0.00531898 -0.0134583 
-0.0222388 0.00707026 0.0173804 
-0.000100753 3.73429e-05 -0.00177206 
3.89662e-05 0.000119522 0.00202941 
-0.000316886 0.00092646 0.00254331 
-0.00766752 -0.00163077 0.0134281 
0.0154374 0.0113866 0.123363 
0.0411986 0.0190015 0.0949741 
0.0777078 0.019058 0.206848 
0.0262607 0.00303855 0.0720343 
-0.00189799 0.00198185 0.162655 
0.0225044 -0.00324785 0.115474 
0.0291123 0.00357172 0.220441 
0.0212838 -0.00297327 0.196244 
0.00702795 -0.0150137 0.0145213 
0.0940315 -0.00702883 0.068918 
0.0631157 -0.0067666 0.0955747 
-0.000527701 -0.0214369 0.0221001 
-0.0279984 -0.00371634 0.129181 
0.00242219 0.000109528 0.180362 
-0.0273584 -0.000524629 0.192911 
-0.0209456 -0.00505821 0.183149 
-0.103791 -0.106095 0.475059 
-0.0682493 0.0216954 0.546947 
-0.00110856 -0.0349498 0.687603 
-0.00304387 -0.0183641 0.524273 
0.00250524 0.00672201 -0.00228562 
-0.0147911 -0.0175643 0.0668344 
-0.0125965 -0.0173193 0.0793412 
-0.00282287 -0.000803473 0.0816745 
-0.0164636 -0.0155259 0.124699 
-0.00834441 -0.024824 0.241923 
-0.0442131 -0.0216589 0.269343 
-0.0536036 -0.0384988 0.184342 
0.000220269 0.000816103 0.161772 
0.00282813 0.0100943 0.0781363 
-0.000342698 -0.00106901 0.107483 
0.00113905 0.0166526 0.183069 
-0.0086123 0.00543229 0.105581 
-0.0157693 0.0168345 0.07005 
-0.0241433 0.0357156 0.141057 
-0.00872099 0.0189795 0.0615181 
0.0667587 -0.0678285 0.218014 
0.00887859 -0.0483593 0.0533218 
0.019742 -0.0158392 0.0659372 
0.0533531 -0.0502865 0.0930535 
-0.000829501 1.52215e-05 0.176934 
0.000304243 0.000547289 0.245348 
-0.00165107 -0.00134837 0.198153 
0.0192528 -0.00862908 0.19704 
0.0137842 0.125287 0.508896 
0.0313971 0.0288736 0.547662 
0.11718 0.122615 0.316749 
0.090349 0.118011 0.537665 
-0.0368778 -0.0151202 0.270863 
-0.0181957 -0.0150071 0.327082 
0.00224695 0.00216262 0.226801 
-0.0203442 0.00455845 0.272617 
-4.0576e-05 -0.00068207 0.141688 
-2.47549e-05 0.00103024 0.114767 
0.0198082 -0.0115636 0.143502 
0.00646021 -0.00627965 0.107435 
0.0948333 0.0101664 0.228729 
0.0579443 0.00519415 0.390478 
0.0727065 -0.0452852 0.277863 
0.102264 0.0302759 0.397837 
0.000263003 0.000256964 -0.00066086 
0.000907627 0.000665458 0.0616128 
0.000328432 -0.000183813 0.0677134 
0.00289519 -0.00462944 0.0860051 
-0.0980424 -0.0872382 0.479862 
-0.0501855 -0.0367132 0.373374 
-0.0681547 0.00776439 0.54594 
-0.00515627 -0.0261986 0.522439 
-0.0162688 0.0397382 0.579339 
-0.00794992 0.149491 0.502878 
-0.056481 0.086755 0.601354 
-0.0527299 0.203933 0.242117 
0.0459962 -0.00468951 0.605628 
-0.0376285 -0.22147 0.451758 
0.00662034 -0.0233264 0.58799 
0.0375009 -0.0912711 0.613578 
0.00293981 0.0142924 -0.0138768 
-0.0169668 -0.0421628 0.0423283 
0.00350893 0.0193401 -0.0132197 
-0.00980533 -0.0308925 0.0249875 
0.00477605 0.00170631 -0.00702092 
-0.0191957 -0.011186 0.124405 
-0.00665615 -0.00200105 0.0929585 
-0.0188717 -0.00994986 0.0886426 
0.0293482 0.00690507 0.223153 
0.0293703 -0.0104695 0.190112 
0.0383067 -0.00896878 0.281077 
0.0142298 0.00345824 0.31375 
-0.00084234 -0.000168366 0.12565 
0.00936378 0.00906924 0.0929141 
-0.0022787 0.00207668 0.14861 
0.0186143 0.0140023 0.198508 
-0.00165442 0.0143764 -0.00379926 
0.00628631 -0.0266996 0.0581868 
0.00436942 -0.0299649 0.118639 
-0.000953565 -0.0196354 0.0731324 
0.000384709 -4.50958e-05 0.21346 
0.000761762 0.000661027 0.275473 
-0.00168627 0.00322881 0.242363 
-0.0196889 -0.0246222 0.236747 
-0.000687514 0.000612092 0.171095 
-0.0157173 -0.0296067 0.238789 
-0.00539733 -0.0237071 0.12405 
-0.00147783 -0.0183442 0.18506 
0.030528 0.0218467 0.294891 
-0.00387972 0.0343953 0.439115 
0.0571864 0.00916002 0.401096 
0.0414306 0.0493542 0.37061 
0.000384783 -6.97875e-05 0.172847 
-0.0172159 -0.0112516 0.182416 
0.00256676 0.00279519 0.114858 
-0.0115755 -0.0105059 0.160345 
0.00189096 -0.00732713 -0.00171439 
-0.00275792 0.0230384 0.0758348 
-0.00454559 0.0133036 0.101388 
0.000446364 0.00640156 0.0904665 
0.0944622 0.075739 0.238994 
0.0106455 0.177673 0.178808 
0.11081 0.105214 0.310301 
0.116535 0.152615 0.576253 
-0.0123878 0.0188884 0.0691487 
-0.00621702 0.0182408 0.0607187 
0.00188886 -0.0121105 -0.00475759 
-0.0107659 0.0152494 0.0325314 
0.0128946 0.1542 0.453352 
0.0495925 0.141156 0.245304 
0.0262275 0.0684989 0.151227 
-0.0205375 0.116238 0.304665 
-0.0133267 -0.0176324 0.08329 
-0.0176932 -0.0155457 0.066965 
-0.0184177 -0.0162087 0.124155 
-0.00182756 -0.00103584 0.079436 
-0.0449645 -0.0658253 0.263135 
-0.0100309 -0.0261288 0.222314 
-0.0439169 -0.0109519 0.277988 
-0.0552904 -0.0460314 0.378048 
-0.00334997 -0.00186959 0.258729 
0.00162498 -0.00109886 0.285904 
0.00107581 -0.000379195 0.220669 
-0.00524817 0.0318047 0.234286 
-0.000498598 0.000488873 0.259525 
0.0297851 0.0212162 0.300487 
0.0244705 0.0188612 0.206642 
0.0104384 0.0164967 0.279264 
0.00545395 0.00512113 0.250091 
-0.000144909 0.000457498 0.245795 
0.0154608 -0.0225576 0.221828 
0.0124442 -0.0207936 0.300733 
-0.000833691 0.0457729 0.589448 
-0.0094995 0.147213 0.506274 
-0.00669901 0.00480531 0.732836 
-0.0779666 0.0797143 0.583695 
-0.00525837 -0.0126611 0.393379 
-0.0216755 -0.0211408 0.320592 
-0.0171186 0.0150965 0.333438 
0.00984758 0.0162864 0.340538 
0.0235316 -0.0135363 0.138893 
0.0241029 -0.0314165 0.0576458 
0.0651806 -0.0279983 0.115396 
0.0826488 -0.0452665 0.255118 
0.108798 -0.0799351 0.3147 
0.00248328 -0.0976781 0.0357434 
0.0646356 -0.0478685 0.0875206 
0.18997 -0.0487637 0.341199 
0.00661646 0.00264375 -0.0184967 
0.00370788 0.00134997 -0.00471468 
-0.0213706 -0.0243199 0.0493917 
-0.00873924 -0.0182515 0.0299474 
0.0837 -0.115093 0.326891 
0.0764046 -0.0369693 0.223805 
0.0996013 -0.0467328 0.485031 
0.147835 -0.0695963 0.388626 
-0.114369 -0.105286 0.397674 
-0.105716 -0.0735168 0.167009 
-0.0914095 -0.017203 0.268683 
-0.0482275 -0.0277862 0.13976 
0.00529203 -0.00179068 -0.0130743 
-0.0212174 0.000214678 0.0330405 
0.000682849 -0.00147536 -0.00416574 
-0.0132158 0.00138181 0.0148954 
-0.0276728 0.000648201 0.194154 
-0.0211519 -0.00573067 0.18477 
0.00333039 0.000537956 0.174638 
-0.0250408 -0.00216329 0.274267 
-0.000858127 -0.00622052 -0.00525821 
0.00212859 0.0295619 0.129918 
0.000132181 0.0260293 0.0721432 
-0.000407622 0.00398076 0.0917501 
0.00275114 -0.00194553 -0.00214703 
0.00120982 -0.000179959 -0.000572133 
0.00157161 -0.00035279 -0.00081376 
-0.0106477 0.0132356 0.0146022 
-0.000335977 0.00130459 0.00181776 
-0.00064379 -0.000509519 0.0597038 
0.0011933 0.000771732 0.000339679 
0.00323157 -0.00389881 0.0867805 
0.00346651 -0.181827 0.441692 
0.0111352 -0.0399148 0.691669 
0.00742634 -0.0138981 0.797003 
0.0421426 -0.0903243 0.610456 
0.0016163 0.000493776 0.162147 
0.0261275 0.00321841 0.21605 
0.0178658 0.000551608 0.121617 
0.00797735 0.00253109 0.0810152 
-0.000458149 -0.000160759 0.207579 
0.0204317 -0.00399186 0.189928 
0.0277558 0.00292108 0.224368 
0.0267628 -0.00150118 0.313005 
0.000154213 0.005956 0.00383676 
0.00462453 -0.0245029 0.115475 
-0.000923684 0.00429767 -0.00362929 
0.0051514 -0.0204174 0.0612865 
0.00966058 -0.0215096 -0.0301629 
-0.141004 0.0503759 0.166957 
-0.0487957 0.0116226 0.07217 
-0.0047582 0.00708426 -0.0174764 
0.000270766 0.000178292 -0.00130973 
0.000542773 0.000392442 -0.00450929 
-0.000942583 -0.000593025 0.00307362 
0.0072771 -0.012495 0.0330326 
0.00155101 -0.00181528 0.00269843 
0.00520102 -0.0023462 -0.00507941 
-0.0138538 0.014104 0.0693207 
-0.00793509 0.00983357 0.0610993 
-0.00190325 -0.00120463 0.00316233 
0.0141904 0.006265 0.119425 
-0.000957575 -0.000218316 -0.00371797 
0.00654406 0.00529742 0.0952758 
-0.0171696 -0.016818 0.12363 
-0.0447129 -0.0219346 0.272139 
-0.0187461 -0.006741 0.180477 
-0.0487372 -0.031824 0.1793 
-0.0549854 -0.0270517 0.10535 
-0.0269004 -0.000514351 0.131406 
-0.0829151 -0.0242761 0.231912 
-0.0173751 -0.00866471 0.0773081 
0.0704314 -0.0382477 0.241073 
0.0267538 -0.0014586 0.0612642 
0.0302593 -0.0190739 0.150349 
0.0472937 5.45686e-06 0.124646 
-0.0633083 0.0157908 0.028329 
-0.0925926 -0.0275837 0.283777 
-0.160364 -0.0104585 0.280074 
-0.0861206 -0.0262559 0.112814 
0.00121224 0.0036848 -0.00011963 
0.000440864 0.00107123 0.00129039 
0.0031583 -0.0174927 0.121512 
0.00137581 -0.00433174 0.0825578 
-0.00577161 -0.0219424 0.116687 
-0.0175328 -0.0247355 0.24474 
-0.0344272 -0.0669778 0.244005 
-0.00403713 -0.0513643 0.174912 
-0.0351391 -0.0109318 0.275104 
-0.0233224 0.00266329 0.272658 
-0.0390721 0.00827825 0.186555 
-0.0570334 0.00965103 0.328251 
-0.0029497 0.00216488 0.268041 
0.00186938 -0.000324353 0.274211 
0.00072836 0.00301395 0.221802 
0.0191045 0.000642513 0.302931 
-0.00497358 -0.00313692 -0.0171357 
-0.00204655 -0.000591567 -0.00381362 
0.0138349 0.0236695 0.0424666 
0.00483526 0.0136278 0.0194273 
0.043692 -0.00642593 -0.103877 
-0.0597295 -0.103456 0.0394909 
-0.103197 -0.0751865 0.278975 
-0.0895077 -0.0673001 0.164457 
-0.000333449 -0.0024005 0.208096 
-0.0187735 0.0229691 0.217719 
-0.0162734 0.0293495 0.238881 
-0.00932896 0.0222027 0.16021 
-3.73168e-05 -0.000729078 0.00175335 
-4.24387e-05 -0.000365223 -0.00154879 
-2.16408e-05 -0.000452124 0.00124068 
0.00738632 0.000517887 0.118 
-0.00230537 0.000427187 0.00316626 
-0.00108726 -7.80798e-05 -0.00274125 
0.0136309 -0.00212124 0.118198 
0.00688123 -0.00264269 0.100679 
0.00178578 -0.00197461 0.260189 
-0.00400459 -0.00364298 0.2128 
-0.0105033 0.0311561 0.23164 
-0.0117296 0.0214403 0.163234 
-0.0028145 -0.048264 0.265048 
-0.0359667 -0.0645151 0.262516 
-0.0196328 -0.0228216 0.241629 
0.00320229 -0.0586728 0.171698 
-0.023662 0.0260035 0.333786 
-0.0452147 -0.0239174 0.273321 
-0.00467157 -0.0212231 0.33256 
-0.0564248 0.0109878 0.345206 
5.33918e-05 -0.000568793 0.143915 
0.0029233 -0.00731191 0.0862579 
0.00558865 -0.0210725 0.124666 
-0.00139893 -0.00815858 0.0939819 
0.000722008 -0.000411725 0.0839949 
2.32839e-05 -0.000341008 0.000265711 
-0.000234074 -0.000241772 0.0616727 
0.00565112 0.00516804 0.0960941 
-2.76861e-05 0.0010561 0.000230188 
-0.00102681 0.00351758 -0.00521081 
-0.0131451 -0.013277 0.122327 
-0.0051373 -0.00286687 0.0921156 
0.00335913 0.000803074 0.115215 
-0.019479 -0.00904065 0.183532 
-0.0183478 -0.0128085 0.129087 
-0.00890831 -0.0116408 0.158125 
-0.0485813 -0.0386745 0.395409 
-0.0989332 -0.0423328 0.271221 
-0.0767309 0.0194647 0.526075 
-0.0695358 0.0127683 0.353283 
0.000158182 -0.000102571 0.167009 
-0.00727014 -0.0227528 0.133283 
-0.0149745 -0.0260937 0.23398 
-0.0107597 -0.012132 0.154089 
-0.0760023 0.0188335 0.239161 
-0.0356505 -0.0197242 0.279786 
-0.0191786 0.00239377 0.170999 
-0.075128 0.0145899 0.342599 
0.00260124 0.000490747 0.27213 
0.00208575 -0.00217394 0.212651 
0.0270054 0.00306729 0.22378 
0.0201514 0.00157367 0.304199 
0.0118064 -0.0348194 0.045746 
0.00879485 -0.0798117 0.230905 
0.0074612 -0.0265627 0.121089 
-0.0013405 -0.0451692 0.174299 
-0.000545353 0.00140814 0.13141 
-0.0221384 -0.00536544 0.12777 
-0.00872405 0.000437164 0.0917214 
-0.00495765 -0.00116177 0.0729454 
-0.00232917 0.001626 -0.00153537 
-0.00154274 0.000722983 0.00180273 
0.0156237 -0.00145936 0.119273 
0.00404639 0.00127729 0.0829208 
0.00189557 0.00272928 0.00264747 
0.000567069 0.00288401 0.000644246 
0.00323498 -0.0128021 0.106905 
0.000223089 -0.00621556 0.0855772 
-0.0299428 0.00439291 0.0875815 
-0.0502399 0.0352319 0.187832 
-0.0216544 0.0105642 0.11836 
-0.0233893 0.00959862 0.0449338 
0.00156386 -0.00208438 0.0019968 
-0.0188945 0.0104378 0.112477 
0.00354721 -0.00183988 -0.00325745 
-0.0112863 0.0066171 0.0609773 
-0.01211 0.000520852 -0.00931077 
-0.00708376 0.000652389 -0.00825921 
0.0275441 0.00328677 0.0278449 
0.021003 -0.000592378 0.0199187 
-0.000528575 0.000528958 0.0846293 
-0.00315635 -0.000545486 0.0024644 
0.0134293 0.00592727 0.119583 
0.00633248 0.00182567 0.0840332 
0.00149507 0.000768934 -0.000618662 
0.00238093 0.00224585 0.00142017 
-0.0133277 -0.0109103 0.069029 
-0.00399554 -0.00357385 0.0739205 
-0.0579947 -0.00736894 0.660984 
-0.0650732 -0.0721084 0.286116 
-0.0951356 -0.111284 0.49205 
-0.0407867 -0.217194 0.0960574 
0.0372735 -0.0139559 0.278857 
0.0714532 -0.0326932 0.24217 
0.0267969 -0.0169627 0.143016 
0.0186478 -0.00122361 0.19237 
0.00117331 0.00109468 0.152833 
0.000415813 -0.00125949 0.117021 
-0.00197041 -0.00138351 0.0799745 
0.0161883 0.00895585 0.125532 
-0.0273127 -0.00435664 0.12603 
-0.0518148 -0.0245605 0.106494 
-0.0866394 -0.0217272 0.238704 
-0.0303398 -0.00157542 0.0428692 
0.0236382 -0.0237902 0.0701418 
0.0105442 -0.0135582 0.055859 
-0.00728458 0.00553745 -0.0054681 
0.00415567 -0.00482761 0.00756224 
-0.0879292 0.0184477 0.543249 
-0.0884315 -0.0427408 0.252532 
-0.134479 -0.000896647 0.361274 
-0.0685055 0.0117962 0.349682 
-0.0182035 -0.00701432 -0.018011 
0.044328 0.021166 0.0825831 
0.0234165 0.00512577 0.0791127 
0.0279104 0.0113963 0.0289997 
-0.04098 -0.0759248 0.235495 
-0.0175817 -0.0139752 0.0715794 
-0.000735828 -0.0206789 0.129133 
-0.0209113 -0.0503694 0.125462 
0.00185288 0.000937671 0.181011 
-0.0221221 -0.00545066 0.178345 
-0.026476 -0.00540455 0.128983 
-0.00527312 -0.00171059 0.0734842 
0.000812138 0.0164614 0.105966 
-0.00979457 0.00726195 0.10669 
-0.0256957 0.032473 0.14338 
-0.00586539 0.0180469 0.0583038 
0.00033264 0.00041587 0.0964583 
-0.00495281 -0.0165005 0.12619 
0.00150194 0.00341703 0.00311161 
-0.00143886 -0.00822314 0.0928564 
-0.00617215 0.0156279 0.100928 
-0.00576258 0.01806 0.169007 
0.00118161 -0.000339974 0.155755 
-0.00217348 0.0178402 0.186139 
-0.0296881 -0.00330607 0.12777 
-0.0280423 0.0116762 0.191649 
-0.0434287 -0.0199262 0.268878 
-0.020496 -0.0136592 0.184012 
0.000205098 0.00127383 0.00549597 
0.000172251 0.00267136 -0.00459822 
0.000344666 0.00353071 0.00123871 
-0.0137676 -0.00820756 0.0357829 
0.0601918 0.00261241 0.0176001 
0.119152 0.0280046 0.245235 
0.0780081 0.00768366 0.237553 
0.0568841 -0.00837501 0.12669 
-0.00107747 8.83896e-05 0.00277185 
-0.00129535 0.000106264 0.00179174 
0.00114721 -9.41114e-05 -0.00175165 
-0.000727937 -0.0069751 0.00500003 
-0.0163911 0.0101548 0.118073 
-0.00389946 0.00190905 0.0754507 
-0.000269498 -0.000347512 0.128317 
-0.00758487 0.00293875 0.101051 
0.0874675 0.020086 0.230516 
0.0328055 -0.0142383 0.279994 
0.0714826 -0.0341653 0.279028 
0.0664295 -0.0106077 0.388019 
-0.108789 -0.0795443 0.201614 
-0.127913 -0.164409 0.400518 
0.0217571 -0.151198 0.249754 
-0.154383 -0.0263643 0.14226 
-0.0279017 -0.00377899 0.128737 
-0.0214979 -0.00701765 0.0871332 
-0.022269 -0.00382475 0.0595661 
-0.00195168 -0.00140794 0.0753739 
-0.0010602 -0.000869426 0.217542 
0.00189884 0.0197831 0.182429 
-0.00128722 0.0307808 0.242586 
0.00632949 0.0203402 0.285282 
-0.000124725 0.00108276 -0.00508302 
-0.0130796 0.00662904 0.11436 
0.00052062 -0.000288019 0.000290687 
-0.00338887 0.00131084 0.0739504 
0.076024 -0.0375597 0.265822 
0.0619884 -0.00716711 0.400083 
0.0351465 -0.0143876 0.261955 
0.0506975 -0.0578991 0.405834 
0.00237136 0.00515607 -0.00238779 
0.0077199 0.0020433 -0.0149741 
-0.00950347 -0.00657883 0.014011 
-0.0555999 -0.0479406 0.052379 
-0.0557007 0.117642 0.288197 
-0.040867 0.045354 0.0133645 
-0.0488336 0.153709 0.225721 
-0.0137356 0.11478 0.296507 
-0.093564 0.039068 0.221801 
-0.040211 0.0260178 0.079103 
-0.0548406 0.03977 0.187572 
-0.00839471 0.0021449 0.0431254 
6.46628e-05 0.00337497 -0.00244727 
0.000841824 -0.000337075 0.00150061 
-0.000714614 0.00364289 -0.00345229 
-0.00052055 -0.00898281 0.0082345 
0.0160236 0.00572286 -0.00463724 
-0.0207332 -0.012682 0.065373 
-0.0224168 -0.0142906 0.124666 
-0.0235868 -0.00917337 0.0864553 
-0.0945725 -0.0365953 0.250174 
-0.104506 -0.0566548 0.147944 
-0.0562202 -0.0195683 0.0965684 
-0.0479999 -0.0421647 0.184773 
0.00234062 -0.00116234 0.308915 
-0.00371817 0.00631509 0.303536 
-0.00634794 -0.00674793 0.320551 
-0.00332555 0.000505989 0.334703 
-0.00748773 -0.00115879 -0.00108508 
0.0212863 0.00118696 0.118465 
0.0235221 0.00454114 0.081663 
0.00305536 0.00191452 0.0839014 
0.0235948 0.0306968 0.131475 
0.0821419 0.0901476 0.279211 
0.0209559 0.0762702 0.205337 
0.0571985 0.0450072 0.263508 
-0.0683258 0.0254003 0.220775 
-0.0190075 0.00694484 0.11304 
-0.0305018 0.00760882 0.0909761 
-0.0516201 0.031757 0.18564 
-0.0496168 -0.0319369 0.379426 
-0.00590331 -0.0126232 0.32351 
-0.044752 -0.0158858 0.265569 
-0.059927 0.0012565 0.353324 
0.0103523 0.00118581 -0.0100727 
-0.0326342 -0.0040802 0.0330078 
0.0082711 -0.000647414 -0.00929002 
-0.0140038 -0.00296137 0.0170449 
-0.000574754 0.00167879 0.00361173 
-0.00532825 -0.0152 0.125489 
0.00178086 0.00187309 -0.00227446 
0.000466752 -0.00676539 0.0924648 
0.0017106 -0.0121618 -0.00808986 
-0.010886 0.0339385 0.029138 
0.00133567 -0.0115865 -0.0103829 
-0.00359997 0.0161415 0.0125123 
-0.000592143 2.54625e-05 0.0633467 
0.000180821 -0.000290983 0.0711971 
0.000962643 -0.000421451 0.000995365 
-0.00418394 0.00696185 0.104085 
-0.000900708 -0.000574667 0.219746 
0.0276539 0.00973913 0.224128 
-0.00300127 -0.00313173 0.151966 
0.0238338 0.0136394 0.205591 
0.00143418 -0.0173972 -0.00976121 
0.00342356 -0.014127 -0.0132687 
-0.0140051 0.0389973 0.0279761 
-0.00967546 0.0206519 0.0251109 
-0.00518976 -0.00232846 0.309645 
0.00452455 -0.00122232 0.34054 
0.00728416 -0.0100174 0.309174 
0.0180238 0.00145754 0.310287 
0.000437046 -0.00186217 0.0033831 
-0.000565213 -0.00174977 -0.00136362 
0.00354366 0.00837497 0.0975716 
0.00372749 0.00687358 0.0632294 
-0.00909759 -0.00674999 -0.030876 
0.0355779 0.00290692 0.028869 
0.177113 0.0337893 0.229661 
0.0200365 0.0146589 0.00890485 
-0.00432206 -0.00680862 -0.00568509 
-0.00317518 -0.00428009 -0.000572336 
0.0166283 0.0101763 0.0581484 
0.0244697 0.010632 0.0252951 
0.0198251 -0.00048209 0.122285 
0.0271547 -0.0131833 0.148596 
0.0226078 -0.00936821 0.0676953 
0.0498199 -0.00488489 0.126127 
0.00181323 -0.000271905 0.249765 
-0.0278428 0.0197205 0.313959 
-0.0246594 0.0203654 0.221399 
-0.0221197 0.00375334 0.274627 
0.00383461 -0.00286415 -0.00316265 
0.000508376 0.000517283 0.000290886 
0.000157573 -0.00337317 -0.00112351 
-0.0116633 0.0147424 0.0133322 
-0.205806 -0.0338513 0.35474 
-0.088216 0.0823391 0.59262 
-0.0443595 0.0218373 0.551111 
-0.105467 -0.00565743 0.644835 
0.0876328 -0.0420873 0.490353 
0.0336398 -0.0739995 0.390241 
0.101883 -0.124014 0.31899 
0.0659295 -0.11501 0.585961 
0.000903464 0.000282387 0.162092 
0.0189256 0.00541996 0.125382 
0.0264631 0.00325075 0.2169 
0.00745519 0.00246229 0.0799204 
0.00811568 6.70124e-05 -0.00313714 
0.00891141 0.000937056 0.00221309 
-0.0394123 0.000355096 0.0489128 
-0.0240726 -3.78302e-05 0.0726113 
-0.00217332 0.00138658 0.0515203 
0.00739329 -0.00519036 0.105483 
0.000380167 -0.000318959 0.112956 
0.00847721 -0.00367472 0.11144 
0.00304867 -0.00421677 -0.00413977 
-0.0122976 0.0129302 0.0589176 
0.00259769 -0.00271662 0.003853 
-0.010486 0.0146655 0.0291333 
0.000604622 -0.000131404 0.285302 
-0.00407977 -0.00478804 0.236996 
-0.0174724 -0.00491057 0.318944 
-0.0169957 -0.00113817 0.274248 
-0.0323224 0.101196 0.248288 
0.149832 0.135744 0.142741 
-0.0522853 0.0983783 0.564257 
-0.0643744 0.144761 0.256401 
0.00676832 -0.00344124 -0.00181176 
-0.0190649 0.00692681 0.0611157 
-0.0264407 0.00714079 0.0863318 
-0.00588187 0.00238468 0.100895 
0.0136723 -0.00278921 0.695553 
-0.026913 -0.0826197 0.228931 
-0.0703425 -0.056451 0.26297 
-0.0976085 -0.187068 0.025163 
0.00179434 0.00148366 0.159634 
-0.000339754 0.000814316 0.115958 
0.0168421 0.0046884 0.127531 
0.00799286 0.00112336 0.0820126 
-0.0097925 0.0172228 -0.0107488 
0.0083616 -0.0313095 0.0248581 
0.000338421 -0.000983623 6.09616e-05 
0.00162178 -0.0155836 0.0142435 
0.00591296 0.00501118 -0.00154783 
-0.0178998 -0.0147111 0.12255 
-0.0156918 -0.01201 0.0680884 
-0.00383013 -0.00477595 0.0789702 
0.00183184 0.000248219 0.272472 
0.0278814 0.00334997 0.223257 
0.000501921 0.00260042 0.222332 
0.020495 0.00168774 0.303929 
0.00709064 0.0291825 0.140468 
-0.00494009 0.0102211 0.0995563 
-0.01084 0.0369284 0.236073 
-0.0106306 0.0630243 0.186428 
0.00931892 0.0293688 0.14178 
0.00480622 0.00701392 0.0993997 
0.00782869 0.0206858 0.0775562 
0.00661348 0.0178565 0.169301 
0.0299112 -0.0709956 0.100687 
-0.0182815 -0.0540907 0.125543 
-0.0598674 -0.133717 0.207822 
0.00454137 -0.100228 0.253604 
0.169517 0.0406049 0 
-0.106122 0.00215607 0 
-0.117206 -0.0334076 0 
-0.189768 0.0582987 0.317403 
0.00371369 -0.0122223 -0.00903295 
-0.0102146 -0.000869939 -0.0134163 
0.0192331 -0.00425379 0.0248457 
0.0624399 -0.00652407 0.0577083 
0.00658716 -0.00327969 -0.0016097 
0.0714154 -0.00208729 0.0652141 
0.0123814 -0.0136817 0.0150843 
0.0145877 -0.0158266 0.0234577 
0.00134598 0.000490293 0.229798 
-0.0144468 -0.0283718 0.236077 
0.00103743 0.000968824 0.16905 
-0.00324747 -0.018672 0.18711 
-0.00343515 -9.76906e-05 0.0619285 
0.0166394 -0.00208282 0.122661 
0.00141794 4.20207e-05 0.131611 
0.00855903 -0.00277335 0.102149 
-0.0423095 -0.0160735 0.267692 
-0.0226546 -0.0139575 0.185188 
-0.0296004 0.00990421 0.192741 
-0.0205024 0.00368469 0.274874 
-0.0310129 0.0410554 0.138056 
-0.000687155 0.0224905 0.0626142 
-0.0201572 0.0121134 0.070145 
-0.0107097 0.0166511 0.0263681 
-0.0846487 -0.0134305 0.210798 
-0.161174 -0.029407 0.422765 
-0.0816612 0.0179004 0.542309 
-0.116007 -0.148952 0.0230017 
-0.000347877 5.29861e-05 0.0602119 
-4.54968e-05 -4.43793e-05 0.0767773 
6.6054e-05 -0.00128297 0.000458259 
-0.00168423 0.00936151 0.104753 
-0.0229823 -0.00276868 0.700431 
-0.0193697 0.0166767 0.573233 
-0.000961699 -0.00984079 0.713226 
0.019281 0.169581 0.554481 
-0.00498818 0.0155245 -0.0255041 
-0.0214424 0.00288276 0.000483901 
0.0115725 -0.0861412 0.0796109 
0.00847169 -0.00539882 -0.000713749 
0.00217492 -0.0391214 0 
0.0368722 0.026388 0 
0.00984241 0.00267665 0 
-0.0540363 -0.0965601 0.0551505 
0.00319624 -0.000792557 0.311137 
-0.000130259 0.00481255 0.310965 
-0.00240792 0.000106005 0.286782 
-0.010428 -0.00724093 0.31074 
0.000307181 0.000358857 0.0962613 
0.00147503 0.00344127 0.00161243 
-0.00487445 -0.0163267 0.126823 
-0.00274326 -0.00690846 0.086484 
0.000336795 0.00312688 0.288707 
-0.00366101 0.000469768 0.241671 
-0.000303702 -0.00184451 0.274842 
-0.013689 -0.01299 0.3075 
0.00227913 0.00106396 -0.000614364 
-0.00734063 -0.00250649 0.0930409 
-0.0138666 -0.0115825 0.123138 
-0.00366209 -0.00419691 0.0784128 
-0.0445697 0.0175814 0.260759 
0.0182272 -0.0283437 0.56929 
0.0117399 0.000797144 0.535692 
-0.269843 -0.0419299 0.385827 
-0.0331033 -0.0267946 -0.0432911 
0.228764 0.0875257 0.283541 
0.0812608 0.0632772 0.133571 
0.00572661 -0.0157558 -0.0457889 
0.00127355 -0.000370322 0.00731942 
0.00298759 -0.000802134 0.000618853 
0.0031455 -0.000831229 -0.0026541 
-0.00757962 -0.0106894 0.01631 
-0.133446 -0.0169668 0.380213 
-0.118455 -0.084813 0.45043 
-0.0832239 -0.0579477 0.50788 
-0.158388 -0.103592 0.119588 
0.0103683 -0.00342897 0.00470204 
0.0148633 -0.00967398 0.0165913 
-0.00605733 0.00162955 -0.0113036 
0.0173282 -0.00807087 0.0229835 
0.00272126 0.0036832 -0.00155459 
-0.000937221 0.00656608 -0.00363874 
0.0071811 -0.0219125 0.0322333 
0.00303732 -0.0093441 0.0083086 
-0.00527952 0.000956446 0.00150968 
0.0323806 0.00133849 0.0324383 
-0.00746019 0.00450496 -0.0054513 
0.0188782 -0.00134773 0.0599635 
0.0235612 0.0249644 -0.0875874 
-0.0892019 -0.129735 0.232217 
-0.0297559 -0.0447355 0.00951334 
-0.0906225 -0.066874 0.163939 
-0.00512824 -0.0601928 0.10125 
-0.00081019 -0.0208002 0.0762714 
0.00996639 -0.0241934 0.0586578 
0.00737332 -0.0235702 0.00554976 
0.00587922 0.0310102 0.553948 
0.00282507 0.01428 0.717175 
-0.00551214 0.0197068 0.509831 
-0.109494 0.0675293 0.657416 
0.0051609 -0.0695655 0.113633 
0.00762817 -0.0934865 0.23608 
0.0161697 -0.0260904 0.0391953 
-0.00715978 -0.0473046 0.180166 
-0.0271829 -0.0026422 0.130493 
-0.0531059 -0.0257082 0.101839 
-0.0259005 0.000471382 0.054128 
-0.0212998 -0.00815012 0.0871227 
-0.000217868 -0.000220473 0.000336658 
0.000819714 0.000849275 0.00111889 
-0.000337229 -0.000395112 -0.00597977 
0.00546794 -0.00797898 0.102844 
0.0145888 -0.00391087 0.00157521 
-0.0419158 -0.0248857 0.0569516 
0.0243165 0.00157253 -0.0217659 
-0.0750417 -0.0567412 0.0588948 
0.00955458 -0.0135171 0.107893 
0.00149293 -0.0082698 0.0874916 
0.000878232 -0.000321709 0.127267 
0.00747887 -0.00568729 0.109959 
0.0268185 -0.0475005 0.21546 
0.0518839 -0.208765 -0.0834762 
-0.000246566 0.0272677 0.610633 
0.0663274 -0.128655 0.710274 
4.4356e-05 -0.00944703 -0.00730498 
0.00804153 0.0298937 0.0447897 
0.00437003 -0.00665634 -0.00197847 
0.00565748 0.0142975 0.0443827 
0.00113804 -0.001769 0.157265 
0.00973836 0.00950643 0.09372 
-0.000849578 -0.000170074 0.126417 
0.0178478 0.0131038 0.196398 
-0.0565106 -0.0195753 0.0981009 
-0.0916089 -0.0589354 0.123144 
-0.0194076 -0.0574377 0.0727297 
-0.0596104 -0.0390394 0.189199 
0.0178923 -0.00285626 -0.0155112 
-0.0301946 0.00423034 0.0862685 
-0.0480522 0.000751007 0.0545457 
-0.0182814 -0.00550373 0.062859 
-0.000377141 0.00915548 -0.00975115 
0.00409268 -0.0252248 0.0554264 
0.00491797 -0.0208677 0.0678398 
0.00063207 -0.0230855 0.0198451 
-2.30764e-05 0.00155186 0.122543 
3.49631e-05 -0.000808049 0.0582774 
-0.000900007 -0.000824663 0.0716212 
-0.00256062 0.0103553 0.10798 
0.07956 -0.0432568 0.294931 
0.155169 -0.0664808 0.304118 
0.0661857 -0.0324102 0.0889871 
0.107895 -0.0188095 0.148492 
-0.0758537 0.0229176 0.222066 
-0.0557882 0.0359547 0.187089 
-0.0253388 0.00126278 0.0890302 
-0.0239875 0.0158138 0.0428371 
-0.030493 -0.00870226 0.135556 
-0.0277773 0.00794081 0.088601 
-0.0666826 0.0127863 0.212158 
-0.0250439 0.00390701 0.188712 
-0.00817814 0.00326918 0.315587 
0.0120393 -0.0112932 0.30408 
8.87406e-06 -0.000176488 0.292524 
0.0142506 -0.00606749 0.30945 
0.000575114 0.002509 0.000752541 
-0.00365162 -0.0193727 0.121932 
0.000436709 0.00589992 -0.00287415 
-0.00361189 -0.0165823 0.0787823 
-0.00141787 0.00134724 0.127394 
0.000894911 -0.000395814 0.194282 
0.015926 -0.02025 0.213388 
0.0085979 -0.00768167 0.107775 
0.0239497 -0.0162386 0.14508 
0.0245782 -0.0181578 0.0773364 
0.011748 -0.0156595 0.108219 
0.00378569 -0.00563158 0.104769 
0.00525593 -0.0111274 0.403266 
0.00831377 0.00700509 0.32871 
-0.0308378 0.0216144 0.330306 
-0.0144784 0.0303783 0.408476 
-0.000433522 5.66319e-05 0.00131945 
0.000129601 -8.55334e-05 -0.00565041 
0.000929404 -9.9827e-05 -0.00117514 
-8.71051e-05 0.0065497 0.0760349 
-0.024152 0.0347532 0.144958 
-0.00787188 0.00637647 0.104248 
-0.000545156 0.0153298 0.105612 
-0.0107101 0.0170604 0.162502 
-0.000138906 -0.0013845 -0.004758 
0.0189548 0.00415224 0.0299211 
-0.00570106 -0.00120124 -0.0140567 
0.0155202 0.00727704 0.0214163 
0.000679118 0.00141034 0.0854259 
0.000371314 6.04906e-06 0.131214 
-0.00248792 -8.21487e-05 0.0623641 
0.0155257 -0.00209412 0.122118 
-0.0307881 0.00127261 -0.0584655 
0.234974 0.0146574 0.294618 
0.0154892 0.0145368 -0.0126746 
0.094047 -0.0265013 0.124478 
3.98484e-05 -0.0879243 0.0682776 
0.00856809 -0.13736 0.416261 
0.0344306 -0.0961872 0.118831 
0.014852 -0.102738 0.263825 
0.00387419 -0.00011396 0.258053 
-0.024865 0.0153877 0.219231 
0.00213521 -0.00153723 0.195508 
-0.0229809 0.00928845 0.272678 
-0.0615913 -0.0830455 0.2454 
-0.00533797 -0.0122745 0.0670017 
-0.0350247 -0.0424335 0.0657104 
-0.0523166 -0.0359481 0.182921 
0.00249938 -0.00190773 -0.00183237 
-0.00393184 0.00237282 0.0756085 
-0.0153351 0.00808763 0.116105 
-0.00766425 0.00285203 0.10114 
-0.000691959 0.00476708 -0.00196422 
-4.36898e-07 0.00327813 0.000142149 
0.00888944 -0.0135516 0.104709 
0.00471143 -0.00731703 0.103408 
0.00353941 0.00282928 0.000749447 
-0.0171634 -0.0140484 0.121157 
0.00285138 0.00312973 -0.0035414 
-0.0142265 -0.0106396 0.0677851 
0.0861316 -0.123805 0.322056 
0.0449925 -0.073217 0.38561 
0.0400892 -0.0650609 0.222267 
0.00288657 -0.0914253 0.260751 
-0.00349778 0.0368278 0.233509 
-0.00941631 0.0177311 0.100033 
0.00109845 0.0281645 0.142721 
0.00292996 0.0173141 0.184629 
0.00458011 -0.00210815 0.306742 
-0.0257521 0.0182261 0.305286 
-0.000187476 0.000686432 0.257088 
-0.0199338 0.00580815 0.27305 
-0.00088191 -0.00173152 0.1796 
0.0197407 -0.00671067 0.190622 
0.0239811 -0.0101808 0.147391 
0.0114363 -0.00227238 0.0995967 
0.0290903 0.0167395 -0.0103738 
0.109166 -0.0133033 0.131703 
0.160866 0.00821517 0.284495 
0.0512944 -0.00414345 0.118162 
0.000133786 0.00148138 0.00243361 
-4.72995e-05 -0.000238281 -0.00669988 
-3.7858e-05 -0.000580358 0.00260822 
0.00930552 -0.00692325 0.073794 
-0.00160091 -0.000420546 0.177436 
0.00028598 0.00116416 0.127776 
0.000230002 -0.0011333 0.119235 
-0.00708748 -0.000572968 0.0745355 
-0.0729318 0.0166313 0.230421 
-0.0168232 0.0289328 0.219919 
-0.0249768 0.00315966 0.188391 
-0.0525586 0.0316599 0.187582 
0.00566658 -0.0116393 -0.00891425 
0.0708866 -0.0251616 0.0987821 
0.0962412 -0.0320589 0.0951485 
-0.00373109 0.00300408 -0.000779531 
-0.00280816 0.00096175 0.238997 
0.0136003 -0.0166058 0.306475 
0.0371126 -0.0159052 0.285487 
0.0171722 -3.97691e-06 0.307374 
-0.00268882 -0.000302992 0.0012111 
0.0194686 0.00834146 0.0795383 
-0.00291651 -0.00111325 -0.0187485 
0.0114709 0.00445648 0.0643703 
0.00918358 0.0395688 0.235572 
0.0593591 0.0410355 0.260383 
0.0221066 0.0728828 0.204672 
0.0407301 0.0671564 0.36849 
-0.000321894 0.000951376 -0.00374475 
-0.000130492 0.000123403 0.00206046 
0.000596348 -0.000953923 -0.00409543 
-0.0116237 -0.00347634 0.0731693 
0.00143549 0.000510395 0.12443 
-0.00642003 0.0124008 0.106604 
0.00244898 -0.00222676 0.0709166 
-0.00870997 0.0141983 0.162681 
0.000380277 -0.00295876 0.00174861 
0.00104345 -0.00220914 -0.00165571 
-0.00163389 0.0191062 0.0719937 
-0.0010057 0.00672593 0.0866118 
0.0342063 0.00833864 -0.0303511 
-0.171289 0.0598015 0.178018 
-0.0519632 0.0224607 0.0337613 
0.0094758 -0.00273128 -0.00961866 
0.000983611 0.119877 0.154151 
-0.00249389 0.0896519 0.0682331 
0.0413625 0.116918 0.234103 
-0.0201991 0.145571 0.254323 
0.000571146 -0.000974168 0.297233 
0.00023088 0.00297282 0.346392 
-0.00883972 -0.0108778 0.322313 
0.00907924 -0.0161868 0.309612 
-0.0114186 0.0296018 0.286048 
0.0121484 -0.000934707 0.554446 
0.0136857 -0.00693363 0.557058 
-0.13967 0.0992375 0.629133 
-0.018212 0.000711595 -0.0651933 
-0.00430655 -0.0917763 0.118364 
0.12668 -0.162453 0.26723 
0.088234 -0.0395415 0.0841479 
0.000676849 0.000512498 -0.00351881 
0.000752256 0.000532846 0.00362226 
0.00112854 0.000842238 -0.00335063 
0.00197133 -0.0077999 0.0423615 
2.69969e-05 6.00102e-05 0.00233415 
-0.00276357 0.00109041 -0.0031882 
-0.000484063 7.53895e-05 -0.00432621 
0.00744926 0.00707732 0.0275925 
0.00579613 -0.00151146 -0.000600551 
-0.0186077 -0.00770993 0.0142944 
0.00744126 0.00107316 0.00282722 
-0.0173126 -0.00346917 0.0383417 
0.00249675 0.000231577 -0.00177881 
-0.0201487 0.00187366 0.086561 
0.00387229 -0.000425115 0.00231872 
-0.00806979 0.00256929 0.097616 
0.00595271 -0.00323267 0.00715159 
0.00120839 -0.000378496 -0.00435616 
-0.0199691 0.00643847 0.0192496 
-0.0148706 0.00461995 0.0431912 
-0.034271 0.0251501 0.0584761 
-0.0216244 0.00988543 0.0210431 
0.0101536 -0.0117251 -0.0041359 
-0.0137924 0.00734104 0.0557793 
-0.00340262 -0.000852172 -0.00286471 
0.000918909 0.000348372 0.00111963 
-0.00320609 0.000423552 -0.00183347 
0.0138497 0.00532796 0.0127047 
0.00597674 0.00228414 -0.000613199 
-0.0222866 -0.0252821 0.0465001 
0.00667357 0.00220355 -0.0021915 
-0.0106209 -0.00931659 0.0650281 
-0.00102004 0.000880905 0.126224 
0.00136983 0.0011316 0.153288 
-0.000831717 -0.00036512 0.0801686 
0.00947336 0.00496666 0.0994645 
-0.000169416 0.000748952 -0.00698647 
-0.000470115 0.000626425 0.00596167 
0.00720087 -0.00854886 0.0426839 
0.00614119 -0.00779245 0.0153573 
-0.0081693 0.00687348 -0.0057143 
0.0231551 -0.0232896 0.0700557 
0.0134051 -0.0155247 0.100571 
0.00720115 -0.0123638 0.0557418 
0.00277982 -0.00130043 0.237276 
0.00196231 0.000776001 0.176942 
-0.0197653 -0.00501995 0.183554 
-0.0256117 -0.0040561 0.272887 
0.0952994 -0.151685 0.26746 
0.0363145 -0.100359 0.118985 
0.0101019 -0.0140955 0.0212406 
0.0556626 -0.0421575 0.0820237 
-0.00744338 -0.00422024 -0.00255066 
0.00728857 0.00840791 0.0955091 
0.0209151 0.00923125 0.118051 
0.0101394 0.00629835 0.0625125 
-0.0236969 0.0144744 0.112472 
-0.0179866 0.016592 0.0691385 
0.0141646 -0.00973294 -0.00175088 
-0.0175642 0.0101487 0.0584396 
0.00206584 0.000190904 0.156427 
-0.00553432 0.0141991 0.103111 
0.000854769 -0.00084849 0.123453 
-0.00752779 0.0171231 0.16755 
0.0287796 -0.00290451 0.594156 
0.00873435 -0.0154836 0.520472 
-0.266113 0.11291 0.176476 
-0.128748 0.0867409 0.641396 
-0.00502637 -0.0519426 0.268846 
0.00978231 -0.0193972 0.291256 
0.0106537 -0.0251677 0.397921 
0.0327231 -0.0622518 0.37751 
-0.0200188 0.0523243 0.148074 
-0.0191872 0.0352424 0.0559415 
-0.00470721 0.0185431 0.0588968 
-0.0175416 0.00879183 0.0204103 
0.0923138 0.032756 0.503221 
0.15421 0.107891 0.0775025 
0.13616 0.0391412 0.354415 
0.0845764 0.076423 0.585294 
0.00119189 -0.0476093 0.278986 
-0.0217025 -0.0125393 0.323863 
0.00416071 -0.0251051 0.385937 
0.0151156 -0.0211002 0.301602 
0.0145944 -0.013664 0.40623 
0.0295324 0.0278541 0.309471 
0.0529997 0.00169144 0.386105 
0.0158937 -9.74069e-05 0.288528 
0.0845151 0.0921974 0.311087 
0.00659445 0.0954472 0.199298 
0.0624871 0.0372071 0.261364 
0.0509022 0.0539286 0.371791 
-0.151218 -0.00986278 0.376547 
-0.0896409 -0.0336082 0.241978 
-0.126414 -0.0742134 0.450107 
-0.111495 -0.0947453 0.13417 
0.00247817 -0.00125405 0.177761 
0.0214489 -0.0109166 0.147508 
-0.00175237 0.000395415 0.110806 
0.00908399 -0.0024617 0.101373 
5.67157e-05 0.000312081 0.0592726 
5.63518e-05 -0.000539529 0.00126236 
0.000113506 -0.00093075 0.00083575 
-0.00202828 0.00703713 0.103358 
-0.0134931 -0.00695216 0.0177934 
-0.0276692 -0.0142477 0.0538985 
0.0114094 0.00865707 -0.0079323 
-0.0108676 -0.00113483 0.0135036 
0.00836952 0.00206473 -0.00606323 
-0.0323346 0.0117021 0.0526181 
0.00757292 -0.000645694 0.000876999 
-0.0152295 0.00883607 0.057884 
0.0932459 0.0763862 0.214418 
0.118852 0.109861 0.316911 
0.138691 0.0271925 0.0713485 
0.109038 0.147645 0.581226 
-0.0571208 -0.0297871 0.106038 
-0.0128037 0.0100631 -0.00271343 
-0.0266551 -0.0379255 0.0708033 
-0.0741162 -0.0539852 0.0922351 
-0.00348076 -0.000775025 -0.0010549 
0.0110213 -0.0072291 0.0367048 
-0.00495444 0.00281088 0.000760801 
0.00801379 -0.00759892 0.0133203 
0.00216249 -0.000520871 0.118546 
-0.00794374 -0.00199651 0.0880802 
-0.0184329 -0.0112714 0.130667 
-0.0180574 -0.0086224 0.178625 
0.0152602 -0.0125511 -0.0107207 
-0.0476124 0.0270266 0.0677306 
-0.157394 0.0593134 0.182533 
0.00588562 -0.00773488 -0.0461762 
-0.0232421 0.0354378 0.140525 
-0.0434706 0.0636361 0.285978 
-0.0713307 0.105499 0.263532 
-0.0558995 0.0332865 0.187976 
-0.000185852 -0.0531847 0.24464 
0.0013217 0.0102489 0.502331 
0.0724807 -0.00832271 0.271535 
0.162007 -0.233617 0.178385 
0.029503 0.0223784 0.304983 
-0.000141744 -0.000892835 0.25429 
0.0171223 0.00107324 0.313897 
0.00989763 0.0173983 0.281084 
0.0072067 0.0113079 0.587696 
0.0392462 0.00517068 0.566675 
-0.0200683 0.175034 0.536677 
-0.0814626 0.220011 0.166238 
0.00218603 -0.00108666 0.00226027 
-0.0244506 0.0192978 0.0558252 
0.00369593 -0.00728164 -0.0179214 
-0.0182088 0.00718581 0.0196424 
0.00211748 0.000951604 0.00287164 
-0.0157309 -0.00743606 0.0172149 
0.00259746 -7.76309e-05 -0.00584129 
-0.0132352 -0.00560116 0.0453711 
0.00103418 0.00159636 -0.00141416 
0.00299362 0.00165678 -0.00224558 
-0.000542678 0.000880671 -0.000102063 
-0.00474948 -0.00780619 0.00857127 
0.0114351 -0.126582 0.436693 
0.0347187 -0.0634032 0.403286 
0.0755143 -0.12237 0.33692 
0.0160548 -0.0965719 0.240999 
0.0192868 0.00106231 0.121875 
0.0336964 0.00605674 0.217495 
0.0216035 0.00669534 0.125452 
0.000569742 -0.000433764 0.0794967 
0.00279195 -0.000485397 0.193824 
-0.0252493 0.0156926 0.219796 
-0.0263135 0.00647861 0.190162 
-0.0233281 0.00733874 0.274203 
0.0154074 0.0429508 -0.0764978 
0.0678448 -0.073389 0.0421141 
0.0528843 -0.183258 0.336003 
0.013298 -0.0832602 0.10413 
-0.004334 0.0283197 0.0724595 
-0.00948105 0.0176578 0.070326 
-0.01486 0.0430486 0.0518017 
0.000834912 0.0203348 -0.00499508 
-0.175821 0.00749872 0.361453 
-0.097182 -0.111354 0.457012 
-0.0669296 0.0264039 0.572867 
-0.0997371 -0.0154327 0.62635 
-0.00517555 -0.00374369 -0.00140427 
0.0174162 0.0307175 0.0503817 
-0.00338667 -0.00652187 -0.000636576 
0.00758215 0.0143803 0.0620592 
-0.0347697 0.0582873 0.0368947 
-0.0125549 0.0687793 0.204601 
0.00169024 0.0825712 0.129763 
-0.0216655 0.113901 0.283894 
-0.000337703 -0.00200173 0.0529949 
0.000264168 0.00666652 0.0900462 
0.000195836 0.000537298 0.106342 
0.000529393 0.00853169 0.0817084 
0.0151103 -0.028403 0.0413945 
0.00780315 -0.0147768 0.0445824 
-0.00554246 0.0104767 -0.011086 
0.00358122 -0.0107274 0.00840882 
0.0732878 -0.0379765 0.119899 
0.0549963 -0.038394 0.0849679 
0.00117629 -0.000409609 -0.0556124 
0.098393 -0.0313711 0.120961 
-0.000648218 3.96869e-05 0.177926 
0.00123638 0.000527258 0.118615 
-0.0168398 -0.00617161 0.179779 
-0.00814531 -0.000798432 0.0737148 
-0.000410032 -9.62008e-05 0.214879 
-0.0191051 -0.0241021 0.234215 
-0.017099 -0.0110924 0.187539 
-0.0111844 -0.0134453 0.154824 
-0.0239549 0.0205264 0.121966 
-0.0639462 0.0125259 0.212367 
-0.0288787 0.00797469 0.090909 
-0.0245512 0.00391388 0.186937 
0.00465674 -0.00035142 0.72835 
0.0943771 0.00794258 0.670494 
0.0191012 -0.0306307 0.65004 
0.0685 -0.0646294 0.624928 
-0.00169419 0.00119723 5.56597e-05 
-0.000904642 0.000559902 -0.00443212 
0.000914662 -0.00059377 0.00292613 
0.00182621 0.00804307 0.0325067 
0.0995169 -0.0486593 0.463796 
0.151396 -0.0664607 0.402313 
0.0970788 0.00403091 0.660364 
0.0585396 -0.0939029 0.629165 
0.0658754 -0.110237 0.243024 
0.0107493 -0.128374 0.270062 
0.00388412 0.00497509 0.641104 
-0.00852639 -0.0648676 -0.20858 
0.000562149 7.87323e-05 0.172831 
0.00037697 0.00161776 0.11545 
-0.000174096 -0.000481108 0.136895 
-0.0110364 -0.00952005 0.160617 
-0.000278757 0.000877433 -0.00317567 
0.000176238 -0.000689463 -0.000412688 
0.00010911 -0.000356205 0.00101371 
-0.00329168 -0.000485315 0.07132 
0.000554072 0.000204802 0.116596 
-0.000927339 0.000374532 0.0836991 
0.0151431 0.00598998 0.122699 
0.00652213 0.00198267 0.0845982 
-0.00243275 0.00393508 -0.0060835 
0.0152426 -0.00942078 0.059811 
-0.00258189 0.000372407 0.001836 
0.0150403 -0.00676318 0.025214 
1.17787e-05 -0.000425042 0.00204191 
-0.000178038 0.00258811 -0.00156627 
-0.000133516 0.00230478 -0.00395338 
0.0076184 -0.00205244 0.0164008 
0.00243321 -0.0465019 0.270344 
0.00451089 -0.0239649 0.118821 
0.0136651 -0.0871354 0.237446 
-0.00440251 -0.0437157 0.173091 
0.0220337 0.00709616 0.116064 
0.0232871 0.00943737 0.0811661 
-0.0099136 -0.00135964 -0.00165832 
0.0102209 0.00524675 0.0640752 
-0.0211311 0.0359073 0.152222 
-0.0190811 0.0477033 0.0621961 
-0.0213849 0.0772499 0.190948 
-0.00460405 0.010006 0.0523719 
-0.0307082 -0.0754142 0.265121 
0.00907359 -0.0949327 0.266514 
-0.0269198 -0.0607052 0.115734 
-0.0085112 -0.0444156 0.161295 
0.000419424 -7.15275e-05 -0.00541458 
0.000187883 -0.000226822 0.00269274 
0.00242604 -0.0015289 -0.00201584 
-0.00995922 -0.00782688 0.0331041 
0.0649751 -0.0276917 0.11463 
0.0253061 -0.0164746 0.146611 
0.0798319 -0.0412478 0.245298 
0.0205337 -0.000150172 0.0594732 
0.00527261 -0.00201487 0.732864 
-0.0213748 0.00354529 0.717203 
0.00430631 0.156153 0.521947 
-0.00222852 0.0636271 0.715531 
-0.000629831 0.00473214 0.164699 
-0.00126218 0.00119862 0.132224 
0.0202059 -0.00258145 0.119487 
0.0205493 -0.00558849 0.193664 
-0.00775473 0.00801745 0.0995889 
-0.0135818 0.013582 0.0746775 
0.00385796 -0.00327795 -0.00198986 
-0.00448023 0.000920979 0.0768137 
0.000572376 0.00255184 0.00695706 
-0.000860753 -0.00326323 -0.000144719 
-0.000943898 -0.00362579 -0.00100935 
-0.00785269 0.00452062 0.0103684 
-0.0269965 -0.00228805 0.130421 
-0.0818498 -0.0183712 0.234562 
-0.0218138 -0.0155648 0.0769042 
-0.049934 -0.0323645 0.180375 
0.024784 0.0388306 0.052927 
0.00732438 0.0220126 0.0761552 
-0.0148199 -0.0180069 -0.0112645 
0.0184756 0.0191378 0.0506862 
-0.0645951 -0.0735449 0.547925 
-0.105178 -0.10175 0.45746 
-0.167571 0.0235126 0.350867 
-0.100916 -0.0297756 0.63257 
0.000867021 0.0105589 -0.00574443 
-0.0165755 -0.0299457 0.0467398 
-0.00146752 0.00694577 -0.00131905 
-0.00765039 -0.0135694 0.0523256 
-3.10329e-05 -0.000381797 -0.00332739 
9.19968e-05 0.00113183 0.0023 
3.61864e-05 0.0004452 -0.00100092 
0.00807134 -0.00221342 0.116427 
0.00292041 -0.0764727 0.116328 
0.000775044 -0.0216564 0.0730585 
-0.0218706 -0.030617 0.0190371 
-0.0118048 -0.0569443 0.123132 
0.000105575 -0.00361509 0.0025456 
-0.00313362 0.0144097 0.0968679 
0.00053557 -0.000892748 -0.00886944 
-0.00366041 0.0143316 0.0658234 
-0.035515 0.00966855 0.33238 
-0.011158 -0.0168324 0.32878 
-0.0311435 -0.0107625 0.276399 
-0.0257241 0.00532644 0.270873 
0.000737533 -0.0012278 0.204655 
-0.000191789 -0.00188868 0.263826 
0.00313522 0.000172015 0.262085 
-0.0198421 0.0219463 0.21234 
-0.00155425 -0.00219702 0.000167056 
-0.00169158 -0.0025475 -0.00602398 
7.77937e-05 0.00020619 0.00381058 
-0.00895934 0.009582 0.0432354 
-0.00333518 0.00135079 -0.00616464 
-0.00393574 0.00211986 0.00643618 
0.0171843 -0.0132369 0.0545048 
0.0153392 -0.00920112 0.0204476 
-0.0824086 0.107183 0.3027 
-0.130751 0.0796617 0.2613 
-0.0407906 0.0280354 0.14261 
-0.095088 0.0575072 0.360626 
-0.00330185 -0.103034 0.0635502 
-0.0412228 -0.121634 0.226993 
0.0116569 -0.130698 0.42194 
0.0142304 -0.099781 0.261911 
-0.000114859 -0.001351 0.266207 
0.00400009 0.0331952 0.311561 
0.00267352 0.0118971 0.34041 
0.0106638 0.0173429 0.278415 
0.101777 -0.123155 0.33583 
0.0334109 -0.0742046 0.381899 
-0.00231113 -0.116422 0.456548 
0.0638749 -0.114245 0.567676 
-0.00381597 -0.0210416 0.131157 
0.000465721 -0.0109811 0.0877115 
-0.000779496 -0.00037637 0.171253 
-0.00140293 -0.0190941 0.180638 
-0.0422638 -0.0148824 0.273478 
-0.00886635 -0.0267727 0.24078 
-0.0466819 -0.0623457 0.26167 
-0.0579583 -0.0377191 0.179445 
0.00380909 0.0004922 0.158677 
0.0162694 0.00192458 0.125809 
-0.000705161 -0.000933809 0.0819643 
0.00629529 0.00219419 0.0832665 
0.00012121 8.68624e-05 -0.00764786 
0.000623184 0.000426286 0.00362016 
-0.00127936 -0.000878666 2.15894e-05 
-0.0077425 0.00779742 0.0640464 
-0.0635985 -0.0861112 0.246785 
-0.0321725 -0.038439 0.0650836 
-0.00528071 -0.0116421 0.0649419 
-0.0175486 -0.0524543 0.123225 
0.00684788 -0.00722609 -0.00642599 
-0.0176726 0.0149725 0.0636271 
-0.0336397 0.0211499 0.0623008 
-0.0128133 0.005296 0.057226 
0.00070294 -0.00150333 0.00157968 
0.000758887 -0.00161741 0.00222237 
0.000865193 -0.00190177 -0.00282868 
0.0018011 0.00777457 0.05318 
0.0093814 -0.045512 0.555967 
-0.255809 -0.0181965 0.331805 
0.00718615 -0.00745188 0.601324 
-0.109745 -0.00763366 0.660789 
-0.0278258 -0.00346123 0.129941 
-0.0272217 -0.0107321 0.0804916 
-0.0208615 -0.00761426 0.18391 
-0.0484045 -0.0299734 0.181384 
-0.00164615 9.36089e-05 0.227985 
-0.023222 0.00347291 0.190436 
-0.00275841 -0.00402631 0.180534 
-0.0200831 0.00215882 0.268767 
0.00266539 0.00143389 -0.00200404 
-0.000963494 -0.00161755 0.000761296 
0.000818591 -0.000761469 -0.000252832 
-0.0148047 -0.0194963 0.0205989 
0.00317537 0.00117131 -0.00419182 
0.00314143 0.00231976 -0.00420939 
0.00150971 -0.000260468 -0.00163591 
-0.0168243 -0.0187993 0.0281921 
0.0152601 -0.0132795 0.399462 
0.0520117 0.0012451 0.382551 
0.0389534 -0.0221744 0.276537 
0.0171119 0.000411253 0.297467 
-0.000453677 0.000242517 0.0531581 
0.0005189 -0.000803965 0.0764394 
-0.000436589 0.000771484 0.00121405 
0.00566257 -0.00326408 0.108767 
-0.00112539 -0.00189638 0.158402 
-0.00811426 0.0115285 0.0979631 
-0.0210577 0.0182452 0.210775 
-0.00918608 0.0166815 0.165427 
-0.0421946 0.0639695 0.0816829 
-0.0153737 0.0498126 -0.0619368 
-0.0525888 0.0795605 0.121149 
-0.103794 0.142018 0.370814 
0.000309628 0.000189584 0.0614858 
-0.000527357 -0.000506316 0.0955611 
-0.000108356 0.000542262 0.000407858 
-0.0010562 -0.00658208 0.0943696 
-0.00529059 0.00701129 0.745351 
-0.079595 0.0788355 0.583566 
-0.0038646 0.150389 0.50787 
-0.0119 0.0518042 0.699144 
-0.0122426 0.00095892 -0.0122352 
0.0325729 0.00418417 0.0247653 
-0.0158444 0.00114162 -0.00981828 
0.0206488 0.00447055 0.0203234 
0.0201123 -0.0380241 0.0554947 
0.00645743 -0.0189515 0.0572836 
0.0224162 -0.0225581 0.0757618 
0.0112961 -0.00103844 -0.00521354 
-0.0155038 -0.0139943 0.127046 
-0.00360582 -0.00335218 0.0760294 
-0.000938225 0.00249069 0.121078 
-0.00930967 -0.0113194 0.154306 
0.0294438 0.0181185 0.318805 
0.0122995 -0.005175 0.394165 
-0.00173498 0.0119358 0.33597 
0.0228393 -0.00270698 0.302567 
-0.000317125 0.000487575 0.00149662 
-0.000164175 -1.80978e-05 -0.00535878 
0.000127147 -0.000308199 -0.00315563 
-0.00864673 -0.00550021 0.0452661 
-0.00628051 0.00617738 0.753758 
0.014276 -0.00825566 0.737049 
-0.0155974 -0.0193748 0.638272 
-0.00426989 -0.0606037 0.731621 
-0.000632419 -0.00373658 0.00186309 
-0.0017541 0.0130563 0.0996617 
0.000529034 -0.00397077 -0.00151111 
-0.00507213 0.013588 0.0634527 
0.0614741 0.0618554 0.231975 
0.199713 0.0895499 -0.0341216 
-0.011451 0.0211425 0.518291 
0.0897945 0.0977436 0.677464 
-0.00152612 0.00174538 -0.00723013 
0.0147547 -0.0151892 0.0533603 
-0.00167193 0.00148334 0.00623134 
0.00797888 -0.0090714 0.0143538 
0.000120871 -0.000121749 0.00169145 
0.00189424 -0.00250947 -0.00105837 
0.00142709 -0.00201135 -0.00633175 
-0.00889388 0.0018863 0.0125282 
0.0315704 -0.0260622 -0.0873994 
0.0212359 0.0768454 0.0283236 
-0.00257218 0.111285 0.154162 
-0.00980618 0.149092 0.24734 
0.00147975 0.0754285 0.324123 
0.0188232 0.0399925 0.245657 
-0.0129463 0.033437 0.240368 
-0.0145282 0.0642764 0.20159 
-0.0356816 -0.0311207 0.0688847 
-0.0165269 0.00115414 -0.0103755 
-0.0466153 -0.0378523 0.108186 
-0.0199697 -0.0156452 0.0572913 
-0.0235059 -0.0394627 -0.0892612 
0.00314606 0.121115 0.159082 
-0.0114799 0.0769589 0.0435964 
-0.00363201 0.152422 0.231116 
0.00407755 0.0293474 0.138937 
0.00513913 0.0199316 0.0784461 
0.00901383 0.00724158 0.101017 
0.00400053 0.00681598 0.0761999 
-0.00510422 -0.00298178 -0.0170069 
0.013184 0.0215699 0.0533136 
0.0115191 0.0158224 0.0742733 
0.00641913 0.00888472 0.0599664 
0.0370142 0.0177896 0.313298 
-0.00538505 0.0386636 0.312006 
-0.00235368 0.0404051 0.424339 
0.0380783 0.0492648 0.367095 
-0.0781314 0.0203117 0.54331 
-0.142564 0.000141295 0.384665 
-0.0922917 0.0619327 0.35449 
-0.0690895 0.00966309 0.331278 
0.00251042 0.00749333 -0.00170277 
-0.00628756 -0.0219975 0.124754 
-0.00256488 -0.0175396 0.0779119 
0.000589161 -0.00749 0.0925121 
-0.0435608 0.0556416 0.294204 
-0.0149825 0.0617565 0.18727 
-0.0598043 0.118071 0.295993 
-0.01899 0.113928 0.292521 
0.00624163 0.00902104 0.338066 
-0.0081531 0.0283183 0.411222 
0.0345235 0.0246287 0.318471 
-0.00180215 0.0393711 0.314037 
-0.000923973 -0.000124907 -0.000745444 
-0.00078561 -0.000291193 -0.000560666 
0.000671671 -0.0029857 -0.00246338 
0.00956395 0.0215693 0.0146419 
-0.0001884 0.00146123 0.001499 
0.00065395 0.00309667 -0.00339464 
0.00236448 -0.0097652 0.0346399 
0.00390648 -0.0103331 0.0105143 
0.0745349 0.0139078 0.240622 
0.0224989 0.00384313 0.21309 
0.0316448 0.0232379 0.310595 
0.0645665 0.0365473 0.260664 
-0.00469091 -0.00715574 -0.0123359 
-0.00393642 -0.00677387 0.00066622 
0.0165371 0.0294033 0.0512684 
0.00983659 0.0204631 0.0633472 
0.00367029 0.00797345 0.736669 
0.0179399 -0.0182277 0.658746 
0.0939208 0.0136418 0.673569 
0.17947 -0.0998317 0.394223 
-0.000175011 1.16888e-06 0.00345864 
-0.00033026 0.000126157 -0.00345601 
-0.000611301 0.000153629 3.66882e-05 
-0.00275107 -0.0105872 0.122671 
0.00189809 -0.00213816 -0.0212288 
0.00213556 -0.002588 -0.00823575 
-0.00960137 0.0197515 0.0409895 
-0.00830318 0.0131858 0.0301188 
-0.00161132 0.00177052 0.257881 
-0.00929091 0.0308411 0.230415 
0.00154855 -0.0021881 0.188773 
-0.00902269 0.0177232 0.166543 
0.000414298 -0.000254871 0.00365519 
-0.000450234 0.000329775 -0.000796143 
0.000537862 -0.00039847 0.000679679 
0.00195219 0.00371784 0.0597524 
-0.0100554 0.0363172 0.233332 
-0.0110686 0.0630318 0.188448 
-0.00500707 0.0111518 0.098501 
-0.014255 0.0131604 0.168748 
-0.156255 -0.037489 0.341041 
-0.0875478 -0.0292408 0.295746 
-0.104753 -0.0537443 0.159669 
-0.115211 -0.0179334 0.0462557 
-8.18491e-06 -0.00461441 0.00313611 
0.000403523 -0.00198317 -0.00842323 
-0.00315514 0.0138253 0.0983397 
-0.000922857 0.0178249 0.0706275 
-0.00151288 0.00225024 0.00319804 
0.00754806 -0.0103822 0.105825 
-0.000546904 0.000701544 -0.0018166 
0.0053885 -0.00437061 0.105682 
0.000542929 -0.00259361 0.00154056 
-0.00203895 0.0112358 0.103961 
0.000215587 -0.000759707 0.0773699 
-0.00166562 0.00647915 0.0897521 
-0.0167855 -0.0125922 -0.0133804 
0.0140982 0.0192464 0.0507072 
0.041446 0.0309762 0.0789172 
0.0226072 0.0180069 0.0203054 
0.052862 -0.0447905 0.485529 
0.119063 -0.072335 0.40893 
0.114867 -0.1782 0.300401 
0.0812254 -0.0983406 0.613335 
0.0035465 -0.0200869 -0.00498528 
-0.0153204 0.0372714 0.041075 
-0.00331312 0.0178532 0.0557987 
-0.00673688 0.0223559 0.0174728 
-0.000119319 0.00207007 0.00273323 
-0.00042659 0.00310821 -0.00150143 
-0.000854038 -0.0141628 0.0747105 
-0.000140824 -0.00819665 0.0880086 
-0.0220811 0.00918595 0.117112 
-0.0251339 0.00121105 0.192621 
-0.0220686 0.0240315 0.216329 
-0.0508625 0.035558 0.183174 
-0.0435113 -0.0613019 0.262777 
-0.066358 -0.0421066 0.392761 
-0.0418398 -0.0135825 0.274635 
-0.0650746 -0.0440323 0.173506 
0.00342861 0.0127654 0.0732387 
0.0028672 0.0176352 0.185229 
0.00029643 -9.88454e-05 0.164191 
0.0048773 0.0155151 0.172692 
0.00383435 -0.000543308 -0.00903284 
0.0154924 -0.00133944 0.0260123 
-0.0071066 -0.00546682 -0.017914 
0.0649996 -0.0100954 0.0543522 
0.00505402 -0.00126191 0.24757 
0.000110376 4.92098e-05 0.293919 
0.0118918 -0.0116124 0.303104 
0.0145887 -0.00537739 0.306597 
0.0201567 -0.022239 0.237613 
-0.00299935 0.0376155 0.619671 
0.0101183 -0.00292336 0.450496 
0.0580566 -0.134654 0.689746 
-0.00109943 0.000619759 0.156158 
0.000124819 0.000567877 0.220024 
-0.000336046 -0.000174576 0.161786 
0.0258027 0.00509359 0.217809 
-0.0414598 -0.0641561 0.259397 
0.00647951 -0.048815 0.274839 
-0.0211996 -0.0229 0.226272 
-0.0172789 -0.0744887 0.339687 
-0.100242 -0.130926 0.463729 
-0.00999244 -0.027676 0.693662 
-0.0702588 0.0365952 0.553704 
-0.0973579 -0.0192954 0.637169 
-0.00432455 -0.00355285 -0.000958987 
0.032419 0.0262452 0.0677929 
-0.00872469 -0.00953914 -0.00874899 
0.0201316 0.0147807 0.019511 
-6.70592e-06 -3.16749e-05 0.000683707 
-0.000300661 -0.000755634 0.00491966 
-5.69093e-05 -0.000100491 -0.000716086 
0.00637848 -0.00365424 0.0149854 
0.0250029 -0.0238146 0.0728506 
0.0291326 -0.00261191 0.0845456 
0.0605883 -0.0204414 0.0987426 
0.0100285 -0.0168517 0.00620106 
0.00162427 0.00089188 0.23118 
-0.0225724 -0.0114615 0.187314 
-0.0360009 -0.0145205 0.262217 
-0.020914 0.00209041 0.273906 
-0.0203555 0.0109671 0.118683 
-0.0175195 0.0112584 0.0744411 
-0.00551159 0.00933102 0.101559 
-0.00154963 0.00265919 0.0753836 
-0.0414038 -0.0693418 0.263531 
0.00345829 -0.09393 0.267322 
-0.00115788 -0.0389884 0.155172 
-0.0144077 -0.101399 0.355035 
0.0378478 0.0381737 0.140351 
0.0286268 0.0637179 0.207539 
0.00827621 0.0340264 0.248509 
0.0469061 0.0561097 0.259661 
-0.0284975 0.0378762 0.153755 
-0.0225254 0.025548 0.211821 
-0.0194951 0.00942773 0.121845 
-0.00581479 0.0031016 0.0967703 
-0.0026734 0.0340038 0.242506 
0.00061571 0.0212756 0.182075 
0.00898175 0.0394058 0.242039 
0.0103512 0.013284 0.285946 
-0.0870272 0.138685 0 
0.0559377 -0.0924113 0 
0.064928 -0.0985319 0 
0.133657 -0.18056 0.407954 
-0.0379098 0.0233884 0.0549378 
-0.0157955 0.0124143 0.0604345 
0.0123841 -0.00549625 -0.00690687 
-0.00928503 0.012675 0.0308682 
0.00084471 0.000418677 0.117719 
0.00859331 -0.00326172 0.103091 
0.018318 -0.0108005 0.138626 
0.00725365 -0.00563407 0.109354 
-0.000572922 -0.000352084 -0.00291666 
0.000268296 0.000139837 0.00038301 
-0.000576754 -0.000195097 0.00331762 
-0.00169192 0.00753073 0.101788 
-0.0223654 0.00940785 0.1212 
-0.019411 0.0236089 0.214403 
-0.0256445 0.0375555 0.154723 
-0.0527887 0.0356142 0.179074 
0.00166986 0.000709028 0.143785 
-0.00161795 -0.00878117 0.0881095 
0.00322186 -0.0225668 0.129793 
0.00138833 -0.0193515 0.180015 
-0.000566588 -0.0100986 -0.00170307 
-0.00302379 0.0125223 0.0988583 
-0.00070541 0.0262295 0.0652044 
-0.00404255 0.0206517 0.059136 
-0.0662468 -0.036077 0.402201 
-0.0796434 -0.0255797 0.265476 
-0.0409888 -0.0141169 0.2727 
-0.0606111 -0.0481156 0.161324 
-1.73739e-05 0.000213751 0.00386748 
0.000104511 -0.0012858 -0.00416384 
0.000169381 -0.00208389 0.000925255 
0.00767701 0.00517843 0.0211799 
-0.000701729 0.000270448 -0.00236386 
-0.00222942 0.00121502 0.00361702 
-0.00278663 0.00140861 0.00107818 
0.0102267 0.00732573 0.03832 
3.98286e-06 -0.000689286 0.00199997 
0.00020984 0.000544769 0.0657081 
-0.0003907 -0.000732102 0.000329535 
0.00306334 0.00583117 0.099601 
0.00259734 -0.0113004 -0.0100955 
-0.00496949 0.0195366 0.0571836 
-0.00717982 0.029162 0.0630893 
-0.00327868 0.0176464 0.0154832 
-0.00676447 3.5564e-06 -0.00143621 
0.0192544 -0.00426804 0.0781242 
0.020229 -0.00250567 0.116851 
0.00633401 -0.00322308 0.10115 
-0.000149612 0.000435729 0.000428559 
0.000161541 -0.00109243 0.0947094 
0.000726643 0.00161215 0.00154708 
-0.00177901 -0.00669142 0.0951083 
0.0102656 0.0377942 0.223172 
0.0235713 0.0742738 0.187104 
0.0139263 0.0801003 0.351164 
0.0397912 0.0648198 0.380051 
-0.063414 -0.0158785 0.0913498 
-0.0300925 -0.00448703 0.0629803 
-0.0103 -0.0182658 0.0107788 
-0.0117517 -0.000242918 0.00827635 
0.0255968 0.0246465 0.315468 
0.0624243 0.0175536 0.393154 
0.0875503 0.0067543 0.23212 
0.0602461 0.0437307 0.261172 
-0.0521012 0.0306877 0.0783127 
-0.112643 0.0618355 0.166773 
0.00650671 0.00891289 -0.0276591 
-0.0218989 0.000590006 -0.0111268 
0.0475527 0.0458834 0.542168 
0.21014 -0.00160266 0.345992 
0.104417 0.0396225 0.636116 
0.0641261 0.0897463 0.58157 
0.0657199 -0.0260662 0.107953 
0.0233044 -0.0263942 0.0720404 
0.0231887 -0.0164429 0.142908 
0.0243506 -0.00277948 0.0786888 
-0.0264522 0.0303692 0.04406 
0.0156063 0.0773372 0.130816 
-0.0490633 0.154782 0.193146 
-0.0271179 0.128374 0.280206 
0.00933534 -0.0155216 0.104411 
0.0222811 -0.0221114 0.218668 
0.0267245 -0.0189082 0.151202 
0.00216874 -0.00564882 0.102293 
0.00813351 -0.00777283 -0.0296099 
-0.0269061 0.111306 0.140488 
-0.018223 0.0540259 0.0639444 
-0.00256178 -0.00122257 -0.00935912 
0.111133 0.0283313 0.354319 
0.158074 0.0380262 0.0943248 
0.116767 0.108634 0.314268 
0.103782 0.14348 0.571561 
0.00285104 0.00577183 -0.00721452 
-0.00832212 -0.0173617 0.0851858 
-0.00717311 -0.0198903 0.125337 
-0.00450212 -0.00662707 0.0874017 
-0.00348668 0.0138821 -0.0427448 
0.0251206 -0.0402582 0.0450032 
0.0314709 -0.0820839 0.104748 
0.0447648 -0.0559111 0.0866571 
-0.00427305 0.0108525 0.0974231 
-0.0127036 0.0616403 0.190279 
-0.0207858 0.0386994 0.152636 
-0.0114086 0.0147327 0.165324 
0.000620634 -0.00177538 0.155844 
-0.020693 0.0184648 0.21038 
0.000939955 0.00175041 0.205803 
-0.0107871 0.0166404 0.167822 
0.00623709 0.0298785 0.139862 
0.0049892 0.00641657 0.0764624 
0.00726314 0.00713702 0.100349 
0.00366042 0.0170148 0.168921 
-0.000911529 -0.000584218 0.00118625 
0.000118619 -0.00016788 0.074562 
0.000828159 -0.000439852 0.0632184 
0.00475109 0.0062481 0.0965781 
0.0114274 0.0813254 0.338038 
0.0246804 0.0716262 0.199394 
0.0152732 0.0381432 0.240858 
-0.0202837 0.0703554 0.199755 
-0.00051927 0.000712133 0.153472 
0.000736099 0.00929975 0.0869099 
-0.0017032 0.0128114 0.106541 
-0.00159984 0.0168593 0.182278 
8.32542e-05 0.000286732 0.0687567 
-0.00561225 -0.00396184 0.0929988 
0.00129926 0.000306278 0.0015929 
-0.00372463 -0.00230574 0.0792101 
-0.00292166 -0.00757992 0.000365689 
0.00906889 0.0205332 0.078519 
0.0047343 0.00901501 0.0961801 
0.00599323 0.0090767 0.0611362 
-0.00187594 -0.00242403 0.222119 
0.00201234 -0.000778247 0.247862 
-0.00203406 0.000931471 0.279656 
0.00882437 -0.0178522 0.294584 
8.67505e-05 -0.000825621 0.192478 
-0.00214996 -0.00137094 0.15374 
-0.0033817 0.0182781 0.169321 
-0.00262616 0.0182418 0.187041 
-0.0334871 0.0485992 0.251086 
0.0332599 -0.00302537 0.610782 
-0.242133 0.108034 0.150122 
-0.127548 0.0867162 0.646056 
-0.0147264 -0.0130464 0.124656 
-0.00687647 -0.00302649 0.0929248 
-0.000943932 0.00122004 0.120375 
-0.00432201 -0.00353975 0.0786219 
0.0289934 0.0314806 0.152168 
0.0185528 0.00717581 0.123639 
0.00930219 0.00537984 0.0924645 
0.0122967 0.0084153 0.0573227 
-0.000662128 -0.000157579 -0.00104567 
-0.000430741 -9.31923e-05 0.000159042 
-0.00027984 -4.0206e-05 0.00193504 
0.00188781 -0.0022966 0.0852735 
-0.00199782 0.00417146 0.00398403 
-0.00325799 0.00167861 -0.00497988 
0.0143435 -0.0254686 0.035744 
0.00623373 -0.0087332 0.0402654 
-0.0465207 0.0404827 0.0706221 
-0.11859 0.0684661 0.194958 
-0.0798737 0.015678 0.240068 
-0.0509204 0.040466 0.192678 
0.000912703 0.000105378 -0.00133819 
0.00195507 0.000110789 0.00432042 
0.00214527 0.000189062 0.000520353 
-0.00683308 -0.00796809 0.0700754 
-0.000123537 0.000121203 -0.00384199 
5.65194e-05 -5.58663e-05 0.00244699 
0.000572448 -0.00055087 -9.71816e-05 
-0.00373278 -0.00820892 0.0371758 
0.000792305 0.000509941 0.00274228 
-4.28656e-05 -4.50596e-05 0.00129382 
3.12977e-05 2.23317e-05 -7.22866e-05 
0.00272468 -0.00642371 0.104351 
-0.000730206 -0.00268701 0.000853524 
0.00123944 -0.00497582 -0.00102305 
-0.00256655 0.0131489 0.0982203 
-0.0040388 0.0136308 0.0654203 
0.0057639 0.000751283 -0.0195107 
0.000828978 0.000260054 -0.000415496 
-0.0223565 -0.00194331 0.0875916 
-0.0208322 -0.00112204 0.0632075 
1.17607e-05 -4.16643e-05 0.17024 
-0.00281447 0.000788216 0.172694 
-0.00564638 -0.0219208 0.128596 
-0.00138719 -0.0190297 0.183319 
-0.00112968 -0.00224982 0.167345 
-0.00494252 -0.0190031 0.132632 
0.000296998 0.00142461 0.0939058 
0.000807043 -0.00901496 0.0917644 
-0.000223738 0.000229259 0.00135158 
-0.000131793 0.000166772 0.00472095 
-0.000221598 0.000206102 -0.00125477 
-0.00575192 -0.00403591 0.0588797 
0.000411082 0.000310744 0.00182454 
-0.000101044 -4.55035e-05 0.0018583 
-0.000564146 -0.000451896 -0.00440507 
-0.00385834 0.00640775 0.0618222 
0.0107469 -0.00106527 0.629188 
0.0149734 0.00648619 0.540769 
-0.0239661 -0.0594162 0.24524 
-0.0985708 -0.247366 0.126676 
0.00850056 0.00389528 0.718693 
-0.00975511 -0.0039249 0.805133 
0.0979705 0.0175999 0.669762 
0.0587934 -0.0822119 0.639309 
0.00195191 -0.00200289 0.238116 
-0.00141117 0.00125541 0.229627 
0.000209306 -0.00155943 0.179478 
-0.0213677 0.000335208 0.267875 
-0.0188349 -0.0241646 0.240723 
0.000244267 -0.0195166 0.181421 
-0.00209345 -0.051139 0.263454 
-0.00271468 -0.0502858 0.177687 
0.000378546 0.000837102 0.303994 
0.00619108 0.00550458 0.330816 
-0.00564247 -0.00704231 0.316207 
0.0127755 0.00394696 0.308755 
-0.0185184 0.0487364 0.0666077 
0.0038977 0.0266552 0.0650573 
-0.0194259 0.0713771 0.180065 
-0.00573998 0.0137646 0.0596614 
-0.0986186 -0.0517967 0.139807 
-0.177231 -0.0661394 0.33403 
-0.0881456 -0.0654877 0.157849 
-0.0972689 0.017134 0.0545136 
0.000489264 -0.00026519 0.068099 
0.000427979 -0.000249524 0.000341718 
-0.00023009 -1.20509e-05 0.0661529 
-0.00456346 -0.00116697 0.0805667 
0.000894569 -0.00208294 0.00146772 
0.00889273 -0.0177005 0.0388281 
-0.000745661 0.00419369 -0.00848338 
0.00429518 -0.00473354 0.0136477 
-0.0393859 -0.0829546 0.256245 
-0.020651 -0.0530838 0.122831 
-0.00229125 -0.0135197 0.11004 
0.00315319 -0.0459807 0.169548 
0.0167812 -0.00633915 -0.0415895 
-0.0289817 0.0299593 0.0523684 
-0.04148 0.0324803 0.0482203 
-0.0123168 0.0198459 0.0264157 
-0.00567743 -0.0113385 -0.0144182 
0.0153052 0.0445576 0.0255344 
-0.00106397 0.00218375 0.00303522 
0.00235367 0.0191916 0.0245857 
-0.0181729 -0.0508837 -0.0800246 
-0.0383803 0.0622067 0.100477 
-0.0310247 0.0509336 0.0194819 
-0.0423502 0.156836 0.220024 
0.0321394 0.0325029 0.154947 
0.00745136 0.0039902 0.0904982 
0.0194053 0.00620764 0.123869 
0.0218351 0.0201527 0.201148 
0.072088 -0.0284252 0.116222 
0.00523938 0.00179956 0.0578342 
0.102939 -0.0444447 0.246571 
0.0410748 0.00730759 0.122078 
0.00186101 -0.000183776 0.00284782 
-0.00132925 0.000131264 0.00179319 
-4.57926e-06 4.52204e-07 -0.00659436 
-0.0014235 0.00948507 0.0595137 
-0.0012965 -0.000950353 0.00172424 
0.000129679 -0.000922401 0.000979863 
0.000551423 0.000841004 0.0825089 
0.00583926 0.00460179 0.0968656 
-0.0124641 -0.0567776 -0.0704153 
0.178369 0.10737 0.340591 
0.104005 0.0211335 0.0526421 
0.0786738 0.063502 0.136363 
0.0570184 -0.0649693 0.225394 
0.0306804 -0.0833612 0.383279 
-0.00550898 -0.0435261 0.270936 
0.00956848 -0.0864807 0.261832 
-0.016765 0.00952528 0.111603 
-0.069432 0.0204911 0.220773 
-0.0260521 0.00365688 0.192073 
-0.0519869 0.0325314 0.186108 
0.040585 -0.0697493 0.0560159 
-0.0490098 0.00708442 -0.0733157 
0.160464 -0.132664 0.333254 
0.0616912 -0.0459954 0.0585974 
0.000240075 0.00123423 0.00279584 
-0.000509538 0.00125908 -0.00754545 
-0.00408255 -0.0150366 0.126096 
-0.0018727 -0.00597336 0.0858039 
-0.00138151 0.00190844 0.127866 
0.00107187 0.000417437 0.195249 
-0.000879228 -0.000961201 0.184581 
0.0149867 -0.0201109 0.211349 
-0.000327482 0.000589136 0.0626218 
0.000585203 -0.000274613 0.00260942 
0.000582049 -0.000467661 0.000382631 
-0.00395042 0.00455403 0.101672 
-0.00113028 -0.000872863 0.0820249 
0.00116446 0.00132285 0.160129 
-0.000482764 -0.00157776 0.133329 
0.0180893 0.0014112 0.124949 
-0.00111907 0.00126297 -0.000499 
-0.00289559 0.00208586 0.00762468 
0.0069063 -0.0155645 0.0544931 
0.00568721 -0.00961022 0.0494175 
7.47042e-05 -0.000581478 0.0833048 
0.000468621 6.4037e-05 0.0633387 
-0.000846386 0.000464966 8.58218e-05 
0.00494943 0.00344063 0.0865934 
-0.0197269 0.0377032 0.151517 
-0.0110191 0.0635801 0.19157 
-0.00504034 0.0113041 0.0979985 
-0.00975559 0.0184108 0.0517142 
-0.0273775 -0.0167158 -0.0160596 
-0.00673524 0.0478835 0.0507433 
0.0101367 -0.00322755 -0.0384438 
-0.0456658 0.129653 0.152374 
-0.010328 0.000157259 -0.0222895 
-0.00353587 0.0110268 -0.00867971 
0.0284082 0.0520772 0.0729696 
0.0407907 0.10706 0.149465 
0.0596042 0.0600072 0.275952 
0.0093963 -0.0245649 0.672901 
0.0764098 0.244057 0.114889 
0.0825461 0.109721 0.607931 
-0.00179113 -0.0024246 0.00181498 
0.00574799 0.00767827 0.100216 
-0.000638794 -0.00083757 0.0761042 
0.00588791 0.00860143 0.0957379 
0.00154008 0.00330247 -0.0108835 
0.0232944 0.0116705 0.0688789 
-0.00207397 0.00241852 -0.000616504 
0.00666023 0.00304579 0.0529258 
-0.000637818 0.000470085 0.00193043 
-0.000228965 0.000113455 -0.00343808 
0.000493859 -0.000416653 -0.00542943 
-0.0049293 -0.0092031 0.0658796 
-0.00143967 0.000892277 0.257766 
0.00165863 0.00057191 0.190692 
-0.00271635 -0.00219783 0.210666 
-0.00830793 0.0168095 0.167708 
-0.00409439 0.0843541 0.128048 
-0.00841897 0.0749284 0.189337 
-0.0241592 0.0450486 0.0621833 
-0.00407727 0.0225636 0.0586055 
-0.018239 0.0122622 -0.023973 
-0.00668887 -0.0350971 0.0192166 
-0.025013 -0.0408626 0.0618545 
-0.0439524 -0.116684 0.146208 
-0.00690113 -0.00559047 -0.0141856 
0.0302901 0.0232937 0.0798212 
0.0184448 0.0201563 0.0503992 
0.00958804 0.00790425 0.060732 
0.0111546 -0.0787843 0.255189 
-0.0452095 -0.0746192 0.209088 
-0.00966449 -0.0206421 0.636027 
-0.0504301 -0.199913 0.0207893 
0.0780083 0.00877377 0.210879 
0.0164831 -0.00299751 0.118866 
0.0267648 0.00982192 0.0694544 
0.0518929 -0.00261503 0.127812 
0.071386 -0.0468629 0.552793 
0.117634 0.000630153 0.638144 
0.172552 0.0706217 0.353112 
0.135297 -0.0639724 0.414778 
0.0380802 0.00708003 0.0434593 
0.0266053 0.00133779 0.0794588 
0.0439615 0.0191633 0.0929277 
0.0270132 0.0145282 0.0201028 
0.00185329 0.0335685 0.05728 
0.000631835 0.0154721 0.0170495 
-0.00147331 -0.0115335 -0.00636403 
-0.00501027 0.0167569 0.0147703 
-9.93695e-05 0.000389193 0.0035057 
-0.000315519 0.000571945 -0.00150015 
0.000155771 -0.000395857 -0.0014189 
0.00951111 0.00344945 0.116164 
0.000814432 0.000982395 0.198275 
-0.00142235 -0.00158781 0.123801 
-0.00175198 0.00141831 0.148223 
0.0188684 0.0148523 0.199561 
0.000366795 0.00241251 0.160269 
0.00025984 -0.000769289 0.0821805 
-0.00109187 0.000269082 0.107849 
0.00228608 0.00763452 0.0810422 
0.0955011 -0.0410831 0.457193 
0.0563991 0.00592434 0.402791 
0.0954851 -0.0496105 0.263634 
0.0345218 -0.0665149 0.40363 
-0.0214134 0.00366624 0.0905955 
-0.00810542 0.000633996 0.0907962 
0.00515668 -0.00224847 -0.00178468 
-0.00856302 0.00423407 0.101241 
0.00585268 0.00934776 0.0981068 
0.0080662 0.0178088 0.0785638 
-0.00319477 -0.00574912 -0.00150154 
0.00185306 0.00845918 0.0773942 
-0.00074561 0.00357197 0.30811 
-0.00358812 -0.00135004 0.320102 
0.001285 -0.00283231 0.295609 
0.0123622 -0.0012265 0.303669 
-0.0367667 -0.0641501 0.262064 
-0.00506344 -0.0655444 0.164531 
0.00605332 -0.0464851 0.271427 
-0.0133457 -0.0778617 0.346515 
-0.00101637 -0.00189418 -0.00217472 
0.00652929 0.0151713 0.0744828 
-0.00252279 -0.00141393 0.00393085 
0.00507129 0.0070863 0.0596468 
-0.0121406 -0.00150493 -0.0105291 
0.0360628 0.0152749 0.0696351 
-0.00603845 0.000701087 -0.00114346 
0.0259759 0.00952045 0.0248301 
0.0289193 -0.0253207 -0.0183005 
0.00242424 -0.00118043 0.000815653 
-0.0498337 0.0388648 0.0576595 
-0.049146 0.0443742 0.0382876 
-0.0063359 -0.00190081 -0.015378 
0.0558757 -0.0398955 0.0735053 
0.0794535 -0.0334222 0.100294 
0.00025011 -0.00183925 -0.00245633 
-0.00768316 -0.0033876 0.09061 
-0.0162597 -0.00568133 0.177043 
0.000128139 0.000309046 0.120793 
-0.00651693 -0.00145385 0.0746535 
-0.000496852 -0.00027346 0.13686 
-0.00130394 0.00149522 0.12021 
-0.00496547 -0.00460317 0.0753153 
-0.0082185 -0.00995187 0.155252 
0.00126346 0.0746928 0.322574 
-0.0138274 0.0343883 0.242453 
0.0179201 0.0390697 0.243757 
0.000162823 0.0344491 0.310071 
-0.000510963 0.000424777 0.000679681 
-0.0173483 -0.00011411 0.0387827 
0.00528989 -0.00174974 -0.0123619 
-0.0116505 -0.000970493 0.0182544 
0.14122 0.0201446 0 
0.132268 0.0409702 0 
-0.180704 -0.0390351 0 
0.21677 0.0369627 0.443211 
-0.119241 0.128699 0.284459 
-0.0694442 0.115885 0.595577 
0.00101367 0.13765 0.506203 
-0.0372704 0.152465 0.250358 
-0.0128484 0.0311051 0.245304 
0.00799178 0.0415513 0.244968 
0.00872666 0.0350863 0.129923 
-0.00520294 0.0641263 0.199648 
0.0251526 -0.00421693 0.0426346 
0.0223947 0.00217481 0.0122121 
-0.00453462 0.0107172 -0.0251863 
0.052445 -0.0162924 0.0651633 
0.00153029 0.0262121 0.121429 
0.0196293 0.0763367 0.199981 
0.00177472 0.0868789 0.13847 
-0.00834855 0.0652264 0.196613 
-0.0113054 0.00482474 -0.00559988 
0.0166534 -0.00349822 0.0193975 
0.0252121 -0.00955165 0.060648 
0.0150044 -0.00868669 0.022154 
-0.00226138 0.00104775 0.00222728 
-0.0123854 0.034159 0.0248969 
0.00332543 -0.00957271 -0.0128325 
-0.00527766 0.0136474 0.0167946 
-0.00146808 -0.0289105 -0.0287814 
0.00443856 0.115228 0.136522 
0.00401058 -0.0104213 -0.0331777 
0.0240682 0.159508 0.175558 
-0.0114901 0.0349202 0.23818 
-0.0235722 0.038748 0.154526 
-0.0207456 0.0623147 0.204264 
-0.00625159 0.0142025 0.154796 
-0.000133635 0.000825317 0.00173424 
-0.000250792 0.00054005 6.30833e-06 
-0.000233463 -0.00070129 0.0724182 
0.000474595 -0.00452757 0.0858738 
0.00605024 -0.0150918 0.404334 
0.00263932 -0.0529933 0.256484 
0.0253656 -0.0692553 0.390232 
-0.0108444 -0.0791932 0.364824 
-0.000489101 0.000302224 0.215022 
-0.0174452 -0.0116563 0.186656 
0.000334019 -8.1132e-05 0.173402 
-0.0102834 -0.0123839 0.156858 
0.00104758 -0.00233992 0.0010995 
0.032047 0.0412411 0.023931 
-0.0145209 -0.0165618 -0.00664406 
0.0220523 0.0132417 0.0195213 
-0.0196225 -0.0113812 0.128306 
-0.017772 -0.00642379 0.186831 
-0.021009 -0.027641 0.235269 
-0.0100228 -0.0154277 0.154937 
-0.00327562 -0.000773902 0.223267 
-0.000391189 0.00123862 0.182495 
0.0003266 0.00053252 0.247031 
0.0145014 -0.0248259 0.218061 
0.00544994 -0.000963531 0.0030748 
-0.0200152 0.00628522 0.0187599 
0.00360856 -0.0005084 -0.00254632 
-0.0157962 0.00465822 0.0424587 
-0.000752646 0.00141279 0.000448364 
-0.00126401 0.000459006 -0.00153941 
0.00217941 0.000417974 0.00112814 
0.00615304 -0.000710974 0.00560349 
0.0154618 -0.0170554 0.000338855 
-0.0423079 0.0349893 0.0280859 
-0.00377596 0.00307273 -0.00201375 
-0.0234964 0.00117486 0.0233984 
0.110183 -0.0137128 0.25 
0.0731408 -0.221103 0.239714 
0.0855684 -0.00258618 0.498059 
0.121314 -0.0739622 0.428309 
0.0347428 0.0454461 0.0489222 
0.0171485 0.0621779 0.201318 
0.0756297 0.113061 0.290517 
0.0507077 0.139998 0.202305 
-0.0014213 -0.0022098 0 
0.00473725 0.000887835 0 
0.00528485 -0.000596283 0 
-0.0134077 -0.00587159 0.00689563 
-0.000174374 -7.13014e-06 -0.00625209 
0.000924809 -8.99699e-05 -0.00350539 
-0.00143982 0.00012617 0.00146865 
-0.0016796 -0.0111439 0.0583419 
0.00169434 0.00237122 0.251742 
-0.00166589 0.000104296 0.247732 
-0.000587076 0.000373604 0.193472 
0.0191083 -0.0213275 0.217822 
-0.000183951 -0.00225488 -0.00384378 
3.87917e-05 0.000475509 0.00324584 
-0.000258907 -0.00317369 -0.000798181 
-0.00653344 0.000883896 0.0281724 
0.0168211 -0.0162363 0 
0.00425774 0.0488508 0 
-0.0258082 -0.0160299 0 
0.00614022 0.101394 0.08913 
-0.0270107 0.0382159 0.152784 
-0.00785917 0.00422089 0.0994264 
-0.0200055 0.00980095 0.122586 
-0.0172643 0.0163481 0.0662422 
-0.0262459 0.00838822 0.0915387 
-0.0192528 0.00921427 0.0511603 
-0.0233678 0.0102701 0.115949 
-0.00565128 0.00209008 0.10956 
-0.00141743 0.0162275 0.739277 
0.0967114 0.0110366 0.679441 
0.0414473 -0.0115502 0.572647 
0.16927 -0.091516 0.368177 
-0.0105899 0.0119044 -0.00472329 
0.0079802 -0.00640155 0.0120139 
0.0201969 -0.0277742 0.0347369 
0.000189196 -0.00903449 0.0070027 
0.00229047 -0.00545703 0.00267645 
-0.00889618 0.0134048 0.0657771 
-0.00102298 -0.00338222 -0.000202158 
-0.0111599 0.00943708 0.0565705 
0.0134795 0.0118937 -0.0107902 
-0.0291504 -0.0337943 0.0548176 
-0.0116844 -0.0142028 0.0790153 
-0.0198645 -0.015639 0.0607546 
-0.000564067 -0.000141652 0.150925 
-0.000779771 -0.00255805 0.130479 
-0.0202675 0.00551312 0.18121 
-0.0108907 0.000410667 0.0893636 
0.00633171 -0.0223342 0.06511 
0.00910387 -0.0111536 0.0511164 
0.0166225 -0.0342726 0.0518044 
0.000363431 -0.0127329 -0.00969708 
-0.00100861 0.00382332 -0.000797789 
-0.00122537 0.00790866 -0.00357387 
0.00816259 -0.0171707 0.098004 
0.00838881 -0.0148813 0.0531436 
0.00260344 -0.00155897 -0.0133926 
-2.7474e-06 -0.00153475 0.000851334 
-0.00810186 0.00933184 0.0537599 
-0.00757666 0.0145934 0.0341564 
0.000318609 0.000514192 -0.00778825 
0.000518023 0.000748625 -0.00353218 
-0.000252729 -0.000354235 0.000574144 
-0.00528336 0.0078578 0.0630608 
0.0234427 0.044232 0.0695213 
-0.0284163 0.0264626 -0.0182544 
0.013899 0.0884055 0.135373 
0.0605538 0.113396 0.159687 
0.0131726 -0.0214776 0.387472 
0.0359751 -0.0126038 0.287448 
0.00944873 -0.0272835 0.304507 
0.0211495 0.0064704 0.307751 
-0.000470097 0.000114778 0.000526629 
-0.000266428 8.29803e-05 0.00209125 
-0.000100604 -2.53912e-06 -0.00259726 
0.000843461 -0.00417915 0.0943571 
0.0150569 0.0139956 0.662656 
-0.0560298 -0.0176839 0.211267 
-0.062048 0.000949705 0.225171 
-0.238407 -0.0414805 0.323716 
0.0135342 0.146323 0.518116 
0.106483 0.19174 0.183821 
-0.00814246 0.0589363 0.536327 
0.0536109 0.116464 0.560322 
0.0944394 0.0149099 0.212472 
0.02457 0.00754578 0.0689586 
0.0418263 -0.00260362 0.042127 
0.0520264 -0.00500249 0.127352 
2.03846e-05 0.000985763 0.12294 
0.000773809 -0.000185582 0.0765159 
1.67438e-06 -0.000710622 0.0584293 
-0.00250301 0.0104758 0.107326 
-0.00748494 0.00483557 -0.00325102 
0.0135987 -0.00749841 0.0207435 
0.025598 -0.0201674 0.0539165 
0.00342098 -0.00908229 0.012683 
-0.0211996 -0.0105429 -0.0114194 
0.0104336 0.0128464 0.0189378 
0.0512002 0.0292319 0.0698916 
0.028165 0.0116588 0.0249962 
-0.0802172 0.0083008 0.2335 
-0.0490249 0.0422251 0.166638 
-0.122105 0.0689351 0.249221 
-0.0983154 0.0569767 0.350843 
-0.013669 -0.00494845 0.0162112 
-0.0118983 -0.00424722 0.0132519 
0.00542097 -0.0056467 -0.025771 
-0.0465743 -0.0035977 0.0642432 
0.101293 0.0229896 0.0602279 
0.201819 -0.0347339 0.350014 
-0.0267444 0.0433289 -0.0837637 
0.0954094 -0.0275912 0.123807 
-0.0225457 0.0101 0.12184 
-0.0287416 0.0350186 0.155299 
-0.0164615 0.0216783 0.0616551 
-0.0505158 0.0345603 0.176546 
-0.00287758 -0.000552097 0.126654 
-0.00101131 0.0123033 0.108015 
-0.00112737 0.00186444 0.151049 
0.00221965 0.00869697 0.0892958 
-0.0365837 -0.0204318 0.280401 
-0.0804481 0.0266664 0.23302 
-0.0842979 -0.0181169 0.264509 
-0.0678021 -0.00502552 0.358151 
-0.0127274 -0.0240078 0.12066 
0.00159688 -0.0201067 0.185887 
-0.0120577 -0.0304095 0.240181 
-0.00598552 -0.0474205 0.176912 
0.00592891 -2.75477e-05 -0.00647115 
0.00246156 0.0161357 0.0134016 
-0.00755655 0.0770507 0.0805436 
-0.00243959 0.0081554 0.00925889 
0.0141601 0.0364642 0.243899 
0.00339514 0.0377147 0.310115 
-0.0161113 0.0361156 0.243072 
0.0169088 0.0137067 0.28425 
0.0184258 0.0879692 0.226799 
0.0677251 0.0313199 0.238651 
-0.0127254 -0.0149502 0.696318 
0.088271 0.200616 0.0586505 
-0.0109666 0.0241353 0.44083 
-0.0453889 0.0894264 0.444984 
-0.0472557 0.0702698 0.277924 
-0.0854533 0.0585479 0.369428 
-0.00136393 0.03548 0.246126 
-0.0285014 0.0175623 0.213158 
-0.0299225 0.026243 0.321985 
-0.0399722 0.0574198 0.280997 
0.034849 0.00926711 0.314953 
0.0391442 0.00954162 0.220717 
0.031037 -0.00259066 0.287354 
0.0141565 -0.00128257 0.311237 
0.00275527 -0.0143011 0.711496 
-0.0126408 0.009966 0.576502 
0.00558714 0.007321 0.528305 
0.00949914 0.178624 0.546384 
0.00155135 0.0757809 0.318568 
0.0357874 0.0539678 0.541942 
0.00769084 0.139156 0.492342 
-0.0438839 0.0855928 0.450999 
-0.00374041 0.00208046 -0.0208333 
0.0268801 -0.0257009 0.0526208 
0.00993193 -0.0104359 0.0207572 
0.00730816 -0.00596653 0.0100251 
0.005765 -0.012287 -0.00795524 
-0.0052642 0.017074 0.0556913 
-0.0147284 0.0294594 0.0406905 
-0.0112432 0.0140003 0.0300632 
0.000669184 -0.000600989 0.168987 
-0.00162914 -0.000458467 0.169624 
0.00122893 0.00295708 0.0917377 
-0.00644731 -0.0206094 0.132269 
-0.000107316 0.00030542 0.168916 
0.000419468 -0.000180594 0.229953 
-0.00113145 0.000815248 0.170499 
-0.00312867 -0.0192853 0.186554 
-0.000306242 0.0036506 -0.00135326 
-3.30661e-06 3.94169e-05 0.00380021 
-0.000203001 0.0024199 -0.00365017 
-0.00417093 -0.00664826 0.0111637 
-0.00351122 6.06882e-05 -0.00408813 
0.0109829 -0.0079777 0.0146925 
-0.00552499 0.00212161 -0.00553543 
0.00699889 -0.00656538 0.0109295 
0.000987349 0.00132154 -0.00499689 
0.000976002 0.00144889 0.0024775 
0.000891255 0.0012231 -0.00294048 
0.00525923 -0.0125749 0.0561014 
-0.0010577 0.000135402 0.0036552 
-7.87502e-05 -0.0011846 -0.00415304 
0.0119869 0.00609694 0.118642 
0.00458273 0.000858755 0.0831172 
-0.00357232 -0.00405289 -0.000883621 
0.0101508 0.01827 -0.00743805 
-0.0231322 -0.0390961 0.04081 
-0.0132138 -0.0300332 0.0225963 
0.000773104 -4.31376e-05 0.201545 
0.0174274 0.0209767 0.207193 
-0.000506058 -0.00320356 0.139914 
0.00906246 0.0129809 0.176289 
-0.0442875 0.0652932 0 
0.0215005 -0.0122682 0 
0.046939 -0.0258018 0 
-0.107069 0.127327 0.128883 
-0.0280016 0.0422621 0.148545 
-0.026217 0.0200241 0.218269 
-0.00505189 0.0336122 0.244687 
-0.0381416 0.0556881 0.273114 
0.00114206 0.00103301 0.0944292 
-0.00682874 -0.0182126 0.132057 
-0.0008951 -0.00235522 0.167018 
-0.00452898 -0.00695663 0.0861203 
0.0258641 -0.00438171 0.0786813 
0.017569 -0.00256176 0.00952784 
0.0573315 -0.0187568 0.0975901 
0.0137164 -0.0139567 0.0140394 
-0.00467324 -0.00162354 -0.00402757 
0.0216851 0.00880249 0.0812389 
0.017663 0.00719217 0.117927 
0.00424865 -0.000847776 0.0848207 
-0.000929118 -8.53566e-05 0.00231453 
0.000578699 0.000493933 0.0624302 
-0.000582815 -2.85401e-05 0.000268181 
0.00425012 0.00184965 0.0846089 
0.0888613 -0.041854 0.490683 
0.0472728 -0.0857696 0.385084 
0.0059582 -0.0401199 0.659273 
-0.00505591 -0.0179616 0.528633 
-0.000193552 0.00016077 0.190334 
0.00109081 0.000305713 0.156281 
0.000318046 -0.00166342 0.1222 
-0.00564449 0.016923 0.16786 
0.00716821 -0.0147178 0.720952 
-0.00799625 -0.0326603 0.512206 
0.0128103 -0.012046 0.573396 
-0.114798 0.104461 0.64226 
0.00150746 0.0015172 -0.00120833 
-0.00661234 -0.00295123 0.0117042 
-0.000964234 0.00117638 0.00308908 
-0.00858612 -0.00185565 0.0119944 
-0.000355576 -0.000658208 0.000391507 
0.000220765 0.000559044 0.0655745 
-0.000295446 -0.000656677 0.00194912 
0.00297323 0.0056634 0.0998249 
0.00171376 -0.00215954 -0.000975269 
0.000322493 0.000571727 -0.00083869 
-0.0010903 0.00189306 0.00121249 
-0.00885502 0.00314531 0.00774742 
0.00112396 0.000845658 -0.000502066 
-0.00082306 -0.00091474 4.09371e-05 
0.000621619 0.000969981 -0.000793517 
-0.00353391 -0.00167689 0.00485643 
-0.000343743 0.000482528 -0.000170712 
0.000385369 -0.000489646 0.0022279 
-0.000257426 0.000249715 -0.00455877 
-0.0050891 -0.00249768 0.0921963 
0.000277953 -0.00021513 0.000635945 
0.000574732 -0.000482401 0.00214786 
0.000531555 -0.000267696 -0.00196997 
0.000725235 0.00458377 0.0991129 
0.0219171 -0.0628294 0.0656733 
0.00533379 -0.0327436 0.0611404 
0.0214112 -0.0309031 0.0640559 
-0.00364813 -0.0187273 0.00814715 
-0.00276097 -0.00233684 -0.0123253 
0.0110618 0.00764104 0.018401 
-0.000304043 -0.000505018 -0.0034503 
0.0108674 0.00610059 0.0187872 
-0.00137117 -0.000539726 -0.0046267 
-0.000902607 -0.000412116 0.00267038 
-0.00244489 -0.00102534 -0.00191623 
-0.000221126 0.0110492 0.0203148 
0.00541612 0.00476167 -0.006348 
0.0202428 -0.070733 0.0595787 
0.0164029 -0.0416822 0.059501 
0.0028395 0.00694792 -0.00394969 
0.00598789 0.00149545 -0.00150261 
-0.0187343 -0.00729926 0.0897213 
-0.00751235 -0.00395101 0.0902884 
-0.00518826 -0.000536986 0.0751371 
-0.0495748 -0.0202228 0.0883122 
-0.108322 -0.0597857 0.146488 
-0.103724 -0.0334902 0.265438 
-0.0850843 -0.0106887 0.101851 
-0.0463124 -0.0276563 0.104215 
-0.0358958 -0.0363371 0.0709758 
-0.0182693 -0.0105013 0.0537317 
-0.0608403 -0.0504026 0.175976 
4.95515e-05 4.87519e-05 -0.00158178 
0.000542169 0.000840475 0.00205574 
0.00076479 0.00115734 0.00111848 
0.00175452 -0.00426863 0.106996 
0.000738304 0.000204866 0.170434 
-0.00444483 -0.00761353 0.0846518 
-0.0109087 -0.020479 0.132132 
-0.00809298 -0.0138217 0.154821 
-0.0329022 0.0336489 0.00886286 
-0.0532602 0.00946661 0.0685038 
-0.0635229 0.162808 0.287202 
-0.0534496 0.167568 0.227191 
0.00242004 0.0295931 0.125031 
0.0127685 0.035336 0.248201 
0.016599 0.0736162 0.197442 
-0.00552657 0.0683237 0.199601 
-0.000878214 -0.000617262 -0.000377351 
-0.000746444 0.000210382 0.000107836 
-0.000556848 -0.00127858 -0.000909252 
0.000392243 0.000702966 0.000988184 
0.000965417 -0.000498002 0.0028108 
-0.000986572 0.000537626 -0.00474839 
0.00322205 -0.00151005 -0.000551824 
-1.74192e-05 0.00538356 0.0335853 
-0.0422084 -0.077402 0.264185 
-0.0416545 -0.126674 0.186148 
-0.0507045 -0.034981 0.0533866 
-0.0228487 -0.0499829 0.120335 
-0.00257909 -0.0104788 0.727253 
-0.0463889 -0.00842856 0.54941 
-0.0874543 0.073776 0.593693 
-0.0953402 0.0111504 0.656252 
0.103836 -0.106244 0.16208 
0.0520513 -0.0366532 0.00891333 
0.0915821 -0.105048 0.325294 
0.136246 -0.099136 0.365144 
0.00138605 -0.000586945 0.00169943 
-0.00722906 -0.00335462 0.0929606 
0.00152466 0.00027841 -0.00116515 
-0.00321611 -0.00154061 0.0791061 
0.00237847 -0.0254014 0.583569 
-0.0126584 0.00218072 0.624784 
0.272365 0.0374321 0.305038 
0.126427 0.0226602 0.675259 
0.103479 -0.0523704 0.474757 
0.0934103 0.00830804 0.649673 
0.0100435 -0.0416793 0.683654 
0.0561743 -0.0932047 0.623598 
0.000157184 -0.00179079 0.179483 
-4.21833e-05 0.000913616 0.150764 
0.00168795 -0.000121381 0.126825 
-0.0237365 0.00207839 0.186337 
0.0304147 -0.00522256 0.224138 
0.021961 0.0161258 0.203338 
0.0354817 0.0261166 0.305983 
0.0545669 0.0433405 0.253093 
0.00255685 0.000671075 0.00330059 
0.00148838 0.00041057 -0.00303131 
0.00150083 0.00039372 0.00198465 
-0.00893708 0.00538083 0.0599842 
0.00620106 0.0297181 0.142252 
-0.00680251 0.0667951 0.186709 
-0.00253985 0.0835104 0.124581 
-0.00516615 0.0240254 0.0609169 
-0.00357036 -0.0137938 -0.0130321 
0.0163829 0.100261 0.0951771 
-0.00845631 -0.0128765 -0.0168253 
-0.00457583 0.0123909 0.00472484 
0.000689976 -0.0038736 -0.00382228 
-0.00101226 -0.00744585 0.00336746 
-0.00436317 0.0256559 0.045955 
-0.00370032 0.0178538 0.0138241 
0.0251234 0.0323477 0.154897 
0.0227587 0.0138705 0.208426 
0.0151504 0.0423832 0.241559 
0.00632801 0.0167292 0.171619 
0.00134176 0.000235559 -0.000488541 
-0.000953932 0.00061487 -0.00074706 
0.00257324 -0.00202776 -0.00189766 
-0.00803976 0.00571148 0.00734173 
-0.000164769 -0.0115385 -0.00828256 
0.00139779 -0.00326299 0.000114581 
-0.009841 0.0196875 0.0657206 
-0.0123506 0.0102368 0.0564239 
0.0261963 0.04266 0.148246 
0.00312417 0.0233967 0.0755401 
0.0266517 0.0449478 0.0716895 
0.0271771 0.0145663 0.0472806 
-0.00541476 0.033294 0.231983 
-0.0142583 0.0170101 0.168137 
-0.0102296 0.0174861 0.0995522 
0.00764992 0.0184659 0.187385 
0.00123079 0.000806319 0.187351 
-0.000596065 3.69064e-05 0.217419 
-2.478e-05 0.00164705 0.139031 
0.00296342 -0.0190625 0.184664 
-0.00258375 -0.00197253 0.000403985 
-0.0020915 -0.00121109 -0.00265076 
0.00184876 0.00662802 0.0880303 
0.00252006 0.00813739 0.0772399 
-0.000743047 9.54192e-05 0.0653166 
0.000953812 -0.000312887 0.00211839 
0.000345806 0.000171138 -0.000216768 
-0.00357864 -0.00151866 0.079317 
0.00651281 0.0409214 0.557298 
0.000311374 -0.00662138 0.731494 
0.0134125 0.153559 0.501575 
0.0576039 0.107754 0.574814 
-0.0541691 -0.0272449 0.101238 
-0.00655867 -0.00142576 0.0699643 
-0.101861 -0.0371735 0.243726 
-0.0495932 -0.0367061 0.181329 
0.0961749 -0.00415866 0.659801 
0.178511 -0.0901208 0.402106 
0.0169408 -0.00487317 0.670026 
0.0587064 -0.0824395 0.629901 
0.014888 0.0383619 0.246191 
0.0224371 0.0159728 0.20608 
0.0243922 0.0382667 0.148261 
0.0539094 0.0438517 0.251172 
0.000305828 -0.00132717 0.0822941 
-0.000446628 -0.00052107 0.0609482 
0.00056294 0.000702324 0.124495 
0.00671835 0.0060539 0.0993364 
-0.0117857 0.0592046 0.180728 
-3.06838e-05 0.0261931 0.0658032 
-0.00370204 0.0119776 0.102223 
-0.00822215 0.0203507 0.0590206 
0.0507723 -0.0145975 0.534907 
-0.030777 0.0702458 0.271107 
0.00236402 -0.00110575 0.568154 
-0.0992466 0.251148 0.219287 
-0.00339726 0.000411529 0.0032243 
0.0162659 -0.00606906 0.0734505 
-0.00353592 0.000822805 -0.00134854 
0.00924625 -0.00242364 0.0970513 
-0.000504129 0.000142247 0.00237215 
-6.85678e-05 2.61663e-05 0.00185178 
-0.000779612 0.000177925 -0.00576195 
0.00135151 -0.00998051 0.0748995 
-0.00431383 -0.00440913 0.000747941 
0.00553975 0.0101656 0.101043 
0.00864944 0.00742856 0.0957518 
0.00603651 0.00734087 0.0619819 
-0.00556519 -0.0187014 0.0808028 
-0.0252787 -0.0110596 0.0573004 
-0.0356872 -0.0350683 0.0719098 
-0.0510909 -0.0493891 0.171209 
-0.0174934 -0.013007 0.322338 
0.0029095 0.0112416 0.346179 
0.00478902 -0.0179846 0.372449 
0.0121477 -0.0246606 0.309851 
-0.000626188 0.0078738 -0.00730177 
0.00426772 -0.0120428 0.0488291 
0.00694827 -0.0239175 0.0513572 
0.00333044 -0.0103534 0.006887 
0.000591223 -0.00270976 0.0711695 
-0.00562247 0.00984637 0.10319 
-0.000857863 -0.00048794 0.133163 
-0.00688696 0.0152184 0.16275 
0.036907 0.0247153 0.0909246 
0.0255205 0.00380736 0.0787351 
0.0190893 0.00666086 0.122153 
0.00991579 0.00897476 0.0633215 
0.024343 0.0501935 0.0700079 
0.0309724 0.0323727 0.159509 
0.0264187 0.075637 0.185092 
0.00593437 0.0159322 0.0626927 
0.000214087 0.000316347 0.00181789 
-0.000105972 -0.000159029 -0.00420722 
-0.000775052 -0.00114083 -0.000577016 
0.00378289 -0.0036224 0.105915 
0.124858 0.0769963 0 
-0.0847274 -0.0457812 0 
-0.0479909 -0.0676147 0 
-0.120017 -0.173059 0.264696 
-0.00840493 -0.00325871 0 
-0.00446562 0.0100262 0 
-0.0230313 0.0143402 0 
0.0995011 -0.053891 0.0166313 
0.0171729 -0.00904537 -0.0103004 
-0.0282138 0.0017355 0.0593726 
-0.0366147 0.00506979 0.048262 
-0.0129615 -0.00381652 0.0173521 
-0.00110514 -0.00113054 1.54071e-05 
-0.00157299 -0.00254374 -0.000623874 
0.00502368 0.00835939 0.0957297 
0.00393625 0.00729165 0.063454 
-0.00631515 0.0125994 0.105454 
0.00135595 0.0246062 0.0722582 
0.00324782 0.0312232 0.137145 
-0.00267175 0.00527076 0.0883097 
-0.00329338 -0.0020683 -0.00110669 
-0.00378962 -0.00277486 -0.00081202 
0.0164163 0.00829092 0.115153 
0.0109448 0.00558693 0.0638241 
-0.0297421 0.0166206 0.328979 
-0.0216144 0.000475848 0.258988 
-0.0373121 -0.0135585 0.284506 
-0.0575449 0.0125057 0.335593 
-0.0332662 0.0346375 0.430907 
-0.0820967 0.0537885 0.368967 
-0.0313555 0.0783379 0.294568 
-0.0657361 -0.00404443 0.361093 
-0.00284556 0.000304179 -0.00015434 
-0.00332111 -0.0007781 0.00114516 
0.0174048 0.00408322 0.0792092 
0.00624054 0.00151587 0.0800028 
-0.000557453 0.000119968 0.00198126 
0.000581503 0.000213072 0.0623356 
-0.000524924 -0.000717681 0.000639765 
0.00409287 0.00425846 0.095296 
0.00098517 0.000184799 0.113285 
-0.000167626 -0.00233067 0.166338 
-0.0010367 0.000224305 0.0941626 
-0.00107847 -0.00792902 0.0945447 
-0.0673701 0.0224025 0.546602 
-0.156059 -0.00199405 0.380841 
-0.10912 0.0885031 0.561867 
-0.0967325 0.0547801 0.349199 
0.0108848 -0.0171217 0.102106 
0.000132428 -0.00531903 0.0855618 
-0.00327362 0.00388957 -0.00412984 
0.00832258 -0.0136177 0.0539986 
-8.5506e-05 0.000616346 0 
-0.00480254 -0.00399045 0 
0.000587237 -0.0119886 0 
-0.0134953 0.0375982 0.015121 
-0.000406461 -0.00123634 0.0548965 
-0.000720025 -0.00233392 0.00217315 
0.000469243 0.00639974 0.0893276 
0.00092141 0.0075081 0.0790728 
0.0334845 0.024463 0.30927 
0.0205822 0.0148293 0.199912 
0.010825 0.0404451 0.246756 
0.0562459 0.0449352 0.257846 
-0.000140956 9.68053e-05 -0.00471242 
-0.00105177 0.000740283 0.00132934 
6.85293e-05 -4.72116e-05 0.00199144 
-0.00307644 -0.00753102 0.03877 
-0.000227284 -0.00069263 0.0531543 
0.000324961 0.000617279 0.106087 
0.00145657 -0.000576187 0.0830164 
-0.000151716 0.0070931 0.0827467 
-0.0121231 0.0457366 0.0599354 
-0.0464911 0.106922 0.152471 
-0.0149614 0.0827377 0.129782 
0.0160503 0.0145074 -0.0204158 
-0.0736865 0.0172293 0.21873 
-0.0959484 0.0493434 0.354019 
-0.1539 0.00839092 0.352832 
-0.0569684 0.00719013 0.361237 
0.000390687 0.000540427 -0.00687423 
0.00108334 0.00148459 0.00298585 
-0.000374228 -0.000512853 -0.00100212 
-0.0106684 0.00123191 0.056961 
0.00554446 -0.0395528 0.661953 
0.0462072 -0.084344 0.376388 
0.00108044 -0.123898 0.460233 
-0.00540881 -0.0174726 0.533235 
0.00724355 -0.0593464 0.0567477 
0.0109371 -0.0162984 0.0156689 
0.00992873 -0.0351922 0.058679 
0.00920726 0.00371453 -0.000879723 
-0.000235582 -0.000999686 0.000807393 
-0.000407848 0.000612796 0.0664561 
-0.000227931 -6.39162e-05 0.0749996 
0.00454173 0.00659316 0.100956 
0.00966142 -0.0166368 0.108206 
0.00787022 -0.0245699 0.130016 
0.0024442 -0.00308565 0.0809356 
0.00670838 -0.017251 0.052685 
-0.00344219 -0.000881563 -0.000951703 
-0.0346579 0.00448802 0.0239703 
0.00608691 -0.00221821 -0.0109733 
-0.0132829 0.00319411 0.0206229 
0.00428743 -0.00290989 0.000471963 
-0.0116676 -0.00303812 0.0189686 
0.0123223 -0.00100738 -0.0136042 
-0.0628349 -0.0186254 0.0411669 
-0.00544664 0.0049774 -0.0105806 
0.0278887 -0.0381666 0.0585738 
0.0478699 -0.0461699 0.0602685 
-0.00434335 -0.00263516 -0.00367266 
-0.00558187 0.125812 0.49909 
-0.0798043 0.0935184 0.581789 
-0.0953253 0.142967 0.290377 
-0.0443891 0.0907711 0.446753 
0.0868988 -0.036574 0.488145 
0.0624348 0.0141295 0.396453 
0.0285368 -0.08615 0.394359 
0.0134797 -0.0234649 0.523336 
0.00399246 -0.031974 0.0413961 
0.000798844 -0.01664 0.0134989 
-7.38271e-05 0.0108136 -0.00532215 
0.00593003 -0.00292855 0.0061967 
0.0048492 0.00706363 0 
-0.00325427 0.00316025 0 
0.00108992 0.000899406 0 
-0.0106152 -0.00800673 0.00383407 
0.00457834 -0.00118934 0.00533631 
0.0179643 -0.0300726 0.0332623 
0.0061883 -0.0085846 0.010508 
0.000324904 -0.00819786 0.0077564 
-0.0979056 0.00730141 0.127803 
-0.202208 -0.0264079 0.43404 
-0.0827345 -0.055417 0.11498 
-0.069534 -0.0086426 -0.0236849 
-0.00228545 -0.00230461 -0.0016061 
-0.00114426 -0.00145249 -0.00186087 
-0.000791358 0.0014504 0.00118733 
-0.000238843 0.00206044 0.00372762 
-0.000463764 -0.00112407 -0.00335819 
-0.0013907 -0.00232497 0.00266814 
0.00582313 0.0136958 0.073628 
0.00270765 0.00730793 0.0745945 
0.0372015 -0.020616 0.287497 
0.0538298 0.000634395 0.355911 
0.0290508 0.0239878 0.31624 
0.0154914 0.00190918 0.30675 
9.51425e-05 0.000666235 0.00195346 
0.00080433 -0.000658861 0.0758795 
-0.000822364 0.00084675 0.000803551 
0.00399444 -0.00316512 0.107544 
-0.000792807 -0.000732639 0.163746 
0.0281146 0.00283157 0.218681 
-0.000450507 -0.000819148 0.210725 
0.0194209 -0.0012793 0.193705 
-6.573e-06 7.0269e-05 -0.003436 
-7.1595e-05 -0.000229128 0.00211441 
-8.71533e-05 -0.000172795 -0.00164541 
-0.00494167 0.0015675 0.0995603 
0.000337185 0.000301259 0.223979 
0.0178987 0.019351 0.210713 
0.00704283 0.0164458 0.172477 
0.0108666 0.0186013 0.278461 
0.000360298 -0.000727504 0.133457 
-0.00765847 0.0102123 0.099635 
-0.00168921 -0.00163028 0.158133 
-0.00981541 0.0158458 0.166625 
-5.18053e-05 0.00041762 -0.00287447 
-0.0003477 0.00125334 -0.00149187 
-0.000142038 0.000180026 0.00320408 
-0.0088806 -0.00485004 0.0843458 
0.00268838 -0.00187159 0.00103276 
-0.00755264 0.00698904 0.0961925 
0.00376264 -0.00164126 -0.00127005 
-0.0120723 0.0121621 0.0722224 
0.0039715 0.00243545 0.000542557 
0.0029094 0.0024517 -0.0136057 
-0.0143806 -0.00967925 0.0630712 
-0.0186358 -0.00889114 0.083967 
-7.12762e-05 -0.000303076 0.0844229 
0.000565589 9.32492e-05 0.0666654 
-0.000439614 -0.000492618 0.000446807 
0.00299257 0.00780505 0.101259 
0.00927311 -0.0181366 -0.0343319 
-0.0108897 0.108566 0.138617 
-0.031233 0.145816 0.174718 
0.000124317 -0.019164 -0.0423374 
-0.0109731 -0.0144728 0.0813463 
-0.00272607 -0.00706469 0.0858048 
-0.000193441 0.00297151 -0.00429684 
-0.00335141 -0.00255661 0.0799086 
0.00132826 0.0731698 0.349861 
-0.00871069 0.0420808 0.42801 
-0.0480645 0.0608979 0.295216 
0.00310989 0.0352299 0.308287 
0.00100641 -0.00557449 -0.00352034 
-0.00447835 0.0262755 0.0458454 
0.00286439 -0.00755482 0.00323745 
-0.00425838 0.0197305 0.0124666 
-3.59671e-05 0.000545793 -0.00236384 
9.03331e-05 -0.00068321 -0.00812858 
-3.18262e-05 0.000273413 0.00219484 
0.0113903 0.00415891 0.0623904 
-0.0803327 0.0256656 0.232866 
-0.148463 -0.0042369 0.327011 
-0.0776388 -0.0329065 0.263618 
-0.065087 0.0108131 0.361867 
-0.00238131 0.0211598 0.188606 
0.00664262 0.0154905 0.171456 
0.013299 0.0376982 0.234452 
0.0109969 0.0173215 0.280642 
0.005329 0.00217513 -0.00403557 
-0.0203909 -0.00661342 0.0402276 
0.0045931 0.00121244 0.00282182 
-0.014005 -0.0033667 0.0162043 
-0.000108579 0.000701607 0.125624 
-0.000916196 -0.00188045 0.0745462 
-0.000522578 0.0125921 0.10725 
-0.00139871 0.00698836 0.09125 
-0.000155244 0.000166621 0.00497305 
0.000246074 -0.000350072 0.0010987 
-0.000183251 0.000263169 -0.00107625 
-0.00551588 -0.00393422 0.0573837 
-0.00129907 2.08652e-05 0.00096442 
0.00106449 0.000561303 0.0772576 
-0.000179974 -1.44651e-06 0.0596192 
0.00424366 -0.00546549 0.107233 
-0.00280362 0.00248829 0.00211375 
0.000208487 0.000388795 -0.0072613 
0.0072883 -0.012498 0.105236 
0.000657229 -0.00559746 0.085064 
0.00379588 0.00125634 0.252532 
-0.00025911 0.00103481 0.295942 
2.35727e-05 -0.001376 0.247999 
0.0110115 -0.015576 0.293418 
-0.0666564 0.0811478 0.0258392 
-0.0123776 0.0451644 0.136404 
0.0309142 -0.036395 -0.104378 
-0.102407 0.145315 0.237562 
-0.000878669 0.00189058 -0.000131501 
0.00942876 -0.0194257 0.0417397 
-0.00321622 0.00355014 -0.00552845 
0.00162897 -0.00917873 0.00871581 
0.0101307 -0.0276649 0.641526 
-0.0089887 0.000456999 0.523637 
0.0758863 0.263319 0.133484 
0.0821406 0.127273 0.621751 
0.00724018 0.00107412 -0.00176379 
-0.022705 -0.00402072 0.059194 
0.0050218 0.00234951 -0.00068853 
-0.0187614 -0.00796945 0.0828937 
0.00456584 0.0294085 0.1408 
-0.00365785 0.0128044 0.102016 
-0.0126781 0.0590551 0.182652 
0.000161726 0.0275893 0.0652017 
0.00250572 -0.00987951 0 
0.00508717 0.000634286 0 
-0.00321715 -0.00213431 0 
-0.0130976 0.0173299 0.00207274 
-0.00384015 0.0273736 0.545563 
0.268251 0.0368315 0.316458 
-0.00544413 0.00313003 0.620512 
0.123549 0.022325 0.670358 
-0.000385769 -0.000787567 -0.0020929 
-0.00137479 -0.00281412 -0.017008 
0.00960682 0.0146332 0.0753533 
0.00360644 0.00970058 0.0590454 
0.000764263 2.25492e-05 0.0677335 
-0.000443733 0.000115875 0.0530868 
-0.00088297 -1.00399e-05 0.000972434 
0.00558375 -0.00309004 0.103223 
0.000494849 -0.00381779 -0.00735822 
-0.00087554 0.00105429 0.00377225 
4.18764e-05 0.00872278 0.0116165 
-0.000593879 0.0113135 0.0103542 
0.00152863 0.00324424 -2.09217e-05 
0.00103313 0.00200897 0.00564152 
0.000745713 0.00175838 -0.00542192 
-0.0129474 -0.00496199 0.0110204 
-0.0273182 -0.00512784 0.128888 
-0.0219784 -0.00466688 0.176942 
-0.00528163 -0.00471209 0.0906051 
-0.00276414 -0.0030624 0.0746702 
0.000587805 0.00679019 -0.00482919 
0.00314455 -0.0214403 0.0423477 
-0.00148393 0.00296586 0.00209998 
0.0015021 -0.0197239 0.014374 
0.0117015 -0.0367928 0.0568451 
0.0017753 -0.016118 0.0176381 
0.00735608 -0.0303893 0.0535909 
0.00527511 -0.00442425 -0.00765876 
0.00400206 -0.045727 0.266902 
-0.00464119 -0.0533198 0.16416 
0.00674806 -0.0830769 0.260075 
-0.0136744 -0.0838999 0.346438 
-0.00244953 0.000949736 -0.00933579 
-0.00365929 0.00180952 0.00138885 
-0.00130695 0.000657535 0.000937399 
0.00266741 -0.0149007 0.0213365 
-0.00652033 0.0791713 0.345308 
-0.00812468 0.0323284 0.225708 
-0.0340532 0.0589656 0.296368 
-0.0137886 0.0677881 0.193266 
-0.00260294 0.000361506 -0.00159735 
0.0148906 -0.00539103 0.0738651 
-0.00346462 0.000851396 0.00261919 
0.0093045 -0.00244709 0.0969077 
0.000679282 0.000505817 -0.00195306 
-0.000556497 -0.000374415 -0.00416273 
0.000960749 0.00068399 0.00176715 
0.00452362 -0.00704354 0.100551 
0.0997643 0.00664741 0.213509 
0.0743128 0.0378199 0.573963 
0.159849 0.00971413 0.364482 
0.147734 -0.0702804 -0.00244509 
0.0320698 0.0194972 0.312258 
0.0547213 0.0404365 0.260814 
0.0107919 0.0497083 0.244048 
0.0411578 0.0506466 0.354063 
0.00539799 -0.0184709 0.374497 
0.012967 -0.0274382 0.309714 
0.000627913 0.0143864 0.340308 
0.0231459 0.00495123 0.311495 
0.00233019 -0.00226211 -0.00425585 
0.00105065 -0.00101766 0.00237559 
0.00188219 -0.00182515 0.00042129 
-0.0108594 0.000548868 0.054994 
0.00185557 0.0315992 0.132057 
0.00725206 0.0426682 0.244776 
-0.00375288 0.0343098 0.242877 
0.00249109 0.0180281 0.179331 
0.0763313 0.0015569 0.528569 
0.134877 -0.052186 0.395403 
0.162609 0.00421028 0.360103 
0.178282 -0.0383816 0.0705661 
4.31787e-05 1.23038e-05 -0.00315593 
0.00023642 0.000888029 -0.000851397 
-6.11615e-05 -0.000157813 0.00165997 
-0.00529117 0.00157825 0.10003 
-0.0030894 0.0763036 0.33896 
-0.0333764 0.059322 0.297018 
-0.00897742 0.0322038 0.225558 
-0.000385336 0.0332302 0.317106 
0.0252689 -0.0316565 -0.0155112 
-0.0340298 0.0439722 0.037307 
0.00625938 -0.0129136 0.00494946 
-0.0485603 0.0493669 0.0282847 
0.0156357 0.0400574 0.240162 
0.00737695 0.017066 0.172427 
0.0226247 0.0147041 0.208949 
0.0102272 0.0168003 0.278508 
0.00173373 -0.000321866 -0.00796911 
0.000654217 -0.000281711 0.00294117 
-0.000341896 0.000162294 -0.00209644 
0.000995442 0.00824916 0.0620369 
0.00321442 0.000261272 -0.00359057 
0.00220875 0.00017953 -0.000309483 
-0.00166889 -0.000135649 0.0041498 
-0.00438633 0.00562527 0.00609148 
-0.0147831 -0.00306976 -0.00818252 
0.0185955 0.0075964 0.0164558 
-0.0115998 -0.00213725 -0.0100669 
0.0221504 0.0073839 0.015656 
-0.00104368 0.000508204 0.000665453 
-0.000141774 0.000313797 0.0636593 
0.000313789 -0.000602956 0.0677679 
0.00640822 -0.00150601 0.103368 
0.00124306 0.00227242 -0.00231478 
0.000836205 0.00248418 -0.00130216 
-0.000962799 0.00012249 0.000728998 
-0.00295125 -0.00360821 0.00646158 
0.036703 0.0125578 -0.0417434 
-0.109057 -0.0593278 0.114612 
0.0144779 -0.00313335 -0.0254036 
-0.106385 -0.0278156 0.1074 
0.00381725 0.00934851 0 
0.00595311 -0.00658865 0 
0.0168731 0.0295393 0 
-0.0711563 -0.0977225 0.0273821 
-0.0378942 0.0524833 0.297974 
-0.0212092 0.0385547 0.414654 
-0.0312518 0.0190268 0.329314 
0.0097652 0.040534 0.317861 
0.0155318 0.00272829 -0.0785449 
-0.132559 0.0794335 0.216471 
-0.0560733 0.0357648 0.0633915 
-0.047106 0.0474408 0.0895054 
-0.000460868 -0.00174447 0.156037 
-0.000183046 0.00179239 0.205991 
0.000436756 -0.00148888 0.132664 
-0.0112664 0.0158053 0.168946 
0.00075878 -0.000918372 0.00112058 
0.000247158 4.43063e-05 0.080833 
0.000290435 0.000890089 0.0639933 
-0.0062201 0.00490986 0.101999 
-0.00018228 -0.000630256 0.0683952 
0.000283115 4.28371e-05 0.0577792 
0.000318581 0.000243083 0.000948284 
-0.00522465 -0.00241904 0.0924389 
-0.00666852 -0.000495651 -0.00142916 
0.0211708 -0.0112911 0.0492633 
-0.00857836 0.00172757 0.000835583 
0.0166062 -0.00896567 0.0193974 
0.00351754 0.00577637 -0.0183264 
-0.01219 -0.0155465 0.0785015 
0.00144596 0.00159479 0.000160799 
-0.0131305 -0.014402 0.0654802 
-0.000619775 -0.00118904 0.0857182 
0.00396578 0.00972973 0.0988696 
-0.000877145 -0.00243758 0.00180081 
0.00291049 0.00758105 0.0774477 
-0.000935839 0.000503761 0.00134432 
0.00201815 -0.000979029 -0.000612003 
0.000189841 0.00011504 0.00435582 
0.00011393 0.0075199 0.0674631 
0.00517518 -0.00617039 -0.0134928 
-0.0135404 0.0190935 0.0359343 
-0.000615756 0.00124845 0.00265918 
-0.00509376 0.0128288 0.0142267 
0.0295775 -0.0107205 0.148913 
0.022421 -0.00729647 0.19111 
0.0172391 -0.00315962 0.119446 
0.00602537 -0.00078804 0.0988328 
-0.0179812 -0.0147117 0.127618 
-0.0204354 -0.00720515 0.185039 
-0.0252953 -0.00823597 0.0874027 
-0.0461944 -0.0339279 0.170272 
0.0884611 -0.031317 0.497459 
0.0453189 0.0345663 0.533181 
0.0598647 0.00564869 0.381428 
0.000866171 -0.0245537 0.521692 
-0.000242145 -0.00050683 0.00180543 
-0.00025415 0.000561763 0.0630674 
0.00072218 -0.000593372 0.000829324 
-0.003735 0.00406097 0.100705 
0.000428816 0.0048348 0.311741 
-0.00374426 -0.0148906 0.316303 
-0.00103264 -0.00167895 0.276092 
0.00395868 -0.0175205 0.302144 
-0.0021427 0.00265821 -0.00164381 
0.00779398 -6.98264e-05 -0.0113206 
-0.0356644 -0.00763526 0.0262256 
-0.0128201 -0.00345349 0.0212862 
-0.0477234 -0.0725929 0.249129 
-0.0491769 -0.0313487 0.40299 
-0.0965799 -0.101241 0.410682 
-0.0212015 -0.0801641 0.375289 
0.00574855 -0.00857554 -0.0401574 
-0.0160617 0.00327527 -0.0337748 
0.0243175 0.0490858 0.0690087 
0.0620942 0.121923 0.170673 
-0.00531563 0.0118904 -0.00483859 
0.00865124 -0.0136268 0.0446467 
0.0158332 -0.0303693 0.0437252 
0.00780077 -0.00954212 0.0149608 
-0.0213479 -0.0344941 -0.0375086 
0.092427 0.0965305 0.13952 
0.0237868 0.00766215 0.00142559 
0.0184928 0.0127178 0.000336956 
-0.00519579 0.0387583 0.235381 
-0.0336786 0.0580305 0.295493 
-0.0277174 0.0191741 0.330892 
-0.0016185 0.0345601 0.317244 
-0.000524697 3.73607e-05 0.125253 
0.000108343 0.00175871 0.150829 
-0.000137753 -0.00125378 0.0742034 
-0.00135258 0.00742095 0.0918957 
0.00160905 0.000419641 -0.00137105 
0.000436489 0.000928938 -0.000322759 
0.000572898 0.0013258 -0.00204602 
-0.00179777 -0.00545438 0.00823572 
0.00483542 0.00593898 -0.015366 
0.00318073 0.00313812 -0.00165569 
-0.0213237 -0.00798183 0.0616251 
-0.0214713 -0.0125032 0.0843524 
0.000482529 -0.000245224 0.0016206 
0.00172834 -0.000882071 -0.0051386 
0.000592687 -0.000302877 -0.00292695 
0.00229622 0.0101591 0.0649796 
0.000611826 -0.00104998 0.00218309 
0.000586527 -0.000740956 -0.00252633 
0.000428959 -0.000708884 0.00105632 
0.00201565 0.0053914 0.0959578 
0.00438304 -0.0756447 0.105276 
-0.0151925 -0.057553 0.122299 
0.00135312 -0.0946846 0.258269 
-0.00308685 -0.0452367 0.16818 
0.000384236 -0.00118331 -0.00334764 
-0.00235473 0.00912333 0.103004 
0.000272694 -0.0013732 0.0019928 
-0.00112549 0.00630802 0.0897999 
-2.48734e-05 -1.94541e-05 -0.00218035 
-0.000867076 -0.00119254 0.00115841 
-2.55519e-05 -5.22637e-05 0.00260249 
-0.00486152 0.00694852 0.0682424 
0.0386197 0.0335249 0.15253 
0.0141385 0.0251445 0.0468448 
0.0401652 0.0277287 0.094213 
0.00656631 0.00768362 0.056775 
0.00645048 0.0182321 0.0756663 
0.0162891 0.0202547 0.0528639 
0.0304725 0.0411582 0.145662 
0.00538802 0.00858065 0.0582583 
0.00902002 0.00362509 0 
0.0075316 -0.00603062 0 
-0.00106453 0.000453191 0 
-0.0372262 0.0165001 0.0150056 
-0.000314709 7.39906e-05 0.00205986 
-0.000275955 0.000100179 0.000556985 
-0.000218773 0.000161279 -0.00245536 
0.00279076 0.00335121 0.0989476 
0.00122416 -0.000924267 0.217482 
-0.000170111 0.000250603 0.238415 
0.000608589 0.000358082 0.171678 
-0.0187334 -0.0101326 0.182803 
0.000897445 -0.0013015 0.00173885 
-0.000752946 0.00104326 -0.00780268 
-0.000186792 0.000254959 -0.00243785 
0.00776913 0.00631419 0.0510496 
-0.00737405 -0.0017994 -0.00262757 
0.0167774 -0.00419649 0.0139563 
-0.00776176 0.00215189 -0.00875101 
0.017796 -0.00696817 0.0175642 
-0.00324688 -0.000877493 0.223102 
0.00230227 0.000989134 0.227602 
0.00110761 0.0172409 0.18735 
0.00889061 0.0209665 0.278063 
-0.0037677 -0.00088387 0 
0.0110311 -0.00101895 0 
0.00516633 0.00175766 0 
-0.0221627 0.0120264 0.0137219 
0.00409344 0.0036484 -0.00110048 
0.00192058 0.00204773 -3.15906e-05 
-0.00944386 -0.0144809 0.0819776 
-0.00509558 -0.0068065 0.081617 
0.0341555 0.0377002 0.523308 
-0.0301357 0.0356659 0.429086 
0.0758968 -0.0032592 0.398769 
0.00329837 -0.0157671 0.517049 
-0.00711273 -0.0311813 0.616686 
-0.00708163 -0.0243294 0.496261 
0.0142224 0.0458207 0.243983 
0.0847998 0.275184 0.158347 
0.000637756 -0.00125103 0.00161829 
0.000942212 -0.00184974 0.000154856 
0.000263403 -0.000520567 -0.00513673 
-0.009353 0.00139678 0.0771985 
-0.00123837 -0.0034935 0.0823689 
0.00283755 0.00967727 0.0765358 
0.000491633 0.00215944 0.162302 
0.00584613 0.0147741 0.171037 
-0.0713442 0.0171623 0.215448 
-0.126576 0.0634502 0.260766 
-0.158088 0.00473048 0.352911 
-0.0946671 0.0539744 0.359373 
-0.156286 0.0730565 0.222404 
-0.122213 0.0836734 0.582861 
-0.144468 0.00607405 0.370375 
-0.0962199 0.0591232 0.357269 
0.00318034 -0.000658043 -0.0068198 
0.00393419 -0.00100013 -0.000657847 
0.00111064 -0.00034116 0.00227276 
-0.00471815 0.00964872 0.0105104 
0.000378784 0.000127291 -0.000373508 
0.0006564 3.80229e-05 0.00612898 
0.00205247 0.000611103 0.000894888 
-0.00040501 -0.00919585 0.0515874 
-0.0585032 0.0299556 0.537462 
-0.0419774 0.0819488 0.454662 
-0.00327422 0.0278272 0.438151 
-0.108283 0.0590298 0.363742 
-0.000728731 -0.000611256 0.190914 
-0.00862172 0.0177792 0.168973 
-0.00717658 0.0295205 0.229634 
0.00200881 0.0187208 0.187153 
0.00724457 -0.0247502 0.127276 
-0.00360348 -0.0213558 0.0713108 
0.0055308 -0.0279467 0.0561622 
0.00262343 -0.0500127 0.165861 
-0.00199966 -0.00107257 0.00482666 
0.00625951 0.00508405 0.0914771 
-0.000784901 -1.35002e-05 -0.00154506 
0.00587268 0.00603082 0.0617541 
0.0852658 -0.0133383 0.526316 
0.0922867 0.0143942 0.211373 
0.158255 0.0541002 0.377662 
0.109667 0.130122 -0.00804415 
0.00120723 0.000188298 0.115331 
-5.66651e-05 5.07384e-05 0.0622975 
-0.000687953 0.000340286 0.0832272 
0.00553233 0.00280061 0.086751 
-0.000703106 -0.000867497 0.261959 
0.000293499 0.00159763 0.206776 
-0.000637476 -0.00164992 0.197227 
-0.0189857 0.0179916 0.211134 
-0.0232611 0.0384142 0.153668 
-0.0129264 0.0360625 0.239994 
-0.0227951 0.0214039 0.217941 
-0.00834392 0.0160815 0.158596 
0.0310464 0.0557383 0.535424 
0.0201035 -0.0353506 0.682239 
0.1035 -0.0633002 0.484512 
0.0925478 0.0179804 0.640686 
-0.0283274 0.0995164 0.101571 
0.0213336 0.0739326 0.192758 
0.0456597 0.138337 0.235409 
0.00659489 0.122847 0.295622 
0.0198898 -0.00185226 0.121395 
0.0200036 -0.00717377 0.0717938 
0.0282249 -0.0119636 0.148181 
0.00623908 -0.00190718 0.0995499 
-0.0353803 0.045223 0.143136 
-0.034438 0.0630115 0.283072 
-0.00460056 0.031714 0.243606 
-0.0152956 0.0606644 0.206667 
0.000763173 0.00401892 -0.00806952 
0.0256065 -0.00513787 0.0392934 
-0.0105256 0.0105886 -0.015416 
0.0693193 -0.0103815 0.0531504 
0.0398948 0.000440044 0.262245 
-0.0184283 -0.0323463 0.524879 
-0.00233712 -0.0355681 0.623284 
0.286255 0.0748128 0.368554 
0.000815524 0.000639464 -0.00262053 
0.000929677 0.000593863 0.000562919 
0.000911397 0.000498787 0.00274332 
-0.00523749 0.00236414 0.10128 
0.00678624 0.109262 0.0725249 
-0.00993262 0.16023 0.476655 
-0.0337105 0.136757 0.252321 
-0.0193284 0.122905 0.306089 
0.0127444 -0.0214198 0.0544009 
-0.00493535 -0.0168867 0.0729674 
0.0023723 -0.0682772 0.108418 
-0.0017294 -0.0531292 0.167117 
-0.000335825 -0.000285896 -0.00274154 
-0.00076741 -0.000533368 0.00047714 
-0.00174129 -0.0011861 0.00243956 
0.00515111 -0.00378003 0.10215 
0.000575532 0.000364534 0.0012961 
0.000606045 0.000480546 -0.00619017 
-0.00450784 -0.00434089 0.0874602 
-0.00368403 -0.00429115 0.0781836 
-0.0632808 0.0177456 0.552737 
-0.0849008 0.0710389 0.589488 
-0.195969 0.00326427 0.355586 
-0.0980952 -0.0087714 0.64103 
0.0332474 -0.0294298 0.559397 
0.016251 -0.00344682 0.522864 
-0.0296142 0.0317652 0.232002 
-0.267932 0.114306 0.180525 
0.015789 0.0212609 0 
0.0128814 0.0217756 0 
-0.023063 -0.0553216 0 
-0.0720142 -0.142672 0.141362 
-0.0194654 0.201995 0.483824 
0.0588533 0.105452 0.225274 
0.0122696 0.0899639 0.070061 
-0.0300858 0.154182 0.261292 
0.000191462 -0.00222483 0.00235462 
0.000254278 -0.00295477 -0.0044686 
0.000194781 -0.00226339 0.000667107 
0.00805281 0.00944167 0.0660029 
-0.00101746 0.000563344 -0.00650478 
0.00587709 -0.00717014 0.0156659 
-0.000218306 0.000106239 0.00331134 
0.00503448 -0.00387249 0.0116138 
0.0189546 -0.0377156 0.681528 
0.0895785 0.0177539 0.652674 
0.00610514 -0.00324092 0.836845 
0.0485451 -0.0943866 0.625832 
0.0189798 0.0073642 0.123247 
0.0241492 0.00651016 0.0806693 
0.0216953 0.000899469 0.123982 
0.00210355 6.30622e-05 0.0809493 
0.111848 0.122289 0.314463 
0.0322931 0.177539 0.202197 
0.0288711 0.122602 0.509897 
0.0965642 0.124547 0.54966 
-0.000376221 0.000192816 0.0011323 
-0.0006145 0.000396785 -0.00255067 
-0.00070481 0.000373355 0.0014689 
0.00382209 0.00326742 0.0611085 
0.00181254 -0.000338184 0.000871025 
-0.00123909 0.00118954 -0.000731935 
-0.00106507 -0.000180108 -0.00154759 
0.00673885 -0.00682347 0.00808509 
0.00682395 -0.00375337 0 
-0.00315302 0.00235869 0 
-0.00090743 -0.0147476 0 
0.0120985 0.0470934 0.0152347 
0.00106206 0.122168 0.0824503 
0.0520688 0.124189 0.232579 
-0.00227061 0.15601 0.465696 
-0.025063 0.126016 0.314283 
-0.00527447 0.0897034 0.138095 
0.026426 0.0721824 0.204055 
0.0289084 0.0432741 0.0683692 
0.0464039 0.129598 0.171447 
-0.110047 -0.0887799 0 
0.0741332 0.0444408 0 
0.0529753 0.0814223 0 
0.109317 0.172714 0.248431 
-0.00139748 -0.000983856 0.128333 
0.000798242 0.000904437 0.139839 
0.00140256 -0.00182591 0.194185 
0.00802456 -0.00634606 0.108 
-0.00107785 0.000524491 0.078638 
0.000379893 0.000204755 0.000690943 
-2.02861e-05 0.00027158 0.0620656 
-0.00269664 -0.00531484 0.086033 
9.56426e-06 0.000302341 0.0028296 
5.6219e-05 0.000198207 0.000790756 
-0.000123281 -0.000186 0.000760605 
-0.00654274 0.00124159 0.0571848 
0.0104088 -0.00827551 -0.0327402 
-0.0520888 -0.00798641 0.0525957 
0.000752162 0.0100271 -0.00810747 
-0.0738729 -0.0124677 0.0691113 
-0.000801694 -0.00180181 0.00450613 
-0.0008263 -0.00177669 -0.00336357 
-0.00133745 -0.00293986 0.00093869 
0.0101396 0.00279156 0.0681107 
0.00264412 0.0104988 0.564575 
-0.0357121 -0.00404576 0.276736 
-0.00457741 0.0103679 0.537597 
-0.254155 -0.0320664 0.373921 
0.00153951 -0.000688421 0.00106998 
-0.00380843 0.00243749 0.0756675 
0.000482425 -0.000845118 -0.00283731 
-0.00622411 0.00247447 0.10185 
-0.0233072 0.0133636 0.123273 
-0.0267399 0.00792042 0.184388 
-0.0267623 0.00828033 0.0929885 
-0.00432833 -0.000682173 0.0984307 
0.00517071 -0.00299954 0 
0.0119304 0.000672524 0 
-0.000544941 0.00142228 0 
-0.0459563 -0.00333373 0.0142647 
-0.00207099 0.0839315 0.12805 
-0.00615553 0.0288944 0.065024 
-0.0123162 0.0423163 0.0619132 
-0.00760922 0.0181189 -0.0205654 
-0.0502953 -0.00691864 0.0612123 
0.00588299 -0.000476191 -0.0241609 
-0.00337275 0.00291224 0.00697812 
-0.066723 -0.0212851 0.0656832 
8.93132e-05 0.000132601 -0.00371315 
-0.000982441 -0.0014308 0.000461775 
-0.000671418 -0.000979782 0.00314778 
0.00415276 -0.00624017 0.0596961 
0.0164021 0.00793444 -0.0208988 
-0.0105121 -0.0251948 0.0114992 
-0.0180521 0.0188272 -0.0251977 
-0.0416005 -0.145972 0.156227 
-0.000141506 -0.000142328 -0.00297916 
0.000272795 0.000276584 0.00200164 
0.000647108 0.000659305 -0.000700399 
0.00333244 -0.00332017 0.105026 
0.0629278 0.000713396 0.401376 
-0.0219355 0.0289184 0.440563 
0.0371931 0.043034 0.503286 
0.0468696 0.058169 0.369654 
-0.0400402 0.019664 0 
0.021872 -0.0344721 0 
0.00359082 -0.0127868 0 
-0.0764641 0.0225229 0.0617105 
-0.000197849 -0.00200352 -0.0072759 
-1.2727e-05 -0.000128881 0.00270116 
-0.000115541 -0.00117003 -0.00222695 
-0.0130512 0.00235647 0.0779643 
-0.0270324 0.0240202 0.317678 
-0.0276324 0.0324677 0.430689 
-0.040185 0.0583805 0.294758 
-0.0588883 0.0144674 0.360965 
0.0594583 0.00291886 0.399491 
-0.012008 0.0322897 0.431024 
0.0115558 -0.0208883 0.395355 
-0.00192918 -0.0252044 0.50821 
-0.00104712 0.000962282 -0.0010667 
0.00353941 -0.00569917 0.0773339 
-0.00266147 0.00246156 0.00204422 
0.00502956 -0.0113833 0.0560691 
0.000532428 0.000956448 0.224449 
0.00679879 0.0156536 0.171459 
0.00106111 0.0192244 0.18875 
0.0110781 0.0192091 0.280616 
0.000185968 -0.000127248 -0.00105594 
-5.97942e-05 5.74115e-05 0.00119775 
-0.00064661 0.000366397 -0.000284567 
0.00189884 0.00310967 0.096704 
0.0508605 -0.0447299 0.0734677 
-0.0118876 0.049366 -0.0977976 
0.0655319 -0.0564447 0.0275895 
0.160483 -0.146308 0.387877 
0.000184537 0.00305084 0 
-0.00177933 0.000450834 0 
0.00331548 -0.00107388 0 
-0.00426902 -0.00317609 0.00419292 
-0.00255301 -0.00273808 -0.000809533 
0.00893216 0.016961 0.0704971 
-0.00629072 -0.00277916 -0.00302459 
0.00431282 0.00803935 0.0722465 
-0.0116354 -0.0440632 0.301996 
0.0122108 -0.00263866 0.537006 
0.0119614 0.00456725 0.596627 
-0.190067 -0.15246 0.493549 
-0.0037804 0.00661142 0.00096195 
0.0143368 -0.0197093 0.0480972 
-0.00108237 0.00540777 -0.00281928 
0.00869685 -0.0111325 0.0132192 
0.093635 0.00808584 0.231521 
0.0630869 0.0533776 0.261599 
0.0565027 0.00341292 0.392731 
0.0946997 0.03847 0.382768 
0.000474484 -0.00105765 0.151789 
-0.0234191 0.00576297 0.182485 
-0.000375184 0.000827394 0.198229 
-0.0101945 0.00410802 0.100608 
-0.00790301 0.00464852 -0.00861796 
0.00951543 -0.0210529 0.0551238 
-0.0049921 0.00408351 0.000736904 
0.00789002 -0.0168431 0.0686403 
0.00186669 -0.00145771 -9.77837e-05 
-0.000497548 -0.000686595 -0.00116072 
-0.000697727 -9.53239e-05 -0.00121403 
-0.0012015 0.00306616 0.0022088 
0.000875215 0.000546069 -0.00388001 
0.00126681 0.000844642 -0.00051894 
0.00185347 0.00126048 0.00156081 
-0.0080877 0.00219173 0.00964793 
-0.000352599 -0.000156958 0.000644688 
-0.000240672 -2.64322e-05 -0.00368015 
-0.00038367 -0.000218152 0.00311964 
-0.000676369 0.00547377 0.102987 
0.00291369 0.00129398 6.4104e-05 
-0.000615728 -0.000223357 0.00342195 
0.00350862 0.00147086 -0.0059122 
-0.0114006 0.00527918 0.028276 
0.00109359 0.000576377 0.00130886 
0.0012904 0.000541402 -0.00141099 
2.18592e-05 -0.000233229 -0.00518868 
0.000886131 -0.00636079 0.0395765 
0.100354 -0.0429485 0.493886 
0.00616843 -0.0380584 0.673603 
0.0417961 0.0426767 0.533902 
-0.00702933 -0.0183439 0.524173 
0.000552623 0.00559225 0 
0.000587692 -0.000285195 0 
-0.00451286 -0.0052601 0 
-0.009808 -0.0223656 0.0266547 
0.134238 0.0232911 0.368337 
0.104199 0.11869 0.312057 
0.0976621 0.0430388 0.397199 
0.101075 0.111421 0.54575 
0.0905965 0.0861268 0.326969 
0.094826 0.0362657 0.404893 
0.050499 0.0602745 0.533795 
0.0402686 0.0628017 0.361571 
0.0172203 -0.0039061 0.119893 
0.0200267 -0.00516407 0.190542 
0.000832931 0.00149425 0.135023 
0.00891774 -0.00331523 0.0994903 
-6.1165e-05 0.000273072 0.00227751 
0.000137132 -0.000657309 -0.00774657 
0.000366199 -0.0014507 -0.00284715 
0.010434 0.0039828 0.0617414 
0.154822 0.0205662 0.331085 
0.102551 0.0453685 0.377068 
0.106842 0.0234849 0.636526 
0.0939728 0.104069 0.590033 
-0.000649871 -0.000703451 -0.00592939 
-0.00153995 -0.00161018 -0.00305425 
-0.000718334 -0.000724652 0.00370062 
0.0110025 -0.00554583 0.0550691 
0.00301121 0.000621212 -0.00143621 
-0.00751238 -0.00389889 0.0872271 
0.00411924 0.00121006 0.00221002 
-0.0156551 -0.0068582 0.0853197 
0.00232402 0.000840409 -0.00589144 
-0.0251201 0.0176168 0.0175829 
-0.0004207 -0.00251505 -0.00385732 
-0.00868626 0.0119505 0.0262737 
0.0172155 -0.0114629 0.550735 
0.000141083 0.0053474 0.711708 
-0.000829313 0.00187049 0.604349 
0.110691 0.0161752 0.70591 
-0.006313 -0.0066062 0.0920286 
-0.0207333 -0.00348357 0.0885981 
-0.0258381 -0.00334341 0.127193 
-0.00343719 -0.00361263 0.0753432 
-0.00108025 -0.000907739 0.0849082 
0.00475417 0.00921488 0.0997567 
0.00292394 0.00749148 0.0762476 
0.00572623 0.0143388 0.169822 
0.00240413 -0.00201795 -6.69365e-05 
-0.0189587 0.00388076 0.0881591 
0.00406242 -0.0028475 -0.00133323 
-0.00751631 0.0017872 0.0878393 
0.000873368 -0.000349936 0.127554 
-0.000606207 0.000357487 0.122935 
-0.000106893 0.0004276 0.067348 
0.00405012 -0.00642555 0.0880629 
-0.00187861 0.000423122 0.758549 
-0.0873423 0.0730895 0.580289 
-0.0197581 0.0467541 0.706854 
-0.0976114 -0.0116434 0.649918 
-0.0252184 0.004009 0.0917121 
-0.0282682 0.00478365 0.185394 
-0.0297818 -0.00291962 0.135407 
-0.00388462 0.00131225 0.0865515 
0.00160516 0.0257449 0.135149 
-0.00104191 0.00594335 0.0880914 
0.00423306 0.00634733 0.0785169 
0.000442857 0.0213099 0.182316 
-0.0013342 0.000244573 0.258337 
0.0023259 -0.000251201 0.224789 
0.000630786 -0.000864236 0.19133 
-0.0085122 0.0303906 0.227511 
-0.0661227 0.0229429 0.51894 
-0.0915962 0.0516358 0.368938 
-0.00922568 0.0324347 0.439361 
-0.075854 0.00781896 0.345556 
0.00925413 -0.0209715 0.391728 
0.0362434 -0.0667848 0.398768 
0.0640879 0.00532059 0.396864 
0.000228677 -0.0263427 0.517011 
0.179107 0.0414822 0.348936 
0.113385 -0.00157136 0.63663 
0.085479 -0.0466994 0.487714 
0.137486 -0.056907 0.416745 
-0.000273486 0.000552501 0.00241641 
-0.000163803 0.000384228 0.000333173 
6.96952e-05 -2.08147e-06 -0.00351477 
0.00373367 0.000520544 0.084548 
-0.00279868 -0.0358909 0 
0.0172754 0.0638171 0 
-0.02048 -0.0208462 0 
0.0728514 0.151594 0.126258 
-0.000527926 -0.0011134 0.00221941 
0.00361053 0.00789456 0.0983343 
-0.000897345 -0.00324924 -0.00194878 
0.00262986 0.00817275 0.0774828 
-0.000630784 0.000502331 -0.00035014 
-0.00119416 0.000894376 -0.000707529 
0.000107884 -0.000507574 -0.000479396 
0.00359189 -0.0061677 0.00700025 
-0.00503201 0.000832533 -0.00548092 
-0.00337854 0.000124088 0.00176569 
0.0139556 0.00672413 0.0619899 
0.00698139 0.00467319 0.0587308 
-0.000347695 -0.000472518 0.171982 
0.000250684 9.29858e-05 0.120343 
0.00095919 0.00029674 0.117303 
-0.0147135 -0.00691023 0.177392 
-0.000550027 0.000762434 0.0519718 
-0.000253767 -0.000175943 0.112697 
3.22557e-05 -0.000771564 0.0756219 
0.00722485 -0.00321069 0.111077 
1.9823e-05 -0.00956084 -0.00505669 
0.000202083 -0.00476271 -0.00726272 
0.000399203 0.0118807 0.0112979 
-3.72366e-05 0.0130992 0.0101737 
0.00260864 0.00176477 -0.00300671 
0.00281338 0.00192014 -2.22072e-05 
3.05918e-05 4.72249e-05 0.00502912 
-0.00864913 0.00203697 0.021033 
0.00321282 -0.000253899 0.308611 
-0.00185949 0.00343373 0.259978 
0.00102199 -0.0018407 0.286332 
-0.0165763 0.00301357 0.270673 
-0.00491268 0.0124581 0.105278 
-0.000389482 0.00393468 0.0868383 
4.51112e-06 0.0317087 0.137721 
0.000522344 0.0194525 0.182946 
-0.000202111 -0.000633889 0.0543483 
0.000682006 8.42854e-05 0.0847612 
-0.000293454 -0.00094961 0.0010204 
0.000847949 0.00616689 0.0793441 
-0.0162914 -0.0752702 0 
0.0149729 -0.0733179 0 
-0.0200448 0.126824 0 
-0.0471541 -0.206043 0.245342 
0.000730557 -0.000347298 0.00102898 
0.00063607 7.07536e-05 0.00123937 
-0.000410707 0.000363802 0.0629853 
-0.00472999 0.0017225 0.101489 
-0.00114113 0.000928117 0.132199 
0.000898974 0.000206164 0.0714544 
0.000384877 -0.000326173 0.0617822 
-0.00524158 0.00675799 0.10469 
0.0133647 -0.0711042 0.11262 
0.00708089 -0.0223501 0.0571815 
0.0212973 -0.0823372 0.0810021 
-0.00826677 -0.0161327 -0.00785305 
-0.00128292 0.00094495 0.225853 
0.01835 0.0198182 0.209659 
0.00132401 -0.000726084 0.20345 
0.00798085 0.0143274 0.172828 
-6.98608e-05 0.000187007 0.120685 
-0.00791855 -0.00349535 0.0905941 
0.00049163 -0.00151547 0.118858 
-0.0142891 -0.00518826 0.175939 
-0.0761006 0.100229 0.296549 
-0.0593414 0.0376981 0.161895 
-0.0383534 0.0620667 0.294438 
-0.0883152 0.0625909 0.352628 
0.000517178 -0.00226931 -0.0011467 
0.000170627 -0.000620191 0.00261474 
0.000430783 -0.00194498 -0.00223066 
0.00456403 0.00926986 0.0058964 
0.062194 -0.0188072 0.107365 
0.0245623 0.00089272 -0.0027501 
0.0189449 -0.00525673 0.0718419 
0.0484725 -0.00952736 0.126024 
-0.00610812 0.000864735 0 
-0.00703064 -0.00204942 0 
0.00470953 0.00259406 0 
0.0216414 0.0196722 0.0118684 
-0.0053417 -0.120677 0.454965 
-0.00234603 -0.0405204 0.52547 
0.0489379 -0.0643229 0.388848 
-0.0282702 -0.0758012 0.366165 
0.00116568 -0.000861996 0.00111487 
0.000321503 -0.000464831 0.0632135 
-0.00373823 0.00159127 0.0755973 
-0.00591443 0.00339815 0.101868 
-0.00506324 -0.00511308 -0.00413598 
0.013314 0.0084134 0.061952 
0.0160222 0.0205602 0.0515272 
0.00597434 0.00813265 0.0584907 
0.000743162 0.00459958 0.807878 
-0.0134462 0.0307825 0.706306 
-0.00024548 -0.0415052 0.68371 
-0.089149 -0.014401 0.651098 
0.00129727 0.00102695 0.124987 
0.00114973 -0.00218579 0.070232 
-0.00131865 -0.00027966 0.134014 
-0.00701865 0.0135004 0.162779 
-0.0112468 -0.000419121 0.525901 
0.047678 -0.00596578 0.262518 
-0.0162108 0.0231407 0.591931 
0.283077 0.0488728 0.355815 
-0.0044746 0.0559591 0.250868 
0.0409922 0.0645968 0.20793 
0.0090703 -0.008638 0.563616 
0.0315822 0.228878 0.046598 
0.000437139 8.70551e-05 0.0015622 
0.000752892 0.000184532 -0.00175434 
0.000460558 9.42893e-05 0.00131562 
-0.00316872 0.00421045 0.102027 
-0.00256496 -0.0370652 0.514015 
-0.0135249 -0.0130455 0.671131 
0.212645 -0.0776001 0.372191 
0.0607266 -0.0832878 0.641677 
0.000248842 -0.00190212 0.152424 
-0.00212832 0.00101507 0.19683 
0.000136889 0.00068753 0.124564 
-0.00927215 0.00374461 0.101592 
-0.000327436 -0.00513238 0.811558 
0.00755724 -0.0144345 0.697797 
-0.0118225 -0.0280345 0.786213 
-0.0114942 0.0466372 0.710676 
0.000124714 -0.00061101 0.201249 
0.0212687 0.0188121 0.208064 
-0.00325515 0.00174402 0.228072 
0.0125534 0.0163759 0.274276 
0.000526546 0.0691551 0.0846173 
-0.00114387 0.0158029 0.0135659 
-0.00574165 0.0314695 0.0781199 
-0.00350513 0.0177961 0.00430128 
0.000355104 0.00306958 0.762821 
-0.00184676 0.0531849 0.703265 
0.00799505 0.155862 0.502961 
0.070518 0.101648 0.569524 
0.00387061 0.0276223 0.138338 
-0.000742103 0.0193871 0.184483 
0.00430029 0.00714721 0.0755784 
0.00698444 0.0171294 0.172031 
0.0010346 0.000895787 -0.00427172 
-0.0066351 0.00448202 -0.0165684 
0.0170805 -0.0022433 0.0198065 
0.0635921 -0.00948275 0.0523082 
-0.000339618 -0.00109687 -5.60278e-06 
-0.000275057 -0.000906406 0.000202788 
-7.05049e-05 0.000305899 -0.00613093 
-0.00711278 0.00318337 0.050485 
0.000574002 0.00150555 0.164837 
0.000214782 -0.000385949 0.210301 
-0.00167479 0.000749037 0.131558 
0.0186262 -0.00303452 0.192409 
-0.0034174 -0.000814817 0.308014 
0.0128643 0.00802165 0.308447 
0.00402213 8.49723e-05 0.264218 
0.0118101 0.0110317 0.281612 
-3.46731e-05 0.000425023 -0.00134384 
-4.96182e-05 0.000608221 0.000301847 
-6.59722e-05 0.000808689 0.00129538 
-0.00224295 -0.00205645 0.0733002 
-0.000135582 -0.0017076 0 
0.000251367 -0.00156012 0 
0.00211604 -0.00357577 0 
-0.00289882 0.00438322 0.0036354 
0.019221 -0.0127556 0.794104 
0.00378052 -0.00969705 0.721953 
0.00892629 0.000618423 0.697177 
-0.109078 0.0961137 0.636663 
2.95277e-05 -0.000254206 0.275406 
0.000601654 -0.002356 0.213996 
-0.000475109 0.00217178 0.223572 
0.0287192 0.00350719 0.221722 
0.000183768 0.00043781 0.000372013 
0.000680672 -5.41407e-06 0.0712831 
-0.000524847 -0.000112276 0.0628648 
0.000240824 -0.00572259 0.0921641 
-0.000153949 8.38375e-05 -0.000320857 
-0.000169093 -0.000267438 0.0787216 
-0.000326399 0.000296456 0.000251112 
5.72334e-05 -2.24692e-05 0.0619106 
0.0996637 -0.175828 0.295979 
0.129193 -0.0671378 0.40815 
0.0903848 -0.0259773 0.499414 
0.0891692 -0.0975282 0.614517 
0.00065242 0.00195126 0.206811 
0.00100327 -0.00196693 0.155009 
-0.00107159 -0.0020414 0.198228 
-0.0190193 0.0178597 0.208284 
1.99233e-05 0.00219492 -0.000756317 
-0.000418887 -0.00118591 -0.000487815 
0.000840542 0.000883385 -0.000318435 
-0.00490957 -0.00529102 0.0049618 
-0.00562985 -0.00952671 -0.00598631 
0.00174853 0.0122339 0.00682523 
0.00129936 0.00141646 -0.00397379 
0.00244436 0.0126121 0.0167176 
-0.0214665 0.0108094 0.120296 
-0.0486853 0.0335191 0.175377 
-0.0184995 0.0191318 0.0653495 
-0.0199917 0.0106288 0.0540385 
0.00189847 9.38382e-05 -0.00132437 
0.000378836 -0.00139365 -6.62665e-05 
0.000378983 -1.28706e-05 -0.00212956 
-0.0113729 0.00829388 0.00862655 
-0.000193694 0.000784707 0.30116 
0.00680428 0.00586193 0.336752 
0.0141806 0.00324638 0.307735 
0.00966776 0.0159229 0.283878 
-0.0410581 0.0218233 0.549018 
0.00510634 0.00890893 0.638046 
-0.13227 -0.180569 0.428173 
-0.0933494 -0.0451848 0.674636 
-0.00098566 0.000957725 -0.000804821 
0.000196943 0.00084496 -0.00130147 
-0.001431 0.00196793 -0.00168691 
0.00366123 -0.00401658 0.00339152 
-0.0324458 -0.0160351 0.678264 
0.0643031 0.0187675 0.227368 
0.0646856 -0.00862747 0.258394 
0.268776 0.0629688 0.263598 
0.000580022 -2.845e-05 0.124209 
0.000429557 -0.000914641 0.141009 
-0.000663744 0.000486905 0.0718256 
0.00188107 -0.00612627 0.0867138 
0.00477493 -0.00271592 -0.0105381 
-0.0127514 0.0125569 0.0587696 
0.00136094 -0.00123958 0.00312196 
-0.00988726 0.0118139 0.0332668 
0.0341319 0.032847 0.542213 
0.101417 0.0342476 0.406136 
0.107301 0.113274 0.318676 
0.0952147 0.123847 0.532338 
7.74113e-05 -0.00074981 0.00412349 
2.57299e-05 -0.000254881 0.00123401 
-3.7975e-05 0.000416145 -0.000857302 
0.00653407 0.00275738 0.0697634 
0.0107524 0.0755201 0.347826 
-0.0494303 0.0676635 0.294706 
-0.0127529 0.0298538 0.430152 
-0.044406 0.0917156 0.433939 
-0.000577893 0.000371948 0.0747183 
0.000500863 0.000664015 0.124499 
-0.000232602 -0.000428516 0.0614253 
0.00630786 0.00588319 0.0983372 
0.000850759 -0.00424405 -0.00293726 
0.00180873 -0.0056463 0.00269062 
-0.0140054 0.0264102 0.0345244 
-0.00244502 0.0109563 0.0484388 
0.00650295 0.0759869 0.341375 
-0.00190193 0.0313066 0.314003 
0.0164808 0.0405458 0.230703 
0.0342899 0.058698 0.369845 
-0.00404781 -0.00170706 0 
0.00121381 0.000200109 0 
0.00449982 0.00066898 0 
0.0133884 0.00579287 0.0145802 
-0.00151903 0.000146436 0.193499 
-0.00593199 0.030077 0.229006 
0.000961443 -0.000331031 0.222879 
0.000950664 0.0172131 0.185652 
-0.00116103 -0.0017144 -0.000544492 
-0.000698029 -0.00152429 -0.00142688 
0.000893179 0.00104895 -0.000365203 
0.00102487 0.00302299 0.00155493 
0.00073342 0.000159177 -0.00726072 
0.000416991 9.33334e-05 -0.00349304 
-0.000781044 -0.000193698 0.00230876 
-0.00237815 0.0115389 0.057306 
0.0563367 0.0118587 0.400488 
0.0632733 0.0452974 0.256036 
0.0315789 0.0235117 0.300343 
0.0421327 0.0455308 0.369616 
-0.000243888 0.00423194 0.198951 
-0.024448 0.00423594 0.188086 
-0.00112363 -0.000327685 0.229544 
-0.0203685 0.00229268 0.268473 
0.129705 -0.121329 0 
0.142268 -0.114807 0 
-0.187066 0.155934 0 
0.183497 -0.0930204 0.444235 
-0.00165669 -0.0504809 0.266966 
-0.000496564 -0.0229864 0.18061 
0.00998465 -0.0263458 0.121372 
-0.00217042 -0.0457173 0.173868 
0.00139595 -0.000854878 0.00187724 
0.000150321 -0.00042144 0.073535 
-0.00729137 0.000287556 0.090434 
-0.00446994 0.000174534 0.0741167 
0.0706789 -0.0154257 0.102838 
0.0297301 0.00733219 0.0505511 
0.0177098 -0.00769733 -0.00477995 
0.0578941 -0.0046055 0.12213 
3.26975e-05 5.47002e-05 0.00152295 
-5.3515e-05 -4.82702e-05 -0.00333008 
-0.000248313 -0.000962534 -0.000458821 
0.00479294 -0.0016903 0.0999957 
0.000646633 -9.06335e-05 -0.00575886 
0.00104265 -3.03857e-05 0.00186493 
-0.00759105 -0.000442881 0.090511 
-0.00488366 -5.77845e-05 0.0741756 
0.000508672 -0.000125936 0.0810285 
-0.00754281 0.00537728 0.101988 
0.00160408 -0.0012636 0.00124339 
-0.00296971 0.00231813 0.0756138 
0.00164686 0.00169896 0.00152804 
0.000111586 0.000112544 -0.00458313 
-0.000833981 -0.000857073 0.00522564 
0.00466113 -0.00659302 0.058771 
-0.0204058 -0.0166632 0.127629 
-0.0139901 -0.0173942 0.084365 
0.000599972 -0.000805111 0.0752647 
-0.00980339 -0.0121527 0.154945 
0.000544394 0.000851373 0.267308 
0.0011195 -0.00293242 0.221534 
-0.000449176 0.000279466 0.199548 
0.0201338 0.016466 0.202946 
0.000508833 -0.000107399 -0.0024526 
-0.000200927 9.33764e-05 -0.00343552 
-0.000581892 0.000128379 0.00232432 
0.00045105 0.00534156 0.073568 
0.000985427 0.00108428 0.198088 
0.000196625 -0.0013708 0.155987 
-0.00131548 -0.00118503 0.125426 
0.0183154 0.0139744 0.197349 
-0.00107868 -8.79976e-05 0.000375857 
0.000156997 1.28077e-05 0.000967907 
-0.000166737 -1.36023e-05 -0.00394896 
-9.2671e-05 -0.00409274 0.0914538 
-0.00505298 -0.00377244 -0.00376033 
0.0109249 0.0118633 0.038068 
-0.00311197 -0.00164705 0.000430206 
0.0162526 0.0150475 0.0180309 
0.000814834 4.2699e-05 0.0014573 
0.000830066 5.46518e-05 0.000578369 
0.000134692 1.40927e-05 -0.000330579 
-0.00165802 -0.00344649 0.0922425 
0.00859865 -0.0282288 0.548972 
-0.170005 -0.121668 0.537108 
-0.0355346 -0.0550229 0.224689 
-0.191566 -0.092874 -0.0120032 
0.00121367 0.00175508 0.297743 
-0.0021935 0.00258677 0.317736 
-0.00193533 -0.00211256 0.277987 
0.0080744 -0.0149292 0.293199 
-0.0686861 0.0210884 0.511378 
-0.0127297 0.0298208 0.428515 
-0.0507009 -0.03908 0.399267 
-0.0739013 0.0108721 0.361901 
0.000150143 0.000104154 -0.00290567 
-0.000169212 -0.000118148 0.00171929 
-0.000367805 -0.000259299 -0.00132349 
-0.00312973 0.00421561 0.0988719 
-0.000877176 -0.000494987 0.00177309 
-0.000584016 0.000682319 0.000757952 
0.000790218 -0.0006426 0.0759389 
0.00373518 -0.00303263 0.107191 
0.000794654 -0.000488418 -0.00416883 
0.00137996 -0.0010698 0.00130436 
-0.00618616 0.00522304 0.10161 
-0.00396814 0.00239456 0.0758922 
-0.000391589 -0.00118754 0 
-0.000259245 0.00442884 0 
0.000564323 -0.0012043 0 
0.000237246 -0.00943691 0.00698383 
0.000463668 -0.000933131 0.00359163 
0.000495369 -0.000857128 -0.000435348 
0.000268003 -0.000455007 -0.000501869 
-0.00692175 0.000780234 0.00991755 
0.00239804 -0.00109862 0.234433 
-3.88181e-05 0.000861889 0.277798 
-8.96353e-05 5.87948e-05 0.214802 
-0.017625 -0.0247271 0.231727 
0.010758 0.0475331 0.241195 
-0.00245742 0.0367702 0.318893 
0.0325851 0.0197503 0.314593 
0.0420981 0.0483385 0.354861 
-0.0732262 0.0294764 0.21261 
-0.0358651 0.0616996 0.245095 
0.0126625 -0.0161916 0.658586 
-0.194111 0.0992064 0.0697835 
-0.000700172 -0.00113319 0.263659 
0.0216063 0.0186697 0.206573 
-0.00209651 -0.00142645 0.199124 
0.0149857 0.0174356 0.27774 
0.038134 0.0789684 0.196703 
-0.0133002 0.0586095 0.198053 
-0.00285424 0.0867764 0.341155 
-0.01967 0.120438 0.28622 
-0.00129637 -0.000545253 -0.000512791 
0.000312277 -2.60967e-05 0.000432353 
-0.00113845 -0.00271673 -0.00142742 
0.00132866 0.00301662 0.00394094 
0.00129979 -0.0081547 0.595494 
-0.252584 -0.0160023 0.345613 
-0.00752229 0.0117864 0.547631 
-0.111019 -0.0083091 0.656457 
-0.000482857 0.000341552 -0.000441489 
-0.000808621 0.00025299 -0.000849936 
-8.44034e-05 -0.00135851 -1.65735e-05 
0.0012459 -0.00411399 0.00389374 
0.000449828 0.00170718 0.112828 
-0.000266237 -0.00179256 0.169374 
-0.000299389 -0.010567 0.0900934 
-0.000434633 -0.0162262 0.178462 
-0.00222455 -0.00749253 0.0864647 
-0.00437778 -0.00157729 0.0779335 
-0.01058 -0.0154194 0.0855436 
-0.0108269 -0.0138551 0.152283 
-0.0611009 0.0184331 0.535314 
-0.0623081 -0.0558052 0.392334 
-0.0061559 0.0410167 0.429981 
-0.00897073 -0.0183479 0.515617 
0.000257317 0.000253941 -0.00070105 
-0.000321695 0.000376347 0.000280465 
0.000107399 -0.000364308 0.0776013 
0.000130388 -0.000184486 0.059235 
0.0112304 -0.00215071 0.761518 
0.00975941 0.0555535 0.715832 
-0.011354 0.00772667 0.730929 
0.0757216 0.0994026 0.584176 
0.034528 -0.0176894 -0.0770624 
-0.0519812 -0.0644457 0.0161615 
-0.117844 -0.0160432 0.150126 
-0.0957117 -0.0207026 0.128539 
0.000518762 -7.21624e-05 0.000404557 
-0.000186389 -0.000637543 0.0738074 
0.000297299 0.000273594 0.0789632 
-0.00707837 7.84647e-05 0.0908224 
-0.0169784 -0.0136417 0.130055 
-0.0215677 -0.0161081 0.059662 
-0.0114095 -0.0235104 0.0785834 
-0.0462787 -0.0357856 0.171903 
-0.000210832 -0.00313305 0 
0.000109562 -0.00643327 0 
0.000682004 -0.00206989 0 
-0.00385805 0.00855635 0.00431767 
0.000395755 0.00085599 0.00128074 
2.77639e-05 0.000194458 -0.00190819 
0.000362277 0.00076958 0.00138047 
-0.00399201 -0.000776224 0.100969 
-0.0249296 -0.00186117 0.739611 
-0.0696944 0.0725253 0.591097 
0.00319114 -0.00140488 0.815559 
-0.0096766 0.0466792 0.713423 
0.0132754 0.0336838 0.246624 
0.0309337 0.0190958 0.203828 
0.0276102 0.0272486 0.307757 
0.00946436 0.0160771 0.279291 
0.00192435 -0.00252399 -0.0106054 
0.00811286 0.00246304 -0.0131648 
-0.013587 -0.000330149 0.0204498 
-0.0520388 -0.0164684 0.0446788 
0.000797311 -0.00231888 0.00145884 
-0.00682516 0.00301616 0.091429 
0.00096605 -0.00160407 0.0014014 
-0.00563815 0.00309294 0.101798 
0.00272873 0.0030566 0.00124747 
0.00171999 0.00271766 -0.000724576 
-0.00971171 -0.0125603 0.0784809 
-0.00500901 -0.00702137 0.0821941 
0.000211314 -0.00119074 -6.62431e-05 
0.00126066 -0.000628583 -0.00220612 
0.00168569 0.000838745 -0.000446304 
-0.00564827 0.000474212 0.00307131 
0.00397526 -0.00271066 0.809395 
-0.0694935 0.0726749 0.592528 
-0.0138637 0.0174064 0.717063 
-0.00880022 0.0466042 0.715142 
0.0009255 -0.010475 -0.00808063 
0.0121573 0.0212483 0.0482692 
0.00121217 -0.0035113 0.000640787 
0.00702021 0.0121333 0.0561559 
-0.0167292 -0.00223404 -0.00599383 
0.0332434 0.00744066 0.0214935 
-0.000352124 -0.000559845 0.000792105 
0.0222623 0.00690482 0.0153391 
-0.0279363 -0.00345415 0.728789 
-0.00629255 0.0481926 0.723278 
0.00259413 -0.00155557 0.814787 
-0.0786359 -0.00209822 0.659152 
-0.000638838 0.000660725 0.00364689 
-0.00107773 0.00110651 -0.00868895 
0.00159386 -0.00164359 -0.000210588 
0.00735217 0.00406326 0.0577169 
0.00102202 -0.00155295 -0.0018955 
0.000869136 -0.00131774 -0.00142855 
6.44627e-05 -6.55763e-05 0.00192195 
0.0020425 0.00664674 0.00402855 
0.0290444 0.0392982 0.146073 
0.0164458 0.020513 0.0529045 
0.0167122 0.00409664 0.0600991 
0.00527258 0.00923349 0.0595593 
0.000964381 -0.00296023 0.810829 
-0.0131891 0.0436649 0.726138 
-0.00864619 -0.0226095 0.774435 
-0.0723287 0.0023789 0.661193 
0.00779227 -0.00678527 -0.00972258 
-0.0201465 0.00676458 0.0834506 
0.000886137 -0.00249096 0.000694523 
-0.0174787 0.00622585 0.0605783 
5.10289e-05 -0.000387608 0.00375881 
-0.000181177 0.000643141 0.00153566 
-4.11269e-05 0.000328529 -0.00335697 
0.0065857 0.00335896 0.010965 
0.000226903 -0.00334538 -0.00506711 
-0.00808463 0.00580176 -0.0136534 
0.0382697 -0.0340385 0.0362675 
0.0129276 -0.00659597 0.0269636 
-5.66537e-05 0.00329749 0.286047 
-0.00334953 0.00120008 0.305925 
0.00123026 -0.000512459 0.309481 
0.00326754 0.00577028 0.319121 
-0.00219714 0.00196466 -0.00611394 
0.032482 -0.0342418 0.0379436 
-0.00653745 0.00390653 -0.0105768 
0.00691363 -0.00807176 0.0143091 
0.00410996 0.00526895 -0.00538491 
-0.000120376 0.010455 -0.0142471 
0.0193795 -0.0543693 0.047536 
0.000898197 -0.00754734 0.00954454 
0.00593811 0.00160892 -0.00432347 
0.00506603 -0.00102828 -0.00608284 
-0.0141546 -0.00451518 0.0109901 
-0.0128111 -0.00209416 0.0107516 
0.0089614 0.0424419 0 
-0.0011968 0.0141433 0 
0.0279524 -0.0299631 0 
0.0755677 -0.083286 0.0361265 
0.000571707 0.000861676 0.00207652 
-0.000454003 -0.000638256 0.0624379 
0.000393157 0.000295963 -0.000134191 
-0.00221663 -0.00433462 0.0859642 
-0.000452875 -0.00172241 0.000583392 
0.000357343 0.00166 -0.00739927 
0.000133478 0.000323596 0.00407215 
-0.010404 -0.00135315 0.0824815 
0.00173554 -0.00597922 0 
-0.000657733 -0.00278733 0 
0.00266587 -0.00276821 0 
-0.00754433 0.00688231 -0.00446157 
-0.000525903 0.000356725 -0.00138351 
-0.000189225 0.00012974 0.002271 
-0.000310169 0.000209561 -0.00247059 
-0.00206622 -0.00358985 0.084699 
-0.0102358 0.147399 0.480213 
-0.0376396 0.0855043 0.448802 
-0.0813903 0.118989 0.307353 
-0.0213565 0.118392 0.286029 
0.0010346 -0.000270446 0.00179478 
0.00125257 -0.00266466 -0.00342137 
-0.0073175 0.00143182 0.0911546 
-0.00685997 0.00445061 0.101956 
0.00886123 -0.00110196 0.839108 
0.0886495 0.0164689 0.645424 
0.0159292 -0.0393676 0.687047 
-0.00508703 0.0336871 0.699255 
0.00141324 -0.00157676 0.309178 
-0.00275862 0.00318415 0.277783 
0.0059952 0.00890216 0.329891 
0.00713575 0.0139936 0.279863 
0.00286958 0.00871655 0.100598 
0.0102991 0.0205853 0.0765424 
0.0236042 0.033124 0.144371 
0.0069046 0.00927777 0.0586198 
-0.00150117 -0.000108906 0.00496457 
-0.000663096 -5.24039e-05 0.000959836 
3.19725e-05 -9.09769e-07 -0.00103228 
0.00211822 0.00801032 0.0617697 
0.001337 -0.000116229 0.148245 
-0.000483339 -0.00286024 0.182067 
-0.000456798 -0.00018682 0.229945 
-0.0249012 0.00399047 0.187511 
-0.00552408 -0.0171231 0.81158 
0.00550414 0.0144875 0.757823 
0.0871985 0.0216158 0.652161 
0.0188899 0.0416308 0.718749 
0.00572455 -0.0122915 0 
0.00568837 0.0056995 0 
-0.0106253 0.00478448 0 
0.00378067 0.0107488 -0.00150781 
-0.0145521 0.0202215 0.0657951 
-0.0579172 0.0429751 0.174719 
-0.0394933 0.0265948 0.0767376 
-0.0157306 -0.000498532 0.0541255 
-0.000107337 0.000837933 0.000981211 
0.00026997 -0.000558698 0.0702227 
0.000113462 0.000553441 0.000215762 
0.000736035 -0.00501313 0.0934478 
-4.23433e-05 0.000530957 0.0613414 
0.000180264 -3.23488e-05 0.112666 
-0.000806706 0.00031564 0.0944775 
-0.000639728 -0.00763942 0.0956896 
0.0604909 -0.0325656 0.113784 
0.0953308 -0.0198017 0.0953596 
0.0393583 0.0196459 0.0312045 
0.0558072 -0.00287653 0.136515 
8.52589e-05 -0.000350054 0.00209641 
0.000177334 -0.000718487 0.00372143 
-0.000109536 0.000431277 -0.0014658 
0.00583611 0.00261042 0.0708575 
0.0258173 0.0294716 0.144843 
0.0127284 0.00952853 0.0612615 
0.00687754 0.00589088 0.0940352 
0.00781062 0.0102603 0.059504 
-0.000500064 -0.000168374 -0.00325632 
-9.24375e-05 8.23858e-06 0.00249962 
-0.000421877 -9.96426e-05 0.000594128 
0.00269422 -0.00476813 0.00488826 
-0.00274899 -0.000472812 -0.0016849 
0.00162728 0.000546081 0.00107673 
-0.00158979 0.000638325 -0.00170279 
0.00854852 -0.000780896 0.00520334 
0.000757851 -0.000293417 0.0790279 
-0.00273223 0.00211703 0.154607 
-0.00760717 0.00579755 0.104814 
-0.00368004 0.001787 0.0751383 
0.0109981 0.0924141 0.337695 
-0.0170939 0.0225397 0.428288 
0.0188159 0.049637 0.529166 
-0.032219 0.0845457 0.45638 
0.000589961 0.00368666 0.00281322 
-0.000938 -0.0142207 0.073486 
-0.000317555 0.00235857 -0.0015652 
-0.000184063 -0.00800317 0.0878258 
-0.00960384 -0.0219162 0.131153 
-0.00271671 -0.00535844 0.0838515 
-0.0108277 -0.0173186 0.0841732 
-0.0101353 -0.014539 0.155999 
-0.00193959 -0.00137364 -0.00103164 
0.00631081 0.00649246 0.0904974 
-0.00222927 -0.00230066 0.00114729 
0.00936382 0.00617041 0.0624 
0.0113942 -0.0179833 0.401571 
-0.0119405 0.0312306 0.428816 
-0.0562435 -0.037464 0.397925 
-0.0013631 -0.0280271 0.504955 
-0.0247841 0.0354985 0.150415 
-0.0225807 0.0259145 0.211626 
-0.00743321 0.00549576 0.0972209 
-0.00683009 0.0166066 0.16575 
-0.0100225 0.161065 0.495906 
-0.0875642 0.102166 0.288551 
-0.0403828 0.145064 0.256221 
-0.0161534 0.118243 0.285404 
-0.0528223 0.0251557 0.550867 
0.0255558 0.0405206 0.537973 
-0.0163093 0.0322122 0.409745 
-0.039009 0.0875398 0.458793 
5.03812e-05 0.000144218 0.00132191 
-4.03875e-05 -2.69174e-05 -0.00268709 
0.00010951 0.000393383 0.00140721 
-0.00502705 -0.000908985 0.091364 
0.00068597 -0.000282595 0.0670862 
-0.0002925 -0.000730342 0.00139847 
-0.000958307 0.000397712 0.000740073 
0.00456535 -0.00188253 0.102437 
0.000361806 -0.000794536 -0.00376152 
1.27141e-05 -3.56349e-05 0.000174534 
-0.000367498 0.000851446 0.00205501 
-0.00663521 0.000532918 0.0103741 
-0.00053117 -0.000509577 0.00174682 
-0.000267303 -0.000290417 -0.00161441 
-0.000680923 -0.000669136 0.00107301 
0.00427595 -0.00103032 0.106691 
0.000211882 0.000465674 -0.000358348 
-4.30264e-05 -0.000247428 -0.00458013 
1.18934e-05 8.08965e-05 0.00164658 
0.00490337 -0.00154371 0.101164 
0.00033202 -0.000735478 0.108327 
0.000116977 0.00869502 0.0890781 
-0.000455311 0.000649535 0.153304 
-0.000225984 0.0139698 0.179358 
0.000554893 -0.00220679 0 
0.0173899 0.0110694 0 
0.0112265 0.00792361 0 
-0.0751722 -0.0405059 0.0155287 
0.00103161 -0.000357327 -0.00181697 
1.1591e-05 -0.000804769 -0.000235014 
0.000599403 -0.000502818 -0.00121977 
-0.0047784 -0.00113456 0.0035606 
-0.000385186 -0.000135656 0.0950678 
-0.000804065 -0.000180029 0.0634638 
0.0011528 0.000291529 8.0324e-05 
-0.00214878 -0.00572126 0.0877639 
0.000538147 -0.000340466 0.000973173 
0.00064789 -8.03294e-05 -2.66743e-05 
-0.000890369 0.000103888 0.0717373 
-0.00337386 -0.000479068 0.0752981 
0.0210027 -0.0193751 0.0679545 
0.0122945 -0.0094278 0.0208016 
0.032712 -0.0310419 0.0526684 
0.00680881 -0.00544806 0.0100216 
0.0517926 0.043872 0.541873 
-0.00517078 0.060248 0.688365 
0.00528354 0.127107 0.503815 
-0.0545127 0.0948272 0.448907 
-9.90959e-05 0.000143857 -0.00264842 
0.000147256 -0.000214317 0.00319592 
1.47374e-06 -7.96386e-07 0.00186153 
0.00478859 0.0045084 0.00623393 
0.000279553 -0.000488861 0.000436413 
-0.000239481 8.34246e-05 0.0687913 
3.68715e-05 -0.00023518 -0.000498734 
-0.000104646 6.37409e-06 0.0573369 
0.00302133 0.00852836 0.788098 
0.0941194 0.0227715 0.638011 
0.00673195 0.0477677 0.706486 
0.078404 0.0941373 0.57259 
0.00315996 0.0056968 0 
-0.00273036 0.00178135 0 
0.00669662 0.00308059 0 
-0.0126553 -0.0184954 -0.00218765 
-0.000115005 -0.000249512 -0.000847025 
-0.000326603 -0.000789406 0.00106705 
-0.000338062 -0.000824581 0.00142578 
0.00437969 2.47689e-06 0.101906 
0.0914494 -0.0352168 0.4976 
0.0577243 0.004656 0.372924 
0.0448141 0.0377084 0.538669 
0.0929016 0.0418936 0.401172 
0.0432583 0.0394312 0.528452 
0.00358633 0.142538 0.500678 
0.00351021 0.0545168 0.70231 
0.076567 0.098089 0.567176 
-0.000511195 4.28832e-05 -0.00046915 
-0.000180392 1.51327e-05 -0.00288196 
-9.30269e-05 7.80385e-06 0.0013222 
-0.000627727 0.00418318 0.0891069 
-0.0222153 0.0181901 0.213392 
-0.0452799 0.0559816 0.283948 
-0.0259585 0.0458123 0.142841 
-0.0482064 0.0377047 0.189708 
0.0645678 -0.0182451 0.106421 
0.00166533 -0.0040023 0.00515469 
0.036284 -0.00265763 0.0460897 
0.0831695 -0.010355 0.0750109 
-7.4398e-05 0.000333881 0.0762211 
0.000116242 0.00105413 0.064153 
0.0003868 -0.000533896 0.000293483 
-0.00566715 0.00183337 0.101307 
0.00108942 0.00010758 -0.00715935 
-0.00133003 -0.000131341 -0.000388375 
0.000200145 1.97644e-05 0.00133376 
-0.00365953 -0.00811644 0.0688705 
0.0535715 -0.00124807 0.400603 
0.0963353 0.0429009 0.390728 
0.0635349 0.053412 0.25582 
0.0422549 0.0487041 0.369533 
-0.000931678 -0.00125472 0.21309 
-0.000428958 0.0012037 0.174627 
-0.000152101 0.000374071 0.136508 
-0.00996375 -0.0108543 0.158718 
-0.00746508 0.0017431 -0.00871056 
0.00787465 -0.0122892 0.0158233 
0.0201179 -0.0480362 0.0547166 
-0.00346987 -0.00884955 0.00119024 
-0.00084906 0.00317105 0.000550853 
-0.000592651 0.00231787 -0.00509098 
-0.000584018 0.00211381 0.00391067 
0.00920578 -0.00346226 0.0661011 
-0.000733974 0.000377044 0.0781259 
0.000763564 0.00127876 0.00161376 
0.000223331 -0.000393298 0.000745914 
-0.00275497 -0.00492976 0.0862163 
0.006942 0.00723635 0.0904307 
0.0120172 0.00987487 0.0627014 
-0.00561323 -0.00437725 0.000693498 
0.00869482 0.00901845 0.0597608 
-0.000172559 6.0629e-05 -0.000535214 
0.000527841 -0.000192194 0.0013845 
2.02364e-07 -1.15858e-05 -0.000431264 
-0.000193649 0.000303744 0.0660348 
-0.000962207 -0.001774 -0.000400325 
0.000735302 -3.08151e-05 -0.000987664 
-0.000334544 -0.000496838 -0.000549228 
0.00074582 0.00173296 0.00238441 
0.0170099 -0.0100595 0.615082 
0.0185835 0.0393663 0.278166 
-0.00161096 0.0118369 0.502838 
0.1151 0.117508 0.652393 
-0.000694387 -0.000331654 0.067929 
-8.44046e-05 0.000279121 0.00106514 
0.00122414 0.000260335 0.0014376 
-0.00424978 -0.00242062 0.0919481 
2.25941e-05 0.00059213 0.00239297 
0.000152157 0.00115425 -0.00361838 
2.33285e-05 0.000582387 0.00226884 
-0.00874812 -0.00148883 0.0809406 
-0.00747301 -0.0718069 0.125386 
-0.0050787 -0.0375589 0.00534121 
-0.0425328 -0.109312 0.16033 
-0.0215016 -0.0546299 0.128374 
0.000328433 -0.000164773 0.00324556 
0.000384773 -0.000184641 0.00197012 
0.000131326 -5.08512e-05 -0.00198237 
-0.00457204 -0.00364723 0.0743591 
0.000649216 -0.0013948 0.222762 
-0.000915883 -0.00142429 0.152432 
-0.000813696 0.00171159 0.199164 
0.0209285 0.0136954 0.201831 
0.00134917 0.00250968 -0.00443411 
0.00167033 0.000365998 -0.00115172 
-0.000608049 -0.0069993 0.00963353 
0.000152595 -0.00417214 0.00719635 
-0.00134742 0.00184887 -6.71338e-05 
-0.00141755 0.00194345 0.00254786 
-0.001467 0.00201426 -0.00213509 
-0.00123288 -0.00846286 0.0540087 
0.00636135 -0.0418399 0.688236 
0.0916919 0.0206306 0.644505 
0.042321 0.0511806 0.519356 
-0.000828879 0.0437342 0.697291 
0.0882911 -0.0464842 0.495018 
0.0359092 0.0442511 0.539672 
0.109643 0.0165674 0.607102 
0.101359 0.0489932 0.403098 
-0.000116629 -5.60577e-05 0.00015706 
-0.000635864 0.000117032 0.0767586 
0.000663621 8.11114e-05 0.0543705 
-0.000779061 0.00478501 0.0902329 
0.0013753 -0.000754928 0.0943188 
-0.000950539 -0.00213478 0.166993 
-0.000606457 0.000697745 0.112537 
-0.00382001 -0.00633772 0.0873082 
-0.000122233 0.000126026 -0.00265996 
0.000155894 -0.000159397 0.00112666 
0.000182804 -0.00018815 0.0034245 
0.00483898 0.0045428 0.00701922 
0.000454657 -0.000106926 0.000480054 
0.000805603 -0.000179354 -0.000448003 
0.000577503 -0.000115976 -0.0019395 
-0.00366536 -0.00252146 0.00634121 
0.0177679 0.0158592 0.709578 
0.0227641 -0.00950221 0.644 
-0.0073748 0.00770062 0.795178 
0.0532157 -0.0921408 0.647224 
-0.000950096 -0.0025632 -0.000162944 
0.00641318 0.00761364 0.0900983 
-0.00175382 -0.0029965 -0.000952559 
0.00625642 0.00817227 0.060775 
0.00138528 0.0016279 0.168437 
0.00177358 -0.000851358 0.233026 
-0.00171185 0.000469815 0.216792 
-0.015256 -0.0253367 0.22905 
-0.000181169 -1.48621e-05 -0.00296443 
0.000487114 3.99603e-05 -0.000952801 
-9.34277e-05 -7.66432e-06 0.00174213 
-0.000625844 0.00425585 0.0885971 
-0.0272348 0.00645669 0.180866 
-0.00845674 -0.000693801 0.08989 
-0.0213179 0.00456687 0.0924331 
-0.00873326 0.00420563 0.102615 
-0.00039327 -7.4514e-06 -0.000424142 
-0.000159257 0.000272311 0.0704523 
2.51876e-05 -0.000622006 0.000723071 
0.000101612 0.000186677 0.0635352 
0.00235964 0.00152978 0.259565 
0.000556752 0.00146471 0.198698 
-0.00193172 -0.000720094 0.231164 
-0.0196848 0.00356532 0.2667 
-0.00286389 -9.07984e-05 0.000810935 
0.0140338 0.0159559 0.0469434 
-0.00671293 -0.000701488 -0.00389699 
0.00752522 0.00550085 0.0511811 
-0.000232528 0.000343182 -0.000226071 
-0.000190221 0.000242125 0.00200039 
9.89643e-05 -0.000111006 -0.00188747 
-0.00179568 -0.00182279 0.0792407 
0.000443661 -0.00139213 0.140516 
-0.000653907 7.72405e-05 0.113969 
-0.000169215 0.000922303 0.0692106 
0.00144339 -0.00783534 0.0944738 
-0.00194114 -0.00123379 0.276606 
0.00338548 -0.00122284 0.286665 
0.00151766 0.000624234 0.311667 
-0.0106031 -0.0108326 0.302844 
-9.36877e-05 0.000389227 0.0708632 
0.000209689 0.000217612 -0.000274602 
0.000356404 -0.000365191 0.000315092 
-0.000110834 -6.23248e-05 0.060529 
-0.0707833 0.0190747 0.550447 
0.0498217 0.0454919 0.536366 
-0.00413281 0.0549274 0.678738 
-0.00547283 -0.0271154 0.521957 
-5.02461e-05 2.91187e-05 0.00185156 
-0.00122608 -0.000310284 0.000312601 
0.00024798 1.54916e-05 -0.00214066 
-0.00122702 0.0046361 0.099997 
-0.00063592 0.00130988 0.000312846 
-8.20565e-05 0.000414031 0.00381881 
-0.000638097 0.00120209 -0.00141754 
-0.00423168 -0.00482524 0.0809118 
-0.034101 -0.0260142 0 
-0.00937573 0.00874019 0 
-0.0104979 0.0236637 0 
-0.0346307 -0.112411 0.0533328 
0.000313326 -8.9747e-05 -0.00905806 
-0.00201414 -0.00013275 0.00385733 
0.00138935 0.000107727 -0.00142297 
0.003633 -0.0112907 0.048537 
-0.00133138 0.00146273 0.000315752 
-0.00252856 0.00209635 -0.010477 
0.0103098 -0.00327328 0.0161187 
0.0112225 -0.00672814 0.0197381 
0.000220848 0.00101835 0.0016381 
0.000182581 0.000821367 0.000875962 
0.000114425 0.000420663 -0.00164279 
0.003278 -0.0036095 0.101821 
8.34856e-05 0.000455812 -0.000226764 
0.000100206 -0.000618489 -0.000167637 
0.00156025 8.05733e-05 -0.000703904 
-0.00439992 -0.000747918 0.0034788 
-0.00203823 0.00201346 -0.00244033 
-0.00148818 0.00153198 0.00275941 
-0.00206122 0.00205942 -0.000762416 
0.00974688 0.000496383 0.00260406 
-0.00195325 -0.00533092 0.522974 
-0.00884324 0.0506535 0.211878 
-0.0189801 -0.0173811 0.54761 
-0.0782729 0.262288 0.212688 
-0.00170812 -0.00104148 -0.000456306 
-0.000556354 -0.00207718 -0.000919239 
4.9086e-05 0.000676907 -0.000388819 
0.00138469 0.00308717 0.0039045 
-0.0017618 -0.00199462 0.297336 
0.000154838 -0.00290397 0.251599 
0.00128199 0.00129513 0.273712 
0.0182492 0.000422755 0.297526 
0.00030518 0.000669137 0.114307 
-0.000264683 -0.00968166 0.0904328 
0.00149744 -0.000139068 0.143504 
-0.000339827 -0.015984 0.177014 
-0.0285796 0.0209482 0.32979 
-0.0123871 0.0300853 0.396344 
0.00670726 0.00717255 0.340103 
0.00018382 0.0374617 0.321278 
0.00145766 -0.000164928 0.0837369 
-0.00120161 -0.000421828 0.00102308 
-0.0006259 -0.000193456 6.79261e-05 
0.00577765 0.000783612 0.0840398 
0.00236728 0.0762939 0.350765 
-0.00922116 0.0403187 0.428776 
0.00178711 0.0326832 0.299509 
0.0372765 0.0551787 0.375286 
-0.00123206 -0.00330607 0.31793 
0.00130513 -0.00050817 0.309955 
-0.00334845 0.00118787 0.305695 
0.00230565 0.00603696 0.319249 
0.000834515 -0.000841527 -0.007129 
-0.000728021 0.000695542 -0.00152643 
0.000771548 -0.000738128 0.00141669 
-0.00883551 -0.00275282 0.0527535 
-0.000505598 -8.3788e-05 0.151516 
-0.00979494 0.000743664 0.0903748 
-0.0215854 0.00510087 0.179837 
-0.00940663 0.0027523 0.102389 
-0.00060765 0.00028196 0.000646779 
-0.000328342 0.000559244 0.00146075 
0.000517793 -0.000240033 0.0667943 
0.00465167 -0.00191224 0.102383 
0.00085239 -0.00074156 0.000999831 
-8.27408e-05 -0.000983124 0.00129017 
-0.00052821 0.000504714 0.0757766 
-0.00527237 0.00161914 0.1022 
0.00385378 0.00170535 0.00146164 
-0.0190223 -0.00643945 0.0413206 
0.00450428 0.00212881 -0.00427899 
-0.0133021 -0.00346115 0.0154613 
-0.0149324 0.00339633 0.537377 
-0.000478383 -0.00891221 0.604282 
-0.00857701 -0.00885751 0.719463 
0.08887 0.121945 0.61534 
-0.029788 -0.0366877 0.0634323 
-0.0407065 -0.103406 0.145763 
-0.00594808 -0.037655 0.0188974 
-0.0212253 -0.0534315 0.126916 
0.0017694 0.00304203 -0.00489243 
-0.00690839 -0.00602367 0.0120427 
0.000448553 0.00286736 -0.00103798 
-0.00706822 -0.00247082 0.0116389 
-0.00456149 -0.00474143 -0.000871452 
0.00423085 0.024785 0.0642506 
-0.00793298 -0.00884318 -0.0102274 
0.00103413 0.0166863 0.0581197 
0.00596162 -0.00153624 0 
0.00206387 -0.00233494 0 
0.00452568 -0.000721276 0 
-0.0135478 0.00710971 -0.00411773 
0.00223776 -0.000881253 -0.00177334 
-0.00112397 0.000506641 -0.00237726 
-0.00148203 0.000499831 0.00545318 
0.00102164 -0.00560711 0.00829074 
-0.0687459 0.0199676 0.548746 
-0.00310336 0.0552965 0.678275 
0.0499327 0.0446276 0.540689 
-0.053583 0.0978518 0.458937 
-0.0268552 -0.00638282 0.129888 
-0.00486372 -0.00173628 0.0887683 
-0.0242378 -0.00930014 0.179235 
-0.0215149 -0.00797162 0.0883578 
0.000238874 -0.00036053 0.248234 
-0.000398706 -0.000293045 0.183989 
0.000972297 0.000275334 0.195382 
0.0147897 -0.0209316 0.213189 
-0.000430541 -0.000328203 -0.000715805 
-0.000492021 0.00537489 0.0891228 
-0.000554074 -0.0013365 0.00262819 
0.00143242 0.00597231 0.0781175 
0.035432 0.0409215 0.529838 
0.10216 0.0223573 0.625171 
0.108364 0.0450047 0.390435 
0.0838212 0.101528 0.56537 
0.000133329 0.000130035 -0.0028558 
0.000426801 0.000411243 -0.000809098 
-0.000151782 -0.000146958 0.00146607 
-0.00283399 0.00376945 0.098918 
-0.00206674 -0.00156822 -0.000407433 
2.24314e-05 0.000115271 0.0029658 
-0.00167833 -0.00133902 -0.00230572 
0.00531258 -0.00134619 0.00844577 
0.0183499 -0.135236 0 
0.0127704 0.0770886 0 
-0.0147532 0.0663021 0 
0.0396205 0.22112 0.232787 
0.00200907 0.0019483 -0.000216614 
0.000582517 0.000566495 0.00293693 
0.000110056 0.000103379 -0.00630124 
-0.00651114 0.00386838 0.062609 
0.037748 0.0300319 0.560123 
0.095347 0.0320927 0.650584 
-0.000144014 0.00210847 0.769591 
0.0772991 0.089202 0.564003 
0.00531474 0.0919315 0.125755 
-0.0140128 0.0626585 0.204343 
0.0280391 0.0771736 0.195307 
-0.0201007 0.11754 0.281844 
-0.000436046 0.0011302 -0.00143214 
0.000204768 -5.05292e-05 -0.000365507 
0.000356572 0.000904239 -0.000597794 
-0.00138464 -0.00353796 0.00583929 
0.00106378 0.088943 0.348698 
0.0330927 0.0443435 0.511421 
-0.0189366 0.0265934 0.431211 
0.046312 0.0597967 0.374367 
0.000379272 0.00104049 -0.000564401 
0.00129105 0.00194597 -0.00172502 
0.000926743 0.00111209 -0.000842459 
-0.00293658 -0.00704554 0.00575417 
0.000728499 0.00167411 0.00220725 
-0.00014272 -0.000259838 -0.00185636 
0.000271016 0.000721935 -0.0012506 
0.00318159 -0.0067821 0.0092656 
5.89545e-05 -8.26394e-05 0.00170925 
-0.000308495 0.00043782 -0.00124197 
1.40584e-05 -2.17144e-05 -0.00246298 
0.00309696 0.00311363 0.0936567 
-6.29936e-05 -0.000183657 0.0711666 
-6.66934e-05 0.000165712 8.69218e-05 
9.49329e-05 -0.000302792 -0.000566203 
0.000159234 -3.05682e-05 0.0628662 
0.000547307 -0.00615945 -0.00591908 
0.0132938 -0.0468914 0.0439387 
0.0048401 0.00422739 -0.0147897 
-3.28619e-05 -0.00631559 0.0112964 
0.0932886 -0.0971288 0 
-0.0565289 0.0603896 0 
-0.074798 0.0528144 0 
-0.171736 0.107617 0.277305 
0.00568915 0.131839 0.505256 
-0.0149908 0.0552084 0.699477 
-0.0907993 0.0871062 0.58397 
-0.0405287 0.0940775 0.429752 
0.00061516 -0.00128182 -0.000722552 
-0.000272941 0.00066533 -0.00265393 
0.000255433 -0.000615808 0.00227298 
-0.00403887 -0.00193706 0.0898071 
-0.00605093 0.00471439 -0.0213471 
-0.0914003 -0.0526509 0.11195 
-0.0580187 -0.0284083 0.110027 
-0.0764873 -0.0256679 0.102329 
-8.57378e-05 0.000639794 0.000702499 
6.92646e-05 0.000690023 0.00062328 
-0.000135976 -0.000599835 0.0618682 
1.30162e-05 -0.00485783 0.0925232 
0.00301363 -0.00350894 -0.00499575 
0.00428728 -0.00227953 0.00159361 
-0.0119223 0.0116679 0.059574 
-0.0104475 0.0133195 0.0308392 
8.43841e-05 -0.000370523 -0.000101079 
-0.000312961 1.70792e-05 -5.90548e-05 
0.000632948 0.00034309 0.0822849 
-6.33994e-05 2.91404e-05 0.0637834 
-0.000566881 -0.000621155 0.00190648 
-0.000421169 -0.00045356 0.00115411 
-0.000650319 -0.000587786 -0.00193981 
-0.00127952 0.00411778 0.0999875 
-0.000430859 0.000295231 0.00143654 
-0.00238411 0.00163972 -0.00494685 
-0.00211412 0.00145154 0.000893888 
-0.000444297 -0.0074067 0.0692529 
0.0866806 -0.0511929 0.492209 
0.113668 0.0178623 0.61933 
0.152488 0.0273275 0.351218 
0.101456 0.0535137 0.401163 
-0.0400403 -0.0135944 0.259104 
-0.0845277 -0.0260631 0.278248 
-0.0608777 -0.0357806 0.394258 
-0.0614358 0.00701769 0.352931 
0.0459601 0.0489202 0.509491 
-0.00643584 0.0465341 0.70723 
0.0950903 0.0188903 0.638147 
0.0803645 0.0982316 0.572292 
0.00171969 0.000177753 0.0568455 
-0.00706378 -0.00266147 0.0933988 
-0.000714766 0.000100562 0.118239 
-0.00557898 -0.00199358 0.0762664 
0.00342889 -0.0391882 0.683851 
-0.00382754 0.0440372 0.692538 
0.0471966 0.0499007 0.526996 
-0.0048034 -0.0186471 0.512597 
0.000397062 0.000197512 0.00152688 
0.000209902 7.12732e-05 -0.000573645 
-0.000230885 -0.000110142 -0.00069171 
-0.000284529 -0.000168675 0.0600522 
0.00161102 -0.000711246 0.169625 
-0.0155848 -0.0231208 0.22826 
-0.00116916 -0.000418027 0.215912 
-0.0101723 -0.0123168 0.155043 
-7.46193e-05 6.52129e-05 -0.000443023 
0.00012927 -0.000329184 0.0782642 
0.00046621 -0.000315587 0.000236683 
-0.000602293 0.000371983 0.000678616 
-0.000187953 5.28458e-06 -0.000683739 
0.000822875 -5.26751e-05 0.000715708 
0.000657458 -3.25794e-05 0.00130492 
-0.00222525 0.00329391 0.0901314 
1.54795e-05 0.00015739 -0.000393747 
-3.81319e-05 -0.000494387 4.10304e-05 
7.1354e-05 0.00069926 -0.00204352 
0.00277041 -0.000570808 0.00717712 
-0.000357478 -0.000675231 0.000766534 
-0.000546653 -0.00121068 -0.00157482 
0.000446187 0.000588096 -0.0048846 
-0.00750155 0.00265427 0.0486727 
0.000601828 0.000626804 -0.00235019 
0.000120506 0.000123163 0.0032795 
0.00173058 0.00179888 -0.00113099 
-0.000148659 -0.00411417 0.00784112 
-7.53595e-05 1.99826e-05 -0.00164851 
-0.000258121 -7.50755e-05 0.00035212 
0.000958755 0.000230866 0.000697947 
0.000646499 -0.00228783 0.0838409 
0.00124756 -0.000693335 0.14315 
0.00475922 0.00931821 0.0998277 
-0.00061658 -0.000406086 0.0847692 
0.00536812 0.012843 0.169108 
0.000775398 0.000278885 0.0589761 
0.00169604 0.000159185 0.000905247 
-0.006498 -0.00249006 0.0918017 
-0.00484244 -0.0022452 0.0748433 
-0.000385332 -0.00168968 -0.00156113 
-0.00155738 -0.00284685 -0.00184197 
0.000854154 -0.000478494 -0.00133825 
0.00245836 0.00693077 0.00395488 
0.0216843 0.027594 0.14188 
0.00976171 0.00588559 0.0967523 
0.00436647 0.0111928 0.100926 
0.00647325 0.00896999 0.0588823 
-0.0171999 -0.0132211 0.129249 
-0.0243276 -0.00932678 0.179564 
-0.00535431 -0.00200968 0.0875129 
-0.0221821 -0.00816262 0.0909708 
0.00185428 -0.000725372 0.00245352 
0.00414336 -0.0083734 0.00849487 
-0.00393514 0.00531772 -0.00340712 
0.00302697 -0.00569231 0.00734939 
0.0104323 -0.0217374 0.398267 
0.0353545 -0.0668077 0.389457 
0.0019564 -0.0281212 0.521825 
-0.026242 -0.0807563 0.367657 
-0.000288821 -0.00132264 -0.000248444 
-0.000465021 -0.0021611 -0.00102679 
-0.000234529 -0.000998268 0.00130212 
-0.00372084 0.00295445 0.00139063 
-1.09542e-05 -2.06743e-05 -0.00202575 
-3.32126e-05 -1.61792e-05 0.0031906 
-0.00053627 -0.000508269 0.00194236 
-0.0029358 0.00548028 0.0649291 
-0.000516035 4.20978e-05 0.00339976 
-0.00153012 0.000124826 -0.00127199 
-0.000886832 7.23471e-05 -0.00165876 
0.00165082 0.00419279 0.0051681 
-0.000492646 -0.00654378 0.00596745 
0.00581797 0.00327589 -0.00831429 
-0.00331482 -0.0100249 0.0115532 
0.00602705 -0.00844279 0.00074473 
0.000537944 -0.00031002 -0.000748975 
-0.00113723 -0.000194397 -0.00158142 
-0.00257928 -0.00130621 -0.00181909 
0.00424147 0.00634985 0.00535767 
0.000621806 -0.000826895 -0.00341666 
0.000624916 -0.000865858 0.00179093 
0.00118568 -0.00162256 0.000356748 
-0.00653752 -0.000633772 0.048748 
-0.000411852 -1.55316e-05 0.0735051 
0.000243272 8.51191e-05 0.000256037 
-0.000177511 -2.93298e-05 -0.000387044 
-3.85139e-05 -0.000154959 0.0786154 
-0.0538106 0.0250834 0.551663 
-0.0148867 0.032544 0.40986 
0.0262636 0.0398657 0.533488 
-0.00195144 -0.0221044 0.520559 
-0.0200727 0.000220682 0.53937 
0.00509841 -0.00628449 0.756238 
0.00175432 -0.00887569 0.622665 
-0.0896852 -0.0350406 0.684041 
0.000494662 -0.00110235 0.00037457 
0.000172995 -0.000241413 0.00451721 
-0.000241852 0.000477478 -0.00205462 
0.00543738 0.00273067 0.00872294 
0.000402508 -0.00132572 0 
-0.00183796 0.000530619 0 
0.0016229 0.00232776 0 
-0.00402404 -0.00305638 0.00572634 
0.000150861 -0.00029996 0.0848422 
-2.9614e-05 4.71896e-05 0.000214319 
-8.46137e-05 -8.16695e-05 -0.000857352 
0.000453385 0.000311174 0.0644281 
0.000947026 -7.69753e-05 -0.000119901 
-0.000169279 1.37592e-05 -0.00335495 
0.000159391 -1.29555e-05 0.00130593 
-0.000112006 -0.00388468 0.0908006 
-0.00162148 -0.000136023 -0.000109962 
-0.00117034 -9.81775e-05 0.00355031 
0.0012461 0.000104533 -0.00188121 
0.000880982 -0.00374305 0.0063088 
-0.000737822 0.00177679 -0.00212927 
-0.000170333 0.000366698 0.00137701 
-0.000974205 0.00230005 -0.000835634 
0.00541032 -0.00293549 0.00554723 
-0.00136718 -0.000676692 0.276827 
0.00141101 0.000422657 0.313067 
-0.000446209 0.00151985 0.291897 
-0.0112055 -0.0112201 0.299714 
0.00292222 -0.00268137 0 
-0.00176357 0.000668916 0 
-0.000381088 0.000773157 0 
0.00354959 -0.00548399 0.0097429 
0.0249561 -0.0199659 0.078625 
0.0398553 -0.0425835 0.0639342 
0.0253271 -0.0341955 0.0593596 
0.000595789 -0.00366382 -0.00609304 
0.00025389 0.000627096 0.000686292 
-0.000266244 -0.000213434 0.0632766 
-7.05642e-06 -3.00218e-05 -0.000224085 
-0.000199964 -0.000460004 1.1323e-05 
0.000680965 -0.000258638 0.0029878 
0.000588677 -0.000279848 -0.001276 
0.00052796 -0.000274561 -0.00276147 
-0.00294177 -0.00317966 0.0835302 
-0.00273973 -0.000749216 0.127451 
-0.0079524 -0.000719144 0.0939797 
0.000562221 3.61939e-05 0.0711413 
-0.00442375 1.12427e-05 0.0736153 
0.000400431 0.000164446 0.00158581 
0.000981557 0.000483008 -0.00133403 
-0.000383476 -0.00014974 -0.00202464 
-0.000461875 -0.00395704 0.080848 
-0.00146271 -0.00345899 0 
-0.000295347 0.00163776 0 
-0.000382462 0.000359787 0 
-0.00230799 0.00282462 0.00490834 
0.0694161 0.0157614 0.273817 
-0.0113637 0.00645347 0.492094 
-0.0492719 -0.0407375 0.623881 
0.245474 -0.0965524 0.424658 
0.000290841 0.000885159 0.0836742 
-8.5869e-05 -0.000663792 0.000148421 
-0.000402835 -0.000438758 0.00157093 
0.00140667 0.004499 0.0793362 
-1.99925e-05 1.7309e-05 -0.00576728 
-0.00126597 -0.000583255 0.00119258 
-0.000161555 -6.57385e-05 -0.00174444 
-0.00411575 0.00653568 0.0491139 
0.000971797 0.00116307 0.141049 
-0.000504741 -0.000621154 0.0644857 
-0.00124551 0.00032162 0.0855403 
0.00478505 0.00785908 0.102064 
0.0122222 -0.0173112 0.399579 
-0.00055789 -0.0296068 0.513715 
-0.0605584 -0.0377944 0.393114 
-0.0246036 -0.0820145 0.375891 
0.000138064 -0.000265803 0.00126567 
4.45718e-05 -0.000141336 -0.000528731 
-0.000157939 0.000366243 -0.000398245 
-0.000121475 0.000270861 0.0633005 
7.83125e-05 -8.11455e-05 0.00125979 
0.000392439 -7.49869e-05 -0.00320295 
-1.63573e-05 2.47175e-05 -0.000486037 
-0.000697196 0.00475388 0.0666995 
-0.000430824 0.000150845 0.00172812 
-0.00118426 0.000249057 -0.0025279 
-0.00117602 0.000276589 -0.00122406 
0.000811205 -0.00402988 0.0110144 
0.0255404 0.0236785 0.314847 
0.0214859 -0.00923145 0.307971 
0.00609437 0.00938051 0.337016 
0.00713468 0.024778 0.284361 
-0.0528182 -0.0208107 0.102437 
-0.0291269 -0.00535248 0.0616917 
-0.0135032 6.55016e-05 0.00364181 
-0.0692752 -0.0150848 0.0789253 
0.00367772 -0.044495 0.243689 
0.0109066 -0.0879042 0.256821 
0.0276708 -0.0745186 0.399137 
-0.0157343 -0.0822323 0.367896 
0.00567543 -0.0390556 0.684668 
-0.0128448 0.0405269 0.705329 
-0.0716679 0.0288957 0.54086 
-0.093331 -0.0125358 0.650015 
-0.000198515 -0.000402372 0.00250418 
0.000448989 0.000953261 -0.00165503 
0.000246026 0.000451397 -0.00748998 
0.00801111 -0.0028847 0.0648127 
-0.0732322 0.0250988 0.543378 
-0.00371983 0.0411823 0.696928 
0.00295793 -0.038006 0.686805 
-0.00461893 -0.0182888 0.50983 
0.000154223 -0.000768265 0.00110109 
-2.53117e-05 -0.000308314 0.000378218 
0.000287362 0.000122664 0.0535024 
-0.000533106 0.00455053 0.0908093 
-0.00272315 -0.000236178 0.159148 
-0.000342796 0.00167882 0.223555 
0.000573602 -0.00256552 0.215788 
0.0287374 0.00418157 0.217492 
0.000377702 0.0819029 0.344134 
-0.0170676 0.0639929 0.19374 
-0.0448775 0.057054 0.29829 
-0.0162695 0.114976 0.28841 
-0.00617451 0.026727 0.723284 
0.00473351 0.0221503 0.534578 
-0.00358295 0.0129084 0.628983 
0.212292 -0.145921 0.439683 
0.000208547 0.000418776 0.0632994 
-0.000526657 -0.000289044 0.00162858 
-0.000144053 -0.000121924 -0.000840377 
0.000226702 0.000127022 -0.00062299 
0.000112158 1.45404e-05 0.0523991 
0.000233428 0.00021912 -0.000478528 
0.000128153 -0.000348148 0.0684084 
-0.000350256 0.000446325 0.000440831 
0.000819472 0.000667912 0.0775737 
0.000673802 0.00107031 0.00127573 
-0.00499429 -0.00508386 0.0875242 
-0.00342641 -0.00391801 0.07815 
0.000991869 -0.00321417 0.000325359 
0.00104765 -0.00413959 -0.00632086 
0.000541364 -0.00166855 0.000945039 
-0.0121264 0.00726116 0.0550791 
-0.00177205 -0.00181024 -0.00335588 
-0.000450514 -0.000421227 0.00202038 
-0.00184261 -0.00185434 -0.00142748 
-0.00109061 0.00731343 0.0113848 
0.00165285 0.000475652 0.0773428 
-0.00845394 0.000883027 0.0925845 
-0.00230295 -0.00056439 0.148663 
-0.00850494 0.00176213 0.104279 
1.66827e-05 8.84369e-06 0.0541907 
-9.56925e-05 0.000322853 -0.000331339 
9.06301e-05 -0.000305016 0.000175105 
-0.000112524 0.000294186 0.0767482 
-0.000432918 0.00438396 -0.00522128 
-0.000194326 0.00196785 0.00243269 
-7.8196e-05 0.000791855 0.00287043 
-0.00882235 -0.00816244 0.0519106 
-0.000528952 -0.00140979 0.168147 
0.000191182 0.001182 0.111839 
-0.00425538 -0.00743319 0.0849886 
-0.00761149 -0.0119895 0.155787 
9.08507e-05 6.7773e-05 -0.000620116 
0.00040337 0.000458789 0.00120128 
-0.00051625 -2.92763e-05 0.0635506 
-0.000151942 -0.000171542 -0.000420566 
-0.0412139 0.0598416 0.27997 
-0.0710986 0.109824 0.311473 
-0.0493003 0.0981189 0.443981 
-0.012294 0.117504 0.289163 
-0.0721867 0.118491 0.304474 
-0.115203 0.0867603 0.552982 
-0.149268 0.0672775 0.252018 
-0.0961945 0.0589438 0.35844 
-0.0383887 -5.37395e-05 0.0624976 
-0.0112806 0.000969453 0.00715515 
-0.0307988 -0.00539402 0.0639702 
-0.0639705 -0.0154789 0.0676423 
0.00203127 -0.000549498 0.274441 
-0.00111096 0.00273426 0.272507 
-0.00203851 0.000825253 0.308294 
0.016477 0.00126391 0.297397 
0.000264676 -3.7349e-05 -0.000365009 
0.000143177 -0.00062096 0.000664349 
0.000147069 0.00014765 0.0743072 
6.63418e-05 0.000121863 0.0631884 
0.000158394 0.000193308 -0.000872892 
0.000331308 0.000278106 0.00114989 
-0.000207689 -0.000201912 -7.08325e-05 
-0.000290262 -0.000456209 0.0769912 
0.000738277 8.988e-05 -0.00689122 
-0.000803604 -7.51763e-05 0.00195684 
-0.000306765 -1.34861e-05 -0.00297527 
-0.00182848 0.010024 0.0566694 
0.00740254 -0.0430355 -0.0817734 
-0.0747805 0.0346312 0.0454806 
-0.104117 0.117093 0.25384 
-0.0543613 0.0501907 0.0773416 
0.000147506 -0.000335339 0.00104346 
-0.00048385 0.00103102 -0.000752413 
0.000208458 -0.000482115 0.00179256 
0.00189557 0.00211613 0.0585831 
-0.00233116 -0.00111372 -0.00592998 
0.00356954 -0.00320249 0.010605 
-0.00171484 0.000325682 -0.00154396 
0.00277882 -0.00153372 0.00720198 
0.0016618 -0.00984812 0 
-0.000864038 0.00206213 0 
0.00140656 -0.00609849 0 
-0.0243032 0.0263894 0.0129986 
-0.000454002 -0.000388413 0.231276 
0.000681437 0.00211642 0.200064 
0.00231772 -0.000523909 0.148738 
-0.0257634 0.00467898 0.184889 
-0.00109947 -0.000218582 0.077556 
0.000852253 7.2103e-06 0.00075032 
0.000769436 1.69272e-05 0.000663474 
-0.00502269 0.000625388 0.091406 
0.00103181 0.00138322 0.139724 
2.40212e-05 -0.000585859 0.0744252 
-0.000231035 4.88728e-05 0.0656725 
0.0044541 0.00700421 0.101597 
0.00525078 0.0240678 0.5291 
0.00342613 0.00322645 0.60445 
-0.00231119 0.00629824 0.75823 
0.111266 0.0217728 0.692602 
-0.00152369 0.00281134 0 
0.0018022 0.0306759 0 
-0.0251415 -0.0296511 0 
-0.0604229 -0.0548967 0.041477 
0.00392101 0.0772984 0.341203 
-0.037214 0.089864 0.449369 
0.00306896 0.136197 0.460918 
-0.0229279 0.115837 0.287335 
0.000248078 -0.000177509 -0.000363604 
-8.20894e-05 3.66326e-05 -0.000550047 
-0.000522037 0.000388675 0.00122421 
0.000300701 -0.000143435 0.0661048 
-0.000242006 -0.0007716 0.000192377 
-0.000138138 -0.000458351 -5.05651e-05 
-0.00049386 -0.00134832 0.00241772 
-0.00464439 0.00211832 0.0508317 
0.000949165 -0.00139213 -0.00034038 
-0.00069475 0.00116272 -0.00188832 
0.000383319 -0.000693113 0.00180916 
-0.00314393 0.000986771 0.00563299 
6.09974e-05 -0.000252209 0.000124612 
0.000207537 0.000420711 0.083641 
0.000124302 -0.000138627 -0.000146838 
8.77778e-05 0.000116079 0.0667153 
-0.000210593 -0.000290677 -0.000653252 
0.000531156 0.00069815 4.37659e-05 
0.000552186 0.000747623 0.00104599 
-0.00208588 -0.000141678 0.0734374 
0.0013468 0.000573857 0.134124 
7.11005e-05 -0.000535273 0.0802261 
-0.00168924 0.00105347 0.154707 
-0.00778265 0.00671089 0.103812 
0.00766036 -0.00999395 0.799971 
-0.000379051 0.000832311 0.787289 
0.0113734 0.00950684 0.748664 
-0.00316557 0.0430569 0.744704 
-0.00779514 -0.00381708 0 
-0.0108578 0.00197474 0 
-0.0249923 -2.15468e-05 0 
0.112462 0.00791937 0.0160599 
-0.00228596 0.00427837 -0.00246831 
-0.000810871 -0.00849753 0.00270689 
0.00350472 0.00157543 0.00173688 
0.000899804 -0.00922278 0.00362264 
0.000202505 0.000210718 0.000303302 
-0.000124047 -0.000308561 -0.000544525 
-0.000311166 -0.000305358 4.06867e-06 
-0.000552042 -0.000552224 -0.000260331 
0.0010478 -0.0734087 0.11394 
-0.00426203 -0.01581 0.0693406 
-0.0101806 -0.057662 0.123013 
-0.000979188 -0.0457836 0.166364 
0.0213468 -0.0227397 0.815699 
0.00913644 -0.0249398 0.698119 
-0.0026047 0.00825698 0.80851 
-0.0112729 0.0450012 0.710481 
0.00119303 0.0010729 0.227339 
-0.00199846 0.000634852 0.225311 
-0.001913 -0.00141025 0.278879 
0.00787813 0.0184227 0.274702 
0.0717076 0.0401693 0.0836754 
0.0180006 0.0175279 0.0228449 
-0.00615139 0.00227024 -0.0142769 
0.0221251 0.0124698 0.0194227 
-1.44409e-06 2.09989e-05 -0.000681516 
-1.62484e-05 0.000236273 0.000736498 
9.50785e-06 -0.000138256 0.00039292 
-0.00022206 -0.000126073 0.0724607 
-0.000762221 0.000700067 0.0021933 
-0.000613124 0.000582582 0.00112475 
-0.000462609 0.000529909 -0.0021212 
0.00435887 0.00140062 0.0942319 
0.010462 0.0764035 0.349532 
-0.0463323 0.0644758 0.288283 
-0.0457314 0.0936974 0.437854 
-0.0178836 0.11057 0.294906 
0.000125293 -0.000144422 -0.000546013 
0.000509872 -0.00045387 0.00119251 
-3.59972e-05 0.00045589 0.0628683 
-0.000284696 0.000260465 -0.000486282 
-0.00253776 -0.000632617 -0.000567742 
-0.00200885 -0.000452969 -0.00429912 
0.000105568 -4.04301e-05 0.00539923 
0.00172974 0.00721615 0.00642823 
0.000173687 -0.000150198 0.000668778 
0.000176775 -0.000150152 0.000748709 
-0.00107276 -0.00114709 -0.00145346 
-0.000930567 0.000961454 0.000342645 
0.00650882 -0.0234577 0.127116 
-0.000187035 -0.00499275 0.0894453 
-0.000455327 -0.0209773 0.0730765 
-0.0019937 -0.044794 0.164328 
0.0134562 0.0385758 0.235319 
-0.000857042 0.0185098 0.186192 
0.00127961 0.0289706 0.135998 
0.00683998 0.016778 0.172726 
0.00129806 0.00161104 0.0755361 
7.17925e-05 -0.000926901 0.113733 
-0.000417878 0.000554252 0.136852 
-0.00804753 -0.0100405 0.15391 
-0.0107754 -0.00215238 0.764379 
-0.00097003 0.0138851 0.793371 
0.0112555 -0.000579279 0.795404 
0.0134237 -0.0507954 0.739606 
4.69064e-05 -0.000395139 0.00132285 
2.42555e-05 -0.000603905 -0.00163585 
-5.48382e-05 0.000502853 -0.0013091 
-0.00184884 -0.000637417 0.00608757 
-0.00101332 -0.00110991 0.178432 
0.000510359 0.00122116 0.134186 
0.0173817 -0.00475097 0.188895 
0.0109407 -0.00309221 0.101809 
-0.000557554 0.00147079 0.000448863 
0.000962936 9.22634e-05 0.0685865 
-0.000968213 -0.000182805 0.0731892 
0.0018787 -0.00545257 0.0861209 
-0.000103465 0.000197279 -0.000473976 
0.000577525 4.49513e-05 0.000561796 
-3.05118e-05 0.000266867 0.0805314 
-0.000125151 0.000154125 0.0640148 
-6.84082e-05 0.00013469 0.0641425 
0.000150168 -1.40478e-05 -0.000211301 
-0.000330586 0.000238195 0.0759557 
3.40687e-05 0.000244294 -0.0002654 
-0.000447737 -0.00019247 0.126292 
0.000307015 -0.000134873 0.0708548 
0.000604057 -0.000548013 0.119973 
-0.00634468 -0.000114529 0.0758853 
-0.000412326 -0.0009278 -0.000702723 
-1.4838e-05 3.86161e-05 -0.000869982 
9.30133e-05 0.000151122 0.000840959 
0.000625928 -0.00048801 -0.00052001 
0.00020823 0.000646434 0.29725 
-0.000981362 -0.00030785 0.282113 
0.000595107 -0.00127936 0.250136 
0.00915157 -0.0150797 0.287224 
0.000721153 0.00277892 0.00104207 
-1.26014e-06 -5.5757e-05 -0.00298309 
0.000411281 0.00165778 0.00486626 
0.00449629 -0.00832034 0.0675225 
0.00632128 -0.0235883 0.127238 
-0.000984344 -0.0226106 0.181469 
0.000762581 -0.00233155 0.0870453 
-0.00277226 -0.0462767 0.165672 
-0.000402093 -0.000720864 0.000859772 
-0.000304641 -0.000872791 0.000772429 
-0.000238667 0.000661416 0.0757483 
-0.000810776 0.00482845 0.0903209 
-0.000259885 -1.69343e-05 -0.000134981 
0.000308794 -3.7119e-05 0.0613018 
-0.000341134 0.000343201 -3.2756e-05 
4.04476e-05 -0.000583405 0.0958372 
0.000424417 0.000209172 0.0669528 
0.000433766 0.000189286 0.112153 
-0.000900264 1.95563e-05 0.052177 
0.00623571 -0.00397986 0.104934 
-0.0711755 0.0276062 0.532048 
-0.010531 0.042404 0.707081 
-0.088275 0.0761822 0.580505 
-0.0947217 -0.0134829 0.649946 
-0.00168131 0.00660083 -0.00334306 
0.00232733 -0.00942958 0.00801119 
-0.000564081 0.00412465 -0.00375572 
0.00201185 -0.00638069 0.00518091 
0.000680232 -0.00170181 -0.000770488 
-0.000448076 -0.000871844 -0.00117312 
0.000688188 0.000522699 0.000986858 
-0.000408803 0.00162865 0.00151346 
-0.000577994 -2.23051e-05 0.117825 
0.000489161 7.01428e-05 0.0572386 
0.000132525 -0.000638128 0.0676408 
-0.00588517 -0.00226649 0.0938251 
-7.01592e-05 5.02025e-05 -0.00058771 
-0.000595176 0.00018847 -0.00086671 
0.000382626 -0.000189283 0.000830448 
-0.00106687 0.00044737 -5.60607e-05 
-0.000872741 -0.000462878 -0.00101687 
-0.00114287 -0.000562164 4.39708e-05 
-0.00165106 -0.000680121 0.0041921 
0.00524131 -0.00279285 0.0498486 
-0.00106463 -7.15255e-05 0.00111856 
-0.000190978 -2.67706e-05 -0.00138817 
-0.000783154 -5.1337e-05 0.000968459 
0.000978731 0.00328991 0.0896275 
-0.00159254 0.000331532 -0.00176057 
0.000485185 -0.000118083 -0.00100177 
0.000835945 -0.000153497 0.002773 
-0.000674054 0.00267801 0.00181909 
9.72392e-05 -0.000181721 -0.000600757 
-0.000435736 0.000226753 0.0685715 
0.000263788 -0.000700696 0.000807202 
-0.00023754 0.000564692 5.06823e-05 
0.000139709 -0.000915821 0.0594923 
-0.000144781 0.000102425 0.0715913 
0.000615033 6.8822e-05 0.000638245 
-0.00412013 -0.000651141 0.0746778 
-0.00163829 8.69125e-05 0.126697 
0.000590216 0.00105491 0.0777582 
0.000157031 -0.000644842 0.0720857 
-0.00780678 -0.000778038 0.0941826 
-0.000783595 0.000439574 0.0622794 
0.000874663 -0.000673728 0.130575 
0.000334686 -0.000313078 0.0676538 
0.00708547 -0.00136364 0.104675 
0.012767 0.00938145 0.746323 
-0.000413268 0.000881363 0.787732 
0.00707435 0.00818493 0.708447 
-0.00943105 0.0433368 0.752848 
-0.0437941 0.0628201 0.265845 
-0.0478314 0.0962273 0.455635 
-0.0699763 0.108942 0.310004 
-0.0900819 0.0525216 0.363552 
0.00038372 -0.000242984 0.057127 
-0.000581992 0.000218001 0.118068 
-0.000242083 0.000542856 0.0724683 
-0.00429116 -0.00180136 0.0763989 
0.00457715 0.0035981 0.721927 
-0.00148189 -0.00098635 0.787122 
-0.0122182 0.0120162 0.702652 
-0.00606813 0.0494022 0.742176 
0.00016515 0.000314469 0.0744967 
-0.000475601 -0.000123835 0.000349018 
-0.000167746 0.000136512 -0.000308295 
7.69284e-05 1.59017e-05 0.0665714 
-0.00194814 -0.00191042 -0.00115519 
-0.00108294 -0.00106675 -0.00123364 
-0.000763005 -0.000700084 0.0055036 
0.000930371 0.00911953 0.0220426 
0.000538713 -0.00148445 0.000556771 
-0.000836538 0.00163935 -0.000738717 
-0.00213745 0.000226937 0.000367087 
0.000642934 5.44165e-05 0.000184173 
-0.00369398 -0.0209819 0.0158821 
-0.0573461 -0.0162588 0.0967263 
-0.00415347 -0.00704237 0.0129489 
-0.0810267 -0.00470397 0.065658 
-0.000453363 -0.0193454 0.072398 
-9.23871e-05 -0.00700177 0.0914798 
-0.00833686 -0.0203441 0.127157 
-0.00206244 -0.0439251 0.163104 
-0.00897566 0.00363274 0.719911 
0.0159495 0.00875828 0.799529 
0.0107411 -0.00514344 0.761757 
-0.10072 -0.0186737 0.683572 
-0.00700651 -0.0190434 0.126609 
-0.0123393 -0.0503459 0.122605 
-6.99737e-05 -0.0219259 0.0715167 
-0.00415162 -0.0469337 0.163729 
0.000281625 -0.000448335 0.000335473 
0.000810076 -0.0011035 -0.00195371 
0.00180777 -0.00183137 -0.00139013 
-0.00181692 0.00239614 0.00275076 
-2.19935e-05 -0.000262176 0.00203651 
-6.65774e-05 -0.000793644 -0.00111048 
-1.97743e-05 -0.000235722 -0.00277341 
-0.00457708 0.000213311 0.0890241 
0.00113896 0.00201851 0.0762303 
-0.000657637 -0.000409008 0.136547 
-0.00434534 -0.00394851 0.0771248 
-0.00777925 -0.010226 0.153169 
0.00246772 -0.00102001 0.00171433 
-0.000934251 -0.000216675 -0.001589 
-0.00460735 0.000483043 -0.00251875 
0.00757447 -0.00676651 0.00720843 
0.000821162 -0.0035597 0.0882731 
-0.000990261 -0.0213357 0.180767 
-0.00828905 -0.0219071 0.128551 
-0.00281459 -0.0460696 0.165127 
0.000347619 -0.000384158 -0.00469895 
0.000738422 -0.000758956 0.00108296 
-0.00035554 0.000374846 0.00130426 
0.00139354 0.00519433 0.0586345 
-0.00307216 0.0018763 -0.00230505 
-0.00155867 0.00281009 -0.00341788 
0.000257556 -0.00222191 0.00183111 
0.00776307 -0.00458552 0.0071745 
0.0466858 0.0582451 0.212641 
0.104058 0.0295122 0.248784 
0.0029894 0.00552621 0.544345 
0.110234 0.066508 -0.150657 
0.000453469 -0.00127527 0.265116 
0.00140387 -0.00042467 0.201907 
-0.00042625 0.00135491 0.228576 
0.0100638 0.0163766 0.273427 
-0.00138563 -0.00197036 5.13753e-05 
-0.000115553 -0.000162275 0.0029238 
-0.000533951 -0.000761904 -0.00373195 
0.00391295 -0.00191201 0.0137341 
-0.000297351 0.000216476 0.000504104 
-0.000816514 0.000595071 2.49015e-06 
-0.001066 0.000779541 -0.00572978 
0.0031505 0.00478079 0.0521879 
-0.000547847 0.00010932 -0.000258626 
0.00035339 -0.000691942 0.000306552 
0.000855935 0.000414283 -0.000443169 
-0.00159867 -0.00250203 0.00181183 
-0.00449359 0.00345252 -0.00531244 
-0.00240725 0.00229282 -0.00398227 
0.00339053 -0.00671215 0.00915581 
0.00353948 -0.00833558 0.00653709 
-0.00396091 -0.00187988 0 
-0.00233105 -0.00187426 0 
-0.00221213 -0.00435478 0 
0.00445829 0.00798151 -0.00449092 
-0.000116185 -3.55181e-05 -0.00208159 
0.000541479 -6.61614e-05 0.00290564 
-0.000617152 0.000221279 0.000966729 
0.000810139 0.00423303 0.063031 
-0.00039556 0.00090253 0.000581981 
0.000386532 -0.000802211 -0.00175377 
0.000239112 -0.000503475 -0.000977573 
-0.00191013 -0.000752639 0.00738305 
0.000102641 -0.000216654 0.000322707 
0.000120979 -0.000248333 0.00049479 
-0.000209548 0.000463742 -0.000309952 
-0.000406564 -0.000151518 -0.000640277 
-0.000128542 0.000456689 -0.000590491 
0.00201755 0.00166912 -0.00167518 
-0.000248919 -9.28207e-05 0.000202436 
-0.0050981 -0.00198205 0.00390855 
0.00104065 0.000740185 -0.000934159 
-0.000138446 -5.28816e-05 -0.000886439 
-0.000420823 -0.000292842 0.000234176 
-0.000596261 -0.00117673 0.00488427 
-4.11317e-06 4.23464e-05 -0.00108189 
-5.61651e-05 6.53026e-06 -0.00049759 
-0.000416063 -0.000431079 0.00021833 
-0.000249867 -0.000299385 0.00107309 
0.0901622 -0.0288653 0.216903 
0.14462 -0.0617704 0.421015 
0.0285752 -0.0587143 0.587953 
0.191632 0.0225718 -0.0220795 
0.000291332 -0.000110877 -0.000564288 
-0.000526342 0.000194551 0.00123693 
-1.40841e-05 1.6154e-05 -0.00037966 
0.000267986 -0.000281821 0.0629061 
0.000682825 0.000504161 0.0657912 
-0.000330584 -0.000621792 0.117505 
-0.000418498 0.000487344 0.120001 
-0.00669486 -0.0041437 0.0935623 
-4.58614e-05 0.000376676 -0.00194702 
3.58654e-05 -0.000451461 0.000156495 
2.03679e-05 -9.48829e-05 0.0014952 
0.0029568 0.00136851 0.0834645 
0.025104 0.0282018 0.314957 
0.00797065 0.0340014 0.318683 
0.0135104 0.0388329 0.240877 
0.010711 0.0161372 0.275192 
-4.27232e-05 0.000381082 0.0760243 
0.000238125 -0.000505766 0.0782213 
-0.00100474 0.000346479 0.147845 
-0.00741729 0.00128937 0.10509 
-0.0102652 -0.0207783 -0.0266058 
0.093143 0.0350963 0.089977 
-0.00778573 0.00355729 -0.0167215 
0.0107578 0.0174428 0.0111004 
0.000303794 0.000369768 0.167799 
0.00119398 0.00104479 0.220709 
-0.0015179 -0.000312781 0.235095 
-0.00129183 -0.0197737 0.182118 
-0.000564259 -0.000838557 -0.0012388 
-0.00110146 -0.0010218 -0.000151138 
0.000505642 -0.000233991 -0.000953099 
-0.000962652 0.00120877 0.00241569 
7.18008e-05 -7.57656e-05 0.00185689 
2.02222e-05 -1.96381e-05 -0.0021988 
0.000417389 -0.000432992 -0.00111964 
0.00286338 0.00297861 0.0925602 
0.00047852 -0.000389259 0.0618578 
-0.000634574 -0.00080754 0.0816475 
-0.000368763 0.000464132 0.133021 
-0.00577824 0.00699464 0.103817 
-0.000167017 1.14857e-05 -0.000115332 
7.85234e-05 -5.40003e-06 -9.52563e-05 
8.25718e-05 -5.67843e-06 -0.000707593 
1.79788e-07 -0.00099249 -8.9943e-06 
2.72131e-05 0.000371695 -0.000304863 
-2.00055e-05 -0.000273248 0.00014667 
1.76291e-05 0.00024079 0.000857936 
0.000423284 0.000956278 -0.000428435 
0.00105545 -0.000187022 0.108641 
-0.000314672 -0.000454456 0.0743473 
-0.000148554 0.00192636 0.15151 
-0.000943145 0.0065468 0.0910983 
-2.47503e-05 0.000349574 -0.000305639 
-1.70482e-05 0.00024079 0.000273769 
1.93464e-05 -0.000273248 4.53397e-05 
0.000535142 0.000956278 0.00020947 
0.000637507 -0.000330747 0.0679958 
-0.000494615 0.000377759 0.000851322 
8.27696e-05 0.00039268 -0.000682159 
0.00169411 -0.00390507 0.0853473 
1.60046e-05 0.000232727 -0.000132228 
-2.73059e-06 -3.97064e-05 0.00010864 
3.69809e-06 5.37751e-05 -0.00017063 
8.48135e-06 0.000494375 2.0361e-05 
-0.00045805 1.94348e-05 0.00461441 
-0.000668683 6.57618e-05 -0.00241308 
-0.00307327 0.00025387 0.000746115 
0.00366879 -0.0054347 0.0679277 
-0.0014385 -0.000320515 0.149462 
0.00150639 0.000357021 0.0765004 
-0.000736242 -0.000990343 0.129304 
-0.00922401 0.000700755 0.0921928 
7.85234e-05 5.55957e-06 0.000101984 
8.25718e-05 5.8462e-06 -0.000857051 
1.79788e-07 -0.000927745 -0.000193211 
4.79738e-05 3.39661e-06 -0.000302718 
0.000457269 -3.34783e-05 -0.00262844 
-4.98189e-05 3.64742e-06 0.000174517 
-0.0014627 0.00269338 0.000823127 
0.000132395 -9.6931e-06 -0.000605466 
0.107044 0.00540069 0.222587 
0.105581 -0.0319043 0.229715 
0.0154182 -0.0140073 0.615651 
0.106835 -0.0153178 -0.142626 
0.0491245 0.0229134 0.0860617 
0.00269515 0.0254255 0.0218712 
0.0704961 0.0527534 0.0837456 
0.0344033 0.0030718 0.0201661 
-1.50166e-05 0.000214025 -0.000414959 
-3.773e-06 5.37751e-05 0.000347271 
2.7859e-06 -3.97064e-05 0.000255806 
0.000143467 0.000494375 -0.000448378 
-0.000328175 -2.30256e-05 -5.59941e-05 
0.000457269 3.20832e-05 -0.000587845 
-4.98189e-05 -3.49542e-06 4.60722e-05 
-0.0014627 0.00148338 -0.00120047 
-0.000580067 0.000405242 0.00218108 
2.64646e-05 3.46708e-05 -0.00776346 
0.000705424 -0.000515408 0.000604483 
0.00749589 0.00746303 0.043274 
0.0615862 -0.0323113 0.101673 
0.0479206 -0.0372005 0.0753741 
0.0221081 -0.0220434 0.0760785 
0.0125164 -0.00134647 -0.00268722 
-0.000162523 -0.000677511 0.0945561 
-0.000164873 0.000245233 -7.16348e-05 
-4.17917e-05 0.00015792 1.19571e-05 
-4.3981e-05 1.00884e-05 0.0636045 
-0.0250575 0.0245677 0 
-0.0241496 -0.0201744 0 
0.0345059 0.0203262 0 
0.122886 0.00963347 0.0525186 
0.000120487 0.000334354 0.000623957 
8.87413e-05 0.000235404 0.000276296 
0.00045107 1.21859e-05 -0.000284383 
-0.000137794 -0.000385947 -0.00077377 
0.0578709 0.0406019 0.24248 
0.0979806 0.0486733 0.397021 
0.0894741 0.0895982 0.327474 
0.0360623 0.0486369 0.371376 
-0.000238089 0.000276646 -0.00115072 
0.000669787 0.000806456 -0.000555875 
-0.00173166 0.000883294 -0.00162225 
-2.46138e-05 -0.00352123 0.00402112 
0.000756089 0.00788776 0.340022 
0.00714375 0.032613 0.315087 
0.0267384 0.0290839 0.31826 
0.00929012 0.0175997 0.276873 
0.0215942 -0.00803765 0.577175 
0.00115292 -0.00583159 0.535971 
0.0223884 -0.00269265 0.702293 
-0.130206 0.101285 0.648234 
0.000163833 -5.9187e-06 -0.000646146 
-0.000418355 2.22702e-05 0.000918465 
-0.000466644 2.56056e-05 0.000946306 
0.00130529 -0.00281425 0.0917017 
-0.000228014 0.000802129 -0.000558893 
-0.0018279 0.000991085 -0.00102099 
-0.000837989 -0.000466625 -0.000892712 
0.00203185 -0.00294692 0.00332538 
0.000420188 0.000421262 0.000776378 
-0.00036158 -0.000484 0.0728027 
-0.000162377 0.000524405 -0.000257084 
0.000698473 -0.00388376 0.0852168 
0.000761467 -0.000246992 0.000208526 
-0.000178423 -0.00021861 0.0584416 
0.000165153 -3.33918e-05 0.00103722 
-0.00325279 -0.00101462 0.0748795 
0.000663787 -0.000368322 0 
0.000244863 -0.000247978 0 
-0.000569698 0.00225935 0 
8.10947e-05 -0.00434569 0.00496111 
-0.0709708 0.124393 0.303095 
-0.0379108 0.092627 0.457311 
-0.108647 0.0896927 0.539465 
-0.0991985 0.0524072 0.36354 
0.000509858 0.000789528 0.000243036 
-0.00231063 -0.000997336 -0.00123128 
0.000620992 0.000550785 0.000745407 
0.000765185 0.00337895 0.00194149 
0.000470432 -3.94305e-05 5.59937e-06 
-0.00123319 -0.00143796 -0.00131999 
0.000861064 0.00062086 0.000595752 
0.000393323 0.00309146 0.000339266 
0.00019445 -0.000333595 0.16087 
-0.00136848 -0.00108469 0.222603 
0.0013518 0.000350173 0.22906 
0.00196811 0.0177727 0.186105 
-2.40239e-05 -0.00175428 0.107533 
-0.000918456 7.73801e-05 0.15317 
0.001064 6.61472e-05 0.16252 
8.23332e-05 0.0156656 0.181017 
-7.8778e-05 9.11276e-05 -0.000315913 
0.000224622 -0.000164492 -0.00134678 
-0.000180671 0.000157799 0.000482305 
-0.00106539 -0.000850933 -0.000120825 
-2.80414e-05 -0.0001065 0.070578 
0.00023956 1.64745e-05 -0.000294394 
-0.000146319 -1.00623e-05 0.000580103 
-0.000390313 -2.68417e-05 -2.85961e-05 
-0.000224307 0.000754115 -0.00127851 
0.000155346 -0.000715719 -0.00131567 
7.89781e-06 0.000101395 0.00150082 
0.00329122 0.00116151 0.0817873 
-0.00417641 0.00325275 -0.0101842 
-0.000618474 0.00349029 -0.000552299 
0.00481459 -0.016749 0.0539003 
0.00799159 -0.0107661 0.0503177 
-0.000378884 -0.000632974 0.000773022 
-0.000293035 -0.000503748 0.000173166 
5.95488e-05 0.00010494 4.17568e-05 
-0.000690751 0.0016001 0.0738039 
-5.7606e-05 -0.000813896 0.178167 
-0.000408331 0.00252278 0.212823 
0.000217078 -0.000729279 0.248062 
0.0187618 -0.00622817 0.192355 
-0.0659367 0.0163427 0.543444 
-0.0924594 0.0830308 0.574028 
-0.0171452 0.0542417 0.695606 
-0.0405346 0.100787 0.443768 
-0.00813312 0.00550341 0 
-0.002187 0.00769728 0 
-0.0129214 0.00977709 0 
0.0489849 -0.0509727 0.00758797 
-0.000120111 0.000115814 -0.00839556 
-3.118e-05 0.00079283 0.00313298 
0.000142503 -0.00178439 -0.00151002 
-0.00940572 -0.00290366 0.0487582 
0.000320093 -0.000372735 0.0846844 
8.92426e-06 -0.000121894 3.83266e-05 
-2.60455e-06 3.55747e-05 0.000352999 
6.27889e-06 -8.57613e-05 -0.000460946 
0.000825426 -0.000844155 0.140408 
-0.000137837 0.000220529 0.0750256 
0.000423326 0.000889193 0.113996 
0.00650884 -0.00498206 0.109841 
0.026443 0.0516097 0 
-0.0211994 0.0235481 0 
0.00873046 -0.0915962 0 
-0.0620053 0.109225 0.0739321 
-0.000444972 0.00173065 -0.00145631 
-0.000223618 0.000679645 0.00365114 
0.000106635 -0.000119149 -0.00646685 
-0.00904619 -0.00253446 0.0467026 
-0.00152288 -0.000573648 0.194675 
0.000657553 0.000341022 0.221907 
-0.000317635 -0.00134199 0.151619 
-0.00150854 0.0179755 0.185406 
-1.79155e-05 -0.000255343 -0.000193281 
2.54009e-06 3.62029e-05 -8.63128e-05 
-2.46529e-07 -3.51368e-06 0.000447641 
-0.000129719 -0.000188155 0.078522 
-0.00066385 -0.000424412 0.000230705 
0.000422666 -0.000832686 -2.43526e-05 
0.0013366 0.0012666 -0.000444052 
-0.00274723 -0.00306507 0.00346736 
7.23858e-05 -0.000401303 -0.000459122 
0.000120142 0.000923745 -0.000235678 
0.000851001 0.00156573 -0.00128458 
-0.0023266 -0.00232145 0.00530621 
0.000401746 -0.00025994 0.0027242 
0.000437726 -0.000294612 0.000793359 
0.000170935 -0.000120895 -0.000806393 
-0.00409321 -0.00171604 0.0732294 
-4.89969e-06 -4.21652e-07 -0.00315531 
0.00215442 0.000185403 0.000176139 
0.00199124 0.00017136 0.00246861 
-0.00311498 0.00487218 0.0580718 
0.000112911 0.000555709 -0.00695189 
-0.000574597 -0.00211966 -0.00175307 
-9.91731e-05 -0.000427921 0.00295152 
0.00708001 -0.00243741 0.0639933 
0.0127525 -0.0230223 0 
0.0123234 0.0222077 0 
-0.0159725 -0.00233602 0 
0.0455127 -0.0533873 0.0209149 
-0.000209404 -9.2019e-05 0.000665353 
-2.25557e-05 -4.02131e-05 0.00303232 
-0.000275265 -9.40385e-05 -0.00175588 
0.00270084 -0.00306061 0.00335339 
-0.00100733 -9.96564e-05 -0.00114552 
-0.000387574 0.000680956 -0.00101991 
-0.000909475 5.39792e-05 -0.00137729 
0.00350046 -0.00567221 0.00861979 
0.00209599 0.01355 0 
-0.0101023 0.0191019 0 
-0.00796177 0.0010088 0 
0.0457088 -0.0808885 0.00853106 
0.000350223 -0.000151486 -0.000399806 
0.000669965 0.000779312 -0.000302449 
-0.000219007 9.86906e-05 0.00041505 
0.000431389 -0.00019386 -0.000795223 
0.000712798 0.000233368 0.0705659 
-0.000110916 -0.000663704 0.112862 
-0.000255357 0.000216013 0.0619598 
5.26375e-05 -0.00643393 0.0942672 
0.000830652 0.00047555 -0.00011234 
0.000175402 4.98708e-05 -0.00265333 
0.000409565 0.00023246 -0.000160303 
0.00105549 -0.0026379 0.00455654 
0.00067788 -0.000299093 0.00227206 
-0.000281987 0.000112727 0.000197136 
0.000297895 -7.76993e-05 -0.00425205 
0.00019148 0.00489947 0.0762065 
0.000463288 -0.0010836 0.160946 
0.00379082 0.0187442 0.189186 
-0.000534713 -0.000306191 0.226019 
0.00562001 0.0152488 0.172005 
-0.000351216 -0.000628709 -0.000102403 
0.000129623 -5.79162e-05 0.000163381 
-0.000953919 -0.000613114 -0.000409921 
-0.000489817 0.000321255 0.000761783 
0.000245538 0.000178174 0.00167365 
0.000607696 0.000444605 -0.00372194 
-0.000881416 -0.000643534 0.00251428 
0.00155448 -0.00350486 0.0457557 
-0.000942871 -0.00267796 0 
0.00198848 3.13727e-05 0 
-0.00153588 0.00557099 0 
-0.00169022 -0.00778045 0.00660668 
-0.000175177 2.88525e-05 0.0733655 
0.000193131 -0.000622175 0.0703558 
0.000292464 0.000198445 -0.000119857 
5.63175e-05 0.000476727 -8.2345e-05 
-0.00256567 0.00422776 -0.00300966 
0.00126881 0.00047008 0.00035168 
-0.00117526 -0.000245737 -0.00211003 
0.00160072 -0.00890896 0.00419413 
-0.0668565 0.0265548 0.538291 
-0.104537 0.0916149 0.547605 
-0.0356451 0.093185 0.455821 
-0.100122 0.0518967 0.360774 
0.000219599 -0.00102085 -0.00313281 
-0.000140073 0.00073147 0.00360612 
0.000490424 -0.00193962 -0.000185963 
-0.00475052 0.00230317 0.00856211 
0.00586976 -0.021807 0.58508 
-0.0100647 -0.0410821 0.557313 
-0.00011638 -0.00912421 0.74894 
0.0559886 -0.0738378 0.642908 
-0.0070586 -0.00953666 0.581573 
-0.0334467 0.0155179 0.508702 
-0.00448948 -0.0227843 0.747844 
-0.0949651 -0.00521183 0.683429 
-0.000576677 0.000463606 0.0583312 
0.000965789 0.000515983 0.0771255 
4.52604e-05 -0.000422088 0.125995 
0.0046359 -0.00664115 0.109344 
-0.000489158 -0.0018529 0.312497 
0.00372712 -0.00149555 0.265673 
-0.00412086 0.00141378 0.280862 
0.00978975 0.0148317 0.275031 
0.000149127 -0.000145644 -0.00141043 
0.000353884 -0.00034642 -0.00196174 
0.000368574 -0.000362927 0.00163418 
-0.00297074 -0.00180171 0.0758743 
-0.000351297 7.75735e-05 7.69404e-05 
-0.000310153 7.01339e-05 -1.15913e-05 
0.00076779 -0.000177782 0.000229895 
0.000236716 -0.000421226 0.0952413 
0.0015561 8.56072e-05 -0.00376195 
-0.00534819 -0.00275505 0.091536 
0.000802387 0.000428299 0.00110446 
-0.00494529 -0.00195351 0.0748362 
-0.049639 -0.0278059 0.101379 
-0.0172558 -0.0197659 0.0590266 
-0.0176313 -0.00384704 0.0862545 
-0.0565664 -0.0337123 0.171769 
0.000106744 7.81508e-06 -0.000217515 
0.000236682 1.73284e-05 0.000575539 
-0.000250278 -1.83237e-05 0.000121328 
-0.000197261 0.000107167 0.076284 
0.000790774 0.000277067 -0.00570721 
-0.00158075 -0.000403062 -0.00162122 
-0.00205028 -0.0005899 0.00369674 
0.00324036 -0.00852565 0.0451167 
-0.00042953 -0.000650486 -0.000461866 
-0.00160435 0.0009311 -0.000690284 
-0.000367528 -0.00118908 0.000565731 
0.00100642 -0.002589 0.00200169 
0.000209573 0.000420733 0.00104931 
7.41331e-05 0.000212496 -0.00066571 
-0.000102687 -0.000501261 0.0679922 
-0.000150251 -0.000323229 -0.000400718 
0.00184773 -0.000165062 0.176762 
-0.000304438 -0.00130136 0.111893 
8.90859e-05 0.00185013 0.135444 
0.00850356 -0.00358479 0.103643 
-0.00272657 -0.00764789 0 
0.000616885 0.00296237 0 
-0.00461569 -0.00135571 0 
0.0089009 0.00567692 -0.00269815 
0.000256884 -0.000584517 -0.000165697 
-8.41195e-05 0.000204587 -0.000160403 
-0.00117925 -0.000702496 -3.26733e-06 
-5.67457e-05 0.000162416 -0.000505642 
-0.000184727 -0.00133212 0.17395 
-0.000922894 -0.000165612 0.237408 
1.71903e-05 0.00201364 0.178263 
-0.0167759 -0.00730547 0.180775 
-0.000252337 -0.00113206 0.174093 
0.000127295 0.0015758 0.178866 
0.00180574 0.000353516 0.117673 
-0.0168981 -0.00669714 0.179194 
-0.000398756 0.000515628 0.0769964 
-4.33789e-06 0.00020488 0.0621899 
-4.61587e-05 -0.000913892 0.112086 
-0.00354302 -0.00517845 0.087772 
-0.0188032 -0.0156566 0.129192 
-0.0252508 -0.00726393 0.0860327 
-0.0208022 -0.0153329 0.0618129 
-0.0445509 -0.033752 0.169514 
-0.00150764 -0.000398142 -0.000824916 
0.00120957 0.000364473 -0.00818664 
0.00050507 0.000120959 0.00271646 
-0.0067895 0.00527542 0.0581427 
0.000219095 -0.000407661 0.000296795 
-0.000129415 -0.000140955 0.0592695 
0.000153578 -9.18676e-05 -0.000106486 
-8.71219e-05 4.07522e-05 0.0716399 
-0.00140269 0.000679469 0.125113 
-0.00378479 0.00175594 0.0757901 
0.000823653 -0.000589967 0.0618292 
-0.0064866 0.00383954 0.103571 
0.000214757 7.06853e-05 0.000532999 
0.000354675 0.000118389 0.000833868 
-0.000419706 -0.000203624 0.00079846 
0.00025517 -0.0017402 0.0836148 
-0.0108578 0.00390296 0 
-0.00779514 -0.0398169 0 
0.037794 0.00566782 0 
0.105919 0.0418574 0.0292529 
-0.00186155 0.0705554 0 
-0.0161095 -0.0182721 0 
0.0137896 -0.0167106 0 
0.0301406 -0.178895 0.07616 
0.000391215 -0.000117773 -0.000387839 
-0.000563106 -5.50769e-05 0.0626106 
0.00055652 0.000205563 0.000678562 
-0.00237666 0.000939772 0.0765779 
-0.000801247 -0.000536401 0.000389512 
0.000866618 -0.00163136 -0.000408002 
-0.000426174 0.00231635 -0.000368881 
0.00172303 -0.00329555 0.000451885 
0.00158294 0.000338718 -0.0042324 
0.00204703 0.000616195 -0.000247475 
0.00133524 0.000435744 0.00083023 
-0.00425788 -0.00831765 0.0506929 
-0.00015696 -0.000633268 0.0529642 
-0.00114541 -5.91973e-06 0.0768897 
2.74395e-05 0.000379485 0.105955 
0.000675396 0.00566238 0.0915074 
0.00100257 -0.129314 0.420142 
0.0316055 -0.0660691 0.399179 
0.0243417 -0.0971662 0.255389 
-0.0242185 -0.0738524 0.368905 
-0.0283339 -0.00742961 0 
0.0111443 -0.0245034 0 
-0.000154796 0.0126177 0 
0.0649635 -0.0681324 0.022401 
-0.000289494 -0.000664457 0.000759606 
-7.48984e-05 -0.000214973 0.000784096 
-2.94867e-05 7.23688e-05 -0.00183348 
-0.00335937 -0.000211324 0.0554596 
0.00101437 -0.000999665 0.286982 
-0.00058301 0.000954764 0.228283 
0.000524735 -0.00356411 0.241424 
-0.0206075 0.00160157 0.265905 
-0.000263166 -0.000715319 -0.000533969 
-0.000373641 0.000307358 0 
0.000200154 9.02517e-06 0 
-0.000646985 0.000520226 0 
0.000230334 -0.000153717 0.0622837 
3.02159e-05 -2.13933e-06 0.000539672 
-8.32885e-05 5.89694e-06 -0.000142922 
0.000291033 -2.06055e-05 -0.000202402 
0.000674265 -4.70022e-05 -0.000489905 
-0.00064221 -0.000283219 0.000219005 
0.000820395 0.000356725 -8.84437e-05 
0.000356669 0.000159062 -0.000188284 
-0.000631429 -0.000206326 0.136841 
-0.00155604 -0.000335382 0.117867 
0.000663487 0.000249326 0.0648646 
-0.00404352 -0.00252062 0.0784444 
-0.000439138 -2.17336e-05 -0.00113202 
-0.000156275 8.5126e-07 -0.00128042 
0.000178399 3.0583e-06 0.00104975 
-0.00115857 0.00218376 0.00256781 
-0.000451955 -0.00181959 -0.000838818 
-3.43425e-06 0.000111561 0.0014203 
-0.000405506 -0.00187759 -0.00354032 
0.00417184 0.00333409 0.00998123 
0.0049148 -0.0107274 0.628018 
-0.0376129 0.0691304 0.186717 
-0.00873925 0.077406 0.234159 
-0.0595214 0.202243 0.0992416 
0.00146007 0.00010063 0 
0.000103997 0.000280759 0 
0.000435614 -0.000616513 0 
-0.000814487 -0.000685358 -4.60522e-06 
8.10612e-05 -0.000129905 -0.00565407 
-0.000434928 0.000473401 0.00334469 
-0.000870979 0.000884264 -0.000999064 
0.0068596 0.00685044 0.0409303 
-0.0452225 0.0151192 0 
-0.0400716 -0.024583 0 
0.0698281 0.00758426 0 
-0.119456 -0.0291921 0.103579 
-0.00118892 8.01648e-05 0.209272 
0.00220587 -0.000542255 0.193519 
0.000219088 -0.000179244 0.132112 
-0.00999587 0.0160261 0.166261 
0.000918623 -0.0006552 -0.000747448 
-0.000533905 -0.000786951 -5.53554e-05 
0.0018747 -0.00213594 -0.00151198 
-0.00535523 -0.00081334 0.00252056 
0.00112388 -9.67176e-05 -0.00361293 
0.000206476 -1.77687e-05 0.00271837 
0.00227059 -0.0001954 -0.000643414 
-0.00422567 -0.00476024 0.0631779 
-0.000223055 0.000990304 0.225458 
0.00188681 -0.000504095 0.203017 
-0.000471325 -0.00157383 0.140327 
0.0077001 0.0130367 0.174374 
0.00130245 -0.000670828 0.143237 
-0.000999997 -0.0015354 0.0835138 
-0.000302202 0.000603918 0.1622 
0.00580331 0.0131249 0.169862 
-0.000179801 -0.000720314 0.000258908 
0.000194717 0.0010108 -0.00277054 
0.000126959 0.000522889 -0.000336824 
-0.00326462 -0.00215156 0.00707963 
0.00432262 0.000984423 0 
0.00180828 0.00108953 0 
-0.00322343 -5.84404e-05 0 
0.00816062 -0.00208048 0.00759428 
2.20452e-05 0.000485993 0.0011217 
-6.39578e-07 -0.000260533 -0.00146331 
5.83863e-05 0.000983878 0.00121009 
-0.0033932 -0.00149981 0.0901906 
0.00032792 0.0013498 0.11345 
0.000975826 0.000226575 0.142677 
-0.000566366 -0.000462886 0.168977 
-0.000155827 -0.016963 0.178396 
0.00679438 -0.00352958 0.695648 
0.00408433 -0.0113293 0.717972 
0.0149157 -0.00895575 0.583227 
-0.110026 0.102681 0.651869 
0.000215794 -3.17322e-05 -0.000384097 
-2.61571e-05 -1.21788e-05 0.0536481 
-7.71659e-05 0.000114664 0.0852371 
0.000131282 -0.000356435 0.000181674 
-0.0118112 -0.0107088 0.790144 
-0.00235196 0.00184218 0.752002 
-0.00156484 -0.00343753 0.705909 
0.108469 0.0299806 0.694177 
1.47302e-05 0.00020805 -0.000394001 
-2.28375e-06 -3.22557e-05 -5.08414e-05 
4.80364e-06 6.78467e-05 0.000622902 
0.000276917 0.000205259 0.0634329 
0.000146 0.000748485 0.000574832 
2.31442e-07 0.000406262 5.57713e-05 
-8.33689e-05 -0.000739033 0.0763374 
-0.00240936 -0.00202325 0.0793036 
0.000356025 -0.000670966 -0.0015528 
-0.000435011 0.000746804 -0.000287246 
-0.000372143 0.000641396 -0.000170359 
-0.0014529 -0.000267271 0.00832595 
-0.00131585 0.000860422 0.154747 
3.14367e-05 0.000325532 0.0789147 
0.00029465 -0.000929404 0.127291 
-0.00418448 0.00251415 0.0755407 
0.000389412 0.000846456 0.00082326 
0.000200904 0.000381756 -0.000620776 
-0.000228068 -0.000597363 -0.00241573 
0.00095223 -0.00465938 0.0125204 
0.000821012 -7.09003e-05 0.0950526 
0.00012193 -0.000139607 0.111761 
-4.46923e-06 0.000218218 0.0622444 
-0.0037426 -0.00601326 0.0884866 
-2.53554e-05 0.000145374 0.00286353 
-0.000656707 -0.00170188 -0.00244567 
0.000657686 0.00145045 -0.0011096 
-0.00435027 -0.00303125 0.00361622 
-0.000424689 0.000441644 0.065091 
0.000702723 0.000628928 0.00130606 
0.000325713 -0.000501297 0.0761512 
-0.00320141 -0.00226944 0.0791883 
0.000395762 -5.75153e-05 0 
0.000336248 -0.00028795 -0.00115103 
-0.00055435 -0.000122746 0 
0.00106522 -6.92107e-05 0 
0.010479 -0.00587088 0.607874 
0.0216473 -0.00229814 0.524707 
-0.00169427 -0.00485671 0.759919 
0.0902807 0.133877 0.622806 
-0.000987706 -0.000442289 -0.00243989 
-0.000255012 -0.000163236 0.00334095 
-0.00148621 -0.000720194 0.000755613 
-0.00116847 0.00497906 0.05801 
0.000294793 0.000509082 0.0631982 
-3.49079e-05 -0.000403586 0.000774623 
-0.000841465 -7.65031e-05 0.000734068 
0.00407595 0.00130942 0.0829997 
-0.00011449 -0.00030108 -0.000469751 
-0.000369032 -3.36999e-05 -0.000112891 
0.000264894 -1.15771e-06 0.0631931 
0.000103147 4.65362e-05 0.0681319 
-8.70331e-05 -3.09573e-05 0 
2.92212e-05 0.00034729 0 
0.000169291 -0.000105357 -0.000116219 
0.000123999 -0.000509994 0 
0.000361621 5.98247e-05 0.000905109 
0.000194503 4.7681e-05 -0.000274017 
-0.000299484 1.59316e-05 0.0730679 
-0.00034512 -6.46409e-05 -0.000493485 
-0.000764585 0.000400398 0 
0.00173805 0.000241681 0 
0.000102469 -0.000861127 0 
-0.00405379 -0.000100472 0.00463264 
0.000313385 0.000613595 -0.00250952 
0.000794798 0.00156018 -0.000380479 
0.0008876 0.0017444 0.00265498 
-0.00717333 -0.00333398 0.0516875 
0.0606503 -0.0100477 0.394209 
0.0462287 0.0512091 0.519711 
0.0870626 0.0373267 0.40682 
0.0414983 0.0641623 0.363665 
-0.000773455 -0.00163785 0.29914 
0.000285915 -2.86521e-05 0.274671 
-0.00138908 0.00111527 0.310728 
0.016888 0.000425829 0.293616 
0.000337541 -5.7635e-05 0.000865852 
-0.000320687 0.00016863 0.0846069 
0.000262082 -6.39988e-05 -0.000273916 
-0.0003039 6.01579e-05 -0.00037316 
-0.000162455 0.000456279 0.00109925 
-0.000316686 0.00056339 -0.00242644 
2.41289e-05 6.54118e-05 0.00170303 
-0.00216792 -0.00289048 0.0914159 
0.000179792 -0.00026046 0.218937 
-0.00115768 -0.000557631 0.170161 
0.000710462 0.000954346 0.140238 
0.000893345 -0.0179601 0.180788 
-0.000142959 -9.90256e-05 -0.000209079 
-0.000160589 -0.000383149 -0.000334078 
-5.24617e-05 5.14609e-05 0.0602033 
-0.000211428 0.000417608 0.0763722 
-0.000548369 0.00120228 0.000263821 
-0.00050311 0.00151057 -0.001475 
0.000372323 -0.000749612 0.000674729 
0.000480141 -5.7609e-05 0.00118064 
-0.00080171 -0.00033012 -0.00146663 
-0.00199106 -0.000984458 0.00108047 
-3.13968e-05 -5.63933e-05 0.00118971 
0.00489502 -0.000707798 0.0417965 
-0.0378384 0.0842916 0 
0.00462043 -0.150468 0 
0.00314128 0.0988389 0 
-0.0431794 0.194474 0.234557 
-0.000222126 0.000960775 0.0639504 
0.000267315 -0.00035786 0.0842282 
-0.000419234 -0.000412275 0.000558068 
0.00578335 0.00108117 0.0833609 
0.000324445 0.000898504 -0.00104585 
0.000457789 0.000404746 -0.000564018 
0.00046016 0.000244808 -0.000557299 
-0.00351127 -0.000899935 0.00451514 
-6.62973e-05 6.44196e-05 0.0586756 
6.92712e-06 -2.03323e-05 -0.000123991 
-4.71488e-05 0.000266549 -0.000517359 
0.000101775 -0.000543028 0.000773217 
0.000699014 0.00047571 0.00128048 
-0.000962577 -0.000654596 -0.000805181 
-0.000765691 -0.0005215 -0.00222892 
-0.00127891 0.00141745 0.0161429 
0.00226748 0.000814453 0.158229 
6.68433e-05 -0.0013344 0.0827434 
-0.000523808 0.00117531 0.116609 
0.00709314 0.00178702 0.0840558 
0.000261569 2.52055e-05 0.191343 
0.000495428 -0.000372345 0.123258 
-0.0012905 0.000152743 0.13485 
-0.00640118 0.0151023 0.165172 
-2.68392e-05 -2.2002e-05 -0.00154077 
-0.000346196 -1.65644e-05 0.000732688 
0.00112105 5.90305e-05 -0.00195685 
0.000882222 -0.000712087 0.0056829 
0.00971546 -0.0064846 0.734137 
-0.00149718 0.000557679 0.749292 
0.0125133 -0.000890636 0.801584 
-0.000183658 -0.0538725 0.750857 
-0.000280759 0.00128857 0.00012788 
0.0010592 -0.00109158 0.000488132 
0.000566406 -0.000888176 -0.000319399 
0.00027536 0.000136586 0.000149399 
-0.000552336 0.000117135 0.0651523 
0.000242484 5.77187e-05 -0.000428268 
0.000665557 -0.000101099 0.000905578 
-0.00281707 -0.00132289 0.0789835 
-0.00175845 0.00129166 0 
0.000457853 -0.000224341 0 
-6.93187e-05 0.000127901 -0.00181704 
-1.56989e-05 4.91733e-05 0 
-0.00094402 0.00137679 -0.00327319 
-0.000548805 0.000797732 0.0019652 
-0.000901546 0.00131283 -0.000204219 
0.00525208 0.000522133 0.0560377 
-4.41947e-05 -5.87267e-06 0.00248957 
0.000141615 -6.08422e-05 3.50217e-05 
-5.75345e-05 4.15687e-05 -0.00170907 
-0.000977841 -0.00225031 0.0850627 
-0.00370234 0.000560929 0 
-0.00133975 -0.00100404 0 
0.00337881 0.000167542 0 
0.00237713 -0.000102317 0.00378068 
-0.000140118 -0.00131756 0.180223 
-0.00170658 0.000779174 0.131605 
0.000111704 0.000409281 0.212175 
0.018573 -0.00416527 0.189576 
-0.000110817 0.00121452 -0.000713652 
-0.000550676 -0.000218023 -0.00063692 
-0.000394191 0.000766784 -0.000836515 
0.00388223 -0.00138001 0.00468654 
0.00298792 0.000978252 0 
-0.0044192 0.00244335 0 
0.00468676 -0.0038604 0 
0.00712266 -0.0076004 0.0109842 
1.86175e-07 0.000385506 -0.000671714 
0.000642973 0.00086635 0 
-0.000211215 -0.000493944 0 
-0.000206504 0.000223579 0 
8.34274e-05 0.000349194 -0.000274344 
2.94228e-05 0.000202501 0.000772817 
-0.00016352 -0.000238726 0.0765304 
-0.000100471 -0.000458919 -9.02985e-05 
-7.15706e-05 2.90999e-05 -0.00177887 
0.000179302 -0.000113562 0.000636037 
2.44942e-05 5.98765e-06 0.00210721 
-0.00102594 -0.00237743 0.0852285 
-0.000525377 -0.000379652 0.0627969 
0.000430689 0.000333162 0.0803342 
0.000746573 -0.000458009 0.000859389 
-0.0030202 0.00188037 0.0769845 
0.000876531 -0.000559692 0.000351855 
-0.000406415 0.000278976 0.00042086 
0.000803419 -0.000302061 -0.000914859 
0.000622703 -0.000431934 -0.000779567 
-0.000116113 -0.000188821 -0.000209436 
-0.000228946 -0.000354301 -6.08001e-05 
0.000125116 0.000204228 0.000240676 
-0.000376635 -0.000231044 -0.000637484 
0.000360483 -0.000379481 0.000328432 
-0.000414019 0.00038188 0.000877786 
-3.18458e-05 8.84246e-06 0.000545052 
-0.00133685 -0.0004764 0.0779541 
0.000474854 -2.46897e-05 -0.000864987 
0.000385516 -2.67572e-05 -0.00015694 
0.0005049 -2.43091e-05 -0.00107755 
-0.000925923 0.00122022 0.00332091 
-0.000754602 -0.000157482 -0.00144228 
-0.000366619 -9.20006e-05 0.000519194 
5.1587e-05 2.49253e-05 -0.00101661 
0.000894627 -0.00115157 0.00522147 
0.00025493 0.000411457 0.00059429 
-5.51166e-06 4.34144e-06 0.000254988 
-0.000272203 -0.000380405 0.00055782 
-0.000734193 0.000325952 0.0755601 
-6.23622e-05 -0.000112235 0.0768101 
0.000354458 3.05637e-05 9.94693e-05 
0.000123386 0.000446297 -3.57313e-05 
-0.000492199 -1.63927e-05 0.0781695 
-0.000359208 -0.000231016 -0.000563626 
0.000757916 -0.00081443 -0.000492181 
0.000282603 -0.000614801 -0.00130543 
-0.000423466 0.0010186 0.00180512 
-0.002433 0.00286656 0 
0.000825692 0.000109685 0 
-0.000449851 0.00347059 0 
0.00184567 -0.011402 0.000428113 
-0.00119679 -0.000251429 0.073133 
0.000833327 7.97523e-05 0.0684096 
0.000706312 -0.000505626 0.123234 
0.00208884 -0.00546465 0.0865855 
-0.000183541 -0.000328464 -0.000852675 
0.000457977 0.000217392 0 
0.000813816 -0.000276948 0 
-0.00210939 -0.000259178 0 
0.0104584 -0.00610417 0.609815 
-0.000714011 0.00220398 0.751577 
-0.0105182 -0.00814711 0.712086 
0.0882211 0.119736 0.625816 
-0.000340628 0.00064257 0.0758634 
-3.81982e-05 2.19611e-05 0.140394 
-0.00101672 -0.000898952 0.127615 
0.00758319 -0.00625267 0.109115 
0.000866141 -0.000534949 0 
-0.000449382 -0.000564858 0 
0.000563657 0.000529881 0 
-0.000329223 2.2336e-05 -0.00153283 
0.000811908 0.000426461 0 
0.000322979 0.000298202 0 
-0.000266528 -0.000505377 0 
0.000549084 0.00034059 -0.000389642 
0.00596292 0.0051861 0.772435 
-0.0163596 -0.0121813 0.517209 
0.00146408 -0.00495826 0.592068 
-0.0875506 -0.0258489 0.695577 
0.000747958 -2.30235e-05 0.0752902 
-0.000800461 -0.000637891 0.149977 
0.000685541 0.000715769 0.125836 
-0.00837067 0.0026408 0.103695 
4.74774e-05 -3.67213e-05 0.0536539 
-0.000121262 8.50807e-06 0.000442983 
0.000128603 -9.02313e-06 5.52543e-06 
-0.000284981 1.9995e-05 -0.000131759 
0.0116721 -0.00197949 0.555855 
-0.0719603 -0.0829592 0.274993 
-0.100882 -0.0279236 0.240469 
-0.111944 -0.0606946 -0.135417 
-0.000466691 -0.000344711 0 
-7.3678e-05 -0.000715563 -0.00101651 
-0.000309986 0.000397613 0 
0.000395836 9.46466e-06 0 
-7.26572e-06 0.000127777 0.0636982 
0.000398531 -0.000146087 0.08414 
-0.000290635 0.000219083 0.000210852 
3.87085e-05 0.000214219 0.000239973 
0.000236935 0.000747583 0 
-0.00102539 -0.000640313 0 
0.00017546 0.000236048 0 
-0.000413514 -3.2339e-05 -0.000406574 
0.00126456 0.00058276 -0.000383814 
0.000494382 0.000241541 0.00260148 
0.000890454 0.000399804 -0.00238794 
-0.00597655 0.00153181 0.0528319 
3.58086e-05 -0.00010954 -0.000314467 
0.000103136 -0.000475818 0.000824538 
0.000266615 -0.00111353 0.000874212 
-0.00176131 0.00047726 0.0722483 
-0.000320337 -6.22949e-05 0.000547011 
0.000220024 4.45949e-05 -0.000269255 
-0.000105288 -2.76986e-05 -0.000245654 
0.000134237 5.17815e-05 0.0596106 
-0.00402385 -0.0166703 0.765885 
0.0175877 -0.0455888 0.695671 
0.0116884 0.00233072 0.814556 
0.046738 -0.0889658 0.623405 
0.000285193 -0.000419055 -0.000408863 
5.71953e-05 -0.000457975 0.000515535 
-0.00016114 0.00048097 0.0804047 
-0.00196341 0.00157421 0.0767541 
2.00831e-05 -2.47772e-05 -0.00029146 
-0.000342913 0.000297861 0.00120279 
-0.00136331 0.00101626 -0.000280034 
0.00244845 0.000717259 0.0575274 
0.000100817 -0.000380053 -0.000563466 
-0.000342235 0.000513832 0 
0.000193384 2.39314e-05 0 
-0.000796241 0.000687966 0 
-0.00112084 0.000621593 0 
0.000713796 -0.000845229 0 
0.0010463 -0.000384334 0 
0.00058554 -0.000414862 -0.00125773 
-0.00382033 0.00274793 0.714896 
-0.00660466 0.00921971 0.750329 
-0.00188168 0.00347338 0.609663 
0.115473 0.0187644 0.700992 
4.87909e-05 -0.000128009 0 
-3.67723e-05 0.000465116 -0.000399204 
-0.000810131 -0.000244065 0 
0.000368277 0.000532023 0 
-0.000429343 0.000360694 0.000242304 
0.000519142 -0.000394199 0.000925174 
-0.000219076 -0.000188774 0.077505 
5.74566e-06 -3.22477e-05 -0.000799755 
-0.000674699 -0.000661127 -0.00260047 
0.00120921 0.00118734 0.000428176 
0.000612325 0.00060097 0.000697258 
-0.000909266 0.000868934 0.01689 
-7.10696e-05 -0.000267355 -0.000522845 
-3.4871e-05 -0.000222884 0.00074203 
3.5848e-05 0.000225624 0.0675627 
5.75377e-05 0.000264437 -9.92477e-05 
-0.0629636 -0.0522983 0 
0.0268731 0.00484862 0 
0.0010406 0.0067443 0 
0.17019 0.11772 0.0994833 
-0.00206242 -0.000274013 0 
-0.000294821 -0.000719777 0 
0.00147264 -0.00234945 0 
-0.000138649 0.00339714 0.00280032 
-4.54241e-05 0.000495372 0 
-0.000647604 0.00120656 0 
0.000122995 -0.000361191 0 
0.000195299 0.000515548 -0.00066899 
0.0019723 -0.0010043 0.170146 
-0.00149532 -0.000875047 0.215082 
-8.89556e-05 0.000642298 0.13696 
-0.00971999 -0.0118143 0.156129 
-0.000175303 -0.000287844 0.0761774 
-0.000703373 -5.06845e-05 0.124651 
0.00055881 2.70779e-05 0.062564 
-0.0061799 0.00353189 0.103389 
0.00299215 0.000491139 0 
-0.00114052 0.00032562 0 
0.000454178 -0.00140638 0 
-0.00615868 -0.000376414 0.00307055 
0.00138868 -0.000336662 0.00127252 
0.000936788 -0.000223163 0.00116928 
-4.94758e-05 -1.46408e-05 -0.00214405 
-0.00110058 0.00280698 0.0751808 
-0.000815734 -0.00102449 0.114013 
-0.000640599 5.12349e-05 0.0658812 
0.000555869 0.000687221 0.133201 
0.00835822 -0.00281073 0.10448 
0.00116557 0.00202219 0 
0.000578781 -0.00138459 0 
0.000181962 -0.00147309 0 
-0.00278047 -0.00203907 0.0062952 
-9.87142e-06 4.01049e-05 -5.35699e-05 
5.14373e-05 -0.000245279 -0.000198635 
0.000162911 1.95723e-05 0.0635388 
-6.67283e-05 0.000337969 0.000517945 
0.000608819 0.000187376 0 
0.000113326 0.000450743 0 
-0.000729427 -0.000523835 0 
0.000962656 0.000659422 -0.00050299 
-2.76447e-05 0.000215017 0.000945902 
-1.00886e-05 0.000131477 2.47308e-05 
9.38295e-08 -3.9797e-05 0.000232968 
-0.00117137 -0.000800247 0.0745049 
0.000642693 -0.000317707 0 
-0.00100724 0.000309591 0 
-0.000305857 0.000220938 -0.000436825 
-0.000373523 0.00075088 0 
-0.000133672 0.000290312 -0.000741551 
-0.000244114 0.000415913 0.000751917 
0.000308192 -0.00060135 0.000456445 
0.000191556 0.000269865 0.0824878 
0.000176058 -7.35277e-05 -0.000761994 
0.000362631 -8.07382e-05 0.00110827 
-0.000488691 0.000158344 0.000382549 
2.27984e-05 -0.000243634 0.0949169 
-0.000398772 0.000207051 0 
0.000694957 -5.93197e-05 0 
0.000258995 0.000202487 -0.000402997 
-4.07237e-06 6.18559e-05 0 
-0.000383777 0.000417648 0 
-0.000960546 0.000252555 -0.000711553 
-9.42614e-05 -0.000452981 0 
-0.00030469 0.000676351 0 
0.000436979 -0.000143539 0.00043715 
-0.000395961 9.76894e-05 0.000892551 
6.34781e-05 0.000136626 0.0839072 
-0.000102885 4.98318e-05 -0.000741214 
-1.66548e-05 -0.000672149 0 
0.000178525 0.000472674 0 
-0.000189276 -0.000543644 0 
0.000341746 -0.00029533 -0.000602314 
-0.000121434 -0.000551978 0.000493853 
0.000166474 0.000760752 -0.000795002 
0.000127051 0.000595004 -0.00102681 
0.00154871 -0.000519046 0.0055334 
7.86893e-05 5.00421e-05 -7.45962e-05 
-0.000536207 -0.000383672 -0.000785783 
9.31103e-05 6.86767e-05 0.000198723 
-0.00105299 0.000383473 -0.000103452 
0.000203369 0.00184219 0.264111 
-5.80207e-05 0.000533002 0.23003 
0.000993567 -0.000971683 0.286843 
-0.0193701 0.00176583 0.262796 
-0.000262017 0.000235262 0.0657483 
0.00010781 -0.000317692 0.0759752 
-0.000918759 -0.000526456 0.136037 
-0.00310879 -0.00224127 0.0784573 
0.0717738 -0.0239941 0.213336 
0.0588263 -0.0322706 0.212055 
-0.0318807 0.0404065 0.727536 
0.215523 -0.142105 0.338808 
-0.000521149 0.0015337 0 
5.36733e-05 -9.42335e-06 -0.000144561 
0.00044546 -0.000488891 0 
0.000399943 8.88587e-05 0 
-0.000287844 0.000835701 0 
-0.00214743 0.000153393 0 
0.00139097 -0.00193887 0 
0.000338281 0.00113994 0.00368352 
-0.000230569 0.000189223 0 
-0.000316367 0.000259635 0 
0.000528597 5.38224e-05 0 
0.000530581 -0.000417546 -0.000598001 
0.000189033 0.000230337 0 
0.000224035 0.000272988 0 
-0.000205653 -0.000239918 -0.000292716 
-0.000598741 -0.000439834 0 
-0.000139643 -0.000416148 -8.78975e-05 
-0.000393784 -1.1474e-05 0 
0.000173571 0.000209948 0 
9.15434e-06 -0.00044697 0 
0.000452916 0.000168051 -0.000197047 
0.000476082 -0.000239448 0 
-0.000614454 -0.000148108 0 
0.000479948 0.000474058 0 
-0.000413112 -7.3557e-05 0 
0.000162255 0.00160666 0 
-0.00113839 -0.001695 0 
-0.00288342 0.0010751 0.00366826 
0.000300834 0.000389183 0.000539135 
-0.000377227 -0.000433425 0.000625225 
7.33225e-05 5.55888e-05 -0.000804681 
0.000166492 -0.000124667 0.075862 
6.05368e-05 -4.07866e-05 -0.000309166 
1.09743e-05 -5.86591e-06 0 
-0.000121161 6.47619e-05 0 
-3.66171e-06 -0.00015194 0 
-0.000136448 -0.000295507 -0.000788736 
0.000226442 0.000423643 0 
4.9463e-05 9.25388e-05 0 
0.000196495 -0.000378946 0 
0.000531841 0.000210109 -0.000777659 
-0.000430837 -0.000199337 -0.00046265 
-0.000903995 -0.000397878 -0.000206464 
0.00188226 1.13353e-05 0.00138516 
-0.000649758 -0.000905893 -0.00131944 
-0.000246282 -0.000471658 0.00173096 
0.000944996 0.00150775 -0.00138932 
-6.56581e-06 -0.00311436 0.0099364 
-0.00025501 0.000132612 -0.000224727 
-0.000248524 -0.000121406 0 
0.0011077 0.000114983 0 
0.000258838 -0.000353478 0 
-0.000568253 0.000136872 -0.000353639 
-0.000700286 0.000138474 0.00194282 
9.29626e-05 -2.76074e-05 0.000468673 
0.00214268 0.00208623 0.0778715 
0.00059606 9.7684e-05 0 
-0.000574237 -0.000361996 0 
-0.000439719 -0.000313075 -0.000640346 
-0.00121351 0.000114585 0 
-0.000141107 5.4173e-05 0.0759889 
0.000120406 0.00036262 0.000414216 
-8.35931e-05 -0.000356845 0.000981326 
-2.95195e-05 -2.47243e-05 -0.000876442 
0.000270787 -0.000184352 -0.000104381 
-0.000105556 6.37126e-05 0.000326213 
0.000196237 -0.000116299 -0.000681673 
-7.06845e-05 -0.000565564 -0.000418923 
0.000726817 -0.000393875 -0.000679199 
-0.000163071 -0.000196467 -0.000951323 
0.00017125 0.000228375 0.000464536 
2.43719e-05 3.77673e-05 -6.15065e-05 
0.00039714 0.000950429 0 
-0.000470541 0.00079942 0 
-0.000113956 -0.00113335 0 
-0.00021622 0.000842653 -0.000558165 
-0.00462782 0.00022091 0 
-0.000572426 -0.00397049 0 
0.00701917 0.000448046 0 
0.0089741 -0.00236373 0.00868057 
-0.000534045 0.000489861 0.124486 
0.000673145 0.000622432 0.081136 
-0.00014604 -9.09441e-05 0.0620391 
-0.00379556 0.0011517 0.076832 
-5.50092e-05 0.000245778 -1.06859e-05 
0.000124316 0.000381427 -0.000318716 
3.03677e-05 -0.000119698 0.000181058 
-6.46924e-05 0.000257491 -0.000358327 
0.000117708 3.8221e-05 0.000588915 
-0.000143319 -4.82889e-05 -0.000803163 
-0.000530595 -0.000124733 -0.000316894 
-0.000625946 0.000403347 -0.000612221 
3.74047e-05 -8.62682e-05 -0.000611187 
0.00036911 0.000456666 -0.000164656 
0.000134121 -0.00020135 -6.69838e-06 
-0.000189098 0.000295957 0.000253735 
-0.000164256 -0.000302142 0.0675891 
-0.000288609 0.000581686 0.000818258 
0.000246641 -0.000444523 0.000331523 
-7.53496e-05 9.87519e-05 -0.00082768 
-0.000511293 -0.000195123 0.000805457 
-0.00045607 -0.000166209 0.000973955 
9.83491e-05 -2.51485e-05 -0.00219782 
0.000781909 -0.0011945 0.0834454 
0.000587319 -0.000425134 -0.000959012 
0.000494217 -0.000361492 -3.80871e-05 
0.000895581 -0.000659963 0.000934193 
-0.00158454 0.0036129 0.055369 
0.000390418 -3.39965e-05 0.0615219 
0.000284532 -0.000356901 0.000279735 
-0.000341048 0.000382019 0.000920307 
-0.000108178 0.000167222 -0.000971285 
0.00280972 -0.000973281 0 
0.000529279 0.000858575 0 
0.00413497 0.00226505 0 
-0.00830998 -0.00470846 -0.00112067 
0.0429213 -0.0175423 0.293468 
0.0108709 0.0317251 0.620577 
-0.00788322 0.00863345 0.537003 
0.211561 -0.13587 0.421521 
-0.000399533 -0.00143571 1.88507e-05 
0.000295027 -0.000357487 -0.00164307 
-9.70866e-05 0.000124733 0.000412 
0.000310829 -0.000463074 -0.000162479 
0.000439194 0.000242659 0.00128279 
0.00134759 0.000285519 -0.000457619 
0.000228729 0.000140471 0.000279605 
0.000326455 0.000284905 -0.00192723 
-0.0203647 0.0108124 0 
0.000587973 -0.00617569 0 
0.00259993 0.00193758 0 
-0.0441485 0.0274764 0.0278351 
0.000343784 0.0002356 0 
9.00316e-06 -2.96794e-05 0 
5.17716e-06 -1.70668e-05 0 
-8.77475e-05 0.00032963 -0.000487382 
-0.000212016 -6.43144e-05 0 
-9.21231e-06 -2.79452e-06 0 
-0.000259854 -5.36774e-05 -0.00100098 
-0.000301169 0.000600413 0 
0.000406655 -0.00128814 -0.000671737 
-0.000251337 0.000866524 0 
0.000473667 -0.00103067 0 
-0.000379339 -0.000425786 0 
-0.000234862 -6.11752e-05 -0.000646219 
0.00103154 0.00022295 -0.00173494 
9.71261e-05 3.95707e-05 0.00169429 
-0.00104424 0.00149009 0.00173337 
0.000691404 -5.76615e-05 0.0679514 
-0.00064114 -0.000315895 0.000983037 
4.85101e-05 3.52655e-05 0.000342444 
0.000310522 0.000133532 -0.00119005 
0.0840403 0.02986 0 
-0.0326918 -0.0142465 0 
-0.0221047 -0.0252279 0 
-0.168593 -0.100117 0.122661 
-0.000703845 -0.000679148 -0.000950513 
0.000306556 0.000294017 0.000472576 
-0.000267299 -0.00023194 -0.00121501 
-0.000160052 -0.00165423 0.00549006 
0.000285588 0.000391054 0.000516062 
7.43388e-05 0.000165284 -0.000809856 
-0.000330173 -0.000534604 0.000630231 
-0.000364319 0.000203689 0.075496 
-0.000822619 -0.000260843 -0.000845393 
-0.00122542 9.20544e-05 0 
0.00126064 0.000564921 0 
-0.00109026 -0.000833921 0 
-0.000106499 -3.22058e-06 0.0708664 
0.0005709 0.000287294 0.000615847 
-0.000608139 -0.000334214 0.000315781 
6.76837e-05 4.88954e-05 -0.000438579 
-0.000731751 -0.00749541 0 
0.0075452 -0.00635549 0 
0.00258029 0.00191793 0 
-0.046066 0.0324198 0.00327701 
7.986e-05 0.000263263 0 
-4.29115e-06 -1.4146e-05 0 
2.0593e-05 9.14318e-05 -0.000238806 
-0.000485433 3.27191e-05 0 
-0.000717615 0.00102258 -0.000402119 
0.00083117 -0.00118238 0.000570011 
0.000295408 -0.000377684 0.00241665 
0.0012393 0.00189646 0.0581071 
0.000302474 0.000656354 0.222897 
0.00118792 5.10066e-05 0.162546 
-0.000723254 -0.000334897 0.152163 
-0.000434145 0.0164705 0.182911 
-0.000258828 0.00118301 -0.0013207 
7.11086e-05 -0.000366993 0.00113315 
-8.78417e-05 0.000418788 -0.000765601 
-0.0012713 -0.000558273 0.00525474 
-0.000165733 0.000365421 0.0623643 
0.000327109 0.000255741 0.000424861 
-0.00043045 -0.00037683 0.000787806 
3.5327e-05 6.22531e-05 -0.00111177 
0.000133086 4.12122e-05 -0.000542196 
0.000300338 -0.00079346 -0.000264709 
-2.1908e-05 -1.17521e-05 0.000329305 
7.27988e-05 2.94055e-05 -0.000628167 
-2.70745e-05 0.00015855 -0.00041822 
-0.00108846 -0.000192498 3.45176e-05 
2.49078e-05 -0.000136878 0.000286931 
4.20315e-06 7.81406e-05 -0.00105398 
-8.20526e-06 -0.0013871 0.0832112 
-0.000415674 0.000305175 0.0631884 
0.000446219 0.000230882 0.115842 
0.00624556 0.00242377 0.085338 
0.00724745 0.0227745 0.592551 
0.0116399 0.0140935 0.639428 
0.0147431 0.0234782 0.500774 
0.037512 -0.147942 0.662822 
-0.00100799 -0.00278495 0 
0.000709326 -0.000490223 0 
-0.000905428 -0.000657369 0 
-0.000884803 0.00043171 -0.000574348 
0.000928251 -0.00089468 0 
-0.000636836 9.55674e-06 0 
0.000688933 -0.00123965 0 
0.000533122 0.000822297 -0.0008183 
-0.000152029 -0.000692486 0 
0.000185363 0.000440303 0 
-0.000607875 -0.000463298 0 
3.50972e-05 -0.000779359 -0.000298804 
-0.000308849 -1.43714e-05 -0.000641101 
-0.000326731 -3.61359e-05 0.000158031 
0.000603867 3.56866e-05 0.000950376 
-5.04257e-06 5.79356e-05 0.0765081 
0.000877636 -0.000662033 0.168813 
-0.00114208 0.00079568 0.138214 
-0.000157211 0.00101029 0.111656 
-0.00768879 -0.0122749 0.156086 
-0.000364376 -0.000125286 0.000493292 
0.000459616 0.000118049 0.000714621 
-0.000159652 -2.0394e-05 -0.000937361 
-1.77381e-05 5.88727e-05 0.0593204 
0.000115645 3.50804e-05 0 
0.000174373 5.28955e-05 0 
8.30041e-05 -0.00054602 0 
0.000105946 1.42979e-05 -0.000675628 
2.47667e-05 -8.16448e-05 0 
9.27089e-05 -0.00030562 0 
-0.000128837 -2.35387e-05 0 
-0.000155973 0.000482171 -0.000367638 
-0.000203786 0.000266798 0.228425 
-0.00136424 0.000538544 0.281492 
0.0017612 -0.00142579 0.267968 
0.00842881 0.0162798 0.269691 
2.02393e-05 -0.000196746 0.0846353 
1.72473e-05 -0.000370055 0.00076704 
-5.69328e-05 0.000459486 0.000466514 
1.88435e-05 -6.80477e-05 -0.00048505 
8.81953e-05 -0.000422023 0.000974884 
0.000114109 -0.00053088 0.000819731 
-6.71074e-05 0.000354897 -0.00172691 
0.00234313 0.00152275 0.0825898 
8.46775e-05 0.000358912 -0.000263556 
1.87382e-05 6.85727e-05 -0.000201123 
-4.65567e-05 -0.000186111 0.000292619 
-0.000130945 0.000213057 -0.000406957 
0.00121386 -0.000700911 0 
-0.000551893 0.000294993 0 
-0.000666275 0.000356132 0 
0.000692444 -0.000368091 -6.99472e-05 
4.32211e-05 8.0861e-05 0 
3.57285e-05 6.68434e-05 0 
-0.000244427 -0.00042251 -0.000641123 
-0.000491751 0.000317577 0 
-0.000371145 0.000377177 0.000557911 
6.2251e-05 -8.22044e-05 -0.00148929 
-0.000406727 0.000416941 0.000876945 
-0.000408779 -0.00151211 0.0776604 
-0.00146587 0.00381452 0 
0.000452725 -0.000797863 0 
-0.00370966 0.000596387 0 
0.0048904 -0.0029774 0.00255211 
0.000188051 9.90587e-05 4.05546e-05 
0.000765691 0.00040927 0 
4.25714e-05 2.27549e-05 0 
-0.000999837 0.000191117 0 
-0.00055229 -0.000216164 0 
0.00041927 0.000272049 0 
-0.000435653 -0.000381982 -0.000431336 
-0.000367538 -0.000533348 0 
-0.00072807 0.0003331 0 
0.00025351 5.37985e-05 0 
0.000878498 -0.00164824 0 
0.000542243 0.000116306 -0.000405269 
7.5031e-05 -9.65508e-05 0.0669528 
-0.000103984 -0.000294828 0.000550968 
0.000127911 0.000484287 0.000719396 
-3.37309e-05 -0.000186182 -0.000861427 
-0.000141041 9.11564e-06 0.0707491 
-0.000624264 -2.98943e-05 0.00106521 
0.000519606 5.4205e-05 0.000102114 
0.000192488 6.13019e-07 -0.000618595 
-0.000435583 -0.000334137 -0.000595293 
0.000106236 8.71858e-05 0 
0.000146552 0.000120272 0 
-0.000786361 9.31203e-05 0 
-0.000855492 0.000798723 0.162647 
-0.00054047 0.000656102 0.225421 
0.00116284 -0.000900311 0.142318 
0.00646156 0.0134285 0.171312 
-2.87019e-05 -0.000291415 0 
-1.8611e-05 -0.000188961 0 
3.1275e-05 0.000378194 -0.000238654 
-0.000145048 0.000357374 0 
-2.39853e-05 -0.00051663 0.00098432 
6.4147e-05 0.000595934 0.000199536 
-8.97025e-06 5.24339e-05 -0.000517242 
-2.28579e-06 -0.000218615 0.0786037 
0.000275003 0.000140334 0.000773312 
0.00117082 0.000596361 2.97285e-05 
0.000700791 0.000356434 -0.00150308 
-0.000317115 -0.0014506 0.046588 
1.13396e-05 -5.08208e-05 -0.000882122 
4.19069e-05 -5.10637e-05 0 
-0.000310928 0.000378867 0 
0.000347686 -0.000948731 0 
0.000897091 0.000513126 0 
-0.000674498 -0.000553546 0 
0.000326101 0.000267624 0 
0.000126304 5.59506e-05 -0.0013857 
-7.04086e-05 0.00036359 0 
0.000220394 -6.68558e-05 0 
0.00022868 -6.93692e-05 0 
-0.000149403 5.51676e-05 -0.000329221 
-1.73463e-05 -5.63015e-05 -0.000771889 
3.32596e-05 -0.000291143 0.000154587 
-2.53959e-05 0.000588742 0.00109892 
4.152e-05 -0.000268361 0.0724724 
0.00920619 -0.00137867 0.648079 
-0.00522664 -0.00133183 0.753206 
-0.00403397 0.0056313 0.794245 
0.0619788 -0.104627 0.652285 
0.000175582 0.000447323 0 
0.000112675 -0.0002108 0 
0.000138685 -0.000259462 0 
-3.87585e-05 9.24091e-05 -0.000296105 
-9.64502e-05 0.000291882 0.000264421 
0.000147999 -0.000588195 0.00101735 
-2.02283e-05 0.000155418 -0.000899963 
-1.19353e-05 0.000291236 0.0631431 
-1.7831e-05 3.36219e-05 -0.000484377 
-0.0005601 0.000438897 0.000529686 
0.00055115 -0.00047221 0.000507462 
7.94063e-05 -3.66955e-05 0.0745619 
0.0316712 0.0110374 0 
-0.0707422 0.0153862 0 
0.0269563 -0.0303013 0 
0.179169 -0.0307504 0.0767864 
-5.37144e-05 6.54512e-05 0 
0.000156714 -0.000190957 0 
0.00036643 0.000339289 0 
-0.000392815 0.000488918 -0.00021505 
0.000107108 -2.05601e-05 0.000198725 
-7.8736e-06 0.000459397 -7.05346e-05 
9.93511e-05 -3.185e-05 -0.000568287 
-0.000164732 3.15138e-05 -0.000311985 
-0.00937236 0.00620404 0.586951 
-0.00452658 -0.000409547 0.750166 
-0.00642266 -0.000328037 0.644237 
0.0844175 -0.107043 0.660809 
-0.00103445 0.00109149 0 
-0.00180145 0.00105524 0 
-0.00227003 -0.00107055 0 
0.004407 -9.41884e-05 0.000898725 
-0.000158119 -0.000157952 -0.000726773 
-0.00033714 -0.000440956 0.000631192 
0.000411687 0.000477006 0.000515748 
4.78503e-05 0.000294274 0.0806723 
-0.000241572 -5.88591e-05 0.000449095 
0.000653075 0.00022329 0.000784191 
-0.000367261 -0.000289636 0.0730619 
-8.14169e-05 -5.53107e-05 -0.000953339 
-1.83407e-05 6.30293e-05 -0.000400391 
4.33714e-05 -0.000171435 0.000502376 
-1.00214e-05 0.000101537 0.00111343 
-0.000984858 -0.000883967 0.0739658 
0.00827708 0.00170489 0.759624 
0.00838054 -0.00343118 0.603277 
-0.0032252 -0.00374878 0.713552 
-0.103932 -0.0225595 0.69768 
1.13265e-05 0.000432616 0 
-0.000223542 2.2017e-05 0 
4.12856e-05 -4.06627e-06 0 
0.000234017 -1.83239e-05 -0.000188754 
0.000308016 -0.000313121 0 
-0.000149725 -1.47466e-05 0 
-0.000273255 -2.69133e-05 0 
0.000266923 2.06015e-05 -0.000209494 
-0.000578969 -7.76934e-05 0 
2.89258e-06 -2.93689e-05 0 
-2.84884e-05 0.000289247 0 
-1.7992e-05 0.000105889 -0.000278541 
3.3514e-05 1.36124e-05 -0.00087775 
-0.000593837 0.000298871 0.000516251 
0.000500838 -0.000286587 0.000525764 
0.000145342 0.000142746 0.0654904 
-0.000280816 -0.000103418 0.0630922 
0.000304968 0.000538002 0.000484439 
-0.000275265 -0.000556601 0.000619331 
2.14142e-05 0.000100083 -0.000893215 
1.90724e-05 -0.000193646 0 
1.66033e-05 -0.000168576 0 
7.81542e-05 0.00049846 0 
-1.67014e-05 0.00020585 -0.000130754 
-0.000648396 -6.24761e-05 -5.06962e-05 
0.000346208 3.40985e-05 0 
0.000351638 3.46333e-05 0 
-0.000783347 -2.42043e-05 0 
0.00100316 0.000444706 -0.000825308 
-0.000554795 -0.000218972 -0.000498091 
0.000517573 0.000183602 0.00119649 
0.000649084 -0.000909941 0.00166738 
-0.000215606 -0.000208507 0 
0.000398962 -3.92943e-05 0 
0.000225728 -2.22323e-05 0 
-0.000546053 5.17031e-05 -7.0082e-05 
4.40646e-05 0.000447395 0 
-1.02658e-05 -0.00010423 0 
0.000285809 -0.000411512 0 
1.73572e-06 5.23484e-05 0.000115326 
-0.000288175 0.000236499 0 
-0.000276096 0.000226587 0 
0.000234679 -0.000198721 -0.000135333 
0.000333134 -0.000498138 0 
0.000878964 8.61302e-05 0 
-2.91669e-05 -3.554e-05 0 
-0.000599639 -0.000730663 0 
0.000101265 0.000129195 0.000105246 
-0.000388667 0.000100899 -0.000529461 
4.24932e-05 -1.28902e-05 0 
6.88253e-05 -2.08779e-05 0 
-0.000365632 -0.000490201 0 
0.000314311 -0.000694712 0 
2.79075e-06 9.19987e-06 0 
6.22887e-05 0.000205338 0 
-7.21178e-05 -0.000306072 -0.00064551 
0.000158478 -3.72868e-05 0.000146561 
-0.000299809 7.26413e-05 -0.000380437 
-0.000410689 -0.000996072 8.76478e-05 
-0.000172869 5.61466e-05 -0.000919271 
-0.000101941 -0.000395994 -0.000796703 
0.000458459 -0.000559314 0.000258793 
-1.43227e-05 -5.59892e-05 -0.000108194 
1.02408e-05 3.25757e-05 0.000156567 
0.000463935 0.000335759 -0.00106408 
-0.000190163 -0.000158014 -0.000790417 
0.000448392 0.000359078 0.00105105 
-0.000582933 -0.00143531 0.00494363 
1.019e-05 -9.26454e-05 -0.000711364 
2.82257e-05 0.000614755 0.00119043 
-4.93507e-05 -0.000523243 -8.04441e-05 
3.96607e-05 7.71396e-05 0.0634481 
-6.45882e-05 0.000129671 -0.000786416 
0.000181502 -0.000585595 0.000120306 
-0.000162025 0.000635537 0.000958019 
-1.49493e-06 -0.000368344 0.0579234 
0.000396069 -0.000887906 0 
-0.000214159 0.000400664 0 
-0.000334401 0.00062562 0 
0.000363457 -0.000671018 0.000120335 
0.00162816 0.000454342 0 
6.05975e-05 3.239e-05 0 
-0.00104622 -0.000559215 0 
-1.94436e-05 1.23087e-05 0.000570192 
6.58479e-06 4.69956e-05 0.062169 
-0.000547246 4.98037e-05 -0.000150831 
0.000690869 -3.48639e-05 0.00122205 
-6.35182e-05 -9.28685e-06 -0.000572442 
0.000696618 0.000571545 -3.41604e-06 
-0.00066667 -0.000507429 0.000877098 
-0.000176067 -0.000170417 -0.000572824 
2.89269e-05 -2.16922e-05 0.0594666 
-0.000251649 3.61628e-05 0.0656607 
-0.000319417 0.000406939 0.0003215 
0.000463378 -0.000521052 0.000790257 
-8.35729e-05 5.03295e-05 -0.000934029 
0.000424712 -4.48205e-05 0.000109416 
-0.000582394 3.20144e-05 0.000927532 
-5.08603e-05 -0.000106767 0.0538124 
0.000154157 1.09705e-06 -0.000595762 
0.000179887 -0.000126064 -0.0007513 
0.000635959 -0.000315242 0.000620016 
-0.000622499 0.000349447 0.00041981 
-0.000212529 2.55787e-05 0.0621806 
-6.00834e-05 -7.79691e-06 0.0524261 
-0.000456859 -0.000834235 0.000275062 
0.000426532 0.000836195 0.000512982 
2.48076e-05 1.2888e-05 -0.000450065 
-0.0393533 -0.171819 0.488826 
0.0210909 -0.018131 0.642003 
-0.132791 -0.208016 0.105495 
0.0326319 -0.0385236 0.582328 
-0.0268529 -0.129643 0.451098 
-0.0680992 -0.196989 0.183557 
-0.0333039 -0.0663235 0.627694 
-0.0904786 -0.0965688 0.456685 
0.00467839 -0.00347023 0.0880826 
0.00435991 -0.00705542 0.108452 
-0.00173491 0.00117192 0.00103153 
-0.00042636 -0.000137321 0.060416 
-0.0050856 0.00500921 -0.000186615 
0.0085175 -0.00430191 0.10885 
0.00101897 -0.00896017 0.0881874 
0.00989706 -0.0131953 0.107969 
0.0507132 -0.0587453 -0.0239681 
0.0637832 0.14306 0.279683 
0.0557276 0.165192 0.203994 
0.0441782 0.0494225 0.0554181 
0.00918145 0.0101593 -0.0641537 
0.0782231 0.113627 0.23392 
0.124219 0.120817 0.293463 
0.0695252 0.0447344 0.149549 
-0.00246659 0.00181265 0.072101 
-1.03986e-05 -8.12412e-05 -0.00152861 
-0.00053197 -0.000724819 -0.000400084 
0.000164274 0.000232187 0.000313128 
0.00358218 -0.00719256 0.00229173 
-0.00186289 0.000116833 -0.00290566 
-0.000365303 3.84231e-05 0.00119827 
-0.000852616 6.1004e-05 -0.000471523 
-0.00165337 -0.00979969 0.017031 
0.00121683 0.000362732 -0.00770466 
0.00158113 0.00158053 -0.0150132 
-0.00353444 -0.0117584 0.024781 
-0.0443755 0.00794547 0.365695 
-0.0109321 -0.0154575 0.400687 
-0.0140666 -0.0260771 0.315868 
-0.0254026 0.0326818 0.331445 
-0.0618197 0.0113495 0.369388 
-0.0113262 -0.0148543 0.293699 
0.00190576 -0.0194688 0.400734 
-0.044351 -0.0339197 0.398272 
-0.0171242 -0.0145507 0.321524 
0.00117364 0.00190166 0.229752 
-0.0160175 -0.0275498 0.241439 
-0.0382707 -0.0155363 0.275725 
-0.0112544 -0.0168057 0.31485 
-0.0138548 -0.0225073 0.242279 
-0.0083819 0.00285253 0.23909 
-0.00217729 -0.00040922 0.272679 
0.0097372 -0.0225818 0.0571827 
0.000376413 -0.0218627 0.020729 
-0.00933036 0.005683 -0.00792244 
-0.00406206 0.00454553 -0.00326821 
-0.00524132 0.00520148 -0.0170467 
0.00205034 -0.0223495 0.0163504 
0.000742102 -0.0228744 0.0742509 
0.000627105 -0.0517335 0.0831453 
-0.136647 0.0571642 0.244108 
-0.0450998 0.115044 0.0230738 
-0.147596 0.0953644 0.560755 
-0.0697183 0.114373 0.301381 
-0.101217 0.00656137 0.244084 
-0.148272 0.153759 0.553012 
-0.0403652 0.0497249 0.0309668 
-0.121836 0.106093 0.201486 
0.00178515 0.0178134 0.179873 
0.010257 0.00568632 0.0917072 
0.0274609 0.0314564 0.151088 
0.0222534 0.0189427 0.202841 
0.00576984 0.0160969 0.173327 
0.0242373 0.0301468 0.145991 
0.0104518 0.00752677 0.0987991 
0.0023136 0.00896166 0.0974443 
-0.111652 -0.0208474 0.248437 
-0.0721299 -0.00838819 0.553809 
-0.0996739 -0.0758124 0.442317 
-0.0481319 -0.0409231 0.39766 
-0.0863756 -0.0265982 0.223419 
-0.120884 -0.0850338 0.455085 
-0.0752513 0.0106424 0.567624 
-0.147489 -0.00881906 0.366523 
0.0711687 -0.0574357 0.278454 
0.106388 0.0403418 0.399113 
0.148983 0.0256371 0.336595 
0.0722673 0.00913346 0.214883 
0.136181 0.0162372 0.361395 
0.0888203 0.052665 0.412416 
0.0931045 -0.0625429 0.253395 
0.106749 -0.0369682 0.479936 
-0.0108319 0.150803 0.135858 
-0.0801145 0.0494485 0.329447 
-0.0757572 0.172661 0.276086 
-0.0584813 0.0369273 0.556441 
-0.0155349 0.110002 0.29376 
-0.109922 0.142984 0.307554 
-0.112005 0.0786865 0.120659 
-0.0493761 0.0751209 -0.00537825 
-0.09019 0.0845077 0.629502 
-0.119839 0.183285 0.250504 
-0.0581835 0.0396509 0.291666 
-0.0163287 0.022348 0.531421 
-0.09732 0.0968822 0.626532 
-0.121167 0.105355 0.202547 
-0.0660257 0.109021 0.300511 
-0.0714034 0.0815411 -0.0454715 
-0.00226061 0.00143137 0.077419 
-0.0167798 0.0121087 0.0725 
0.00364347 -0.00182661 -0.00588901 
-0.0183465 0.0104525 0.114578 
-0.00275115 0.0030349 0.0713642 
-6.72157e-07 -0.00314268 -0.000511501 
-0.0115208 0.0116958 0.073541 
0.000657314 -0.00159051 0.00128543 
-0.0455572 -0.0170395 -0.0644447 
0.123385 0.0779342 0.088287 
0.080613 0.117762 0.234103 
0.0790804 0.0495386 0.149603 
-0.000384086 0.0175743 -0.00603699 
0.140472 0.107592 0.206684 
0.0441266 0.043664 0.0353035 
-0.0625242 -0.0106535 -0.0499719 
0.0193108 0.00103414 0.300263 
0.00147159 -0.00160998 0.214595 
-0.000892016 -0.00276282 0.249325 
0.0010832 0.00113711 0.273174 
0.0262733 -0.00353138 0.307274 
-0.0034778 -0.00400373 0.248538 
-0.000613837 0.00142182 0.211465 
0.0211607 -0.00257502 0.194347 
-0.0458075 0.0577409 0.0872966 
-0.0594971 0.0487628 0.198487 
-0.116474 0.0696357 0.203618 
-0.0426449 0.031708 0.0522262 
-0.117988 0.0828674 0.250737 
-0.0597287 0.0353808 0.192142 
-0.0424932 0.0812696 0.0303126 
-0.0899081 0.0992778 0.292059 
0.0356832 -0.00378893 0.08258 
0.170191 0.0129098 0.318266 
0.077768 -0.0402884 0.285351 
0.116792 -0.0166626 0.140955 
0.0595412 -0.0139829 0.105009 
0.0783021 -0.0304217 0.276124 
0.138139 0.0229256 0.291679 
0.0765717 0.00826419 0.235169 
0.0413777 0.0323218 0.0916732 
0.0272109 0.016878 0.0184528 
0.102078 0.0218691 0.207474 
0.0418763 -0.011264 0.0447881 
0.0424933 0.0241793 0.0867601 
0.085851 0.0299615 0.234683 
0.0354278 -0.00453692 -0.00227081 
0.100775 0.0622058 0.126438 
0.134436 0.0266554 0.228819 
0.0725995 0.0080523 0.239553 
0.036759 0.0196184 0.00869927 
0.0523875 0.00340953 0.0297709 
0.140208 0.022301 0.293838 
0.0426648 0.0305883 -0.0541461 
0.0801171 0.00941841 0.265211 
0.105623 0.0549878 0.136306 
-0.0151882 0.00921202 0.0600806 
-0.0541664 0.00878975 0.0575406 
0.0189888 -0.00616271 -0.0075109 
-0.0262522 0.00436792 0.0829282 
-0.0178523 0.00778892 0.0599298 
0.0168351 -0.000774474 -0.00364175 
-0.0521995 0.00459042 0.0544474 
-0.0173169 0.00617486 0.013525 
0.000455876 0.000202348 -0.000826909 
0.000258523 -0.000163386 0.0610449 
-0.000265087 7.44196e-06 -0.000161012 
0.000526104 -3.63126e-05 0.0677696 
-0.000185605 -0.000129402 3.50301e-05 
-0.000180401 -0.000234688 0.0598376 
0.000829263 0.000566665 0.000245994 
-0.00056955 -0.000397107 0.000108278 
0.00522856 -0.00509607 0.0111016 
5.35542e-05 0.000652823 0.00267561 
0.000243916 0.00297333 -0.00220266 
0.000128502 0.00156644 -0.00128301 
0.0111005 -0.000647565 0.0221951 
-0.00422324 -0.000410958 -0.0112292 
-0.000418877 0.000294913 0.00027789 
0.0174406 0.00320475 0.0301647 
0.000519217 0.000334914 0.0839422 
0.00034646 -4.56221e-05 -0.000359857 
-0.000116421 -0.000177207 -0.000238973 
-4.64407e-05 4.55943e-05 0.0612542 
0.000192845 0.000673556 0.0828989 
3.02712e-05 -5.30071e-05 -0.000128536 
0.000430109 -0.000631403 0.000554666 
-0.000407143 0.000624524 -2.59761e-07 
0.0621363 -0.119637 0.607183 
0.0368305 -0.0700353 0.359222 
0.0141668 -0.0516555 0.678448 
0.0937918 -0.0347209 0.482705 
0.0598665 -0.116741 0.59942 
0.0176688 -0.0561857 0.68947 
0.0376798 -0.0714807 0.35654 
-0.0107605 -0.122332 0.439593 
-0.0690479 -0.163016 0.187355 
-0.0159697 -0.0720455 0.379015 
-0.0841058 -0.110025 0.456443 
-0.00950332 -0.122925 0.45554 
-0.105951 -0.114143 0.426075 
-0.0167846 -0.078225 0.375238 
-0.0480757 -0.128033 0.230125 
-0.0433069 -0.0668908 0.242533 
-0.00391754 -0.000463464 0.0714689 
-2.78251e-05 0.000866699 -0.00324644 
7.83107e-05 -0.000752532 -0.000567214 
1.91833e-05 -0.000370967 0.000934743 
-0.00426341 -0.000931838 0.0707231 
0.00141461 0.00174408 0.00269884 
0.0029646 0.000455743 0.000708498 
-0.0194173 -0.0043708 0.0571996 
-0.00496985 -0.00101381 0.0815872 
9.83713e-05 0.00035854 0.068066 
-0.000624777 -0.000926594 0.115443 
0.000456359 -0.000426205 0.0647601 
-0.00446833 -0.00193477 0.0805901 
-0.00155501 -0.000166422 0.116268 
0.000798292 -0.000139138 0.0675259 
-0.00585666 -0.00437627 0.0941956 
0.0165677 -0.00451041 0.0236092 
-0.00355551 0.00112965 0.00195331 
-0.005076 -0.000106908 -0.00573408 
0.0188719 -0.00399455 0.0586887 
0.00609822 -0.00139575 0.0126247 
0.000306372 0.00112812 0.0011002 
-9.26887e-05 -0.000426963 0.00536613 
4.70996e-05 0.000198732 -0.00151413 
0.0226034 0.0286958 -0.0669192 
-0.0621842 -0.0607614 0.143134 
-0.214284 0.0136396 0.290572 
-0.105943 0.0236073 0.0619665 
-0.209873 0.0123405 0.294464 
-0.0790046 -0.0289399 0.110987 
0.0176706 0.0131459 -0.0603226 
-0.0434637 -0.00221394 0.0189621 
-0.0150083 -0.00685315 0.0882135 
-0.00076169 0.00229209 -0.00485505 
-0.00332659 -0.00245143 0.0724334 
0.0017792 0.00175623 0.000898281 
-0.0207371 -0.00703704 0.0824145 
-0.00287752 -0.000420171 0.0772344 
0.00559026 0.00103534 -0.00157302 
-0.0216359 -0.00484568 0.0596849 
-0.0676001 -0.0396689 0.173969 
-0.0528598 -0.0387333 0.391625 
-0.10253 -0.0983797 0.372985 
-0.0434631 -0.0643158 0.262622 
-0.0615754 -0.0383274 0.158421 
-0.108025 -0.0992765 0.388684 
-0.0546488 -0.0373772 0.404388 
-0.0862866 -0.0167837 0.26196 
-0.0683269 0.0524653 0.183382 
-0.0601256 0.0149169 0.352602 
-0.0899987 0.0566216 0.344383 
-0.0807243 0.00583601 0.233432 
-0.0901857 0.056056 0.345948 
-0.0614721 0.0106605 0.364205 
-0.0671555 0.0540345 0.177109 
-0.0356011 0.0605419 0.293259 
0.00691444 0.00610788 0.0505739 
-0.000452206 0.00107576 -0.00845922 
-0.000488295 0.00107972 -0.000979859 
0.000615356 -0.00136509 0.00167437 
0.00482463 0.00317846 0.0559939 
-0.000510843 0.0023624 -0.00239546 
0.00285236 0.00284896 -0.013823 
0.0212281 0.0118164 0.0723252 
0.00624428 0.00906412 0.0992174 
0.000543055 0.00198002 0.143274 
-0.000280431 -0.00144759 0.0726098 
0.000222643 -0.000852169 0.125976 
0.00671281 0.00976625 0.100136 
-0.0014405 -0.00106396 0.0741135 
0.0012752 0.00103175 0.141068 
0.00529348 0.00788923 0.099943 
-1.10237e-05 0.000480995 0.0594714 
0.000352414 -0.000929114 0.00277299 
-0.00215363 0.00733937 0.103864 
9.78631e-05 -0.000850284 0.000325919 
0.000396665 0.000504853 0.0602835 
-0.00346933 0.0088872 0.106313 
3.05792e-05 -0.00130155 0.00102862 
1.03782e-05 -0.000283344 0.0715792 
-0.0161309 0.00489471 0.0126421 
0.00878171 -0.00501168 -0.0036841 
0.0123649 -0.00627497 -0.0086235 
-0.0344154 0.00677842 0.0251892 
-0.00397427 -0.00252338 0.00513112 
0.00231032 0.000613741 -0.00170631 
-0.00114072 -0.000137283 0.00134183 
0.00255143 -0.000393134 -0.00161332 
-0.000182539 0.000172917 0.0658754 
0.000347638 -0.000563109 0.00146872 
-6.08239e-07 1.59542e-05 -0.000365361 
-0.000128587 0.000213122 -0.000660436 
0.000265979 -4.28175e-05 -0.000146569 
0.00024487 -0.000113224 0.000240433 
2.96628e-05 -1.46596e-05 0.0664265 
-0.000448764 -0.000398855 0.0670132 
0.21359 -0.0538159 0.348737 
-0.05065 -0.0244803 -0.091669 
0.10155 0.0410253 0.152935 
0.0967891 -0.0827229 0.0573009 
0.17445 -0.115035 0.318785 
0.10364 0.0255308 0.141878 
0.0115488 0.00216744 -0.0917202 
0.0513368 -0.0703 0.0758628 
-0.0706792 -0.0180414 0.656698 
-0.018527 -0.0522677 0.643377 
-0.0116047 -0.0328982 0.71266 
3.73659e-05 -0.00345481 0.765985 
-0.0843379 -0.0281359 0.643062 
-0.000133998 -0.0484433 0.704746 
-0.000902747 -0.0398292 0.660499 
-0.139473 -0.113696 0.450397 
0.000407528 9.9765e-05 0.0774299 
-0.000621135 2.93264e-05 0.000614691 
-0.00011118 -0.000292114 -0.000642705 
0.000125267 -0.000216671 0.0522495 
0.000357796 0.000399676 0.0769977 
-0.000151386 -0.00018639 -0.000789504 
-0.000291814 -0.000517197 0.00134369 
0.000162659 0.00026601 -0.000344681 
0.000445537 0.00665588 0.00509404 
0.00120766 -0.00429127 0 
0.000939948 0.00284413 0 
-0.000956065 -0.00269514 0 
0.020845 0.010836 0.0145144 
2.31385e-05 0.00226099 -2.93566e-05 
-0.0131829 -0.00917766 -0.00471406 
0.0161929 0.0139321 0.0143744 
-0.00700511 0.00117002 0.104016 
0.00012586 -0.000102371 0.0786681 
0.000814906 -0.000721708 0.00056183 
-0.00020702 0.0007428 0.0765831 
-0.00781332 0.00240657 0.102212 
0.00265164 -0.000758316 0.00116315 
0.000576584 -0.000947914 0.0798707 
-0.00784982 0.00182277 0.0913957 
-0.0075823 -0.00988092 0.152605 
0.000275831 0.00100284 0.0776341 
-0.00429756 -0.00540353 0.0867664 
-0.0034573 -0.00381879 0.0776555 
-0.00758702 -0.00912734 0.152711 
-0.00421464 -0.00559309 0.0866228 
0.000749801 0.000570318 0.0768998 
0.000173182 -0.000539294 0.113214 
-0.00444712 -0.0867566 0.533721 
-0.086144 -0.147365 0.37247 
0.085339 -0.135022 0.382722 
-0.0244653 -0.112642 0.637356 
-0.00221064 -0.000702022 0.1738 
0.0258869 -0.00316799 0.133277 
0.0302973 -0.000252097 0.230881 
0.00733864 -0.000363578 0.0810456 
-0.0259505 -0.0259097 0.266012 
-0.0115289 -0.0239238 0.336173 
-0.000983639 0.00206767 0.275137 
0.000709744 -0.0351718 0.243509 
0.0250533 -0.00260085 0.119533 
0.0586989 -0.0140732 0.100666 
0.0981812 -0.00784078 0.283944 
0.044264 0.0178996 0.0768026 
0.0959738 -0.00530183 0.288004 
0.062785 -0.0168207 0.0990043 
0.0219064 -0.00319171 0.112697 
0.0513845 -0.0268777 0.217658 
0.00147499 -0.00134841 0.17615 
0.0256254 0.000391754 0.229023 
0.014795 0.00398318 0.107182 
0.00898821 -0.000653996 0.0821046 
0.00121845 -0.00293405 -0.00277779 
-0.000922259 0.000357323 0.00262245 
-0.00158789 0.000496862 -0.00205492 
-0.0085743 0.0159476 0.0204633 
-6.34889e-05 -0.000142659 0.0639226 
-0.00320932 0.00514132 0.0939887 
0.000912439 -0.00143581 0.000901637 
-0.00624634 0.00282244 0.088617 
0.027965 -0.0223294 0.304562 
0.00540905 -0.0173514 0.344496 
-0.00200163 0.000386365 0.271364 
0.0173784 0.000379304 0.330787 
-0.00199251 -0.000923002 0.298828 
0.00695092 0.00295534 0.284727 
0.0203752 -0.0225912 0.299785 
0.00143125 -0.0196377 0.334644 
-0.0319705 0.0669226 0.235849 
-0.00810071 0.0397152 0.268482 
0.00436042 0.0319383 0.13173 
-0.00159792 0.0166568 0.159419 
-0.0206958 0.0334177 0.0527457 
-0.0106647 0.0212912 0.101386 
0.00888457 -0.0142263 -0.00717086 
-0.0153582 0.0124692 0.0564079 
-0.0538901 0.016088 0.579284 
0.124324 -0.252596 0.312884 
-0.00528674 -0.0062722 0.590176 
0.0168939 -0.120067 0.672309 
0.00325597 -0.0018541 0.29935 
-0.00043417 -0.0190487 0.339222 
0.015002 -0.0214758 0.302247 
0.0127079 -0.0277408 0.243548 
-0.0391731 0.0659971 0.239556 
0.0112978 0.0546316 0.276559 
-0.0453736 0.0130076 0.295941 
-0.0583295 0.0459143 0.37812 
0.00817505 0.00695372 0.105374 
0.0388025 -0.00168287 0.231294 
0.0272649 -0.0029884 0.133963 
0.00300456 0.000479776 0.0810071 
-0.000772393 -0.000746129 0.187284 
0.00682632 0.0307761 0.211745 
0.00262304 0.0289098 0.140686 
0.00343829 0.0116575 0.0879188 
0.00330657 -0.00458897 0.00274284 
0.00277598 -0.00451095 -0.00371545 
-0.0157776 0.0269111 0.0551138 
-0.00957475 0.0165749 0.0890918 
-0.00252215 -0.00906256 -0.0161204 
-0.0128099 0.0336593 0.0412364 
0.00132719 -0.00587522 -0.00379128 
-0.0171176 0.0157502 0.024357 
-0.00143702 -4.87862e-05 0.185162 
0.00124606 0.0303499 0.136509 
0.00759975 0.0297666 0.223549 
-0.00458186 0.0171649 0.169938 
-0.0908734 -0.0210551 0.229879 
-0.105907 -0.00427533 0.53956 
-0.146692 0.00540068 0.331622 
-0.0467667 0.0663186 0.421121 
-0.0193823 -0.0170362 0.115119 
-0.0293036 -0.0683255 0.207934 
-0.027596 -0.0379172 0.251234 
-0.00716918 -0.0180444 0.181203 
0.122962 0.0182908 0.274008 
0.0796052 -0.0625542 0.499457 
0.0272825 -0.0326337 0.434435 
0.0321096 -0.0188692 0.596799 
0.0229901 -0.000398064 -0.0159668 
-0.0230538 -0.00110125 0.0829499 
-0.0511541 0.00197051 0.0513012 
-0.0551066 0.00708396 0.111909 
-0.0399989 0.0692912 0.244327 
-0.0251873 0.0335251 0.0509725 
-0.00412638 0.0917865 0.143647 
-0.0551995 0.120289 0.14928 
-0.00651723 0.00279854 0.313253 
0.0270547 -0.0259842 0.28506 
0.00067229 0.00427777 0.292731 
0.00995716 -0.0222352 0.247322 
-0.0251011 0.00501349 0.109652 
-0.0355698 0.0196758 0.292048 
-0.0863238 0.0049876 0.250437 
-0.0667668 0.0301876 0.236753 
-0.0340811 -0.034168 0.259492 
-0.00678252 -0.0094209 0.10662 
-0.047255 -0.0560728 0.144889 
-0.0364795 -0.0766313 0.210765 
0.00220051 -0.00015875 0.301889 
0.00903917 0.00341937 0.282118 
-0.00253853 -0.0204882 0.338038 
0.00900286 -0.00302523 0.324114 
0.0175457 0.0745086 0.647141 
0.00522319 0.113561 0.508631 
0.102682 0.0556943 0.527719 
0.112562 0.147382 0.287159 
0.00143612 -0.0585226 -0.0288098 
0.0829174 -0.137989 0.309 
0.0522877 -0.0616384 0.154615 
0.0974528 -0.0800298 0.207604 
-1.10073e-05 4.12775e-06 -0.000569653 
0.00160459 0.000924598 -0.000382821 
0.00174122 0.00113979 -0.00787417 
-0.0103407 0.00749628 0.0316738 
-0.0106365 -0.000584504 -0.00765469 
0.0387433 -0.000246551 0.0889387 
0.025811 -0.00118402 0.128138 
0.0129654 0.00702343 0.109722 
0.000233418 0.000974145 -0.0104083 
0.0114722 0.00063642 0.108501 
0.0223769 -0.000821639 0.129229 
0.00523177 -6.38922e-05 0.0831704 
0.000680047 0.00216448 0.25486 
-0.00479526 0.00443478 0.282188 
-0.00502449 -0.0274308 0.324073 
-0.0014174 -0.0312792 0.247116 
-0.010571 0.10804 0.519636 
0.110796 0.142164 0.270449 
0.0210138 0.0761398 0.646359 
0.0296716 0.147178 0.324119 
-0.0599934 0.0738075 0.222808 
-0.00607546 0.00902056 0.0404354 
-0.0111954 0.0362967 0.0527431 
-0.0573424 0.0573794 0.13039 
-0.0121427 0.0934123 0.143413 
-0.032096 0.0324772 0.0528312 
-0.0241648 0.0863255 0.227758 
-0.0111752 0.0191626 0.0539056 
0.000907516 -0.00064505 0.0614055 
-0.00136659 0.000460705 0.131731 
-0.00394528 0.00606021 0.0965738 
-0.00660744 0.00314534 0.0897244 
0.0116389 0.0275071 0.204215 
0.0367029 0.0715936 0.364276 
-0.0099011 0.0319903 0.270434 
0.00551986 0.0738521 0.266622 
-0.000119684 -0.0381852 0.619071 
0.0769331 -0.165215 0.403989 
-0.0152104 -0.0738016 0.55727 
0.215902 -0.0516271 0.0837158 
-0.0455662 0.0126404 0.295255 
0.015498 0.0566946 0.272856 
-0.0101926 0.0279091 0.395592 
-0.0597234 0.0462812 0.382651 
-0.0302153 0.0205366 0.285497 
-0.0184552 0.0305654 0.211158 
-0.00056872 -0.00201632 0.265039 
-0.0131162 0.0122403 0.325887 
-0.106268 0.102733 0.320192 
-0.0482456 0.1023 0.194691 
-0.0279493 0.024729 -0.0618465 
-0.0627817 0.0598588 0.127997 
-0.0279836 0.0729832 0.238001 
0.001045 0.0302584 0.128979 
-0.0073614 0.0294758 0.272136 
-0.00453502 0.0803095 0.249712 
0.0508973 -0.0546631 0.164098 
0.00622231 -0.0407363 0.178581 
0.0164172 -0.0156762 0.189251 
0.0502515 -0.0671226 0.293246 
0.0163867 0.00233339 -0.0102824 
-0.0399911 0.00493173 0.0540098 
0.00855647 -0.00229114 0.000565086 
-0.0540011 0.00209188 0.103587 
0.00457016 -0.0181305 -0.00595833 
-0.00829779 0.0200198 0.102677 
-0.0171874 0.0391755 0.0611063 
-0.005635 0.0281002 0.0645481 
-0.125419 0.040185 0.0923721 
-0.138122 0.0420845 0.247797 
-0.0645568 0.0330546 0.120006 
0.0124074 -0.0138175 -0.0446848 
0.00196229 -0.0038425 -0.00822164 
0.002964 -0.00563217 -0.00852699 
-0.000824341 -0.000445976 -0.00258185 
-0.0129296 0.0228234 0.0342856 
0.00298364 0.000684508 0.245566 
-0.00344846 -0.0036414 0.272797 
-0.0132218 0.0220838 0.212143 
-0.0150576 0.018165 0.321857 
-0.0834752 -0.0254333 0.256016 
-0.0747969 0.0496321 0.405711 
-0.139938 0.0166609 0.317144 
-0.0675228 0.0585264 0.230027 
0.00275387 0.00542828 -0.00278077 
0.00290559 -0.0128165 0.102668 
-0.00628589 -0.0237386 0.132632 
-0.0055798 -0.00653952 0.0916445 
-0.00119557 0.000873284 0.13849 
0.0168764 0.00540577 0.106672 
9.46416e-05 -0.00252198 0.176924 
0.024502 0.000663013 0.227328 
-0.00725017 -0.0307922 0.13951 
-0.0219249 -0.0654014 0.185316 
-0.0187812 -0.0175488 0.127528 
-0.00958216 -0.0187912 0.184624 
0.00121998 -0.000784347 0.236968 
-0.0166317 0.0252916 0.206763 
-0.0110439 0.0328512 0.277789 
-0.011647 0.0162407 0.329625 
-0.000874015 -0.0015672 0.180424 
0.00793759 0.0309951 0.228257 
0.000460047 0.0363754 0.260867 
-0.00510772 0.0166286 0.167466 
-0.000258591 0.00101923 -0.00366699 
-1.35921e-05 0.00105644 0.00218513 
-0.000925274 -0.0106312 0.103683 
-0.000322059 -0.00613319 0.091188 
-0.0242005 0.00276237 0.131666 
-0.0335905 -0.000162058 0.23429 
0.00211405 0.00193189 0.155347 
-0.0114646 -0.0018294 0.0902802 
-0.0227862 -0.0863499 0.49577 
0.046834 -0.132457 0.397274 
-0.0483736 -0.14972 0.367082 
-0.0196617 -0.169982 0.0733848 
-0.000654878 0.00235205 0.000956941 
-0.00358614 -0.0211655 0.129653 
-0.00043559 0.00321913 -0.000109387 
-0.00185603 -0.00530067 0.0878484 
0.000879414 0.00242553 0.00156746 
0.000373914 0.00142667 0.0715518 
-0.00276944 -0.0109359 0.104054 
5.97152e-05 -0.00798693 0.091798 
0.102533 0.00394499 0.255315 
0.111596 0.0360797 0.531244 
0.093793 -0.0634046 0.506558 
0.0305486 -0.00120963 0.60557 
0.0398765 0.0735984 0.204182 
0.0488951 0.0795921 0.388884 
0.00405413 0.017413 0.183258 
-0.00110189 0.081088 0.266036 
0.000945081 0.00166151 0.264708 
-0.0109263 -0.0232287 0.33925 
-0.0277809 -0.0268968 0.265332 
-0.0143354 -0.00402808 0.297872 
0.102887 -0.00826446 0.304879 
0.0395946 0.00394102 0.564832 
0.0282229 -0.0273712 0.426621 
0.0515816 0.010883 0.353503 
0.000888618 -0.00161295 0.0555613 
-0.00629316 0.0133791 0.104742 
0.00110188 -0.00147864 0.00276397 
-0.00160395 0.0062609 0.0901111 
0.00366249 0.00103707 0.152081 
-0.0354727 0.000327254 0.243582 
-0.0263728 0.00501581 0.127369 
-0.0192043 0.00870243 0.185602 
0.00669532 0.0101316 -0.011589 
0.0060853 0.0128232 -0.0146087 
-0.0284157 -0.0256907 0.0442983 
-0.0191684 -0.0188119 0.0238049 
-0.11335 0.105476 0.118803 
5.42497e-05 -0.0180509 -0.0576441 
-0.125854 0.140211 0.316227 
-0.0193447 0.100447 0.193289 
0.000608621 -0.00858524 -0.0107822 
-0.0259575 0.0198452 0.0305588 
-0.0138862 0.0156944 0.0541716 
-0.0109962 0.0119236 0.0625951 
-0.0381355 0.0262982 0.289668 
-0.00129834 0.040275 0.279347 
-0.0413693 0.0631177 0.24039 
-0.0171819 0.0214565 0.20132 
-0.00970532 0.0391641 0.279155 
0.00905884 0.0334872 0.212106 
0.0297104 0.0231646 0.282237 
0.0448698 0.0554319 0.34268 
-0.000266612 0.029439 0.405691 
-0.0462979 0.0665452 0.406246 
-0.000884871 0.0296901 0.24282 
-0.00264416 0.0826914 0.278438 
-0.00750908 0.00588186 -0.00907575 
0.0164335 -0.0146893 0.0942011 
0.0188787 -0.0130726 0.113933 
0.0200742 -0.0163237 0.0655234 
-0.00187329 0.0312114 0.130003 
-0.0218765 0.0712395 0.236035 
-0.0172956 0.0364245 0.0478554 
-0.00217949 0.0847843 0.2526 
-0.0203349 0.0337132 0.0588431 
-0.0404645 0.0746924 0.214308 
-0.00798582 0.022391 0.108812 
-0.0225813 0.00978617 0.0461394 
0.023057 -0.00998342 -0.00634326 
-0.0511321 0.00878805 0.0566246 
-0.00763846 0.00546067 0.0096451 
-0.0731322 0.0154362 0.116891 
0.0422199 0.0574013 0.649414 
0.101016 0.0509213 0.542313 
-0.0108469 0.131246 0.490873 
-0.00484086 0.0541954 0.714384 
0.0026624 0.00187227 0.172853 
0.0135574 -0.000456437 0.111409 
-0.000953379 0.00195832 0.140042 
0.00834308 -0.00176511 0.0834298 
-0.00146753 -0.00143031 0.128969 
-0.000455436 0.00241943 0.182027 
-0.000156824 0.0272446 0.138981 
0.00425457 0.0102113 0.0919647 
-0.0304839 0.0608313 0.210668 
0.00011197 0.0309713 0.141481 
-0.00763182 0.020309 0.105133 
-0.00482195 0.0164882 0.168732 
0.0203545 -0.0257833 -0.0113759 
-0.0199505 0.0247642 0.0256259 
-0.0619511 0.0421125 0.076713 
-0.0209606 0.00499877 0.0223394 
0.00893 -0.0794108 0.347709 
-0.00387679 -0.0683252 0.207697 
0.0446178 -0.0673006 0.316194 
0.00988486 -0.0170436 0.234258 
0.00305596 0.00201506 0.00202079 
-0.0156394 -0.00731562 0.124238 
0.00124482 0.000700712 0.0676519 
-0.00702718 -0.00380824 0.0847005 
0.00049715 -0.0086759 -0.0172654 
0.000803546 -0.00729372 -0.00263323 
-0.0176781 0.00427477 0.080553 
-0.0422998 0.0140101 0.110885 
-0.0651031 0.0334625 0.495206 
-0.0998815 0.131984 0.378226 
-0.0399023 0.0200509 0.617613 
-0.0362343 0.203044 0.0793656 
0.00755349 0.0295879 0.140128 
-0.0405364 0.0701733 0.217386 
-0.00725708 0.0193 0.10445 
-0.00336449 0.0332494 0.0630708 
0.0110222 0.0108983 -0.00836425 
-0.0143587 -0.0210843 0.0746333 
-0.0160111 -0.0195535 0.0285242 
-0.0174982 -0.0157307 0.0769505 
-0.0129148 0.023595 0.394544 
0.000444059 0.0514883 0.274029 
-0.032383 0.0163372 0.293905 
-0.0132795 0.0086589 0.325084 
-0.00348728 0.042076 0.263464 
0.0156634 0.024272 0.225317 
0.00133971 0.031978 0.134763 
-0.0122783 0.0212821 0.169427 
0.00117531 0.00696051 0.00814332 
-0.0281605 -0.00992278 0.0418479 
0.0104529 0.00697769 -0.0058496 
-0.0173034 -2.1073e-05 0.0221051 
0.0144799 -0.00548088 -0.0206097 
-0.0457439 0.0227383 0.0819197 
-0.0271282 0.0200976 0.0306482 
-0.0180854 0.00806466 0.0708864 
-0.0743245 -0.00109772 0.244711 
-0.0431297 0.0106215 0.28383 
-0.0331292 0.0155184 0.119386 
-0.0264395 -0.00938601 0.246706 
0.0356036 -0.016846 0.297976 
0.0285058 -0.00316022 0.238616 
-0.00282597 0.000816779 0.230836 
0.0254587 -0.0114466 0.188664 
0.00674156 -0.00495475 -4.29062e-05 
-0.00991027 0.000429596 0.094861 
-0.0157754 0.0137683 0.119239 
-0.00361722 0.00819472 0.0883607 
0.0268494 -0.0230344 0.300156 
-0.010143 -0.0178971 0.341014 
0.0103684 -0.0754695 0.349736 
0.0137152 -0.0222442 0.239833 
0.0537027 -0.016719 -0.0677711 
-0.0592882 -0.0168783 -0.0147589 
-0.189499 -0.023823 0.32569 
-0.172884 0.0116391 0.289059 
-0.0831314 -0.0127599 0.253635 
-0.0372318 -0.0167312 0.0558544 
-0.0534592 0.0151276 0.0609626 
-0.134302 -0.0804215 0.227625 
0.0100816 0.00999409 -0.00195578 
-0.0152375 -0.0175752 0.0276299 
-0.0348192 -0.0246897 0.0535495 
-0.0171728 -0.0140711 0.0659457 
-0.00967584 0.0160676 -0.0189169 
-0.0363488 -0.0323138 0.0765133 
-0.0229183 -0.00812701 0.0153786 
-0.0449153 -0.0815762 0.0881947 
0.00188187 -0.0026824 -0.0090485 
0.00344509 -0.00490074 -0.00245694 
0.00130405 -0.00185311 0.00183748 
-0.0168089 0.00683651 0.0482345 
-0.014778 0.00738661 -0.00679544 
0.0177686 -0.0173499 0.0945309 
0.0227194 -0.0137704 0.0637199 
0.0169241 -0.0165934 0.0488782 
0.101269 -0.0148538 0.278316 
0.0970551 0.0471583 0.509213 
0.042843 0.0115718 0.596272 
0.053811 0.00706734 0.339683 
0.0536194 -0.0563704 0.160141 
0.0142305 -0.0141627 0.180223 
0.0535282 -0.0270211 0.21225 
0.0533731 -0.0692813 0.305977 
0.0514889 -0.0304536 0.602302 
0.166592 -0.0304476 0.304397 
0.100196 -0.082695 0.520945 
0.158679 -0.108304 0.15191 
-0.0037678 -0.0261726 0.340343 
-0.00307064 -0.0326712 0.241632 
-0.00207185 -0.074349 0.321133 
0.0188485 -0.0205681 0.255892 
0.0015665 0.000173019 0.186273 
1.0194e-05 -0.00333757 0.12417 
-0.00155621 0.028901 0.139069 
-0.00282294 0.0177958 0.169138 
-0.00482127 -0.0471391 -0.13307 
-0.112364 0.00775187 0.410789 
-0.147964 -0.0332471 0.0571782 
-0.153313 0.00451946 0.308935 
0.0307969 -0.00072546 0.127979 
0.0409243 0.00393812 0.0836264 
-0.0188452 -0.00352295 -0.00452029 
0.0128002 -0.00223546 0.0429947 
0.011123 -0.0105897 0.764148 
0.036801 -0.0393227 0.742215 
0.217142 -0.02362 0.304821 
0.149498 0.040549 0.393787 
0.0008884 0.0313165 0.135725 
0.020681 0.0711115 0.201643 
0.0190209 0.0176609 0.217329 
-0.00298979 0.0816508 0.250466 
-0.00173964 -6.03488e-05 0.128216 
0.000699241 -0.000422184 0.121174 
0.000634251 0.00205702 0.181363 
0.00138708 0.0101913 0.0944101 
-0.154423 0.0600232 0.201577 
-0.121861 0.0814632 0.365632 
-0.045916 0.0302936 0.0214679 
-0.134888 0.0174049 0.299393 
0.0308988 -0.0167821 0.296671 
0.0110063 -0.0814372 0.359409 
0.039955 -0.065578 0.30591 
0.0106122 -0.0154831 0.22552 
-0.0079308 -0.030416 0.133392 
0.0032619 -0.0101618 0.102244 
0.00427621 0.00929361 -0.00298703 
-0.00264141 -0.0201156 0.0711767 
0.00947819 -0.00966245 -0.0133838 
-0.0273193 0.0384599 0.0286103 
0.0124927 -0.0116868 -0.00688324 
-0.00884905 0.018767 0.0188036 
0.0069383 0.0008957 -0.00692329 
-0.0206887 0.00331299 0.121229 
-0.025031 -0.00109491 0.0839437 
-0.0465126 0.00916425 0.113525 
-0.000660785 -0.000506581 0.0667372 
0.0012438 0.000864308 0.00118888 
0.00112205 0.000270552 0.00145776 
-0.0115999 -0.0045766 0.123615 
-0.0220562 -0.00267308 0.0830254 
-0.0452705 -0.00363838 0.238172 
-0.0250798 0.00689339 0.129433 
-0.0038385 0.000852756 0.0875087 
0.00109413 -0.00155243 -0.00176113 
0.00265311 -0.00217443 -0.0163741 
-0.0125447 0.015917 0.100935 
-0.00840779 0.0128138 0.0631143 
-0.010614 0.0017136 0.0987574 
-0.077693 0.0360637 0.245504 
-0.0902635 0.00134863 0.252684 
-0.0537352 0.00615512 0.116689 
0.0213871 0.00289412 -0.00994809 
-0.0470563 -0.00388031 0.0393333 
-0.0272713 -0.00104858 0.0730512 
-0.0181412 -0.00711611 0.00971951 
0.0477872 -0.0583288 0.15387 
0.0141655 -0.0348218 0.181698 
0.00973806 -0.0172982 0.0870873 
0.0151367 -0.0147984 0.200968 
0.0026415 0.00147085 0.00125513 
0.003861 0.00230558 -0.0153236 
-0.0254961 -0.0147208 0.0494486 
-0.0138947 -0.0113856 0.0275566 
0.0417745 -0.0262836 0.620998 
0.104233 -0.0835217 0.501797 
0.0601427 -0.148403 0.371631 
0.167706 -0.113579 0.152125 
0.00535223 0.0469285 -0.080686 
0.0969288 -0.205904 0.320392 
0.0118984 -0.0352901 -0.0319119 
0.0901944 -0.0821834 0.207564 
0.000296678 -5.58411e-05 0.00153607 
0.000688614 -0.000301683 -0.00812561 
0.000739562 -0.000185391 0.000690885 
-0.00439567 -0.0153769 0.128422 
7.05617e-05 -0.000869466 0.0675209 
0.0011231 0.000523439 0.000794471 
3.3449e-05 -0.000177008 0.0762672 
-0.0138755 -0.00486855 0.124902 
-0.0339428 0.0624328 0.227564 
-0.0197364 0.0215376 0.209095 
-0.00829358 0.0418611 0.270947 
-0.00074592 0.0172171 0.16125 
0.0618799 -0.019619 0.0899825 
0.14773 -0.0291114 0.248547 
0.092682 -0.00343121 0.313375 
0.0854326 0.0253841 0.131246 
0.00265712 0.00763545 -0.00118511 
-0.00795632 -0.0275752 0.130996 
-0.00790277 -0.0214494 0.0755437 
-0.00230847 -0.00536348 0.0886164 
0.17722 -0.0327418 0 
-0.135103 -0.0150877 0 
-0.148749 0.0284752 0 
-0.18684 -0.0675202 0.419912 
9.62183e-05 0.000815033 -0.00692347 
-2.32465e-06 3.116e-05 0.00121422 
2.72215e-06 7.61538e-06 -0.000513823 
-0.0147119 0.00356578 0.120183 
0.00117152 -0.00689206 -0.0144718 
-0.000374994 -0.00363544 -0.00386966 
-0.011678 0.0238952 0.0378113 
-0.00705233 0.020558 0.0172101 
-0.0170749 0.0135786 0.120912 
-0.00875327 0.00129822 0.094001 
0.000485544 0.00060015 0.135092 
-0.00389372 0.00781222 0.088409 
0.0952433 0.0434625 0.0807843 
-0.00312749 -0.000338779 -0.0273636 
0.0909353 0.0427606 0.16739 
0.095107 0.0241916 0.128922 
-0.177028 0.0200663 0.327187 
-0.052222 0.0534516 0.407594 
-0.0666139 -0.0110401 0.555347 
-0.122361 0.0506576 0.565736 
0.0130971 -0.00973766 0.0154765 
0.00457524 -0.0443529 0.0461254 
0.0543662 -0.0539564 0.155231 
0.100908 -0.0702556 0.12229 
0.00119041 0.000941522 0.274567 
-0.00132675 -0.00362702 0.273596 
0.000880087 -0.00124556 0.219308 
-0.0327536 0.0171976 0.263687 
-0.00631526 0.0370394 0.137813 
0.0313178 0.0631815 0.196372 
0.00743035 0.0369746 0.0755559 
0.0113275 0.0231382 0.222228 
0.000800157 -0.00408987 -0.0126459 
-0.0164333 0.00960663 0.0219085 
0.000807791 -0.00210763 -0.00132854 
-0.00928018 0.00671103 0.0191146 
0.00126312 -0.000770332 0.00280948 
0.00120194 -0.000695304 0.000645768 
0.000126485 -6.40251e-05 -0.000423652 
-0.00574518 -0.00490318 0.0119231 
-0.056662 0.0234255 0.0973397 
-0.00884036 0.0233896 0.0557635 
-0.0228637 0.0232044 0.0228647 
-0.0170165 0.00439741 0.0712548 
0.00247658 0.00188953 0.000522821 
0.00430156 0.00628438 -0.00358488 
-0.0189025 -0.00823736 0.0554233 
-0.0190082 -0.00498007 0.0151978 
0.0594772 -0.00887919 -0.083949 
-0.177163 -0.0730437 0.289158 
-0.0573768 -0.0303505 0.0243239 
-0.0840382 -0.064433 0.163765 
-0.007164 -0.0808033 0.341312 
-0.00128815 -0.032819 0.237411 
-0.0396033 -0.0252963 0.26585 
-0.0270189 -0.0749988 0.214209 
0.000492093 -0.00060011 0.0533318 
-6.58411e-05 -0.00024562 0.000577868 
-0.00049329 0.00100055 0.0753529 
-0.00263989 0.00535852 0.0931683 
0.00287372 0.000593358 0.218544 
-0.0330476 0.00368058 0.239667 
0.00377635 7.42787e-05 0.152125 
-0.0208954 0.00580449 0.188446 
-0.0212589 0.0366348 0.0609178 
-0.00768134 0.0203823 0.105292 
-0.0400145 0.0748247 0.217516 
-0.00102141 0.0310273 0.0591532 
-0.00270799 0.148479 0.499749 
0.0225697 0.149616 0.336476 
0.0314757 0.0320174 0.633984 
-0.0135912 0.0634104 0.743936 
0.0419893 -0.03556 0.421632 
0.0713219 -0.0330764 0.210669 
0.0352684 -0.0264318 0.286767 
0.0408996 -0.0568418 0.313965 
0.00602354 0.00291976 0.000476001 
0.00559703 0.00434372 -0.00657665 
-0.0223263 -0.000361564 0.119088 
-0.0265203 -0.00351441 0.0822962 
-0.0836468 -0.038234 0.0396006 
0.024905 -0.0199126 -0.0288138 
-0.170681 -0.0796245 0.192938 
0.024011 0.0156978 0.000947658 
0.0378349 0.0196005 0.604975 
-0.186186 0.138353 0.36915 
-0.0228738 0.0288607 0.505496 
-0.0381408 0.0739531 0.744256 
0.0798058 -0.00886305 0.312157 
0.0565975 -0.031563 0.207288 
0.0596385 -0.0397773 0.425048 
0.0535082 -0.0558838 0.317459 
0.101853 -0.0847789 0.507085 
0.17198 -0.0219257 0.33018 
0.0526523 -0.032507 0.589837 
0.0524742 -0.046659 0.714368 
0.00176616 0.00279072 0.00113564 
-0.0096727 -0.0257033 0.128505 
0.00613201 0.00652344 -0.0100343 
-0.00772118 -0.0216435 0.0758049 
0.00621767 0.0468669 -0.0617326 
0.0684255 0.10451 0.279548 
0.0405352 0.0958948 0.215263 
0.0422563 0.126255 0.297995 
0.057051 0.131816 0.145546 
0.0788018 0.115594 0.283959 
-0.0113582 -0.00173346 -0.073894 
0.0443393 0.144708 0.301433 
-0.000937561 -0.00263079 0.415116 
-0.00463603 0.126237 0.443367 
-0.0513197 0.0536686 0.407343 
-0.0027618 0.104282 0.27177 
0.0827549 -0.0124107 0.32567 
0.136547 0.0339599 0.490527 
0.0902579 0.0957587 0.112386 
0.159577 0.0424123 0.345706 
0.0139033 0.00977166 -0.0112966 
-0.0260757 -0.00814129 0.0773939 
-0.0371481 -0.0188812 0.0529753 
-0.0165291 -0.0039742 0.010602 
0.00111791 0.000352812 0.0778107 
-0.0177011 -0.00534323 0.125727 
0.00281648 0.000985598 0.00156265 
-0.00905711 -0.00248319 0.0962231 
-0.00546356 -0.00281484 -0.000395866 
0.0281848 0.00486753 0.088396 
-0.00417607 -0.00187885 -0.00149246 
0.0141584 0.00395119 0.101857 
0.00491222 0.0946873 0.141447 
0.0521453 0.0393289 0.0240726 
0.0265527 0.0745248 0.212325 
0.00671261 0.141651 0.222222 
0.0083594 -0.00625039 -0.010733 
0.0116142 -0.0105115 -0.00772972 
-0.0241618 0.0143383 0.0195589 
-0.0179084 0.0079689 0.0171197 
0.0269382 -0.00831262 0.127614 
0.0462639 0.0132103 0.0835368 
0.0873643 0.000119765 0.270872 
0.0444747 0.0161745 0.184563 
0.0181236 0.0127681 -0.00573638 
-0.0388776 -0.0205238 0.0620543 
-0.0242276 -0.0115083 0.119742 
-0.0155237 -0.0148754 0.0732985 
-0.00018174 0.00284428 0.00353073 
0.00340465 0.00463787 -0.00411022 
-0.0113557 -0.0183187 0.0282905 
-0.0120098 -0.0146934 0.0616542 
-0.110104 -0.00545208 0.25313 
-0.0508989 -0.0145622 0.37166 
-0.0799451 -0.0158642 0.514454 
-0.053031 0.044836 0.411079 
0.0865844 -0.00017652 0.313988 
0.0819606 0.0620994 0.171174 
0.109661 0.00986112 0.116603 
0.158373 0.0485746 0.302539 
0.000619756 0.000376765 0.194283 
0.00393043 0.00052774 0.186861 
-0.00501762 0.0327601 0.252287 
-0.0037183 0.0172453 0.169339 
-0.106496 0.0801702 0.261985 
-0.0277605 0.0438187 -0.0126081 
-0.0599149 0.0326807 0.120237 
-0.050878 0.0510802 0.132157 
0.000538494 0.00251418 0.00156592 
0.000440474 0.00544523 -0.0124149 
-0.00507143 -0.0258025 0.129987 
-0.00286072 -0.0187639 0.071207 
-0.00646743 -0.0308073 0.139133 
-0.0138463 -0.0236961 0.0684781 
-0.019711 -0.0176583 0.128129 
-0.0196809 -0.0656758 0.184513 
0.00758825 0.00796209 -0.00872225 
-0.0156366 -0.019926 0.118003 
-0.014603 -0.0195647 0.0748367 
-0.0144099 -0.0170711 0.0767453 
0.00173254 0.00259174 0.274423 
-0.00256511 -0.00189608 0.263428 
-0.0314513 0.0128522 0.279198 
-0.0179548 -0.00086602 0.301177 
-0.0686383 -0.00750359 0.221761 
-0.0289088 0.0124343 0.128897 
-0.0299585 -0.00357527 0.0780098 
-0.032582 -0.00409451 0.245622 
0.0936464 0.0297848 0.314372 
0.0435923 -0.0908701 0.315232 
0.0576473 -0.042816 0.42495 
0.0881149 -0.0438855 0.296664 
-0.0221877 0.0114036 0.122995 
-0.00874563 0.02181 0.107872 
-0.0349051 0.0645724 0.208823 
-0.0220832 0.0155408 0.0513791 
0.00706174 4.5041e-06 -0.0112848 
-0.0156906 0.00645281 0.0710263 
-0.0228609 0.00405012 0.122604 
-0.048099 0.00968709 0.11445 
-0.0167141 -0.00185665 -0.0205244 
-0.0642237 0.0283665 0.124385 
-0.141887 0.114335 0.257697 
-0.00916934 0.0166155 -0.00525406 
-0.0156017 0.0419938 0.279465 
0.0462204 0.0557965 0.346985 
0.0330521 0.021307 0.280964 
0.00272109 0.0180401 0.307612 
0.0340391 -0.0289574 0.294572 
0.04672 -0.0378266 0.42378 
0.0695674 -0.0079517 0.311329 
0.0681449 -0.0310166 0.207784 
0.0126616 -0.0403008 0.173023 
0.0419662 -0.0697349 0.296052 
0.0075482 -0.0574332 0.216002 
0.00660533 -0.0202611 0.249555 
-0.000352415 -0.000500272 0.193039 
0.00110122 0.00034913 0.187462 
0.000681766 0.000441434 0.248694 
-0.00268249 0.0330202 0.251991 
-0.000369809 0.00165423 0.28958 
0.00165293 0.00357279 0.243568 
-0.000270128 -0.000127968 0.231432 
0.0278269 -0.0235734 0.276405 
-0.0550251 -0.0125727 -0.118837 
0.0619584 -0.0862472 0.0735145 
0.136399 -0.106344 0.402121 
0.105644 -0.0918355 0.194038 
-0.049712 -0.015453 0.0588283 
-0.127801 -0.0669479 0.215059 
0.0134699 -0.0184266 -0.0276356 
-0.0160564 0.000560795 -0.0245097 
0.0312052 0.0187916 0.614591 
0.152953 0.0425283 0.507579 
-0.0194592 -0.00490586 0.783792 
0.182356 0.0365323 0.368891 
-6.10272e-05 -2.72374e-05 -0.00168739 
-0.000315984 -0.0001632 0.00124017 
0.000181799 0.000108661 -0.0073575 
-0.00724673 0.0105729 0.0927452 
-0.0251186 0.0625325 0.613206 
-0.0959625 0.102643 0.362978 
-0.0183981 0.12371 0.521092 
-0.0841099 0.184641 0.134962 
-0.00657749 0.0859233 0.137743 
-0.005987 0.0201115 0.0492244 
-0.0333542 0.0788236 0.235606 
-0.0114571 0.0994527 0.251339 
0.129604 0.0346623 0.509698 
0.0359707 -0.0410469 0.736726 
0.0166706 -0.0073494 0.757963 
0.160923 0.0520175 0.405869 
-0.00495845 -0.0758703 0.321972 
-0.00212218 -0.0317729 0.24033 
-0.000307665 -0.0596104 0.212457 
0.020642 -0.0191154 0.254063 
0.00267926 -0.00480807 0.547161 
-0.00222197 -0.0308686 0.748695 
0.0046821 -0.0254884 0.604641 
0.0377174 0.283223 0.409961 
-0.0235045 -0.00855843 0.119397 
-0.0420943 -0.0144465 0.068246 
0.0198564 0.00401263 -0.00479139 
-0.0257167 -0.00235689 0.0837224 
0.000283305 0.00106332 0.127093 
-0.0208832 -0.00633532 0.133034 
0.00230267 0.00164154 0.0743712 
-0.00924652 -0.00177784 0.0960603 
0.0596332 -0.0260879 0.0955343 
0.107722 0.0137424 0.289567 
0.0372844 0.00313101 0.0730995 
0.091794 0.0119053 0.131778 
-0.0131053 -0.0149837 0.123127 
-0.00671617 -0.0229137 0.0617064 
-0.0425628 -0.0544832 0.140124 
-0.03484 -0.0716633 0.196089 
0.00111493 0.0100906 -0.00510224 
-0.0105971 -0.0223551 0.114386 
-0.00109129 0.0042225 -0.000919261 
-0.00979789 -0.0205691 0.072745 
-0.000202139 -0.000175968 -0.000944688 
-0.00283194 -0.00188556 -0.00117406 
0.000625668 0.000452307 0.000765738 
0.000755109 0.000476286 -0.000702286 
-0.00145783 0.0339296 0.244108 
0.029851 0.0667704 0.392465 
-0.00119008 0.0304592 0.410979 
-0.0016615 0.0793139 0.274077 
0.00215974 0.000213196 -0.00165688 
0.00137727 0.00256714 -0.00382047 
0.00255357 0.000247353 -0.00367657 
-0.0215787 -0.0109435 0.0268499 
0.0823733 -0.00524847 0.318868 
0.0990683 0.0597675 0.152322 
0.120672 0.0612588 0.452565 
0.0600888 0.0501698 0.206363 
1.06692e-05 -7.79118e-05 0.00253125 
-0.000385605 0.00147756 -0.00245348 
2.68182e-05 1.6329e-05 -0.00775185 
-0.011468 -0.00259184 0.0629291 
0.0556358 -0.0507612 0.159148 
0.0146918 -0.0113233 0.110204 
0.0519912 -0.0325166 0.210171 
0.010675 -0.0175676 0.197054 
-0.0193614 -0.0165523 0.528305 
0.00380701 -0.0150599 0.576502 
-0.00677272 -4.38054e-06 0.711496 
-0.00759735 -0.105524 0.697334 
0.00624477 0.0198415 -0.0154973 
-0.164879 -0.0659339 0.204524 
-0.0407544 -0.00508497 0.0707687 
0.00703857 -0.00254271 -0.0313666 
-0.02997 -0.0357765 0.258 
-0.0298528 -0.0720837 0.216189 
0.000729726 -0.029886 0.245814 
-0.00599331 -0.0149999 0.171395 
0.0377336 0.0613219 0.190875 
0.0507586 0.0493091 0.215273 
0.00483689 0.01121 0.10657 
0.01324 0.0132045 0.174828 
0.0114093 -0.00467156 -0.0129131 
-0.0213495 0.00387004 0.024383 
-0.0135145 0.00932711 0.0720112 
-0.0557492 0.0115497 0.115119 
0.00194245 0.000567513 0.172975 
-0.000388743 0.000908168 0.139158 
-0.000379846 -9.0142e-05 0.115884 
0.00776947 -0.000261545 0.084493 
0.00917757 0.00283205 -0.00208183 
-0.0244614 -0.00907253 0.123916 
-0.0218823 -0.00375197 0.0858712 
-0.00596322 0.00180624 0.0971127 
0.0374164 0.069849 0.212907 
0.0300075 0.0176529 0.277254 
0.0051921 0.0334714 0.203275 
0.048749 0.058984 0.355171 
0.00538351 0.00225514 0.000946604 
-0.0208123 -0.00896987 0.109499 
0.00663685 0.00338584 -0.00231534 
-0.0296082 -0.012802 0.0648306 
-0.00206294 -0.010802 0.10354 
-0.000669487 -0.00749428 0.0907633 
0.000128501 0.00147035 0.0715065 
-0.00187099 -0.0151014 0.159133 
0.00349724 0.0342221 0.259664 
-0.0423854 0.0723278 0.406567 
-0.0502552 0.0733279 0.230003 
-0.00874101 0.0751256 0.265688 
-0.0017269 0.00279863 -0.00329287 
0.00014586 7.42037e-05 -0.00512318 
3.64486e-05 -0.000207006 0.00264222 
-0.00909392 -0.00558248 0.0354404 
0.00199715 -0.00326968 -0.00237899 
-0.019282 0.00663798 0.121939 
0.00152248 -0.00176187 0.00019249 
-0.00581383 0.000958985 0.0932286 
-0.0069329 -0.0427144 0.0547077 
-0.00932348 -0.0233046 0.076179 
-0.000291291 0.0210342 -0.010075 
0.00319966 -0.0232445 0.0708537 
0.00428859 -0.00608583 -0.00058508 
0.0009423 -0.00343768 -0.00376661 
-0.0127314 0.0193617 0.0402011 
-0.0206873 0.019748 0.0231967 
0.000297419 0.00170157 0.184616 
-0.000466398 -0.00355952 0.12142 
0.00711214 0.0255629 0.211574 
0.00276831 0.0130771 0.0893177 
-0.00884124 0.0451027 0.624142 
-0.0924254 0.19318 0.119448 
-0.0133039 0.118104 0.52039 
0.0126151 0.130636 0.319451 
-0.0534944 0.066456 0.21836 
-0.0168018 0.00989462 0.121673 
-0.0117629 0.0155672 0.0444799 
-0.0526141 0.0541189 0.129956 
0.0489788 0.0783887 0.158515 
0.0989588 0.0110308 0.188473 
0.101431 0.0753244 -0.00392298 
0.161003 0.0585385 0.452705 
0.00156081 -0.00358826 0.0511119 
-0.00770787 0.0161916 0.11122 
-0.000465004 -0.000555482 0.109656 
-0.00458618 0.00620807 0.0859428 
-0.00215897 0.00134272 -0.0126331 
-0.00269871 0.00126936 7.96495e-05 
0.0142219 -0.0104099 0.116374 
0.014897 -0.0119546 0.09595 
-5.5949e-05 -0.00593402 -0.000562684 
0.00233962 0.00933488 0.0935353 
-0.00213501 0.00835168 0.0905863 
0.000869495 0.013544 0.0624891 
0.0115482 -0.0328116 0.175519 
0.0128373 -0.0194928 0.196188 
-0.000978386 0.0013202 0.158645 
0.00444538 -0.00819303 0.0848194 
0.0577019 -0.055349 0.159158 
0.0101022 -0.033756 0.170673 
0.0451714 -0.0844024 0.309222 
0.0303091 -0.0681031 0.170418 
-0.0052075 -0.0347244 0.140916 
-0.016081 -0.0427912 0.0459698 
-0.0244164 -0.0755811 0.194424 
0.0106734 -0.0267927 0.0652431 
-0.02134 -0.0138907 0.129165 
-0.0440427 -0.00504253 0.231768 
-0.0230503 -0.00185286 0.0866529 
-0.00615245 0.00192446 0.0918333 
0.000156214 0.00169664 0.00579943 
0.00012509 0.00141534 0.0023819 
-0.000124956 -0.00140248 -0.00283166 
-0.00794529 0.00462548 0.014383 
0.000677656 0.000165371 0.261492 
-0.00113777 0.00074502 0.31067 
7.7779e-05 0.00303471 0.291796 
0.00887706 -0.0179416 0.251061 
-0.040731 -0.0149049 0.0660612 
-0.104053 -0.062468 0.215083 
-0.0447712 -0.012983 0.0567104 
-0.0275319 0.00455283 -0.0330191 
0.00264152 -0.00162248 -0.00537591 
0.00161021 -0.000929158 -0.000162371 
8.36453e-05 -3.94853e-05 0.000448395 
-0.00887571 -0.00368545 0.0114435 
0.176621 -0.0570357 0.303007 
0.0775075 -0.00276347 0.742768 
0.104304 0.0354909 0.526275 
0.144751 0.0290817 0.39678 
-0.00552983 -0.00331918 0.00573748 
-0.0347749 -0.0200973 0.0389758 
0.0117306 0.00915721 -0.00780134 
-0.0199647 -0.0179522 0.0233937 
0.038543 0.071718 0.140122 
0.0770937 0.107517 0.29802 
0.0182533 0.13056 0.501616 
0.0161256 0.144937 0.326064 
-0.00279352 2.34912e-05 0.297781 
0.0127599 0.00121228 0.330014 
0.00173948 -0.0112839 0.348008 
-0.00524062 0.0090781 0.328685 
0.0022916 0.00153247 0.16065 
0.00972895 -0.0327397 0.178549 
-0.00121072 -0.0145745 0.0959472 
-0.00025402 -0.0154821 0.163119 
-0.0107312 0.0314203 0.278117 
-0.0273931 0.0350748 0.206421 
-0.0279182 0.0304112 0.289482 
-0.00364062 0.00630046 0.330618 
0.0501488 -0.0273864 0.203822 
0.052925 -0.0685163 0.319733 
0.0813088 0.00334503 0.310342 
0.0970096 -0.0476079 0.285503 
-0.00072298 0.00106221 0.0784532 
0.0132895 -0.0106133 0.119573 
-0.00324871 0.00320727 0.00169737 
0.00622441 -0.00677919 0.106274 
0.0870443 -0.00405501 0.325834 
0.115248 0.0279399 0.0636024 
0.131414 -0.0177419 0.315688 
0.15963 0.0374099 0.336622 
-0.0274593 -0.00163205 0.121953 
-0.0427107 0.0236717 0.283648 
-0.0605322 0.0351588 0.228075 
-0.0215196 0.0107578 0.179621 
0.046831 -0.0522189 0.144881 
0.00943941 -0.0181094 0.0924902 
0.0193638 -0.0103825 0.120085 
0.0164333 -0.0173726 0.195916 
0.00253348 0.00276211 -0.00294404 
0.00170967 0.00134262 0.00212846 
-0.0178737 -0.00818506 0.125224 
-0.00676585 -0.000870759 0.0955317 
0.00760969 0.0270938 0.401993 
0.0377299 0.0534911 0.381688 
-0.0152992 0.0479909 0.260575 
0.0050538 0.0199666 0.294218 
0.00151016 8.36041e-05 0.216114 
-0.0389667 0.0144295 0.279144 
0.00289499 -0.0037493 0.266202 
-0.0292327 0.000353541 0.239455 
-0.00525868 -0.013101 -0.0104943 
-0.0122409 0.0187925 0.0527499 
-0.00381588 -0.00757572 -0.00649671 
-0.00402768 0.0171288 0.0623689 
0.000475754 -2.3536e-05 0.0616602 
-0.000547454 -7.91781e-05 0.131652 
-0.000209694 -0.000492561 0.0820658 
-0.00396168 0.00591092 0.096474 
-0.00139133 0.00471758 -0.0163747 
-0.00244641 0.00264155 -0.00711024 
-0.00467131 -0.0215381 0.0349279 
-0.00351227 -0.0132089 0.0255169 
-0.00141094 0.000407205 0.125651 
0.000192469 0.000623099 0.1428 
0.00835744 0.021313 0.205727 
0.0026783 0.0110865 0.0903713 
-0.000239916 -0.000698032 0.232 
0.0298246 -0.0240825 0.28189 
0.000933752 0.00509615 0.240437 
0.0211025 -0.0096193 0.191225 
0.000234576 0.00182191 0.157293 
-0.000960319 -0.000677155 0.2062 
0.0100412 -0.0333658 0.181914 
-0.000139567 -0.0154911 0.163272 
-0.00784155 -0.0374429 0.126516 
0.00269405 0.0138787 -0.00999859 
-0.00608509 -0.0233528 0.076239 
-0.00336342 -0.0205018 0.0707243 
0.00974704 0.0115373 -0.0105496 
-0.0166414 -0.0289971 0.0286217 
0.00983316 0.00920188 -0.00808946 
-0.0134066 -0.0215709 0.0195241 
0.029975 -0.035494 0.271107 
-0.0439891 -0.00032569 0.534907 
-0.00689844 0.0280431 0.568154 
0.117916 -0.269217 0.375565 
0.0516282 0.0153317 0.609111 
0.0731873 0.0401348 0.531192 
0.181931 -0.0600647 0.3245 
0.116623 -0.149401 0.0791941 
-0.0102499 -0.00640564 -0.0215303 
0.0126938 -0.0265814 0.0436376 
0.0174218 -0.0217032 0.0173002 
0.0968559 -0.0640616 0.121319 
0.000929068 -4.46207e-05 0.273804 
-0.0321442 0.021798 0.274512 
0.00103006 -0.000913987 0.203884 
-0.0183097 0.0219796 0.211309 
0.0587463 0.0609499 0.191376 
-0.00058839 0.137237 0.458614 
-0.00061027 0.0977231 0.255716 
0.0100913 0.152199 0.304987 
-0.00127191 -0.00113519 0.304781 
0.00919943 0.00125679 0.314192 
-0.00837413 -0.00705943 0.337492 
-0.00706439 0.00364436 0.322879 
0.00111979 -0.00369119 -0.00402471 
-0.00033437 -0.00379614 -0.00177691 
0.00121477 -0.000441293 3.38054e-05 
-0.0108938 0.0222919 0.0181594 
0.0010073 -0.00177749 0.0549171 
0.00160825 -0.00217848 0.00149854 
-0.00649847 0.0136632 0.10549 
-0.00384301 0.00578372 0.0844643 
-0.0156901 -0.0212844 0.0148143 
-0.00822906 -0.025797 0.075254 
-0.0403111 -0.0497569 0.123538 
-0.0220429 -0.0120394 0.0783151 
-0.0376813 -0.0118931 0.0675944 
-0.0281898 0.00230857 0.0947179 
-0.0498769 -0.00867623 0.0527566 
-0.0179391 -0.015043 -0.0203233 
0.0895233 -0.0943432 0.478498 
0.0495018 -0.0660117 0.292236 
0.0646526 -0.14844 0.376295 
0.123115 -0.05054 0.275374 
0.0225058 0.0163408 0.132201 
0.00455068 0.0212354 0.118119 
0.0511258 0.0371786 0.201512 
0.0126734 0.0177737 0.175642 
0.00589767 -0.00137442 -0.00192023 
-0.0210224 -0.000251743 0.0841206 
-0.0249296 0.00378462 0.1214 
-0.00555712 0.00036969 0.0940744 
0.0157567 0.00482508 0.101847 
0.0300136 0.0038145 0.235626 
-0.00354079 -0.000476053 0.1354 
0.019627 0.00783995 0.199118 
-0.00152796 0.00134443 0.156295 
0.0134949 -0.0319861 0.17989 
0.000912049 -0.000273417 0.196763 
0.0123859 -0.0200023 0.196554 
0.0750193 0.0909341 0.219527 
0.123373 0.0374665 0.0572349 
0.0839786 0.11514 0.334119 
0.11871 0.0699212 0.347222 
-5.13505e-05 -0.0218291 -0.00730113 
0.00774503 0.0375386 0.031715 
0.00481245 0.0351365 0.0683432 
-0.000653179 0.0163907 0.0151111 
0.000254389 -0.000377466 0.24793 
0.00113865 0.0381289 0.26382 
-0.000913923 -0.00180386 0.180001 
0.00662947 0.0265498 0.220581 
0.000386355 -0.000120989 0.13151 
0.00167444 0.00960778 0.0954374 
-0.000829095 0.0253337 0.1298 
-0.00202767 0.00756809 0.090591 
-4.01746e-05 0.000560438 0.12579 
-0.00325303 0.000184549 0.197284 
0.00123892 -0.0029156 0.143831 
-0.0214836 -0.00526575 0.135762 
-0.0570935 0.0648637 0.227552 
0.00377514 0.0951954 0.260372 
-0.016894 0.141914 0.457445 
-0.0522435 0.11489 0.201052 
-0.0826085 -0.0110974 0.257758 
-0.131692 -0.0399236 0.317652 
-0.0853993 -0.00346774 -0.0119561 
-0.142465 0.00281229 0.284876 
-0.000911306 0.000675049 -0.00166776 
-0.000951545 0.000669616 0.00548225 
2.90669e-05 -3.06034e-05 0.00191289 
-0.00587377 -0.00886942 0.0175366 
-0.000954486 -0.0096571 -0.0159187 
0.00382935 0.0229155 0.0193832 
0.00398696 0.0275989 0.0712007 
0.000416445 0.01466 0.055248 
0.0306025 0.0770476 0.20316 
0.00765063 0.0135675 0.06525 
0.00488935 0.0886083 0.141239 
0.00499106 0.103995 0.255649 
0.0457681 0.0113042 -0.104465 
-0.103614 0.0425529 0.0871515 
-0.055332 0.0392496 0.0898842 
-0.181943 0.0847313 0.396382 
-0.0396151 0.0357584 0.0104644 
-0.0977959 0.022445 0.110404 
0.032087 0.0102768 -0.0239521 
-0.0283125 -0.00309651 0.023095 
0.0819851 0.0941388 0.130688 
0.0975955 0.115518 0.249992 
0.0898005 0.0415506 0.188334 
0.0191128 0.0507297 0.00889205 
0.0765674 -0.0766335 0.517007 
-0.00827013 -0.0863683 0.33104 
-0.00468598 -0.101652 0.612608 
0.00110024 -0.135304 0.29298 
0.0929862 0.0128964 0.24552 
0.133317 -0.0254753 0.313242 
0.119762 0.0277023 0.520589 
0.155251 0.0279201 0.390503 
0.00503836 -0.00674753 -0.00510153 
-0.0207938 0.0190125 0.0270392 
0.00497781 -0.00735666 -0.00328773 
-0.0173367 0.0142512 0.0497065 
0.000634779 0.000867926 0.251807 
-0.0318189 -0.00396852 0.24001 
-0.0362398 0.00943281 0.295493 
-0.0157924 -0.00369071 0.300489 
0.00164496 0.0314352 0.140255 
0.00785451 0.0358587 0.212704 
0.00764995 0.0251065 0.085266 
0.0028867 0.00509622 0.0871542 
-0.00454196 0.123145 0.44337 
-0.000874625 -0.00116148 0.421677 
0.0416467 0.0537539 0.391268 
-0.0029198 0.106092 0.265493 
-0.0022866 0.0826143 0.136393 
0.0168967 0.0262498 0.0668454 
-0.000713092 0.0279739 0.132289 
-0.00512148 0.0883028 0.255611 
-0.0534699 -0.00259706 0.0619975 
-0.0326956 -0.0246239 0.0598666 
-0.101191 -0.017812 0.239807 
-0.0233462 0.00144139 0.0735687 
0.078595 0.065571 0.171357 
0.114671 0.0281761 0.127873 
0.0925522 0.0230601 0.114605 
0.167676 0.0447533 0.305834 
-0.00353012 -0.0800342 0.336481 
-0.00363249 -0.0211846 0.337718 
-0.038007 -0.0247048 0.263182 
-0.00311971 -0.0344788 0.242583 
-0.00699009 0.0263197 0.370413 
-0.0521273 -0.00742461 0.5568 
-0.0738937 0.0623219 0.399211 
0.0196406 0.00531859 0.609865 
-0.00191772 0.00343295 0.312414 
0.00262083 0.00486069 0.322154 
0.00144008 -0.000724191 0.304371 
-0.00406499 -0.0189962 0.316709 
-0.00919116 -0.00380407 -0.00368176 
0.0208064 0.00977151 0.0582903 
0.0356311 0.0108619 0.0774054 
0.00633459 0.00346501 0.064779 
-0.144526 0.0297697 0.333692 
-0.0589754 0.0514337 0.412877 
-0.100369 0.0927961 0.359106 
-0.0692792 0.0386654 0.202366 
0.0110191 -0.00878205 -0.00861904 
0.0157256 -0.0124948 -0.0108332 
-0.0332129 0.034188 0.0297681 
-0.0276738 0.0207181 0.0176054 
-0.00239651 -0.000396527 -0.00789103 
0.0259912 0.00303894 0.0818779 
-0.00579604 -0.000825859 0.00646193 
0.0142193 0.00281328 0.0979225 
-0.00344609 -0.0318101 0.24282 
-0.023769 -0.0691344 0.199688 
-0.00596931 -0.0315452 0.13554 
-0.00992865 -0.016912 0.182687 
0.0117719 -0.00175827 -0.00527685 
-0.0456815 0.0134138 0.0721478 
0.00857291 0.00437317 -0.00481425 
-0.0231964 0.0049523 0.0213094 
-0.00132246 0.00272165 0.152867 
0.00192076 0.00154673 0.198021 
0.0120216 -0.0353017 0.180458 
0.00913009 -0.0211014 0.246812 
-0.00287352 0.000674431 0.246038 
-0.0084191 0.0304568 0.27163 
0.00292218 0.000266236 0.294119 
-0.00800298 0.0162808 0.321867 
-0.0882502 -0.0076103 0.260953 
-0.0436377 0.0107121 0.275555 
-0.0415593 -0.00830864 0.37153 
-0.0676314 0.0453832 0.406286 
-0.0416327 0.0154873 0.283336 
-0.0710685 0.0417137 0.404738 
-0.0839295 -0.00519906 0.257151 
-0.0684991 0.046152 0.229519 
0.0948415 0.0172602 0.300527 
0.085565 0.040791 0.171969 
0.0502982 0.0174618 0.171286 
0.0940904 0.0117468 0.133967 
-0.00609175 0.0257729 0.370222 
-0.0714859 0.0604055 0.396382 
0.00217741 0.0934996 0.495125 
0.0203676 0.0057749 0.614331 
0.0977788 -0.0697518 0.513662 
0.10958 0.0378026 0.528084 
0.0930832 0.0123497 0.240409 
0.142397 -0.0330307 0.322797 
0.0228784 0.0202832 0.131596 
0.0259847 0.0241437 0.0741174 
0.00454795 0.0172467 0.119252 
0.00635525 0.00694578 0.0632699 
0.00182831 -0.00165711 0.14395 
-0.0251348 -0.011716 0.126236 
-0.00157002 0.00283217 0.203802 
-0.0258277 -0.00335833 0.230093 
0.000937109 -0.000696495 0.0777835 
-0.000865176 -2.20184e-05 0.00100398 
-0.00121651 0.00103185 0.00104225 
0.00911083 -0.00578866 0.118347 
-0.00010042 0.00014914 0.184336 
-0.00124727 -0.000936512 0.124271 
-0.000506958 -0.000195231 0.141393 
0.00850164 0.0231084 0.207828 
0.0230365 0.018945 -0.00718228 
-0.0477274 -0.0369176 0.0863067 
-0.192071 -0.0820843 0.239807 
0.0200013 0.0172904 -0.0817919 
-0.103153 0.0931969 0.355322 
-0.0409365 0.0609355 0.42832 
-0.178768 0.0140068 0.30267 
-0.128334 0.0488525 0.564136 
0.0369426 0.0047973 0.0766726 
0.0131222 0.00299697 0.0997681 
-0.00868237 -0.000773254 -0.00257563 
0.0083018 0.00638922 0.0661348 
0.000358998 -0.00370894 0.000440291 
-0.00110578 -0.00289803 7.64863e-05 
-0.00331098 0.0195283 0.0742279 
-0.000834518 0.00797709 0.0840599 
-0.00159933 0.00423179 0.153246 
0.0119092 -0.0346829 0.179072 
-0.00187972 -0.000312971 0.209338 
0.00964622 -0.0239232 0.247937 
-0.022528 -0.132916 0.36899 
-0.0352995 -0.142174 0.084202 
0.0317078 -0.153233 0.392708 
-0.0109905 -0.131405 0.276502 
-0.00330498 -0.0164825 0.332625 
-0.00516259 -0.0779414 0.351557 
-0.0606359 -0.0699929 0.336801 
-0.0225239 -0.0452477 0.460373 
-0.00131157 -0.00262223 0.00183299 
0.00710823 0.0123394 0.114587 
-0.00086765 -0.00166118 0.0730463 
0.00349515 0.0084747 0.0926357 
-0.0234895 -0.0488468 0.56001 
-0.00964801 -0.0960006 0.64285 
-0.00618049 -0.00168742 0.724299 
-0.0555216 -0.0846098 0.599097 
-0.0307598 0.000813132 0.124379 
-0.0292273 -0.00596839 0.245444 
-0.0443847 0.0204267 0.280515 
-0.0227818 0.0166659 0.185385 
0.000209811 0.00205592 -0.00913916 
0.00231123 0.00343641 0.00562515 
-0.014113 -0.016387 0.0264561 
-0.0100252 -0.0116596 0.0634666 
-0.000605823 0.0026259 0.156403 
-0.023844 -0.00422163 0.227524 
-0.00157629 0.000675534 0.199519 
-0.0142784 -0.000115571 0.0932607 
0.00212106 -0.004826 0.00226718 
-0.0147025 0.0279982 0.0543091 
0.00380569 -0.0052499 -0.00985985 
-0.00683702 0.0206001 0.0592271 
-0.00248388 0.127529 0.50345 
-0.141765 0.100766 0.367435 
-0.0206978 0.0624086 0.614325 
-0.0139187 0.0717372 0.72403 
0.0606925 -0.0330482 -0.0694954 
-0.233394 0.0658665 0.28594 
-0.0444845 0.0191328 0.0616416 
0.00178961 -0.00424704 -0.0540645 
-0.00836553 0.00303365 -0.000691894 
0.0114903 -0.0044842 0.0645127 
0.0293301 -0.00508218 0.126008 
0.0131331 -0.00259186 0.0487136 
0.0116153 0.00463855 -0.00711934 
0.00912857 0.000845268 -0.00774278 
-0.0380905 -0.0156016 0.0286668 
-0.017952 -0.00249835 0.01034 
0.00439874 0.00133724 -0.0168645 
0.00435981 0.00248805 0.00723557 
-0.027515 -0.011685 0.0575566 
-0.0216242 -0.0058152 0.0787262 
-0.0328597 0.058636 0.204483 
-0.00719054 0.019063 0.104355 
-0.0180116 0.0228879 0.205844 
-0.00229779 0.0183335 0.174736 
-0.0408668 0.14296 0.511064 
-0.0952875 0.106878 0.362082 
-0.0444808 0.0660932 0.194627 
-0.0424938 0.121596 0.160352 
0.00320678 0.00275991 0.137767 
-0.0190795 0.0121413 0.122609 
-0.0193617 0.0107745 0.181313 
-0.00837145 0.0013241 0.0877588 
0.000375865 -0.00326674 -0.00340676 
-0.036799 0.0195155 0.070976 
-0.000547125 0.00104885 -0.00548137 
-0.00862845 0.00490919 0.0585807 
0.0802267 -0.143617 0.336119 
0.042443 -0.0669883 0.318403 
0.0544464 -0.0560653 0.139204 
0.100435 -0.0645525 0.287887 
-0.00189331 4.05433e-05 0.796505 
-0.0904608 -0.0832412 0.598851 
-0.0277178 -0.0897447 0.630065 
-0.0193659 0.0492105 0.7325 
0.0695792 -0.0766549 0.513672 
-0.0129703 -0.0925734 0.589111 
0.00144111 -0.0902213 0.344009 
-0.0292881 -0.0405752 0.470618 
0.0621608 -0.0180002 0.095681 
0.0212181 0.00224456 0.13508 
0.0619731 -0.0251619 0.203308 
0.00619051 -0.00208737 0.0556522 
0.0282138 -0.0710418 0.0618233 
-0.0360683 0.0218155 -0.0470761 
0.00138047 -0.0103988 -0.00509321 
0.0980665 -0.199357 0.291404 
-0.011731 -0.0173316 0.0761132 
0.00100862 -0.00819041 0.0896779 
-0.0141179 -0.0185769 0.123816 
0.000135497 -0.003093 0.0778694 
0.000321631 0.000613572 -0.00788543 
-0.000637941 -0.000825032 -0.00473273 
0.000792083 0.00108969 0.0024817 
-0.0110598 0.00299469 0.0582545 
-0.0118488 -0.0340534 0.128808 
-0.017389 -0.0209563 0.0752585 
-0.00655201 -0.0440122 0.0626505 
0.011141 -0.0253182 0.0701729 
0.0566759 -0.144733 0.373747 
0.119142 -0.0771497 0.175073 
0.122977 -0.0978147 0.492836 
0.123275 -0.0538876 0.274434 
0.00125623 0.00263244 0.0045901 
-0.00792724 -0.0292529 0.0437196 
0.000195663 0.00749993 -0.00563984 
-0.00527686 -0.017673 0.0631557 
0.000995679 -0.00964546 0.00244555 
-0.000574483 0.00728161 0.0858768 
-0.00412466 0.0261909 0.0711318 
0.000822113 0.0149962 0.0570752 
0.0992997 -0.0110952 0.0521008 
-0.0170348 0.0431457 -0.0913937 
0.146555 -0.0796702 0.348947 
0.122787 -0.0587544 0.178117 
0.00733066 0.0235006 0.0885228 
0.00821771 0.0373955 0.209118 
0.0125067 0.0116645 0.114626 
0.00245131 0.00724778 0.0898116 
-0.00938205 -0.0770628 0.633789 
-0.081889 -0.0809941 0.600984 
-0.0755089 -0.0102971 0.541965 
-0.0324227 0.0466338 0.72916 
-0.102912 -0.183062 0.345954 
-0.0143009 -0.0982048 0.639229 
0.00922587 -0.0550937 0.560381 
-0.07318 -0.091135 0.587479 
0.000843859 -0.00143496 0.302506 
-0.000423206 -0.0180708 0.334266 
0.000706439 0.00674558 0.308644 
0.0097212 -0.00265979 0.325826 
0.00103407 -0.000443704 0.192935 
0.0144834 -0.0186821 0.193124 
0.0129896 -0.0318262 0.187735 
0.0101339 -0.0212659 0.249367 
-0.107949 -0.0291187 0.538743 
-0.0900295 0.00247325 0.234877 
-0.124057 -0.0536093 0.325167 
-0.0496247 -0.0824467 0.343996 
-0.000241061 -0.000365224 0.261774 
0.0253368 0.0188738 0.281353 
0.0331575 0.00118649 0.239544 
0.0193818 0.00592026 0.326316 
0.00823175 0.0202103 0.0145823 
0.0649385 0.151423 0.233294 
0.0445953 0.0850209 0.0816505 
0.0352665 0.0353705 0.0451411 
-0.0338969 -0.0306411 0.252507 
0.0068514 -0.0153398 0.340254 
-0.0160769 -0.0733194 0.35289 
-0.0644841 -0.0666865 0.340003 
-0.00738622 0.000903956 -0.00364045 
0.0196755 -0.00942084 0.107519 
-0.00548104 0.00172187 -0.000613696 
0.0198494 -0.0127931 0.0620452 
-0.0471402 -0.056224 0.1476 
-0.00783909 -0.0126875 0.113871 
-0.0350954 -0.0352691 0.252387 
-0.0553599 -0.0387351 0.196492 
-0.00177188 -0.00163848 0.0820408 
-0.00374016 0.000312295 0.00160935 
0.0143663 -0.00589644 0.115764 
0.00655977 -0.00224486 0.0880874 
0.00137021 0.000609713 -0.00113324 
0.00169399 0.000999274 0.00570191 
0.00319371 0.0015379 0.000737127 
-0.0134374 0.00715249 0.0427095 
0.0453179 -0.050822 0.131042 
0.104328 -0.0695006 0.192455 
0.0880953 -0.15579 0.344204 
0.102529 -0.050967 0.287733 
-0.0696665 -0.00755946 0.221352 
-0.032117 -0.00395529 0.081435 
-0.0266543 -0.0186306 0.126771 
-0.0286545 -0.00350233 0.241008 
0.00154486 -0.00225374 -0.00163854 
-0.0144617 0.0113236 0.118372 
0.00122209 0.000124116 0.00382199 
-0.00415781 0.000510609 0.090602 
0.0774321 -0.00433523 0.310861 
0.117247 0.0507761 0.445677 
0.0510139 0.0539236 0.385601 
0.0662383 0.0652427 0.218279 
0.030752 0.0831351 0.205273 
0.0187307 0.0362266 0.0206453 
0.0139708 0.0890965 0.148231 
0.00490352 0.0200272 0.065306 
0.00155879 -0.0663956 0.362441 
-0.0180911 -0.0179661 0.339669 
0.0441642 -0.0279442 0.295237 
0.030999 -0.0365856 0.413312 
-0.0179536 -0.0229106 0.00240116 
-0.0613056 0.050639 0.0722644 
-0.0112367 0.0308899 0.0296347 
-0.0278011 -0.00229945 0.0206559 
0.00195224 0.00288203 -0.0159625 
-0.00790667 -0.0298265 0.0456664 
0.00189983 0.00334648 0.00292935 
-0.00262005 -0.0155241 0.0617871 
-0.0746913 -0.0119445 0.204024 
-0.111542 -0.0135714 0.562307 
-0.129248 -0.0563854 0.325333 
-0.148935 0.0140076 0.313054 
-0.00277552 -0.0038254 0.258917 
-0.000832677 -0.0221285 0.324601 
0.00208929 0.00032868 0.30287 
0.00754403 -0.0190907 0.254946 
0.00421829 0.0316999 0.382576 
-0.0584694 -0.00915935 0.553739 
0.013223 -0.00070677 0.594306 
-0.029757 -0.060883 0.454646 
-0.0901229 -0.0208732 0.23476 
-0.028525 0.00328906 0.07623 
-0.0405434 -0.0246513 0.0618607 
-0.0596747 -0.0303821 0.20005 
0.0519575 0.0603464 0.223599 
-0.00570126 0.0970807 0.262045 
-0.014714 0.10106 0.125611 
0.0202213 0.153109 0.257772 
0.00137516 -0.00126128 0.129011 
-0.00192648 0.00727477 0.0864845 
-0.00261587 0.027484 0.136273 
-0.00329803 0.0168324 0.166264 
0.0259982 0.0764329 0.17062 
0.0324406 0.126035 0.469187 
0.0753187 0.112218 0.312635 
0.0496044 0.0533257 0.400403 
-0.000282032 -0.00151567 0.00608562 
0.000333326 -0.000306833 -0.00386014 
0.00181275 0.0071764 0.0888999 
0.000930996 0.0112265 0.0588777 
0.0169506 -0.0994748 0.221289 
0.067507 -0.125272 0.408167 
0.0429211 -0.0837029 0.5535 
-0.0927793 -0.151199 -0.0157233 
-0.0382941 -0.0103538 0.00818135 
-0.0421307 0.127144 0.145272 
-0.0321459 0.0396268 0.0519049 
-0.0423647 0.0585149 0.12773 
0.0251228 -0.0487773 -0.0415373 
-0.168198 0.173721 0.332901 
-0.0381965 0.0471746 0.0803584 
-0.0138587 -0.00592502 -0.0605765 
0.000384599 0.0308976 0.134737 
0.0213461 0.0257606 0.226677 
-0.00622295 0.0350957 0.264334 
-0.00407372 0.0755991 0.244342 
0.106757 0.0391227 0.089802 
0.0859777 0.109304 0.31558 
0.128562 0.0925554 0.518902 
0.0652896 0.0426517 0.180103 
-0.0332013 0.0595102 0.205377 
-0.00777272 0.0199606 0.106448 
-0.0241512 0.0150267 0.125813 
-0.0182298 0.0243045 0.20559 
0.00066579 -0.000872955 0.159339 
0.00112643 -0.0123548 0.102652 
0.00997797 -0.029768 0.168618 
0.00355051 -0.00758184 0.0882706 
0.0414824 -0.153645 0.390871 
-0.00013062 -0.126835 0.634595 
-0.0552541 -0.12663 0.366183 
-0.00660167 -0.126583 0.266532 
0.00170227 -0.00659042 -0.0034308 
-0.0110303 0.0172435 0.0630453 
-0.0101054 0.0168941 0.103142 
-0.00447979 0.0038302 0.0858305 
-0.000256398 0.000229385 -0.00628227 
-0.000461075 0.000320022 0.00203496 
-0.000675399 0.000494685 -0.000753716 
-0.0075533 -0.0114768 0.11669 
0.088021 0.119573 0.317494 
0.0449489 0.05337 0.388187 
0.110166 0.0701966 0.485383 
0.0709663 0.0513269 0.190033 
0.0109544 -0.0327286 0.182462 
-0.00119033 -0.000484296 0.207217 
0.00810502 -0.0254109 0.252186 
-0.00255526 -0.0173519 0.161249 
-0.0162665 -0.0713068 0.359543 
0.0784357 -0.0999881 0.489228 
0.0575854 -0.0762256 0.300108 
0.00174028 -0.11345 0.315251 
0.000458691 -0.00155194 0.142669 
0.00302428 0.000592345 0.0720461 
-0.000381542 0.00164385 0.128802 
-0.0210106 -0.00657644 0.132966 
0.00688095 -0.00186792 0.00157794 
0.00586945 -0.0049398 -0.00666567 
-0.0347734 0.00186596 0.0400795 
-0.0209979 0.00322612 0.0635766 
0.0216148 0.0733065 0.203061 
-0.00306941 0.0295398 0.135037 
0.0198856 0.0308999 0.0678747 
-0.00467683 0.0838455 0.252261 
0.0740887 -0.0154741 0.0526148 
0.187885 -0.0454799 0.307309 
-0.0225291 0.0142199 -0.0890028 
0.110685 -0.0620912 0.19117 
0.0283029 0.0519308 0.559397 
0.0595503 -0.0589055 0.232002 
0.0313229 -0.00327171 0.522864 
0.178461 -0.151651 0.140708 
0.00671435 0.0182143 -0.00827014 
-0.0140735 -0.0395332 0.037506 
-0.00127723 -0.0243235 0.0616272 
-0.00111197 -0.0160838 0.0153149 
0.00962078 -0.08064 0.124309 
0.0257545 -0.0279699 0.0146751 
-0.0152118 -0.00900821 -0.0414211 
0.0523017 -0.163444 0.25637 
0.00215387 -0.00356131 0.109587 
0.0001876 -0.000394723 0.17654 
-0.0142292 0.0229862 0.20431 
-0.00732278 0.0166383 0.172298 
-0.0232908 -0.0725674 0.357256 
-0.0205889 -0.0858988 0.202213 
-0.0324734 -0.0317107 0.256748 
-0.062734 -0.0665362 0.337101 
0.00279983 0.00380692 -0.00549148 
-0.0108921 -0.0200597 0.0742702 
-0.0125375 -0.017755 0.119346 
-0.000623249 -0.00112727 0.0796204 
0.00520747 -0.00708906 0.278622 
0.0020728 -0.00019667 0.277437 
0.0183965 0.0233264 0.271359 
0.00860035 0.0194685 0.30535 
-0.00129488 0.0270866 0.131865 
-0.00440298 0.00834318 0.0915727 
0.00504089 0.00897522 0.094591 
0.00145046 0.0147492 0.0549802 
-0.0474208 -0.0570521 0.142163 
-0.0231194 -0.0647075 0.0283703 
-0.0517502 -0.115092 0.278238 
-0.0276595 -0.076034 0.210343 
-0.00122541 -0.0320644 0.235273 
-0.0259112 -0.0744032 0.216342 
-0.00704003 -0.0797344 0.338411 
0.00143154 -0.062431 0.204985 
-0.00505274 -0.0325829 0.137269 
0.0123 -0.0236698 0.0564445 
-0.0258847 -0.0786025 0.202675 
-0.00714113 -0.057499 0.207259 
-0.00120819 0.000520127 0.125452 
-0.0011802 0.000179393 0.158806 
0.0138067 -0.0184824 0.194792 
0.00337978 -0.00943713 0.0863356 
-0.00124665 -0.000868558 -0.00196388 
-0.000833529 -0.000458996 -0.00478699 
-0.00118718 -0.000944134 0.00146896 
-0.00536214 0.0112181 0.0425673 
0.0703094 -0.0709895 0.510823 
-0.0127908 -0.0969352 0.355565 
0.031059 -0.0255432 0.424741 
-0.0168918 -0.0454466 0.465098 
0.0118518 -0.00124365 -0.0107569 
-0.034882 -0.00268379 0.0322061 
0.012872 0.00241334 -0.00853027 
-0.0229119 0.00120672 0.0198836 
0.0160871 0.0276126 0.281112 
0.014225 0.0366799 0.213473 
0.00620913 0.0327081 0.280227 
0.00522285 0.0165575 0.308036 
0.00429754 -0.00412427 0.649823 
-0.00109404 0.016687 0.496658 
-0.208846 0.164989 0.348712 
-0.0410659 0.0601339 0.778222 
0.000554397 -0.00317017 0.281207 
-0.00191454 0.000544765 0.284456 
-0.00152453 -0.000877176 0.231603 
0.0264591 0.0207403 0.259161 
0.00323135 0.000874662 0.245891 
-0.000364415 -0.000649232 0.276435 
-0.00206054 -0.000691528 0.20812 
-0.01547 0.0202918 0.209242 
0.0161744 0.0332834 0.0417712 
0.0150883 0.0225768 0.067822 
-0.00432596 -0.0105168 -0.019272 
0.00708676 0.0120756 0.059832 
0.00354838 -0.000376695 0.00214145 
-0.0195687 -0.00481284 0.1191 
0.00894463 -0.00147633 -0.00589449 
-0.0220982 -0.00223527 0.0847562 
0.0599405 -0.00737371 0.084487 
0.0412711 0.0032415 0.0837467 
0.0253208 -0.00219265 0.138301 
0.0146971 -0.00219347 0.0398764 
0.00196681 -0.00016926 0.00210628 
-0.0226594 0.00407884 0.122687 
0.00401435 0.000805908 -0.0131894 
-0.0156941 0.00363262 0.072495 
0.00122008 -0.0723342 0.115567 
-0.00551259 -0.0953908 0.20737 
-0.0249071 -0.0327654 0.0402773 
-0.00348868 -0.0163257 0.0535631 
-0.000550485 4.57693e-05 -0.000390234 
-0.000958765 4.58963e-05 0.00206769 
-0.000846966 6.06989e-05 0.000189288 
0.00303942 -0.00564005 0.100407 
-0.0444752 -0.013191 0.557058 
0.0103501 -0.0289852 0.554446 
0.0937027 -0.0233766 0.286048 
0.219382 -0.112282 0.126799 
0.0826595 0.00206478 0.298798 
0.0299788 0.00389455 0.238843 
0.0274834 -0.0323796 0.300157 
0.0559463 -0.0293828 0.214718 
-0.0828865 -0.13422 0.299362 
0.0110104 -0.0509515 0.00488925 
-0.0478685 -0.0551134 0.142567 
-0.0725663 -0.0840295 0.150652 
-0.0095047 -0.0159211 0.765124 
0.0226272 0.0249417 0.641469 
0.0374378 0.202463 0.338533 
-0.0224154 0.0477252 0.748317 
0.000996747 0.00090309 0.0647562 
6.4466e-07 0.00129281 0.0755676 
-0.00141015 -0.00117766 0.140989 
-0.0153369 -0.00784521 0.129358 
0.00107194 0.0006999 0.248086 
-0.00115546 -0.0311426 0.24209 
-0.00582743 -0.0288892 0.339942 
0.0131135 -0.0229565 0.254332 
-0.00156101 0.00125003 0.000961426 
0.00020619 0.00197024 -0.00461233 
0.0181757 -0.00306377 0.123088 
0.00438423 -0.000625381 0.0813013 
-0.00755851 0.0173114 0.103784 
-0.00904047 0.0247614 0.0736876 
0.00383821 -0.00831332 -0.00363976 
0.00107435 0.00770887 0.0910986 
0.0010526 -0.000430646 0.283022 
-0.00815265 0.013756 0.326275 
-0.00591912 0.033272 0.282429 
0.00623785 0.018547 0.303303 
-3.76533e-05 0.00127708 0.00600968 
3.05731e-05 -0.000522065 -0.00129368 
0.000103797 -0.000816833 0.00226329 
0.0135925 -0.000271131 0.0746819 
-0.000797952 -0.00316293 -0.00146535 
-0.00329591 -0.00558164 -0.00531925 
0.0127072 0.00850234 0.0976684 
0.010635 0.00571354 0.0643131 
-0.000478866 -0.00319707 -0.00118189 
0.0132974 0.00552033 0.102786 
-0.00184714 -0.00511477 -0.00347349 
0.00386093 0.00192504 0.0829072 
0.0521557 -0.00848078 -0.057562 
-0.0113437 0.0224986 0.012941 
-0.0328153 0.0486005 0.0217615 
-0.124854 0.095727 0.181827 
0.000196801 -0.000749121 -0.00021915 
-0.000842454 0.00112434 0.0750041 
0.00107675 -0.000739756 0.00317294 
-0.00209048 0.00535594 0.0905793 
0.0813612 -0.00877828 0.304476 
0.0780452 -0.00873432 0.0794959 
0.0541473 -0.0300263 0.216514 
0.0948348 -0.0481963 0.27759 
0.0880248 -0.0450224 0.572336 
-0.0243704 -0.172692 0.303819 
0.121806 -0.0338768 0.279995 
0.150191 -0.0863992 0.141787 
0.00187172 0.000160597 0.173311 
-0.00171874 -0.001255 0.122043 
0.0221707 -0.00431498 0.132057 
0.00725372 0.000186503 0.0836702 
0.00697487 0.0118118 0.111196 
0.00677219 0.028798 0.0835869 
0.0345579 0.0619948 0.180325 
0.0114212 0.0286793 0.218604 
0.000574046 0.000845637 0.213981 
-0.000962459 0.00044368 0.139115 
-6.80054e-05 -0.000729929 0.175514 
0.0234438 -0.000111255 0.226271 
0.00391539 0.000997026 0.139322 
-0.0230023 -0.00906613 0.122306 
-0.031853 -0.0107806 0.240362 
-0.0142917 -0.0104972 0.17585 
-0.00465545 0.00426529 -0.000954406 
0.02933 -0.00125469 0.0727607 
-0.00400076 0.00505199 0.0014724 
0.00640249 -0.000519215 0.0609439 
-0.0662751 -0.0428687 0.227368 
0.0114158 -0.0191732 0.678264 
-0.0709411 -0.00102792 0.258394 
-0.24268 -0.0519608 0.230463 
0.00118572 -0.00157092 0.111896 
-0.00794162 0.0182898 0.174089 
-0.013713 0.0216276 0.202832 
-0.00503551 0.00574333 0.0822919 
-0.0017063 0.000389974 0.0789792 
0.0144323 -0.00889945 0.120592 
0.000907491 -0.000954399 0.126633 
0.00730003 -0.00189832 0.0888875 
0.0785219 0.00243606 0.27632 
0.0285328 -0.00782421 0.117397 
0.030587 0.00309498 0.241437 
0.0556405 -0.0225536 0.219541 
-0.077834 -0.0156719 0.521629 
0.0190314 0.0358253 0.407045 
-0.065003 0.065274 0.411464 
-0.0201046 -0.0558264 0.470849 
0.000212425 0.000270716 0.138682 
-0.00112119 -0.000122708 0.116111 
-0.00205966 0.00875813 0.0892575 
-0.00421181 0.0143957 0.16478 
-0.00026031 -0.00181596 0.00524271 
-0.000971705 0.00635076 0.0854755 
0.000305387 7.94079e-05 -0.00369421 
0.000925585 0.0113013 0.0594463 
0.00149917 0.00140281 -0.00172408 
-0.00289495 -0.000755829 0.0035137 
0.00416437 -0.00227582 -0.00351762 
-0.00538514 0.00150389 0.00475422 
-0.00429044 -0.00444552 0.277882 
0.0286672 0.00711708 0.238221 
0.0308855 0.0168828 0.273195 
0.0250906 0.0138747 0.196864 
0.0549013 -0.0581107 0.158443 
0.0381995 -0.134241 0.270468 
0.0368643 -0.0512633 0.00601848 
0.0326766 -0.070214 0.1752 
-0.0387449 0.0231329 0.621571 
-0.191211 -0.128148 0.307632 
-0.100384 -0.0615219 0.577572 
-0.10158 0.0416639 0.624213 
0.00132246 -0.000801034 0.267696 
0.0244001 0.0190005 0.278072 
0.0191858 0.0064983 0.324536 
0.00558791 0.0177078 0.309399 
0.0846226 0.00352931 0.303813 
0.0239913 -0.0372505 0.305896 
0.0266539 0.00206535 0.226136 
0.0542291 0.0074598 0.356054 
0.004794 0.0775368 0.130455 
-0.0408143 0.0231247 -0.0204203 
0.0100909 0.0438854 0.0422736 
0.0532636 0.13283 0.199645 
0.0011955 0.00191254 0.00147089 
-0.0125939 -0.016471 0.12004 
0.00263336 0.00344503 -0.0120812 
-0.0111515 -0.0133369 0.0789259 
-0.00827686 -0.0197406 0.329836 
-0.0538351 -0.0673551 0.35046 
-0.0501617 -0.00802031 0.368347 
-0.0207274 -0.0417168 0.448643 
0.0103501 -0.0340032 0.182925 
0.0485704 -0.0595954 0.154869 
0.00735907 -0.0117378 0.0821046 
0.0333793 -0.0665865 0.168886 
0.0251382 0.0211421 0.269748 
0.0131133 0.0224776 0.218785 
0.00104627 0.00116532 0.231512 
0.0146485 0.0192153 0.167984 
0.081008 0.0590999 0.181227 
0.0731206 0.115783 0.242865 
0.033193 0.0674962 0.215569 
0.0559999 0.0538777 0.0187094 
0.0279325 -0.0264932 0.290158 
0.0149564 -0.0174838 0.188897 
0.0124708 -0.0421969 0.188865 
0.0448179 -0.0596016 0.278342 
-0.0858569 -0.0169257 0.521745 
-0.0522714 -0.0152316 0.377596 
-0.104422 -0.00437067 0.245509 
-0.0503731 -0.0698961 0.339363 
0.0561254 -0.0309087 0.221313 
0.0103543 -0.0151074 0.178335 
0.0280328 -0.0249136 0.292916 
0.0521076 -0.0635027 0.29486 
-0.00479592 -0.0312116 0.140986 
-0.0146379 -0.0467397 0.0536 
-0.0133356 -0.0210422 0.0663404 
-0.0260763 -0.0739193 0.186955 
-0.00395691 -0.00355986 0.000203085 
0.0083762 0.00797593 0.0657246 
0.00313578 0.00383285 0.0813949 
0.00931757 0.00631156 0.071263 
-0.000653061 0.00158196 0.124297 
-0.00242198 0.000717138 0.158364 
0.000854666 -0.00106267 0.195694 
0.0129094 -0.0193585 0.195786 
-0.000905356 0.110225 0.167274 
-0.0104799 0.10208 0.0630044 
-0.0689789 0.0833732 0.187256 
0.00823812 0.181284 0.333109 
1.24906e-05 0.0005642 0.0735687 
0.00020755 -0.000599876 6.85149e-05 
-0.000301309 -0.000318152 0.0714967 
0.00308756 0.00668825 0.0949921 
-0.0392097 -0.0235427 0.0755851 
-0.00842451 -0.023529 0.00444163 
-0.0504912 -0.04971 0.132437 
-0.0186984 -0.0134137 0.0729201 
0.0730757 -0.0795234 0.236583 
0.161472 0.0428154 0.251942 
0.0782738 -0.0726196 0.535361 
0.127891 -0.0843202 0.138524 
0.0966796 -0.0775301 0.456103 
0.100672 0.0280989 0.311388 
0.0265191 -0.0291827 0.441859 
0.109737 -0.0574152 0.282489 
0.0145877 -0.00748834 -0.0153596 
-0.0270677 0.00733264 0.0228694 
-0.048411 0.0230092 0.0811243 
-0.0146711 0.0071297 0.0673272 
-0.011366 -0.0337908 -0.0137697 
0.0224181 0.0273771 0.068907 
0.00933612 0.0359684 0.0382471 
0.0263514 0.0459724 0.0419696 
-0.0414824 0.0752664 0.21086 
-0.0953056 0.111524 0.369872 
-0.0369745 0.11889 0.471782 
-0.051297 0.0407218 0.403643 
0.000984836 -0.000816959 0.00047025 
-0.00137721 -0.00044882 0.00119799 
0.00100809 -0.0005805 -0.00184638 
-0.00565501 0.00228999 0.00462426 
0.00147206 -0.00110982 0.112899 
-0.0127088 0.0179965 0.198913 
-0.000540421 0.00153559 0.177213 
-0.00640619 0.00881716 0.0849739 
0.00160694 0.00140045 0.00289096 
0.00217633 2.61668e-05 -0.00342717 
-0.0137599 -0.00581642 0.122817 
-0.00585115 -0.00383354 0.084212 
-0.00341922 -0.00216507 -0.00317223 
-0.00360131 -0.00524514 -0.0184822 
0.0306061 0.0117385 0.0770591 
0.0197392 0.008528 0.0581564 
0.00127295 -0.00264497 0.262415 
-0.0324929 0.0212891 0.287993 
-0.0132786 0.0122292 0.324121 
-0.0155862 -0.00684716 0.304595 
-0.00146987 -0.0027227 0.0703981 
0.00746351 0.0139368 0.117946 
-0.000327756 0.00130917 0.138727 
0.00347653 0.00951755 0.0945438 
-0.0101624 -0.0126583 0.604282 
0.00131334 -0.0338613 0.537377 
-0.00113424 0.00023999 0.719463 
-0.0779748 -0.0858322 0.622133 
-8.29645e-05 0.000618371 -0.00587135 
0.000224159 -0.000956978 0.0013737 
-0.000324231 0.00113606 0.00305052 
-0.00911655 -0.00583265 0.119881 
-0.00191267 0.00597047 -0.00117402 
-0.0148556 -0.0192704 0.0241315 
0.00228522 0.00960775 0.00350593 
-0.00744117 -0.0164435 0.0537477 
-0.00612033 0.0770676 0.108854 
0.0123564 0.0237628 0.08422 
-0.00178531 0.0252948 0.00639261 
0.00366356 0.012941 0.0552384 
-0.00529018 -0.0022711 0.768914 
0.128424 0.0592863 0.537203 
0.00462918 0.0490372 0.651328 
0.00752489 0.0432749 0.736162 
-0.0398245 -0.0167088 0.0802855 
-0.0452891 -0.0508459 0.134908 
-0.00951573 -0.0192549 0.00693066 
-0.0645334 -0.0773751 0.0990576 
-0.000421211 -0.00195306 0.303444 
-0.00287447 -0.000657069 0.248056 
0.00147173 0.000150057 0.248785 
-0.00402425 0.0342679 0.258019 
0.0107046 0.0839 0.127431 
0.0180416 0.029156 0.0870664 
0.00899068 0.0372844 0.0456578 
-0.0193263 0.0246087 -0.0201362 
0.0596789 -0.029014 0.0867528 
0.10214 -0.0571636 0.111903 
-0.000514167 0.018232 -0.0130981 
0.000728065 0.00322515 -0.0114765 
-0.0274775 5.85933e-05 0.130684 
-0.0565844 0.0337231 0.209891 
-0.0200123 0.0191144 0.12258 
-0.0210863 0.0118566 0.184076 
0.00289826 -0.00616692 -0.00464159 
0.00363189 -0.00406602 0.00186281 
-0.0144689 0.0205427 0.0400272 
-0.00937689 0.0240552 0.017278 
-0.0929096 0.00366913 0.263168 
-0.131384 -0.115914 0.275724 
-0.0943681 0.0255312 0.663054 
-0.167396 0.0406541 0.2825 
0.0328086 -0.0325959 0.298495 
0.0764711 -0.00753578 0.313707 
0.0451741 -0.0330846 0.417349 
0.0452465 0.0147521 0.358161 
-0.00108473 0.00127282 -0.000994522 
-0.029734 0.00316381 0.0314338 
0.0197456 0.00333649 -0.0139702 
-0.0220267 0.00239553 0.0137851 
0.0327657 0.0567392 0.172117 
0.0101367 0.0167978 0.116342 
0.0213942 0.023176 0.071545 
0.00685763 0.0137268 0.0546286 
0.074012 0.0528297 0.166133 
0.023901 0.0368969 0.0508315 
0.0504183 0.061538 0.198519 
0.0590631 0.0434635 0.219863 
-0.00662648 0.0159752 0.109575 
0.000138143 0.00829478 0.0871257 
-0.00284354 -0.000208416 0.117738 
-0.00486545 0.0170926 0.165666 
0.000674703 0.000803117 0.275226 
-0.0306527 0.0176898 0.262358 
-0.00173739 -0.00182543 0.220334 
-0.0210416 0.0109866 0.18539 
0.0690874 0.0129807 0.319607 
0.151879 -0.0277451 0.27907 
0.076566 -0.0326001 0.0655375 
0.10657 -0.0450876 0.27737 
-0.0108866 0.0346011 0.268402 
-0.0134078 0.0241546 0.209412 
0.000564324 -0.00230664 0.245673 
-0.00576143 0.0241318 0.164508 
0.00820433 0.0138535 0.115934 
0.00925744 0.0250448 0.208613 
-0.000160609 0.000294294 0.141859 
0.0024428 0.0117073 0.0898855 
0.047511 -0.0451901 0.163026 
0.0589955 -0.0300001 0.219034 
0.0314748 -0.0225135 0.0317711 
0.0889123 -0.0447209 0.253277 
0.00148433 -0.00141508 0.191421 
-0.00605682 0.0353883 0.258459 
-0.00156577 -0.00100097 0.248847 
-0.00492774 0.0186366 0.166918 
-0.0276273 -0.00162596 0.13039 
-0.0194226 0.0208072 0.122546 
-0.056334 0.0338373 0.209731 
-0.0205912 0.0101214 0.0628525 
0.0485066 -0.0444358 0.151089 
0.0194907 -0.0198686 0.0196707 
0.084626 -0.0553061 0.125305 
0.0208812 -0.0133844 0.0542257 
0.0754113 0.0207355 0.294476 
0.124775 -0.0669816 0.476277 
0.142715 -0.0341723 0.31895 
0.104128 -0.0622666 0.276875 
-0.000814199 0.0288301 0.137201 
0.0101729 0.0271009 0.0857993 
-0.0021459 0.0781644 0.111681 
0.00137217 0.00973706 0.0515636 
-0.00617472 -0.00223328 0.639428 
0.023202 0.0338059 0.592551 
0.0053636 0.0326689 0.500774 
-0.0593342 0.0567547 0.760982 
0.0430465 0.0612602 0.204275 
0.00599563 0.0265025 0.221503 
0.0534685 0.0479844 0.219557 
0.00862958 0.0132571 0.163198 
0.000825155 -0.00155478 0.204362 
-0.0183492 0.0228522 0.211792 
-0.0324948 0.0239041 0.276584 
-0.0225358 0.0108345 0.183196 
-8.42507e-05 0.00228188 0.1756 
0.0234578 -0.00620244 0.133095 
-0.00327927 0.00148652 0.118439 
0.0209786 -0.00791306 0.189415 
0.000638241 0.00314582 0.275782 
0.0254617 -0.000115544 0.234785 
-0.000659167 -0.00426106 0.236231 
0.02305 0.00394993 0.318209 
-0.0758791 -0.0133428 0.245965 
-0.0515736 -0.0299265 0.0531258 
-0.116125 -0.0540072 0.24317 
-0.0586902 -0.0362039 0.20148 
0.000642947 0.00187248 -0.00387275 
-0.00167802 -0.00724312 0.0892426 
-0.00929788 -0.0179825 0.0744014 
-0.00147342 -0.00263577 0.0787284 
0.102818 0.0348727 0.141687 
0.0176167 0.0803439 0.229896 
0.080194 0.117482 0.259887 
0.0654672 0.0386381 0.216225 
0.0867702 0.0675906 0.167947 
0.04539 0.0663257 0.202094 
0.0162779 0.0206134 0.0467284 
0.029718 0.0504496 0.0522943 
-0.0238228 -0.00736207 -0.0359952 
0.214438 -0.00384866 0.243996 
-0.00933537 -0.00765407 -0.0243267 
0.102947 0.0189074 0.136521 
-0.020204 0.0167078 0.118406 
-0.0206159 0.0244871 0.210955 
0.00359998 -0.00409476 0.130219 
-0.019173 0.0122152 0.185804 
0.096086 0.012322 0.28029 
0.0476559 0.0198234 0.187059 
0.0414236 0.00384942 0.0752763 
0.09508 0.012481 0.133478 
-0.0246909 -0.0346164 -0.0591486 
0.0906651 -0.033677 0.0502111 
0.180399 0.0303229 0.303342 
0.104844 0.0276904 0.142586 
0.103654 0.0424221 0.528849 
0.166214 -0.0161308 0.316521 
0.0949769 -0.0925001 0.516274 
0.0695778 -0.0459274 0.72368 
-0.00114023 -0.00218354 0.00254088 
-0.000579656 -0.000887086 0.0727532 
0.00660626 0.0110403 0.11307 
0.00380363 0.00584091 0.0946795 
-0.0650036 -0.0317704 0.622727 
-0.175663 0.0597057 0.292047 
-0.162954 -0.0673885 0.327178 
-0.112027 0.0172195 0.592439 
-0.00286641 -0.000929422 -0.00704068 
0.0097941 0.0192848 0.0344135 
-0.00187852 -0.00474059 -0.0162894 
0.0173046 0.0183867 0.0364881 
0.000574156 -0.00139532 0.246564 
-0.00285143 -0.00536945 0.29582 
-0.00104691 0.0373269 0.269721 
0.00352698 0.0206723 0.303588 
0.0193741 -0.00980282 0.119691 
0.0104204 -0.0212222 0.0962315 
0.0432083 -0.0506717 0.138106 
0.0287347 -0.00745101 0.0614355 
-0.000604002 0.000267589 0.212972 
-0.00385644 -0.00157549 0.135011 
0.0282678 0.00348644 0.233741 
0.0205541 0.00757054 0.200099 
-0.0192612 -0.00806705 -0.011189 
0.0239471 0.0086127 0.0218309 
0.043313 0.0117889 0.0711725 
0.0247646 0.0130496 0.0557652 
0.00027352 -0.0856634 0.340399 
-0.0122702 -0.0979048 0.597899 
-0.0578346 -0.13313 0.37391 
-0.0293265 -0.0393375 0.467726 
0.000252429 -0.00302033 0.134407 
-0.0183555 0.0230141 0.201566 
-0.0166226 0.0168088 0.124902 
-0.00436061 0.00755921 0.0821305 
-0.0275707 0.00529247 -0.0219843 
0.121576 0.0401452 0.159137 
0.0409798 0.0293902 0.029083 
0.0147992 0.00858459 0.00487185 
-0.00142503 0.0011931 0.000988396 
0.024479 -0.00355883 0.122953 
-0.00406262 0.000906849 -0.00361682 
0.00905612 -0.00183337 0.0502877 
-0.00119538 -0.00130939 0.156841 
0.00078871 -0.000458341 0.114633 
-0.0162519 0.00649362 0.183032 
-0.00773936 0.00365661 0.0879666 
0.0941738 0.0184645 0.297291 
0.0478916 0.01369 0.171042 
0.0873556 0.0424249 0.1738 
0.051337 0.042672 0.222466 
-0.00764905 -0.0105295 -0.035489 
-0.0216454 0.0449381 0.0559057 
-0.0345689 0.0192294 0.0312619 
-0.0401912 0.104478 0.127518 
0.00201888 -0.000548219 0.000819111 
0.0021764 -0.000665845 0.00735088 
0.00093636 -0.000210431 -0.00340775 
-0.00984884 -0.0118431 0.0310777 
0.000176612 0.000185142 0.070791 
0.00049729 -0.00183378 -0.000348279 
-0.00105912 0.00847577 0.093786 
0.000297136 0.00626472 0.0902328 
-0.000435958 -0.000580343 -0.00221838 
-0.000291681 -0.000358327 -0.00461401 
-0.000827451 -0.00115745 0.00163564 
0.00996103 -0.00514295 0.110508 
-0.00659099 0.0177482 0.389993 
0.00265947 0.0916379 0.495246 
0.0571089 0.0674951 0.375985 
0.0209972 0.0144287 0.59233 
-0.0196692 0.0265842 0.203464 
-0.00405406 0.0163272 0.173976 
-0.00610151 0.0169815 0.105815 
-0.00724105 0.00676143 0.0823341 
0.101513 -0.0504949 0.51527 
0.00846634 -0.118814 0.624679 
0.0500944 -0.138942 0.377502 
-0.0229302 -0.157004 0.293193 
0.000490237 -0.00133649 0.193746 
0.000999008 5.76186e-05 0.248677 
-0.00248071 -0.000584441 0.251302 
-0.00373216 0.0343332 0.252225 
0.000186682 1.67195e-05 -0.00336684 
-0.000607578 0.000201012 0.00191833 
-0.00168705 0.000752334 -0.00154557 
-0.000649767 -0.00874975 0.0180956 
-0.00122271 -0.00668553 -0.00257226 
-0.00826608 -0.0101747 -0.00201442 
0.0142184 0.0229162 0.0544265 
0.0232575 0.0306977 0.040734 
-0.0544233 0.0567749 0.258202 
0.0101271 0.107145 0.115741 
-0.00892241 0.0951314 0.25624 
-0.0448213 0.118682 0.189669 
-0.00731132 -0.0265656 0.136234 
-0.00382893 -0.00663531 0.0914307 
0.00358141 -0.012576 0.102251 
-0.0029628 -0.0162948 0.15876 
0.00267883 -0.00110587 0.211697 
-0.0375166 0.0159907 0.277024 
-0.0317883 0.000690761 0.246608 
-0.0225783 0.0121344 0.185403 
-0.00137656 0.000181144 0.230317 
-9.80078e-05 -0.00420635 0.279403 
0.0272912 0.0209765 0.263696 
0.0193349 0.0111226 0.199396 
-0.00122799 -0.00217408 0.000427638 
-0.000514792 -0.000985296 0.00243746 
-0.000267364 -0.000449363 -0.000639995 
0.00678688 -0.000282999 0.00234482 
-0.0530123 -0.0653977 0.130614 
-0.0339164 -0.0320466 0.262369 
-0.0263727 -0.0772969 0.213149 
-0.0615652 -0.0653321 0.331461 
0.0799132 0.0050258 0.0902252 
0.10968 -0.0736088 0.171656 
0.0376669 -0.065155 0.169602 
0.109636 -0.0627341 0.262876 
-0.021095 0.0175755 0.745758 
0.00465837 -0.0221741 0.572776 
0.113493 -0.231594 0.346102 
0.0103921 -0.114484 0.66504 
-0.00137788 0.00506679 -0.000356465 
-0.000769448 0.00550284 -0.00447022 
0.0169732 -0.0163 0.0187739 
0.0107998 -0.0144837 0.0428102 
-0.0420178 0.0596635 0.229782 
-0.0165684 0.0239396 0.210715 
-0.0235396 0.0156851 0.104756 
-0.058065 0.0446728 0.229836 
0.0508517 -0.0521686 0.165273 
0.107356 -0.0662054 0.151431 
0.0605424 -0.014026 0.0965257 
-0.00794168 -1.67857e-05 0.0218843 
0.0661222 0.0742372 0.202959 
-0.00280837 0.120234 0.442489 
0.0366929 0.0574811 0.389233 
-0.00386778 0.108152 0.266439 
6.14872e-05 0.00122189 0.109317 
-0.011036 -0.0162959 0.124341 
-0.00100668 -0.00107761 0.153426 
-0.00220308 -0.00433918 0.0765557 
0.00151829 0.00178706 0.106133 
-0.00100777 0.000312032 0.162536 
0.00101192 -0.000702545 0.153649 
-0.0140779 -0.0173017 0.129008 
-0.0052372 -0.00378322 -0.034644 
0.157895 -0.0175762 0.233272 
0.064058 -0.0165659 0.0914114 
0.0207731 0.00299227 -0.0108468 
-0.000427111 0.00425766 -0.00398208 
0.0101264 -0.00505624 0.013336 
-0.0022269 0.00662914 -0.0053726 
0.0101247 -0.00801006 0.00797314 
-0.000318369 0.000815283 0.0013966 
-0.00354832 0.00378962 -0.00418033 
0.013697 -0.00110029 0.0133667 
0.010281 -0.00873119 0.0344195 
0.000725909 -0.0026158 -0.00546705 
0.00085444 -0.00320608 0.000228444 
0.000681556 -0.0026218 0.0035599 
-0.0115797 0.00668325 0.0696825 
0.00157958 0.00117011 0.00178048 
0.00174275 0.0014932 -0.00944975 
0.00131715 0.00106425 -0.00351306 
-0.0192705 0.00431893 0.0207322 
-0.0313979 -0.0293445 0.251869 
-0.048476 -0.0201827 0.365752 
0.00522009 -0.0162515 0.347305 
-0.0648114 -0.0668311 0.337527 
7.75067e-05 0.000255314 0.0726081 
0.000116782 -0.000871061 0.0701589 
-0.000521676 0.001724 0.138176 
0.00347241 0.00706691 0.0967572 
-0.00017797 0.0115044 -0.014549 
0.000434222 -0.0208008 0.0607634 
0.0025727 -0.0280137 0.0645821 
0.00246377 -0.0156412 0.0152656 
0.00646743 0.00264167 -0.005582 
-0.0263412 -0.00291227 0.0271752 
0.00747248 -0.0011403 -0.00797777 
-0.00921983 -0.00222041 0.0128544 
0.000486452 -0.00110345 -0.0015176 
0.000176073 -0.000462596 0.00216599 
-1.79116e-05 -6.58812e-06 0.00208467 
-0.0075796 -0.00112432 0.120451 
-0.011098 0.0083945 -0.00584444 
0.0201381 -0.0165204 0.020419 
0.0238414 -0.0180321 0.0447344 
0.0116143 -0.00296673 0.00931705 
0.00511893 -0.000174787 -0.00113326 
-0.0088583 -0.0022282 0.0954938 
-0.0197506 0.00521563 0.122866 
-0.00617833 0.00605993 0.0919725 
-0.085161 -0.00485912 0.227653 
-0.024319 -0.00436864 0.0760708 
-0.0178989 0.00985546 0.124432 
-0.0523408 0.00550339 0.124425 
-0.00139785 0.000114672 0.00323731 
0.000130664 -1.0719e-05 -0.00203485 
-0.00137828 0.000113067 -0.00103124 
0.00352018 0.00468163 0.0888609 
-0.00245784 -0.00058644 0.174088 
0.0314391 -0.000489145 0.236299 
0.0274602 -0.00400434 0.129148 
0.0215417 -0.00738029 0.18941 
0.000410492 0.000977473 0.27596 
0.000234207 0.00151819 0.211766 
-0.0306395 0.017665 0.262076 
-0.0212087 0.0110242 0.184743 
-0.000146471 -0.00339067 0.288002 
0.000232756 0.00359094 0.275758 
0.00171682 -0.00263286 0.241732 
0.0191922 0.00341172 0.311941 
0.0468911 -0.0456014 0.134036 
0.0247046 -0.0111461 0.0640801 
0.0111436 -0.0236307 0.0987546 
0.0170666 -0.0186002 0.0440958 
-0.0231248 -0.00841481 0.12273 
-0.0391414 -0.0198005 0.0680611 
-0.0304703 0.00431968 0.076184 
-0.0590792 -0.0319105 0.198727 
-0.00882955 -0.00909549 -0.00394294 
0.0327989 0.0152064 0.0573797 
-0.00645467 -0.00657588 -0.00206861 
0.0242685 0.0102051 0.0199475 
-0.00494323 0.0392902 -0.04077 
0.0197827 -0.0555973 0.0927309 
0.00840882 -0.024471 -0.0436726 
0.0958331 -0.194992 0.302524 
0.0020507 -0.001904 -0.00175764 
0.00218073 -0.00233579 0.000609576 
-0.0109751 0.0126144 0.065458 
-0.00500996 0.00583287 0.0796326 
-0.0598691 -0.0116376 0.056142 
-0.123714 0.0125808 0.209175 
-0.0570058 0.023842 0.116438 
-0.060004 0.00715453 0.12887 
0.00100542 0.000300969 -0.00236284 
0.0010671 0.000220938 0.00415189 
-0.000758432 -0.000239154 0.00260191 
-0.00417658 0.00916 0.0643273 
0.0596467 0.0310421 0.0258276 
0.078252 0.104442 0.194887 
-0.00335343 -0.0393493 -0.0488987 
0.0370418 0.044753 0.0570331 
0.00013043 0.00119453 0.00145623 
-0.000362246 -0.000252235 0.0706614 
-9.9625e-05 0.000468325 -0.00019551 
8.15918e-05 -0.00775238 0.101975 
0.0307299 -0.00725253 0.130227 
0.0732682 0.00285205 0.261591 
0.0316441 0.00221314 0.237261 
0.044746 0.012203 0.184488 
-0.175702 0.134805 0 
0.132222 -0.11046 0 
0.109187 -0.125401 0 
0.0901878 -0.150023 0.454652 
-0.0493039 0.00340629 0.0284161 
-0.13114 -0.0785259 0.265332 
-0.033194 -0.0609318 0.148527 
-0.0842951 -0.0852391 0.158934 
-0.000312357 0.000561391 0.110963 
-0.00638979 -0.00532209 0.0862827 
-0.0108083 -0.0158962 0.123334 
-0.00231121 -0.00390793 0.0779925 
0.00211053 -0.00877025 -0.00445033 
-0.0697018 -0.0810838 0.151074 
-0.0830119 -0.190872 0.308185 
-0.021682 -0.100874 0.129833 
0.000215116 -0.00202641 0.00252776 
0.000122188 -0.00354489 0.00115231 
0.0060364 0.00785305 0.0646329 
0.0054807 0.00567147 0.0693466 
0.000611482 0.000898588 0.12804 
0.0153428 -0.010973 0.123704 
-0.0026547 0.00172404 0.0740438 
0.00686275 -0.00769103 0.108853 
0.0660108 -0.130869 0.366325 
0.0464468 -0.0806859 0.289104 
0.0937105 -0.0888762 0.497856 
-0.0179041 -0.129413 0.306319 
-0.00145052 0.00100294 0.00277049 
0.00026319 -0.000235437 -0.0055259 
-0.00240607 0.00159446 -0.00190359 
0.0127153 0.00541903 0.0219632 
0.000386584 0.000225747 -0.00102221 
0.00138816 0.000606898 0.000893964 
0.00173465 0.00103329 -0.00504252 
-0.0111076 0.00461109 0.04173 
1.25092e-05 -0.000271281 -0.00295484 
6.78339e-06 -2.63006e-05 0.00131184 
-2.99426e-05 1.5242e-05 -0.00822342 
-0.0114837 -0.00279143 0.0673751 
-0.0155084 -0.0829528 0.208358 
-0.00217245 -0.0121988 0.049365 
0.00293763 -0.0787495 0.118417 
0.00111647 -0.0617926 0.211651 
0.0527634 -0.050562 0.1648 
-0.00436235 0.0011721 0.0219519 
0.0606527 -0.0136859 0.096369 
0.120725 -0.0650833 0.261876 
-0.0810228 -0.0118835 0.25452 
-0.0691003 0.0470879 0.246996 
-0.142662 0.0118016 0.258876 
-0.0577371 0.00770866 0.115932 
0.0354225 0.063569 0.186194 
0.00713764 0.0119794 0.111179 
0.00996027 0.0267661 0.215188 
0.0152838 0.0112432 0.178967 
-0.057793 0.0282644 0.118388 
-0.132076 -0.026056 0.197345 
-0.0503546 0.00543567 0.0593827 
-0.0142431 0.046893 -0.00620369 
-0.0125657 0.00426062 -0.00742949 
0.0124838 -0.00705119 0.00816079 
0.0418892 -0.0125437 0.0641189 
0.0202474 -0.00327632 0.0472872 
-0.000227073 0.00321337 -0.00264561 
-0.00135145 0.00121231 -0.00129495 
0.000149399 0.00113283 -0.00117445 
-0.00134565 -0.0162202 0.0157922 
0.00213521 -0.00145127 -0.000247875 
0.00157744 -0.00107469 -0.00523604 
0.000570758 -0.000385915 0.00396742 
0.00502381 0.0105609 0.0283933 
0.00131388 -0.000340851 0.00143551 
-0.00685443 0.0015463 0.0964392 
0.00037234 9.73027e-05 -0.0033204 
-0.00521457 0.00179784 0.0923928 
-0.00219736 0.00180395 0.00271596 
0.0122439 -0.00862202 0.11811 
-0.00191366 0.00137458 -0.00300769 
0.00538254 -0.00645805 0.106066 
-0.00145996 0.000244799 0.127346 
0.0174825 -0.0106129 0.117829 
-0.000972135 -0.0018578 0.155422 
0.019927 -0.0100652 0.189132 
0.0163841 -0.0112356 0.116845 
0.014036 -0.0119263 0.0957139 
-0.00653024 0.00258293 -0.000778794 
0.0059053 -0.00638827 0.105714 
-0.00891519 0.0133804 -0.0131735 
0.0148983 -0.0126517 0.0253285 
0.0199636 -0.0299678 0.0279318 
0.0138736 -0.016833 0.0391248 
-0.0392741 -0.051587 -0.0889029 
0.0187696 0.0487725 0.0690501 
0.00832043 0.0572259 -0.00652242 
0.0822765 0.183877 0.302892 
0.0179185 -0.106077 0.0637769 
0.0478624 0.0389749 -0.0986447 
-0.0150432 -0.186442 0.368761 
-0.0228576 -0.0941536 0.130601 
0.0408962 0.0620066 0.209903 
0.00364065 0.0307952 0.215081 
0.0278321 0.0241579 0.276415 
0.0537003 0.0458276 0.22647 
-0.0246264 0.00681071 0.62366 
-0.0772764 -0.228436 0.325971 
0.00236379 -0.0313136 0.551308 
-0.0779651 -0.0911215 0.601691 
0.041755 0.0263761 0 
-0.058873 -0.0547156 0 
0.037939 0.0358135 0 
0.144862 0.0992713 0.234653 
0.0005114 -0.0004931 0.124524 
0.000739578 0.0015226 0.156769 
-0.00275969 -9.25679e-05 0.197883 
-0.0117673 -0.000103342 0.0955088 
-0.00226701 0.00042501 -0.00420918 
0.000186385 -0.00066633 0.000766086 
0.0148488 -0.0013378 0.0133399 
0.00620309 -0.00162669 0.00886624 
-0.00714563 -0.0172677 -0.0114631 
0.0180606 0.033144 0.027888 
5.1172e-05 -0.00968424 -0.013559 
0.0202709 0.0314562 0.0326823 
0.060832 -0.0178931 0.0955875 
0.0730596 -0.0260578 0.204096 
0.0110507 -0.0205265 0.0498025 
0.0052751 -0.00273731 0.0584242 
0.00022556 -0.000798611 -0.00107584 
0.000308721 -0.000894811 -0.00604346 
0.000166447 -0.000692529 0.00158601 
0.00799831 0.00321308 0.0990944 
-0.00347243 0.147363 0.484021 
-0.000620409 0.100992 0.259228 
-0.0113823 0.115743 0.0846321 
-0.0518515 0.106969 0.193771 
-0.00796455 -0.00701258 -0.00414244 
-0.00635781 -0.00874401 -0.00420204 
-0.00367454 -0.00677858 -0.00790618 
0.0208218 0.0299662 0.0216825 
0.00964289 -0.00101623 0.00467405 
-0.0322974 -0.00918056 0.046766 
0.00875298 0.000150632 -0.0018387 
-0.0183173 -0.00609052 0.0591772 
-0.0228696 0.00337832 0.124946 
-0.0163873 0.011558 0.0603193 
-0.0707419 0.0302724 0.217377 
-0.0504935 0.0123195 0.127848 
4.56237e-05 -0.00404124 0.159357 
-0.0204191 0.00879719 0.181718 
-0.0225225 0.00806147 0.127919 
-0.00524771 0.00403495 0.0869278 
-0.000858015 0.0287098 0.129715 
-0.0107436 0.0269975 0.0513254 
-0.00215077 0.0800745 0.13502 
-0.00535324 0.0891015 0.250721 
0.0566952 -0.0122444 0.0960074 
0.0314987 -0.0225718 0.0311433 
0.0596674 -0.0304278 0.219976 
0.0885473 -0.0444093 0.253979 
0.0122814 -0.0942161 0.0954712 
0.0262178 -0.194051 0.340192 
0.00262368 0.0137653 -0.0964932 
-0.0141138 -0.090271 0.129325 
-0.0142945 0.0455474 -0.0685906 
-0.0373001 -0.113637 0.156644 
-0.0290538 -0.0354739 0.0168168 
-0.0158007 -0.107936 0.131373 
-0.00105509 -0.000951821 0.141543 
0.00242056 0.00192271 0.0647233 
-0.0175604 -0.00941973 0.129058 
-0.00737949 -0.00445957 0.0856712 
-0.00632649 -0.0287015 0.132639 
-0.0249828 -0.0792215 0.203739 
1.97528e-05 -0.0277006 0.248647 
-0.00284223 -0.0589332 0.210753 
-0.00924075 0.000992745 -0.0126332 
0.0475901 -0.0123293 0.0712185 
0.0205633 -0.0104459 0.0620527 
0.00864332 -0.00408826 0.0645987 
0.0412034 0.00381295 0.0747081 
0.0481201 0.0198212 0.187696 
0.0882671 0.0363751 0.162873 
0.0941844 0.0121206 0.129662 
-0.0569203 -0.0165301 0.370059 
-0.0468007 0.0312058 0.414543 
0.0184504 0.0323938 0.405289 
-0.0374185 -0.0209981 0.468809 
0.010823 0.0111968 0.000303096 
-0.0348491 -0.0252732 0.0232742 
-0.00552555 -0.00501142 0.000545523 
-0.0194466 0.00137933 0.0119795 
2.96398e-05 0.000259912 0.0705496 
0.000463123 0.000734194 0.000224527 
-0.000194281 -0.000195812 0.0592475 
0.000208516 -0.00630261 0.092783 
-0.00035522 -0.000569531 -0.0022066 
-7.51278e-05 -6.29769e-05 0.000836529 
0.00019974 -1.01359e-05 -0.00625025 
0.0105454 -0.00587788 0.0443896 
-0.000772747 0.0017334 0.0057579 
-0.000959436 0.00211243 0.00346194 
-0.000610615 0.00125367 -0.0062172 
-0.0105004 -0.00984321 0.0502365 
-0.00301762 -0.00110705 -0.017376 
-0.0464107 -6.26457e-05 0.0602006 
-0.136735 0.0158292 0.187558 
-0.0108475 0.00594852 0.00352515 
0.0117195 -0.0323163 0.182089 
0.00974403 -0.020892 0.253792 
0.00132013 -0.034946 0.240645 
-0.00458891 -0.0215938 0.16016 
0.00284082 -0.00815449 -0.00253409 
0.0196387 -0.025327 0.0445571 
0.0125575 -0.0835156 0.0863704 
0.00156681 -0.00363304 -0.00187112 
-0.000913897 0.00141329 0.227364 
-0.000248066 0.00048137 0.283587 
0.00159991 -0.000595604 0.22466 
-0.0252706 -0.0278415 0.239666 
0.0536342 -0.0173888 0.0921095 
0.0703488 -0.0482088 0.111351 
0.0197808 -0.0168797 0.0233543 
0.0265286 -0.0167086 0.0591845 
0.0114769 -0.0478129 0.180479 
0.0289269 -0.0209124 0.298756 
0.0446894 -0.0608786 0.280234 
0.0061656 -0.0193649 0.251744 
-0.041373 0.062347 0.240065 
-0.0379658 0.0232298 0.287421 
-0.016363 0.0215153 0.197114 
-0.0603631 0.0437671 0.237748 
-0.0232189 0.0442024 -0.0769017 
-0.063229 -0.075856 0.0189418 
-0.0204744 -0.105942 0.179799 
-0.015769 -0.101195 0.141176 
-9.6919e-05 7.25921e-05 -0.00537971 
0.000307408 -0.000340747 -0.00435424 
0.00113262 -0.00115944 0.00256857 
-0.00874236 -0.00577022 0.0616603 
-0.00250617 0.00639158 -0.00090692 
-0.00536818 -0.028791 0.0390197 
-0.00433949 0.00647239 -0.00920266 
-0.00187974 -0.0180772 0.0565409 
-0.00494782 -0.00440742 -0.00530715 
0.00964111 0.0299965 0.0322592 
-0.00311727 -0.00514962 0.000703521 
0.00957589 0.0212123 0.061401 
8.39902e-05 0.00075988 0.138021 
-0.000853401 0.00119338 0.114286 
-7.90399e-05 -0.000591167 0.0733156 
-0.00225965 0.00613067 0.0928762 
0.0033752 -0.0769981 0.3698 
0.0437042 -0.0359379 0.425874 
0.0318026 -0.0241088 0.280692 
0.0430244 -0.0649126 0.307045 
-0.00499075 -0.00746131 -0.00707213 
-0.00232321 -0.00276532 6.58795e-05 
0.0045655 0.0221383 0.0503772 
-0.000192836 0.021393 0.0182925 
-0.0174416 0.00340973 -0.013113 
0.0256317 -0.0121172 0.0624474 
0.0527389 -0.0141709 0.0716991 
0.0101888 -0.00721163 0.00583119 
0.00276121 -0.0164274 -0.00944172 
-0.00499989 0.0326448 0.0536259 
-0.0062259 0.0255336 0.0169757 
0.00193257 0.0171944 0.0186574 
0.0310986 0.0243173 0.271147 
0.0543297 0.0497435 0.223569 
0.00349786 0.0252292 0.21801 
0.0104008 0.0145655 0.166537 
-0.0015526 0.00677064 -0.00193294 
0.00323 -0.0216229 0.0774442 
0.00085652 -0.0118837 0.0988326 
0.00488303 -0.00639536 0.090518 
-0.000616598 -0.000277788 0.00403088 
0.000427907 0.000232741 -0.000548766 
-0.000912703 -0.000529603 -0.000696432 
-0.00488616 0.00536985 0.0330206 
-0.0303456 -0.114131 0.143435 
-0.0899491 -0.18317 0.310378 
-0.142638 -0.0371036 0.15722 
0.0456338 -0.131801 0.128579 
-7.52314e-05 0.00184012 0.292026 
0.0288528 -0.0242049 0.278942 
-0.000620765 -9.61153e-05 0.229704 
0.0106438 -0.0188104 0.250237 
3.7589e-06 -0.000146403 -0.00320621 
-0.000605825 0.000897322 0.0020853 
0.000534718 -0.000632065 0.00178582 
0.00568863 0.00303138 0.0638768 
0.000915812 0.00313074 -0.00310405 
0.000371083 0.000932062 0.000100027 
-0.000416535 0.00178134 -0.000848484 
-0.00160102 -0.00924895 0.0098828 
0.000776495 -5.30762e-05 -0.00156238 
0.000874923 0.00150899 0.00114569 
-0.000608314 -0.00117623 -5.18685e-05 
-0.00186337 0.000320425 0.00282612 
-0.000751043 0.00245229 -0.000293499 
-0.000546929 0.00261678 -0.00975924 
-0.00107139 0.00328971 0.00197723 
0.0193772 -0.00469742 0.0712559 
-0.00245992 0.00133185 -0.00552934 
0.0173736 -0.00908322 0.11319 
0.00544652 -0.00158817 0.0885701 
0.0112357 -0.00554555 0.0666247 
0.0189153 -0.015581 0.119222 
0.0463017 -0.0293859 0.199041 
0.0254903 0.00124371 0.134924 
0.0179817 0.000139414 0.058279 
0.0638635 -0.0133806 0.0892785 
0.0375883 0.0226286 -0.0230739 
0.130657 -0.0368367 0.244716 
0.0885404 0.00821356 0.13594 
-0.0115032 -0.000300197 -0.00610368 
-0.00615985 -0.000794226 -0.00493113 
0.0200862 0.000700955 0.0106582 
0.0119696 -0.000538924 0.00824313 
-0.00315765 0.0265252 0.0620055 
0.0012667 0.0271362 0.0196556 
0.000846702 -0.0116293 -0.00853365 
-0.000336353 0.0146724 0.0531733 
-0.00898104 0.0516202 0.0162523 
-0.00878562 -0.0195436 -0.013461 
0.000675973 0.0973396 0.105927 
0.0049396 0.0104347 0.00865868 
0.00200443 0.000509845 -2.90645e-05 
0.00477075 0.00277198 -0.0140172 
-0.0196391 -0.010203 0.121201 
-0.0131867 -0.00766335 0.0783043 
0.106228 0.056285 0.540591 
0.0530233 -0.0461077 0.720097 
0.0333022 -0.0030637 0.587636 
-0.0108274 0.0363245 0.715764 
-0.123011 -0.0955919 0.000205219 
-0.154584 -0.110441 0.304215 
0.0214209 0.0249669 -0.119904 
-0.0360838 -0.040835 0.233078 
0.168443 -0.0708986 0 
-0.129748 0.0468401 0 
-0.128791 0.0777355 0 
-0.154298 0.133259 0.461978 
0.00131659 -0.00165555 -0.00206441 
0.00235166 -0.0025121 0.00920398 
-0.0055786 0.0165355 0.0619533 
-0.00106055 0.0114561 0.0538181 
-0.060714 0.0134072 0.117298 
-0.0228394 0.0299293 -0.0108636 
-0.0499818 0.0123829 0.0592474 
-0.0639651 -0.00309612 0.128517 
0.00644017 0.0268025 0.40503 
0.0361085 0.0214084 0.264943 
0.0438923 0.0557759 0.368655 
0.00220806 0.0179398 0.296388 
0.00131937 0.00124924 -0.0047339 
0.00205676 0.00199464 -0.00153875 
0.00091354 0.000923528 0.00396559 
0.0029629 -0.010477 0.0889278 
0.000516404 -0.00216111 0.294353 
-0.00884844 0.00689519 0.329846 
-0.00875309 -0.00832829 0.341994 
-0.0160169 -0.00750335 0.298168 
0.0106064 -0.0354299 0.178945 
-7.47214e-05 -0.0253068 0.0668886 
-0.0007924 -0.00740279 0.0926549 
0.00471915 -0.0566822 0.201115 
-0.0625591 0.0571255 0.358777 
-0.116858 0.0412231 0.58966 
-0.109566 0.107915 0.353388 
-0.0433151 0.0647398 0.732105 
0.0194228 0.0699555 0.200205 
0.0575864 0.0669253 0.374226 
0.0815854 0.126178 0.297655 
0.0706742 0.0343112 0.223677 
0.000270572 0.000205495 0.00148326 
0.000135203 0.000125752 0.00435553 
-1.58071e-05 -1.5679e-05 -0.000662288 
-0.0051471 0.00447271 0.054128 
-0.04448 -0.056865 0.147412 
-0.115857 -0.0555135 0.250313 
-0.051155 -0.0284017 0.0470553 
-0.0578661 -0.0354254 0.199407 
-0.00226399 -0.00200946 -0.022035 
0.00379912 0.0203831 0.0775138 
-0.000577022 -0.00228048 -0.00428673 
0.00372005 0.012019 0.0562741 
-0.00313137 -0.00181816 0.259878 
-0.00192545 0.000694327 0.306692 
0.000502574 0.000902956 0.263735 
0.00976401 -0.0184706 0.253092 
0.00680471 0.0124462 0.718272 
0.0665737 -0.227528 0.367798 
0.0113235 -0.0161644 0.525123 
0.0466522 -0.0546663 0.751972 
-0.0513446 0.0664045 0.237162 
-0.0653277 0.0455926 0.233729 
-0.0111519 0.00918381 0.0960033 
-0.0542935 0.0543326 0.137905 
-0.000202469 -0.000123645 0.0799757 
0.00034109 6.07427e-05 0.0707164 
-0.000528168 -0.000542395 -0.000468198 
0.00450827 -0.00362234 0.0904594 
-0.0108655 -0.0790129 0.370194 
0.0872531 -0.0863419 0.470334 
0.029915 -0.0242289 0.427747 
0.0511657 -0.0798032 0.305069 
-0.00031151 -0.000443118 -0.000638341 
-0.000462001 -0.000711962 0.002153 
-0.000316059 -0.000485406 0.00137931 
0.00677682 -0.00146461 0.115486 
-0.0177163 0.0432271 0.0617337 
-0.0323757 0.0952108 0.112892 
-0.0120737 -0.00363651 -0.0198481 
-0.00497194 0.0226747 0.00497027 
-0.00561902 0.00172415 -0.00990842 
0.0197743 -0.0107396 0.0445994 
-0.00162822 0.000758209 0.000809217 
0.012456 -0.0072751 0.0131135 
0.00151455 -0.00131626 0.700431 
-0.00609738 -0.000270531 0.713226 
0.00593897 -0.0183091 0.573233 
-0.010178 -0.100809 0.704127 
0.00501405 0.00171904 -0.00715755 
0.00406675 -0.0020356 0.00490417 
-0.0199747 0.00490974 0.0253841 
-0.0164712 0.00201349 0.0554952 
0.00264443 -0.0233434 0 
-0.0118475 0.0041258 0 
0.00378784 0.0111837 0 
-0.00893246 0.0145466 -0.00105387 
0.0302864 -0.0252367 0.306036 
0.0147958 -0.000223377 0.329344 
0.0408204 0.00287602 0.236295 
0.0463184 0.00453731 0.351309 
0.0039816 -0.000191737 0.277039 
-0.0300554 -0.0250827 0.25578 
-0.00012003 0.000496373 0.222689 
-0.0151765 -0.00781894 0.297642 
0.0137673 0.040486 0.0432271 
-0.00260279 0.0103542 -0.00847595 
0.0101731 -0.00892033 -0.0255533 
0.0210216 0.148279 0.189987 
-0.186545 -0.0971164 0.304196 
-0.0611057 -0.0100384 0.564328 
-0.102031 -0.0675768 0.578606 
-0.0880472 0.0294276 0.61797 
-0.00120568 -0.00177646 0.263508 
-0.00299367 0.000330586 0.28508 
0.0019657 -0.00119186 0.304961 
-0.0028196 -0.0191956 0.308819 
0.0438383 0.0765322 0.177956 
0.0215427 0.0168804 0.0683977 
0.0126408 0.0391372 0.0457745 
0.00572287 0.00876988 0.0525906 
0.00129443 0.0021149 0.22104 
-0.000745257 -0.000400083 0.199746 
0.00171321 0.000948865 0.153868 
-0.0273048 -0.00157665 0.230966 
0.00222103 -0.000703448 -0.000649984 
0.000840792 -0.00538258 0.00191564 
-0.00017213 0.00801969 0.0857588 
0.000627677 0.0113904 0.0584169 
-0.000342238 -0.000815177 0.00229878 
0.000336318 0.000700198 0.0728442 
-0.000202264 -0.000917742 0.000337825 
0.0018586 0.00608777 0.0923308 
0.0108251 0.0161386 0.115173 
0.00843091 0.00784245 0.0671214 
0.0203096 0.0240931 0.0734721 
0.00569668 0.0139392 0.0572362 
-0.000513695 -0.0027196 -0.00272214 
0.00365973 0.00346583 0.0948034 
0.00860447 0.0147594 0.111733 
0.00561167 0.00889421 0.0688986 
0.0101704 -0.0840258 0.354566 
-0.058775 -0.11937 0.376134 
-0.0726232 -0.0592089 0.333409 
-0.0290156 -0.061795 0.462396 
-0.00120259 0.002894 -0.00420828 
0.00387848 -0.0213816 0.069834 
-0.00221353 0.00208679 -0.0219633 
0.00297293 -0.0150214 0.0650041 
-0.00142138 0.0272012 0.0712614 
-0.00497728 0.00619635 0.0934261 
-0.00316993 0.0311742 0.133529 
0.00386689 0.0156417 0.0504 
0.0187899 -0.0120674 0.115164 
0.0164855 -0.0181404 0.196385 
-1.74193e-05 0.000678122 0.151391 
0.0191953 -0.0125609 0.192541 
-0.00289172 0.0251948 0.404494 
0.0285798 -0.0261737 0.426209 
0.0256459 -0.0025167 0.543128 
0.0590469 0.0154801 0.364051 
-0.000202678 -0.000593395 -0.00507534 
-0.000176737 -0.000583555 -0.00321274 
1.98055e-05 2.6244e-05 0.00107837 
0.0104654 0.00178105 0.0118926 
-0.00689462 0.170374 0.482345 
-0.0630236 0.0841776 0.188101 
-0.00796207 0.129325 0.0863813 
0.00645322 0.150769 0.306954 
0.000300855 -0.000806852 0.113789 
0.00596464 0.0040318 0.0816712 
0.011306 0.00496233 0.106509 
0.0178255 0.00964808 0.195705 
0.0065283 0.0123817 0.396446 
0.0234342 0.00643686 0.322136 
-0.0142307 -0.0257764 0.34063 
0.0306096 -0.024001 0.413035 
0.0409235 0.0692502 0.379648 
0.0398544 0.0102929 0.593185 
0.104179 0.0503045 0.516025 
0.0484066 0.00493461 0.333093 
-0.000644155 -0.000552676 0.243015 
0.000268247 0.0374023 0.276663 
0.0128535 0.0289985 0.215579 
0.00463627 0.0198769 0.30673 
-0.000886527 0.000126925 0.0779843 
0.00158293 -7.13958e-05 0.125445 
-3.16238e-06 -0.000271485 0.0705151 
0.00511711 -0.00398129 0.0924693 
-0.00126098 -0.000657109 0.11433 
-0.00699638 0.0162874 0.107618 
-0.00711467 0.0176367 0.171753 
-0.00532665 0.00605406 0.0834701 
0.000224246 0.00390997 -0.002282 
-0.000786094 0.00257639 0.00336539 
0.00156614 -0.0107234 0.095362 
0.000220768 -0.0162137 0.0670299 
-0.0179437 0.0159499 0.115604 
-0.0157739 0.0123955 0.0612301 
0.00521198 -0.00440006 -0.00527183 
-0.00167045 0.00679969 0.0875182 
0.0251438 -0.00683193 0.133515 
0.0338703 0.00479311 0.234096 
0.0123962 0.00167803 0.103043 
0.048477 0.0133107 0.181354 
0.0015337 0.000592451 0.226691 
0.0162154 -0.0205843 0.191752 
0.0282172 -0.0253039 0.286951 
0.0213609 -0.0100704 0.193528 
0.0101629 -0.0155309 -0.0034437 
-0.0222984 0.0211063 0.0234558 
-0.0195085 0.030727 0.0436987 
-0.0127847 0.0140235 0.0509769 
5.84938e-06 -2.14874e-05 -0.000399141 
0.000224943 -0.000127346 -0.00045649 
-0.000446986 -0.000130156 -0.00725781 
-0.00725127 -0.00924298 0.0537228 
0.0107287 -0.0190426 -0.00782506 
-0.00787299 0.0256904 0.0593672 
-0.0225043 0.0387027 0.051305 
-0.00879333 0.0269385 0.0175372 
-8.5424e-05 0.000421629 0.153741 
-0.012908 -0.0194812 0.125614 
-0.00198816 0.0022196 0.165652 
-0.0088372 -0.0172706 0.181153 
-0.000111834 -0.000443323 0.0597907 
0.000109632 4.64529e-05 0.066058 
-0.000876984 -0.000158012 3.7366e-05 
0.00451634 -0.0013939 0.0846082 
-0.00095063 -0.000774198 0.0680255 
-0.000709436 0.00943501 0.0965081 
0.000976944 0.00121724 0.127568 
0.000362973 0.00687854 0.0919659 
0.00572111 0.0215245 0.404573 
-0.0424326 -0.00934401 0.37346 
-0.0468414 0.0165301 0.27978 
-0.0640137 0.0434442 0.400139 
-0.000267262 0.00056572 -0.00799485 
-6.11862e-05 0.000514552 0.00508716 
0.000338121 -0.00157697 -0.00535867 
0.0179976 0.00175575 0.0644762 
0.000225174 0.00261788 0.00272442 
7.98683e-05 0.000928552 -0.0127432 
-0.00018529 -0.00215419 -0.000798574 
-0.0147013 -0.00429448 0.0785093 
-0.015006 -0.0853178 0.619583 
0.0914485 -0.0762731 0.516702 
0.0235908 -0.00928099 0.594961 
-0.0366709 -0.0434401 0.458054 
-0.000526226 -0.00133369 0.124792 
0.00668981 -0.0028922 0.0886784 
0.0212498 -0.00316142 0.12713 
0.0064 -0.000904274 0.0846446 
0.0292334 -0.037923 0.291318 
0.0110962 -0.0318335 0.187678 
0.0192156 -0.0203209 0.191903 
0.006501 -0.019025 0.251111 
-0.00551234 -0.00133428 -0.00557981 
-0.000390555 -0.00161951 -0.00344135 
-0.00191553 0.000109909 -0.00142242 
0.0198315 0.0149685 0.0195542 
-0.0181228 -0.000329938 0.748664 
0.0102793 0.00355152 0.787289 
-0.00562765 0.0211754 0.799971 
-0.00901893 -0.0887377 0.68973 
-0.00101813 -0.0182248 -0.00945475 
-0.0146524 0.0419127 0.0422077 
-0.00615207 0.00467029 -0.00181642 
-0.00441005 0.0237118 0.00796116 
-0.000147194 -0.000104652 0.0706121 
-0.000226853 7.84905e-05 0.0591329 
0.000861272 -0.000124472 -0.00110893 
-0.00014376 0.00595506 0.0899301 
-0.00210444 0.130576 0.444239 
-0.0656981 0.0661194 0.230043 
-0.0528065 0.0485662 0.40439 
-0.00134584 0.102768 0.26849 
-0.0197283 -0.0320366 0.765082 
-0.0111179 -0.0425272 0.659701 
-0.0062153 0.00181655 0.810535 
-0.0228618 0.0375499 0.72622 
-0.151323 -0.000305393 0.247406 
-0.0715065 0.039948 0.237523 
-0.045596 0.0506549 0.0965116 
-0.0559769 0.012761 0.122578 
-0.00521139 0.00472854 0.00399428 
0.0105219 -0.0144415 0.041831 
-0.00751806 0.00429597 -1.76899e-05 
0.00268531 -0.0160926 0.0150228 
-0.000362895 0.000135121 -0.000846655 
0.00176756 -0.000636936 0.0033369 
-0.000243131 1.61827e-05 0.00219227 
-0.00610185 -0.00612605 0.0637883 
0.00917855 -0.00975522 0.731925 
0.0153539 -0.0947817 0.627343 
0.0653252 -0.200783 0.386683 
0.0441546 -0.0465606 0.71122 
0.000411941 0.00037052 0.0629171 
-0.000447094 -0.000498083 0.000593326 
-0.000248731 0.00011751 0.0770604 
0.00498898 0.00161852 0.0864039 
-0.0708158 -0.00478439 0.547577 
-0.0877305 -0.0889888 0.59308 
-0.010397 -0.0820795 0.629476 
-0.0373835 -0.0469009 0.429582 
0.0222053 -0.145128 0 
-0.0089939 -0.160141 0 
0.0131256 0.209672 0 
0.0577228 -0.200033 0.420972 
2.59658e-05 -0.001672 -0.00792001 
-0.0241161 -0.00925451 0.0538764 
0.00529381 0.00122052 0.00308678 
-0.0110449 -0.0054473 0.0649372 
-0.0368521 0.0748716 0.232487 
-0.0661769 0.0430506 0.393574 
-0.0431057 0.0136871 0.291521 
-0.0662437 0.0448872 0.230864 
0.0387663 -0.0129679 0.577175 
0.00659418 0.00288811 0.702293 
0.0197433 -0.0208423 0.535971 
0.0409586 -0.0569496 0.735794 
0.0482525 0.00775045 0.0625806 
0.0196499 0.00918818 0.0223182 
-0.0215208 -0.00254058 -0.0087364 
0.0289363 0.00171846 0.0208438 
-0.141399 -0.0723813 0.32236 
-0.192523 0.042718 0.298979 
-0.0588938 -0.0294485 0.578563 
-0.121103 0.0294557 0.592933 
2.91293e-05 8.90694e-05 -0.00284461 
7.44323e-05 6.90072e-05 0.00261681 
0.000147202 0.000219433 3.85902e-06 
-0.00300304 0.00142682 0.0919521 
-0.0205336 -0.00445478 0.116512 
-0.0289067 0.00306704 0.0763298 
-0.0753431 -0.0230555 0.232433 
-0.0591932 -0.0333855 0.200393 
0.000290522 -0.000921975 0.000269511 
-0.000408783 0.000959602 -0.00340138 
-0.000294022 0.000934397 -0.000261011 
0.00597082 0.000948974 0.0608228 
0.00143039 -0.000776507 0.00353537 
-0.0120453 0.0110511 0.116891 
0.000169614 -0.000165266 -0.00634082 
-0.00231468 0.00475473 0.0856519 
-6.7982e-05 -0.00130979 -0.00422788 
0.0132166 0.00448811 0.0206843 
-0.00293335 -0.00158746 -0.0132654 
0.0123556 0.00378814 0.0175558 
-0.00697732 0.00544883 -0.000938838 
-0.00488572 0.0030668 5.64268e-05 
0.0174043 -0.0288319 0.0293245 
0.0100864 -0.0159108 0.0538066 
-0.00253274 -0.00100882 0.00262376 
0.00997642 0.00383366 0.104309 
-0.000674513 -0.000715625 0.0785118 
0.00562169 0.0030138 0.0840235 
-0.00171029 3.10747e-06 0.223118 
0.0013546 -0.00147069 0.235039 
0.0133621 0.024492 0.216086 
0.0140124 0.0168756 0.171121 
-0.0646901 -0.0193221 0.551714 
-0.111431 0.0416146 0.588699 
-0.066697 0.0596771 0.370587 
-0.0360493 0.0591575 0.707083 
0.0875784 -0.0760346 0.452991 
0.0299779 -0.0308254 0.437955 
0.0493047 -0.0793745 0.310513 
0.115164 -0.058307 0.284344 
-0.0964177 -0.0163974 0.234105 
-0.0542206 -0.00202956 0.0590451 
-0.020939 0.00166403 0.0730843 
-0.0537144 0.00887787 0.123258 
0.0225741 -0.00698749 0.134129 
0.00721312 -0.00381401 0.085166 
-0.00154662 0.00149042 0.120717 
0.0197084 -0.00775888 0.187304 
-0.000293992 -0.000675123 0.00255941 
-0.00291661 -0.00081193 -0.00545585 
0.00784036 0.0122523 0.114545 
0.00247294 0.00648309 0.0918925 
-0.000407057 -0.0016332 0.00439002 
-0.000607947 -0.00226694 -0.00359444 
-0.000751873 -0.00288962 0.000622145 
-0.00544268 0.00983069 0.0655022 
0.000176889 0.000261409 0.00393107 
3.87845e-05 5.71374e-05 0.00034098 
-1.31334e-05 -2.06403e-05 -0.00388286 
-0.00808006 0.0077686 0.115363 
-0.0103792 -0.021739 0.344149 
0.0196844 0.00673679 0.332809 
0.0329863 -0.028064 0.302214 
0.0333773 -0.0282394 0.391771 
0.0241547 -0.00967689 0.132641 
0.0120122 0.00206333 0.102809 
0.0408842 0.0108055 0.0930093 
0.0483568 0.0144407 0.181352 
-0.00557331 0.0241914 0.399311 
0.0246771 0.00451589 0.567513 
0.0445479 0.0595933 0.387159 
0.062031 0.0126546 0.355822 
0.0051644 0.00116736 0.137566 
-0.0293036 -0.0062363 0.236839 
-0.00132461 0.00309694 0.203415 
-0.0157917 -0.0109767 0.177956 
-0.0044049 -0.021481 0.345304 
0.0269935 -0.000508254 0.329338 
-0.00201987 0.0184633 0.386017 
-0.0178811 0.0110224 0.3294 
0.00740868 -0.00485679 -0.00115229 
-0.0146909 0.00897899 0.069902 
-0.0211307 0.0147751 0.117459 
-0.00556655 2.57057e-05 0.0912993 
-0.000498201 -0.000164016 -0.00601382 
0.00132633 0.000601931 0.00262779 
0.000913357 0.000478624 -0.00338134 
0.00296499 -0.0126524 0.0580645 
0.0947129 0.0645895 0.52893 
0.0960744 0.127692 0.294666 
0.0117514 0.0974801 0.508792 
0.0489162 0.0675313 0.376682 
-0.00717852 -0.0551362 0.615781 
-0.160781 -0.114361 0.0823123 
-0.0982644 -0.159946 0.364187 
-0.0749754 -0.0963023 0.574425 
-0.00754045 2.52334e-05 -0.007194 
0.0411644 -0.00895116 0.0652688 
0.00942696 -0.00446236 0.0633367 
0.017018 -0.00364201 0.04591 
-0.00783885 -0.0911554 0.333587 
-0.0550275 -0.126268 0.36609 
-0.00487405 -0.101921 0.622618 
0.00171774 -0.13723 0.273377 
-0.00205726 -0.00520167 -0.000707034 
-0.00279909 -0.00804143 -0.00564856 
-0.0110205 0.0237228 0.0471867 
-0.00459145 0.012513 0.0492325 
0.0114079 -0.0237274 0.0704682 
-0.00658881 -0.0285182 0.0626334 
0.014316 -0.0318691 0.181642 
0.00643219 -0.0627978 0.201134 
-0.0464351 -0.052224 0.138214 
-0.0192063 -0.0105881 0.0679423 
-0.00872834 -0.0176422 0.125597 
-0.0538065 -0.0403225 0.18871 
-0.025493 0.0316114 0.598745 
0.0151782 0.125725 0.336524 
-0.0029473 0.147182 0.497214 
-0.00839668 0.0809341 0.747463 
0.00084794 -0.00488922 0.000171914 
-0.00663006 0.0180457 0.102511 
0.000574985 -0.00552771 -0.0110289 
-0.00647832 0.0206793 0.0704787 
-0.00268379 5.31963e-05 0.00480288 
-0.0307452 0.0354169 0.031406 
0.0137501 -0.0143572 -0.0103007 
-0.0264669 0.0209319 0.0192189 
0.0288748 -0.0294833 0.41333 
0.0301103 -0.01564 0.593591 
0.0794213 -0.0673931 0.520397 
-0.0356719 -0.048131 0.459368 
-0.0804102 -0.0131782 0.517116 
-0.05426 0.0438255 0.417917 
-0.0487863 -0.0125684 0.359911 
-0.0300433 -0.0349666 0.466018 
0.0836258 0.00332903 0.298695 
0.0267297 0.00208817 0.226619 
0.0202911 0.0312107 0.277033 
0.0557393 0.00718797 0.35665 
-0.0121202 0.00587117 -0.0138064 
0.0199051 -0.0196539 0.0159161 
-0.00050986 -0.0056667 -0.00191982 
0.0165385 -0.0225762 0.0386386 
-0.000135667 -0.000347387 0.0827407 
-0.00769977 0.00301264 0.0967619 
0.00191099 -0.000345113 0.00129701 
-0.00537059 0.000432778 0.0923104 
0.0388231 -0.0262358 0.299073 
0.0532504 -0.0253412 0.219243 
0.0296747 0.00387543 0.238985 
0.0204621 -0.00747989 0.186991 
0.00194564 0.000572039 0.172999 
2.01503e-05 4.91867e-05 0.116263 
-0.000742312 -0.00156451 0.121448 
0.00696643 -0.00044968 0.0842909 
0.0161965 -0.0134596 0.117699 
0.0240333 -0.0126958 0.0576883 
0.0524915 -0.0292829 0.198992 
0.0159991 -0.00234791 0.0600457 
0.000327507 -0.000733149 0.0015498 
0.000190979 -0.000362482 -0.00557267 
0.000401508 -0.000862458 -0.00171963 
-0.0109087 -0.00365468 0.114204 
0.000775793 0.000162924 0.0622082 
-0.000343994 -0.000178066 -0.000135063 
-0.00107062 -8.66104e-05 0.00266037 
0.00388411 0.0019792 0.0844306 
-0.0716422 -0.015385 0.542478 
-0.0659506 -0.0696905 0.324952 
-0.108202 -0.100171 0.550637 
-0.0204143 -0.0403864 0.463845 
0.0779019 0.00555345 0.279304 
0.028412 0.0227399 0.284856 
0.0299986 0.00037913 0.236069 
0.0479117 0.0171981 0.178235 
-0.000239067 -0.000360288 0.0675348 
0.000251601 -0.000463797 0.121333 
4.809e-05 0.000120576 0.127528 
-0.000162227 0.00973204 0.0961048 
0.0555858 0.0283133 0.0490383 
-0.0352591 -0.0309199 -0.0425427 
0.0203484 0.00393924 -0.00238895 
0.110684 0.0419306 0.125852 
-0.000942094 0.00114028 0.274259 
-0.000682839 -0.00229642 0.221331 
0.000741628 0.0016411 0.212621 
-0.018092 0.00992411 0.187807 
-0.00488131 0.013038 -0.00504352 
0.00869784 -0.0223844 0.073644 
0.011211 -0.0177581 0.0896352 
0.014689 -0.0240217 0.0507338 
0.000372324 0.00974232 -0.00251897 
-0.00181455 -0.020633 0.016237 
0.00234038 -0.0210801 0.0517505 
0.00209835 -0.0149781 0.0165796 
-0.00892511 0.0216934 0.407338 
-0.0427378 0.0197351 0.280599 
-0.0367542 -0.00364477 0.375213 
-0.0144443 0.00966588 0.315502 
-0.0252985 -0.0275456 0.240812 
-0.00975651 -0.0181614 0.184708 
0.00134771 -0.000639036 0.221969 
-0.0156808 -0.0114911 0.176189 
-0.00116409 -0.00114003 0.133754 
0.000229503 0.000975036 0.177713 
-0.0126324 0.0181749 0.199766 
-0.00690494 0.00900849 0.0840604 
-0.00359309 -0.00570724 -0.00392604 
0.00886508 0.0220468 0.0852577 
0.00852154 0.0145743 0.11364 
0.00149307 0.00816665 0.0919709 
0.0147241 0.00381553 -0.026058 
-0.00533742 -0.0179441 0.00852006 
-0.0151045 -0.0420999 0.0585325 
-0.0711674 -0.0715774 0.0964844 
0.0651275 -0.0537226 0.157524 
0.0464303 -0.072107 0.310814 
0.050529 -0.145586 0.296125 
0.0313213 -0.0676333 0.170234 
-0.00963771 0.0193599 0.71628 
-0.089622 -0.062405 0.613605 
0.00530896 -0.0229141 0.774804 
-0.112987 0.0419186 0.609568 
-0.00239959 0.0312226 0.136904 
-0.00307776 0.0288114 0.0724196 
-0.00724466 0.01768 0.107865 
-0.00390969 0.00415936 0.0877744 
0.000488265 -0.00142674 0.149293 
0.0149822 -0.0117048 0.124041 
0.00133104 0.00226023 0.130049 
0.00637941 -0.00857723 0.10673 
-0.00678573 -0.0436802 0.74894 
0.00118023 -0.00390446 0.557313 
-0.014172 -0.0456468 0.58508 
0.0446203 0.301199 0.406828 
0.0201386 0.0117165 0.0636487 
0.00727115 0.00323197 0.0640403 
-0.00632274 -0.00521054 -0.00254848 
0.0100624 0.00983072 0.06923 
-0.000980118 0.000530421 -0.00611378 
0.0118386 -0.00767113 0.11397 
-0.00205675 0.00222875 0.00302157 
0.00628085 -0.00243338 0.0878916 
-0.0191448 0.0223619 0.115204 
-0.0604385 0.0362045 0.218476 
-0.0168716 0.0251063 0.211907 
-0.020898 0.0094347 0.186947 
-0.0375137 0.0677623 0.240571 
-0.0234128 0.0336403 0.0453873 
-0.058626 0.121054 0.157688 
-0.0520892 0.0546481 0.135051 
0.000823661 -0.0312534 0.238994 
0.00803561 -0.0260034 0.255115 
0.00053659 0.00189405 0.205168 
-0.00199729 -0.0163293 0.159131 
-0.000897188 3.37527e-05 0.0716895 
0.000153609 0.000146486 0.0628092 
-0.000228043 0.000319505 -2.19479e-06 
0.000784042 -0.00786922 0.100689 
0.0564084 -0.0484881 0.161201 
0.0558605 -0.0372607 0.213523 
0.0153017 -0.010523 0.111397 
0.0254009 -0.00856135 0.0415668 
0.00331419 0.112444 0.491819 
-0.0645659 0.0569614 0.370014 
-0.110426 0.105057 0.379367 
-0.0399611 0.0652456 0.711565 
-0.0846403 0.0477539 0.223794 
-0.00693159 0.000108522 0.0560975 
-0.0566481 0.0283208 0.104159 
-0.0510556 0.0104958 0.127283 
-0.0517663 -0.0627589 0.136803 
-0.0323402 -0.0304931 0.259621 
-0.0602144 -0.0649512 0.323473 
-0.0606767 -0.0363479 0.193081 
0.00143517 0.0265156 0.399115 
0.0255337 -0.0328472 0.422353 
-0.00147518 -0.0168191 0.321068 
-0.0259462 -0.0459793 0.463489 
-0.0105179 0.0301162 0.210996 
-0.0636385 0.0367725 0.229527 
-0.0416458 0.0236961 0.279875 
-0.0193739 0.00912573 0.181551 
0.0524548 -0.0110182 0.0817791 
0.0251603 -0.00389618 0.132164 
0.010994 -0.00447304 0.0653037 
0.016707 -0.00079457 0.0421757 
0.0413897 -0.00092582 0.0878149 
0.0228417 0.0130124 0.0525393 
0.082212 0.0483334 0.140347 
0.0495658 0.0192425 0.186609 
0.0344232 0.0736442 0.203151 
0.0308832 0.0204812 0.277479 
0.055657 0.054922 0.374552 
0.059228 0.0458691 0.22055 
-0.0034076 0.00485476 -0.000558841 
0.0129886 -0.0158111 0.0871658 
-0.00321111 0.0048708 -0.00444023 
0.0128948 -0.01607 0.0525776 
-0.0320059 -0.0418674 0.104117 
-0.0691347 -0.0723128 0.349717 
-0.0837147 -0.140798 0.326033 
-0.0843823 -0.0894309 0.160584 
-0.0546935 -0.136236 0.29019 
-0.028767 -0.0896633 0.224282 
-0.0195137 -0.0365609 0.00999332 
-0.0223068 -0.100577 0.130306 
-0.01154 -0.00832153 -0.0005205 
0.0293317 0.0286333 0.0182327 
-0.0218979 -0.00547904 0.00414107 
0.0407149 0.0319765 0.00691095 
0.044212 0.0804511 0.312924 
0.0836399 0.158788 0.280233 
0.0318195 0.05771 0.565949 
0.166975 -0.0199736 0.334306 
0.000714165 0.00232608 0.137249 
-0.015929 0.00794121 0.178602 
-8.03128e-05 0.000152916 0.157834 
-0.00752519 0.00345625 0.0899165 
-0.0778022 0.0240966 0.0316569 
-0.133477 0.0314633 0.303797 
-0.104202 0.0883204 0.361196 
-0.0767743 0.0445658 0.237665 
-0.00145481 -0.00120433 -0.000692474 
0.00136937 0.00873497 0.0816727 
-0.000886649 -0.00430236 0.00229084 
0.000807157 0.0110155 0.0595924 
-0.0834474 -0.00869239 0.251681 
-0.144024 0.0199327 0.243957 
-0.0606513 -0.0197115 0.0391872 
-0.055101 0.00448194 0.118508 
0.0268819 -0.000559269 0.136158 
0.0487303 -0.0266296 0.200018 
0.0172894 -0.0153887 0.118162 
0.0224484 -0.0081791 0.189614 
0.0748386 0.0103756 0.307532 
0.0260993 0.0260581 0.270727 
0.0596661 0.0402544 0.226123 
0.0522445 0.0188453 0.368486 
-0.0821272 -0.121202 0.359452 
-0.0537198 -0.0604595 0.369259 
-0.125594 -0.0815293 0.310576 
-0.111241 -0.117654 0.113596 
0.0189066 -0.0271143 -0.039589 
0.0141722 0.0490608 0.0508808 
0.0209657 0.0482215 0.0230643 
0.0165008 0.0517301 0.0487821 
3.29291e-06 0.000583085 0.0548511 
0.000845501 0.00103669 0.00143437 
-0.00388434 -0.00625212 0.0888882 
-0.00259448 -0.00293934 0.0771601 
0.0835192 0.0194185 0.290512 
0.017578 0.0222468 0.287466 
0.054022 0.015756 0.175175 
0.0593073 0.0335086 0.226787 
-0.000343657 0.00199319 -0.00196516 
0.00434548 -0.0161905 0.0726807 
-0.00150754 0.002766 0.00435054 
0.00262426 -0.00701398 0.084248 
0.0248869 0.00521663 0.603277 
0.000424655 -0.00899351 0.759624 
0.00214847 -0.0211767 0.713552 
0.137445 0.0774039 0.598296 
0.00897515 -0.00227819 0.639971 
0.119814 0.0941613 0.575125 
0.0396375 -0.0155347 0.555869 
0.100522 0.20789 0.228674 
0.0013285 -9.89159e-05 -0.00192414 
-0.0104873 -0.0118898 0.117894 
0.00127426 0.00102217 0.00150536 
-0.00106839 -0.00298096 0.075106 
-0.00354372 0.0466302 0.0380182 
0.0272215 0.0214188 0.064636 
0.0561879 0.0715097 0.183245 
0.0295961 0.0499029 0.0565683 
-0.0113475 -0.021173 0.12578 
-0.051289 -0.0311553 0.185773 
-0.0205813 -0.0176067 0.070508 
-0.0132787 -0.0116126 0.177238 
-0.0180056 0.0661454 0.043155 
-0.0172914 0.124162 0.14617 
-0.00393052 -0.0362966 -0.0847209 
-0.016094 0.111703 0.209851 
-0.0901395 0.0553042 0.24322 
-0.0990394 0.14085 0.388477 
-0.0731911 0.0158029 0.503354 
-0.0366383 0.181563 0.0472379 
0.0304098 -0.0450849 0.020291 
0.0385333 -0.12993 0.246905 
0.0108465 -0.0717216 0.12018 
0.0325558 -0.0706165 0.178021 
-0.00493804 0.00591386 0.308378 
-0.00237904 -0.0196407 0.322014 
0.0021697 -0.00138566 0.30509 
-0.0115978 -0.00707401 0.300144 
-0.0121941 0.00365306 -0.0103462 
0.0210548 0.0145489 0.0599456 
-0.00557966 0.00448153 -0.00613756 
0.0124324 0.00292082 0.0535752 
-0.00642933 0.000449974 -0.00410699 
0.0203798 0.00817487 0.0606363 
-0.00314485 -0.000650796 0.00170741 
0.00865389 0.00545033 0.0653195 
0.0128875 -0.0261667 0.733306 
0.12885 0.060797 0.559629 
0.000131376 0.00229469 0.771458 
0.0483108 -0.0323221 0.720518 
9.51954e-05 -0.000485159 0.0955191 
0.00428356 0.00463322 0.092766 
0.00557332 0.00430807 0.0837322 
0.01234 0.0121571 0.170731 
-0.0102678 0.0183109 0.400891 
-0.0377904 -0.00376019 0.376528 
0.00119303 -0.0325292 0.33755 
-0.0137834 0.012534 0.321709 
-0.0201595 0.0152828 0.121084 
-0.0533238 0.0341298 0.113711 
-0.0125519 0.015358 0.0468618 
-0.0475319 0.0493916 0.124992 
0.0308253 -0.00243781 0.237062 
0.0526436 -0.0248553 0.217742 
0.0311829 0.00278923 0.125768 
0.0216528 -0.00871205 0.189689 
-3.00228e-05 -0.000565562 0.0598762 
-0.00196778 -0.000654348 0.000783961 
0.00659242 -0.000671136 0.0906725 
0.00450321 -0.000929861 0.0842002 
-0.000267277 0.0032581 -0.000311387 
-7.98673e-05 0.000973578 -0.00789076 
3.96005e-05 -0.000482728 0.00430591 
-0.0121407 -0.00430499 0.0301624 
-0.0238554 -0.0387979 0.258236 
-0.0630986 -0.0120337 0.365939 
-0.07785 -0.0141655 0.254613 
-0.0280291 -0.0050696 0.230926 
0.000929884 -0.000679522 0.0632539 
-0.00109534 0.00020484 0.00208657 
-0.00050034 0.000642827 7.70133e-05 
0.00245185 -0.00495717 0.0895731 
-0.00039145 0.00157982 0.291627 
0.00236569 -0.000347285 0.231733 
0.000587946 0.000464542 0.262661 
0.00930827 -0.016983 0.250429 
-0.00158869 0.00184782 0.164685 
-0.0108055 -0.01617 0.183906 
-0.0133737 -0.020156 0.12369 
-0.0121351 -0.0134503 0.175216 
0.000307 -0.000489228 -0.00252146 
0.00103962 -0.00164317 -0.00783379 
-0.000563576 0.000821404 0.000637879 
-0.0102673 -0.00537696 0.0654079 
0.105849 0.0881035 0.131763 
0.00487675 0.00106276 -0.0102567 
-0.0192829 -0.0216698 -0.0243286 
0.0339955 0.0475492 0.062573 
-0.000449211 -9.89288e-05 0.0668764 
0.000221306 0.000606184 0.0777061 
-0.00125868 -0.000529098 0.000816822 
0.00927478 0.00157135 0.106271 
0.0197253 0.0107683 0.0557113 
0.0552585 0.0215775 0.180932 
0.0399611 0.00935563 0.0885134 
0.00331089 0.00394332 0.0568427 
-0.00175843 -0.000765821 -0.000935503 
-0.00121838 -0.000570342 -0.00204987 
-0.00189263 -0.000729599 0.00233374 
0.00355069 0.00988271 0.00295954 
8.62294e-05 0.000535373 0.0823169 
-0.00039314 -0.000801855 0.11628 
-0.00794658 0.00367884 0.0981075 
-0.00546201 -0.000521801 0.0921716 
0.0130492 0.00234698 0.103985 
0.0379413 0.0102868 0.090656 
0.0474142 0.0139311 0.179416 
0.00843614 0.00766326 0.0567189 
-0.00643296 -0.00526358 0.496261 
0.00678264 -0.0224123 0.616686 
-0.0244089 -0.0508918 0.243983 
-0.0999867 -0.230784 0.405923 
0.0133608 -0.0141848 0.807561 
-0.00757968 0.0174875 0.808632 
-0.0084698 -0.0714006 0.663807 
-0.0225365 0.0407728 0.728536 
-0.000506286 0.000233964 0.123027 
-0.000741207 0.00179066 0.0706998 
-0.000662607 -0.00798948 0.0912 
-0.000815494 -0.0138881 0.158713 
0.00820521 -0.00713794 0 
-0.012008 -0.00141494 0 
0.00884507 -0.00124564 0 
-0.0181872 -0.00392933 0.0115785 
0.000873105 7.12872e-05 0.00248639 
0.000867944 7.08658e-05 -0.00096532 
0.000270986 2.21254e-05 -0.00236172 
-0.00194743 0.00472608 0.0857046 
0.124533 0.0604567 0.547266 
0.00584486 -2.55783e-05 0.790461 
0.0452182 -0.0411504 0.719841 
-0.00771942 0.0415304 0.718626 
0.00752723 -0.00260121 0 
-0.00634768 0.0043976 0 
0.00499398 0.000392822 0 
-0.0214884 0.0191201 0.0211041 
0.0921775 -0.0185978 0.305588 
0.0417555 0.0629316 0.389472 
0.113207 0.0554 0.454733 
0.0420952 0.00281809 0.372647 
0.00114507 -0.000779521 0.0024673 
-9.22929e-05 3.09402e-05 -0.00116005 
0.000832945 -0.00064993 -0.000703747 
-0.00438187 -0.00195606 0.0132822 
-0.000974418 -0.00115138 0.139917 
0.00980025 0.0274533 0.214928 
0.0100922 0.0143656 0.110567 
0.0124771 0.0153079 0.177269 
0.00482174 0.00467413 0.00308636 
0.0260099 0.00589242 0.0222361 
0.0581878 -0.0201842 0.0576119 
0.00629462 -0.0105105 0.0034139 
0.0017795 -0.0100288 0.0969365 
0.00510138 -0.0228328 0.0752483 
-0.00437508 0.010375 0.000788851 
0.00326471 -0.0200285 0.0690008 
0.00208246 -0.0021045 0.00099666 
0.00170358 -0.00300971 -0.00150751 
-0.0105172 0.0118678 0.0648508 
-0.00538344 0.00623545 0.0793825 
-0.0315939 0.0204638 0.672814 
-0.16666 0.144863 0.36991 
-0.0960681 0.0456408 0.5908 
-0.0294161 0.0434955 0.723178 
-0.000245561 -0.00140807 0.130169 
0.00766428 -0.00193892 0.0855362 
0.0163535 -0.0077736 0.119195 
0.0192827 -0.00947799 0.186747 
-0.0281765 -0.0388427 0.256909 
-0.0739088 -0.00974533 0.253224 
-0.0611376 -0.0280745 0.376072 
-0.0608887 -0.0324824 0.193272 
-0.0123101 0.0107564 -0.0122128 
0.0209254 -0.0160656 0.0575019 
0.0203928 -0.0161293 0.0244446 
0.0151179 -0.0148883 0.0453785 
-0.0312418 -0.0427861 0.116851 
-0.133303 -0.0907882 0.296291 
-0.0706766 -0.0730344 0.340737 
-0.0843505 -0.0895831 0.161853 
-0.00249586 0.000488566 0.00149988 
0.00570318 -0.00549556 0.0894429 
-0.00117922 -0.000539605 0.0659352 
0.00463699 -0.00582206 0.106721 
-0.0100737 -0.0234222 0.116327 
-0.0362919 -0.0303243 0.249073 
-0.0519174 -0.0345143 0.19804 
-0.0130282 -0.0104595 0.172664 
0.000387178 0.00057156 0.153576 
-0.0132234 -0.0195869 0.125773 
-0.00916968 -0.0171436 0.179238 
-0.00134339 -0.00283684 0.0754969 
-0.00954173 0.00426755 -0.00325566 
0.0210035 -0.0135912 0.0632055 
0.0210327 -0.0109409 0.112075 
0.0129348 -0.00327696 0.0655574 
-0.0332684 0.0886545 0.139954 
-0.0582433 0.098473 0.130908 
-0.0111143 0.0401065 0.0569987 
0.0164218 0.0307854 -0.00928251 
-0.00142504 1.61625e-05 0.076847 
0.0112353 0.00386604 0.108032 
0.000461845 7.33598e-05 0.111748 
0.00571907 0.00312963 0.0843952 
-0.00793736 -0.0390554 0.0585345 
-0.00823617 -0.0173232 0.00804315 
-0.0468951 -0.0532731 0.133532 
-0.0646363 -0.0774972 0.0987208 
0.00399522 -0.000597658 0.834761 
0.00148367 -0.0905078 0.636993 
0.0483147 -0.0485117 0.70841 
-0.0214861 0.0417444 0.724367 
-0.000580309 0.0298839 0.136451 
-0.00275832 0.0748945 0.107776 
-0.005932 0.0266259 0.0688088 
0.0017303 0.0115579 0.052798 
0.000239947 0.000613976 0.151728 
0.0164133 -0.0171563 0.190012 
0.0155013 -0.0128745 0.121426 
0.00690826 -0.00860058 0.105 
-0.000845465 -0.00189217 -0.00127395 
0.00161566 0.00142077 7.89539e-05 
0.00143533 -0.00231732 -0.00146688 
0.00276899 0.0140856 0.012476 
-0.000320146 -0.00243014 0.0701435 
0.00053428 -0.000404454 0.113535 
0.00664832 0.0136003 0.11791 
0.0045743 0.0055529 0.0949717 
-0.000561752 0.000150777 0.000910139 
-0.00183074 0.000442616 -0.00796965 
0.000188296 -5.84541e-05 -0.0020799 
0.00386907 0.0135675 0.0653266 
-0.00103597 -0.000372779 0.1284 
0.00385971 -0.00800969 0.0901538 
0.0134353 -0.0167211 0.188619 
0.00606787 -0.00784359 0.106461 
0.0528175 -0.0669353 0.145441 
0.0230933 -0.0344652 0.0421631 
0.016843 -0.00684563 0.0154178 
0.0155468 -0.015349 0.0382546 
0.0132762 -0.012287 0.0912994 
0.0134387 -0.0199645 0.196676 
0.0142887 -0.0391828 0.178115 
0.00321273 -0.00444093 0.083573 
0.0884043 0.051542 0.14411 
0.0432097 0.0101256 0.192583 
0.0217792 0.0143964 0.0486258 
0.0589555 0.0393964 0.214544 
-0.0413275 -0.047217 0.122749 
-0.00880268 -0.0239266 0.0745813 
-0.0129308 -0.0174374 0.125764 
-0.0183509 -0.0138735 0.0773266 
0.000918261 0.00245839 0.228278 
0.0288447 -0.0274626 0.28477 
0.0164189 -0.0205232 0.192719 
0.00966618 -0.0205063 0.251275 
-0.0220097 0.0386149 0.0595624 
-0.00927921 0.0247594 0.0596434 
-0.0131521 0.0879312 0.13784 
-0.00796542 0.0285683 -0.00438928 
-0.0161571 0.0122834 0.105441 
-0.0666859 0.0507446 0.232118 
-0.0589544 0.0279082 0.110779 
-0.0526384 0.0502155 0.137777 
-0.00799453 0.0029057 0.725925 
-0.0264364 -0.0274071 0.630953 
-0.0912444 -0.0452048 0.602033 
-0.114694 0.0578801 0.601989 
0.0027638 0.00199836 -0.00328456 
0.00124695 0.000912664 0.00212661 
0.00185946 0.00135302 0.000578129 
-0.00925025 0.00148652 0.0514178 
-0.0051454 -7.32861e-05 0.250648 
0.0108749 0.0252106 0.216536 
0.00179926 -0.00160343 0.219118 
0.00787165 0.0237506 0.303774 
0.0064459 -0.0413177 0.176347 
0.00862013 -0.0222162 0.0721972 
-0.00112912 -0.0104992 0.1001 
0.00300029 -0.0202308 0.0666922 
0.00058113 0.00343358 -0.00430771 
0.00153706 -0.00208192 0.000613989 
0.00269277 0.00316663 -0.00238108 
-0.0124876 -0.00822593 0.0113454 
0.0114252 -0.0100911 -0.00308403 
-0.0153425 0.0128919 0.0600086 
-0.0224364 0.0195964 0.114744 
-0.0143672 0.00884733 0.0690616 
-0.000670041 -0.000336416 0.0675062 
0.0111162 0.00161712 0.106161 
-0.00303126 -0.00079427 0.00151091 
0.00609402 0.00065536 0.0835271 
0.00925644 0.00208689 -0.00596767 
-0.0176415 -0.00548684 0.0293549 
-0.00220201 0.00460777 -0.00168831 
-0.013796 -0.00333656 0.0106795 
-0.000799778 -0.00081596 0.211629 
0.0286318 0.00510703 0.237504 
-0.00150853 0.000548434 0.276043 
0.0206735 0.00830503 0.200681 
-0.00159301 -0.00134883 0.00282017 
0.00267523 0.0105517 -0.0128721 
-0.0135254 -0.0313733 0.0242359 
-0.00593586 -0.022981 0.024511 
0.00134536 0.0230512 0.404481 
-0.00184263 -0.023741 0.330455 
-0.0491766 -0.00874055 0.373213 
-0.0259314 -0.0385392 0.450701 
0.00380018 0.00093769 0.450496 
0.0195749 0.018598 0.619671 
-0.0122905 0.0509361 0.237613 
-0.14144 0.202127 0.0704014 
0.0376753 0.0697592 0.174659 
0.0136994 0.0397465 0.0468809 
0.00126177 0.0251875 0.0826154 
0.00873508 0.0115049 0.0547628 
9.99244e-05 0.000211889 0.0616289 
-4.30345e-05 -0.000933005 0.07666 
0.000177337 -0.000427652 0.000320308 
-0.00667926 -0.000717926 0.0966858 
-0.0023741 -0.000774267 -0.00338285 
-0.00542609 -3.30554e-05 -0.0072728 
0.00976467 -0.00579956 0.0175423 
0.0107539 -0.00464902 0.00979025 
-0.00050549 -0.000927836 0.113436 
0.0128671 0.00464503 0.105988 
0.000335647 -0.00210517 0.139167 
0.0169191 0.00930513 0.194856 
0.000137461 -1.12139e-05 0.000759093 
-0.000270164 2.20398e-05 -0.0048382 
0.000876372 -7.14937e-05 0.000440223 
0.00096129 -0.0058137 0.0993182 
0.00494407 -0.0251197 0.752002 
0.00531525 -0.0052293 0.790144 
-0.00408491 0.00791799 0.705909 
-0.118103 0.0558926 0.646371 
-0.0114484 0.0173673 0.109911 
-0.0158353 0.0156334 0.059628 
-0.0173243 0.0179011 0.121232 
-0.00213557 0.00415592 0.0836501 
-0.00763266 -0.000363132 -0.00128791 
0.0354029 -0.000444671 0.0614626 
-0.00930461 0.00493831 -0.00810006 
0.0269785 0.000792884 0.0211149 
-0.00013076 -0.00149774 0.155985 
0.00125516 -0.00107072 0.114544 
-0.000456024 0.000686171 0.157832 
-0.017153 0.00715592 0.183484 
0.0160531 -0.0388035 0.176889 
0.00517922 -0.0581029 0.213658 
-0.00422459 -0.0301752 0.244396 
0.0133334 -0.0201308 0.254529 
-0.00215196 -0.0117321 -0.00109227 
0.00795052 0.0172907 0.112442 
0.00747958 0.0265628 0.0828249 
0.00726107 0.0135855 0.0608218 
-0.00445879 0.0285797 0.399003 
0.0238808 -0.00137794 0.567508 
0.0330871 -0.0342654 0.423208 
-0.0248051 -0.0469054 0.463205 
-0.0585432 0.0314452 0.106101 
-0.0145377 0.00623845 0.0650725 
-0.026514 0.000969592 0.00693594 
-0.0518343 0.0133501 0.127793 
0.0689199 -0.00410856 0.309565 
0.0757299 0.0700636 0.220096 
0.0645903 0.0468174 0.387174 
0.0411454 0.00328086 0.372919 
-0.000967264 0.00144112 0.22762 
-0.0261068 -0.0265532 0.237209 
0.00251234 -0.00191081 0.226654 
-0.0155932 -0.0103751 0.172665 
-0.0538087 -0.0296855 0.53477 
-0.0535286 -0.190772 0.420007 
-0.0362936 -0.0744339 0.197432 
0.0166041 -0.166989 -0.0359207 
-0.00182334 -0.00286511 -0.0185379 
-0.00164345 -0.00255913 -0.0014108 
0.0205027 0.0202995 0.0656322 
0.0157374 0.0107536 0.0585355 
-0.020357 0.000351339 -0.0216623 
-0.00634027 0.0180084 -0.0117548 
0.119518 -0.0538925 0.105076 
0.000966256 -0.00282983 -0.00496473 
-0.00301183 -0.00248227 0.00310098 
-0.00336767 -0.00190074 -0.01846 
0.0200284 0.00795268 0.0238591 
0.0205167 0.00977175 0.0454754 
-0.00159424 0.00133576 -0.0014567 
0.0148675 -0.0116613 0.0605993 
-0.00417052 0.00260737 -0.0172632 
0.0132577 -0.011229 0.0472482 
-0.000480118 -0.000319134 0.0759287 
0.00166702 -0.00026525 0.00113087 
0.000462455 -0.000503415 0.000460752 
-0.00769858 -0.00117778 0.0969412 
0.0445905 0.0297791 0.538123 
0.0826765 0.164072 0.293983 
0.130589 0.064563 0.535046 
0.148688 0.0167468 0.362141 
-0.00224225 9.76383e-06 0.152162 
0.000609091 -4.56138e-05 0.0806813 
0.000638413 0.000429662 0.116433 
-0.00927292 0.00284843 0.098982 
-0.00821877 0.0669859 0.100958 
-0.00239089 0.0242317 0.00823727 
-0.0034446 0.0274844 0.0694432 
0.00464213 0.0170384 0.0575716 
0.141936 0.0662667 0.52746 
0.0677354 0.0966165 0.311563 
0.117309 0.0876946 0.0856235 
0.153579 0.0472243 0.355408 
0.023851 -0.00939444 0.0270646 
0.064748 -0.0597846 0.105946 
0.0495575 -0.0266988 0.0879679 
0.0174749 0.0060662 -0.00725 
-0.0331933 -0.0264322 0.261516 
-0.0294415 -0.00683954 0.240792 
0.00297327 0.00176189 0.21692 
-0.0159454 -0.00674676 0.301503 
-0.0483195 -0.0468154 0.231905 
-0.173479 -0.191047 -0.00277395 
0.0279352 0.0243589 0.658392 
-0.0919246 -0.0865387 0.623819 
0.00392019 -0.00756699 0 
0.00873033 -0.00865076 0 
-0.000357928 0.00117496 0 
-0.00801713 0.0137689 -0.00328567 
0.0136444 -0.015662 0.0941043 
0.0205581 -0.0215974 0.0475277 
0.00490253 -0.0247001 0.0717416 
0.0265626 -0.0642763 0.157299 
0.0336656 0.0897941 0.213709 
-0.0565676 0.130442 0.0104663 
-0.0291085 0.084152 0.0877312 
-0.0438502 0.150699 0.481376 
-0.000797011 1.79716e-05 0.000282096 
-0.000433975 -0.000569464 0.0652983 
0.000148298 -0.000169262 0.0755786 
0.00350128 -0.00556935 0.107571 
9.68914e-07 7.23481e-05 0.00285792 
-6.85477e-05 4.00891e-06 -0.00114701 
-0.000536961 0.00022038 -0.00156814 
0.00472331 0.00802934 0.110571 
-0.030244 -0.0288675 0.246721 
-0.0514028 -0.0208615 0.379491 
-0.0631983 -0.0659651 0.330586 
-0.0637515 -0.0366455 0.193946 
-0.00048354 0.000992499 -0.00295528 
-0.000460145 0.00114284 0.00322532 
-0.000607098 0.00137356 0.000169013 
-0.00505429 -0.00567277 0.117113 
-0.00142653 0.00470176 -0.00223473 
0.00114519 -0.0173717 0.044837 
0.00108025 0.00454306 -0.000142594 
-0.00167713 -0.0176563 0.0189795 
-0.0204983 0.0500136 0.717175 
0.0119011 0.01588 0.553948 
0.000131436 0.00914586 0.509831 
0.106434 -0.295731 0.389404 
0.0421564 -0.020588 0.305202 
-0.0117173 -0.00634922 0.548564 
0.00146498 -0.0879479 0.22258 
0.15364 -0.205563 0.255449 
-0.018545 -0.0308364 0.774197 
-0.0083662 -0.00240893 0.805844 
-0.0860017 0.0496137 0.609686 
-0.0207858 0.0429735 0.72293 
-0.0323692 0.0272886 0.2904 
-0.0799152 -0.0144724 0.258422 
-0.0606943 -0.0118034 0.363741 
-0.0266889 -0.00489168 0.228829 
0.0249764 0.0215152 0.267129 
-0.000239152 -0.000249781 0.227564 
0.0200168 0.0111971 0.19988 
0.0156675 0.019373 0.174824 
-0.0789187 -0.0209552 0.234983 
-0.0267337 -0.00215004 0.245271 
-0.0181154 -0.00640576 0.114877 
-0.0572635 -0.0324299 0.198668 
-0.0729691 -0.0183631 0.561841 
-0.0661399 -0.0707536 0.318419 
-0.145943 -0.0658647 0.315549 
-0.107557 -0.0981198 0.550001 
0.000991235 0.0597804 0.0216763 
0.0416712 0.0704944 0.20065 
0.0717084 0.106847 0.22553 
0.0400585 0.0480207 0.0462457 
-0.0546543 0.101089 0.270045 
-0.0863371 0.136839 0.0301374 
-0.0245804 0.0706188 0.662522 
0.056473 0.122053 0.312682 
0.00097074 -0.0022273 0.208889 
0.0041493 -0.00371766 0.130088 
-0.0208296 0.0215448 0.208387 
-0.0184701 0.0134062 0.186301 
0.0112263 -0.0164768 0.0929665 
0.0105536 -0.0199417 0.0777488 
-0.00633397 0.00673542 0.000236242 
0.0019171 -0.00588715 0.087187 
-0.000246309 -4.13308e-05 0.062432 
0.000173245 -0.000140237 0.0826458 
0.000671422 -3.91422e-05 0.000472757 
-0.00505785 0.000470561 0.0923965 
0.000698707 0.00399811 0 
-0.00110177 -0.00283637 0 
-0.000223414 0.00517748 0 
-0.00558239 -0.00385577 0.00184988 
-0.00425414 0.0228842 0.379136 
-0.0028915 0.0439234 0.278882 
-0.0142478 0.00874405 0.326807 
0.0103349 0.0205071 0.303511 
0.00217739 0.0262118 0.396196 
0.0567863 0.0598664 0.384303 
0.0302874 0.0176174 0.267225 
0.044499 0.0116407 0.360354 
0.000676346 -0.000345944 0.114142 
-0.000767719 0.00110516 0.139628 
-0.000756653 -0.00255348 0.068321 
0.00681203 0.0134097 0.118421 
0.00573429 0.0245021 0.0841347 
0.00205527 0.00827825 0.0890926 
-0.00114135 -0.0108443 0.000481872 
0.00125086 0.0143355 0.0585079 
-0.0129514 -0.0186678 0.121288 
-0.0120758 -0.0146697 0.079315 
0.00283338 0.00728013 -0.00117993 
-0.00662003 -0.00234971 0.0865067 
0.000407728 0.000544138 0.00158013 
0.000226854 0.000569283 0.000370009 
5.61607e-05 -0.000468886 0.0585467 
-0.000427554 -0.00482562 0.0908077 
2.99705e-05 1.36288e-05 0.00046176 
-8.83201e-05 -4.63176e-05 -0.00126923 
-0.000395739 -0.000584107 -8.71774e-05 
0.00293887 -0.000538835 -0.000102538 
0.00920146 -0.00458643 0.753758 
0.0120031 0.0205385 0.638272 
-0.00188319 -0.00475323 0.737049 
-0.00851887 0.0529989 0.754342 
0.0332742 0.0249914 0.273566 
0.00463244 0.0212668 0.301942 
0.0113983 0.0224387 0.393797 
0.037019 0.0153922 0.362871 
-0.00698171 -0.0291274 0.139123 
0.000462509 -0.0098799 0.0967907 
-0.000815743 -0.0239703 0.0644374 
0.00449739 -0.0560319 0.200399 
-0.0372204 -0.0625059 0.130078 
-0.0200241 -0.0128504 0.00638568 
-0.0162135 -0.0396378 0.0541482 
-0.00884463 -0.0247745 0.0740707 
-0.00114996 -0.000893105 -0.000852342 
0.000574978 -0.0022846 0.00418198 
0.00297694 0.00452878 0.081968 
0.0049983 0.00525206 0.0665271 
0.0025843 0.000471719 0.159729 
0.000655457 -0.0133708 0.0984777 
0.000290326 0.000798384 0.132778 
-0.000531877 -0.0154156 0.163002 
0.00562415 -0.0026035 -0.00372651 
-0.0174073 0.0121137 0.115068 
0.00247671 -0.00235036 0.00107304 
-0.0122082 0.00903201 0.0699976 
0.0197538 -0.0348523 0.0388437 
0.000337925 -0.0290057 0.0739884 
0.0234273 -0.0141997 0.0448559 
0.0331761 -0.0743123 0.158413 
-0.000264772 0.00255554 -0.00203874 
-0.00202259 0.00320053 0.00398501 
0.00954113 -0.0128764 0.0900078 
0.00460795 -0.00747847 0.101734 
-0.0199678 0.0161664 0.122294 
-0.0111524 0.0196523 0.0567157 
-0.0557812 0.0251366 0.0971018 
-0.0144938 0.0079855 0.070003 
-0.00233581 -0.00451903 0.307749 
-0.00298342 0.00202387 0.313763 
0.0025284 -0.00130447 0.287934 
0.0157785 0.00320828 0.315834 
-0.0051362 0.00155359 -0.00241629 
0.000483071 0.00206559 -0.00334303 
-0.00207078 0.00104736 -0.00370485 
0.00539993 -0.00379895 0.0068013 
0.119736 -0.0356906 0 
0.108276 -0.0384391 0 
-0.153046 0.050287 0 
0.191634 -0.0291177 0.409379 
0.000686447 0.00103256 0.00239587 
0.000412069 0.000506274 -0.00306876 
0.000537567 0.00076631 0.000197432 
0.00440268 -0.00486606 0.113143 
-0.0070711 -0.00582427 0.770682 
0.0352621 0.194037 0.335055 
-0.0168999 0.0220016 0.621703 
-0.0231342 0.0426067 0.741375 
0.00265625 0.00342449 0.00128257 
-0.00799311 -0.0159931 0.071975 
0.00213145 0.00177656 -9.77127e-05 
-0.00335094 -0.0073302 0.0855389 
-0.00090339 -0.00121278 0.000511008 
0.00387305 0.00590028 0.0916985 
-0.000848692 -0.00216225 -0.00121158 
0.00546558 0.0066678 0.0714546 
-0.000262963 -0.000466138 0.169919 
0.00750327 0.00481073 0.0797487 
0.0188601 0.0112069 0.197714 
0.0158512 0.0138138 0.175762 
-0.0789096 -0.00701223 0.251382 
-0.0727109 -0.0588257 0.338708 
-0.0439679 -0.0157214 0.379697 
-0.0734766 -0.0472222 0.191321 
0.0264054 0.0111236 0.0156613 
0.0230047 0.0135003 0.0447532 
-0.0125638 -0.00881843 -0.00896863 
0.0182121 0.0134215 0.0128503 
-0.0132641 -0.0192306 0.12774 
-0.00969195 -0.0213901 0.0723968 
-0.00960281 -0.03043 0.138836 
-0.00168379 -0.00443146 0.0861996 
-0.0327275 -0.0336488 0.0396228 
-0.022003 -0.088041 0.213547 
0.017261 -0.0701485 0.117216 
-0.020237 -0.108375 0.115212 
0.000782968 -0.00122523 0.00156912 
-0.000721549 -0.00435067 -0.00339362 
0.00556046 0.00415383 0.0641015 
0.0056271 0.00958682 0.0698266 
-0.00314298 0.000559645 -1.52394e-06 
0.00693569 -0.0028755 0.0825763 
-0.00143417 0.000720299 0.00029328 
0.0108666 -0.00419151 0.0660002 
-0.0014752 0.00193827 0.203587 
-0.0299076 -0.00631447 0.238657 
0.00256032 -0.00256472 0.224856 
-0.0150048 -0.0102469 0.175743 
-0.00019869 -0.0012517 0.00162876 
-0.000179909 -0.000576856 -3.77964e-05 
0.000112065 0.000877224 0.0682613 
0.000601263 0.00635295 0.092191 
-5.65423e-05 0.000554317 -0.0016175 
-2.2658e-05 0.000383813 0.00075974 
6.13698e-05 -0.000729042 0.000646233 
-0.00396612 0.000488527 0.00215604 
-0.000343819 0.000114068 0.0624228 
0.00070984 -0.000194462 0.0831186 
-0.000178148 0.000970889 0.000324825 
0.00143166 -0.00834669 0.10083 
0.000474259 -3.70462e-05 0.000987883 
2.13759e-05 -0.000300512 0.0552549 
0.000660118 0.000576684 0.00120606 
-0.00397275 -0.00385696 0.0877051 
-0.0621444 0.0302016 0.110797 
-0.0710924 0.0437764 0.216703 
-0.0102805 0.0185951 0.121458 
-0.0128256 0.00165039 0.0565292 
-0.0473871 -0.0296978 0 
-0.0200701 0.00396664 0 
0.0632518 -0.00158441 0 
0.143993 -0.0157009 0.0922182 
0.0104609 -0.0134512 0.0846558 
0.0467556 -0.0563348 0.151195 
0.0205873 -0.0203482 0.0373927 
0.0336915 -0.0682487 0.170581 
0.0148536 0.00374956 0.101808 
0.0453212 0.012482 0.179807 
0.0323959 0.00345182 0.235005 
0.016737 0.0100731 0.200277 
0.0100673 -0.0349211 0.178405 
0.00208342 -0.0535301 0.198078 
0.00114443 -0.00875063 0.0943065 
-0.00351412 -0.0167515 0.165185 
-0.00401657 -0.00637683 0.00402039 
0.0191467 0.00892506 0.0713479 
-0.0014315 -0.00584622 0.00123155 
0.0123131 0.00205606 0.0441093 
0.0046097 0.0102017 -0.0124119 
0.00925788 -0.0266127 0.0285446 
0.00407204 0.00532727 -0.00394629 
0.00216247 -0.0146053 0.037705 
-0.0769731 -0.0161068 0.250786 
-0.0279971 -0.0326364 0.256485 
-0.0267975 -0.00494874 0.244325 
-0.0575289 -0.0324259 0.196619 
-0.00261382 0.00374571 -0.00206798 
0.00907017 -0.0149956 0.0944289 
0.00109055 -0.00700791 0.088599 
0.00703121 -0.00687553 0.107088 
-0.0109802 0.000698974 -0.0100421 
0.0211977 0.002757 0.0174643 
-0.0142978 0.000991059 -0.00789868 
0.0215383 0.00118971 0.0138771 
0.000680469 0.00172319 -0.00609058 
0.000465315 0.000894081 0.0012498 
0.00113617 0.00238919 -0.000873975 
-0.00828466 -0.00132413 0.0124391 
0.0034695 -0.0656422 0.108103 
-0.0035826 -0.0231662 0.0621624 
-0.0109367 -0.0398353 0.0553454 
-0.00226881 -0.0170231 -0.00659503 
-0.0012448 -0.0207436 0.0702034 
-0.0020711 -0.020684 0.0100421 
0.00531516 -0.0566463 0.0852129 
0.00408522 -0.0151789 0.00493018 
-0.00211031 0.00241692 -0.000984414 
-0.00275104 0.000921488 0.00117727 
0.00875018 -0.00970791 0.094818 
0.00665119 -0.00740103 0.1059 
-0.0446888 -0.0590251 0.141475 
-0.00493006 -0.0149028 0.058957 
-0.00971996 -0.0452665 0.0462727 
-0.0411462 -0.085025 0.200053 
-0.0030918 -0.00262272 -0.000697606 
-0.0025563 -0.0033377 -0.000838652 
0.00922983 0.0153946 0.10908 
0.00704795 0.0106286 0.0622617 
-0.0976906 0.121857 0.362649 
-0.168616 -0.02661 0.28618 
-0.125545 0.0550384 0.272921 
-0.155696 0.071529 0.580745 
-0.000786408 0.00169551 0.135863 
-0.000839076 0.0001015 0.157058 
0.000915848 -0.000258235 0.0815261 
-0.00530026 0.00345769 0.092233 
-0.0237425 0.00971414 0.129406 
-0.0234175 0.0100258 0.182777 
-0.022742 0.0119232 0.123581 
-0.000882388 0.00225903 0.0853983 
-0.00276748 -0.00158367 0.272862 
-0.000986389 0.0028009 0.251862 
0.00319646 0.00165005 0.296405 
-0.0100344 0.0112041 0.311865 
0.0133307 0.0175661 0.550391 
0.049381 -0.0471312 0.240679 
0.0680127 0.0520175 0.291219 
0.235087 -0.0775074 0.185907 
0.0119397 0.00140149 0.332574 
-0.00335193 0.00851504 0.327651 
-0.00189227 -0.000342493 0.301002 
0.00690808 0.017329 0.306765 
-0.00102744 -0.0014593 0.000364677 
-0.00664447 -0.00452477 -0.0184719 
0.0229042 0.0121152 0.0475757 
0.0145105 0.010243 0.0197939 
0.0175537 -0.0215026 0.189427 
-0.000617394 -0.0086914 0.0894588 
0.011433 -0.0127228 0.0943758 
0.00743877 -0.00646165 0.106638 
0.0924372 0.0615351 0.107754 
0.0290058 0.000195189 0.0230357 
-0.00895225 -0.00180463 -0.0113449 
0.00924155 0.0105424 0.005218 
-0.0288686 -0.00214049 0.244898 
-0.0513506 -0.0350446 0.200559 
-0.0341596 -0.0306275 0.251963 
-0.013871 -0.0095196 0.168331 
0.0011691 -0.000389223 -0.000952715 
2.55627e-06 7.31129e-05 0.0021673 
0.00364557 -0.00133287 -0.00646591 
-0.010247 -0.00543418 0.0641163 
-0.00393181 -0.0138685 -0.0125464 
0.00706893 0.0240279 0.0769902 
0.011897 0.0393389 0.0408092 
0.00769962 0.0123448 0.0622149 
-0.0373346 -0.0712209 0.127146 
-0.0761201 -0.0642147 0.329916 
-0.12458 -0.0627762 0.288979 
-0.0553884 -0.0372586 0.190613 
-0.0119906 0.0134975 -0.0261988 
-0.0116851 -0.00471079 -0.0218429 
0.0251672 -0.0206033 0.0253677 
0.0990123 -0.0746076 0.116807 
-0.00461613 -1.24384e-05 0.00536402 
-0.00599923 0.00653867 -0.00166617 
0.00393209 -0.0149522 0.0115979 
0.00364714 -0.00938572 0.0120827 
-0.00247709 0.00109699 0.142784 
0.00890209 0.013365 0.11555 
-0.00189141 -9.92294e-05 0.114205 
0.0137075 0.014277 0.174132 
-0.00402773 -0.080115 0.356573 
-0.0046169 -0.0168224 0.316283 
0.0274455 -0.0327391 0.424354 
-0.0222451 -0.0453047 0.463368 
0.000760086 0.000108651 -0.00103256 
-0.00360269 0.00066883 0.00220459 
0.00422101 7.72224e-05 -0.00238487 
-0.00512355 0.000768963 0.00282536 
0.0252287 0.0159683 0.126533 
0.0308198 0.0135446 0.0484978 
0.0427674 0.0176819 0.187645 
0.0551553 0.0400419 0.214408 
-0.000533824 0.000708094 -0.00747737 
0.000121243 -0.000324847 -0.00142284 
-0.000440838 0.000899163 -0.000192168 
-0.00699214 -0.00598396 0.0399349 
0.000177682 7.52602e-05 0.062167 
-0.000311217 -0.000461926 0.0766054 
0.000675717 0.000658929 0.110626 
0.00502364 0.00206085 0.0867179 
-0.00354364 0.145268 0.479818 
-0.0105583 0.109244 0.0938623 
-0.000491773 0.0907428 0.24883 
0.0117428 0.15222 0.297225 
0.00619692 -0.0293368 0.061284 
0.0103615 -0.0572001 0.209379 
0.013037 -0.0325379 0.180071 
0.0244974 -0.0666083 0.169743 
-0.00383323 0.00664562 -0.0082587 
0.0140269 -0.0207802 0.02109 
-0.00657687 0.00565504 -0.00494261 
0.00656355 -0.0137223 0.0138776 
0.0143155 0.0292074 0.555718 
-0.0708549 0.0615027 0.262932 
-0.249797 0.0111666 0.215581 
-0.140558 0.0283701 0.659035 
-0.000431494 -9.46523e-06 -0.00329272 
0.00586788 -0.00133554 0.0904958 
-0.00097328 -2.46922e-05 0.00102938 
0.00456733 -0.000760281 0.0842146 
0.00418944 -0.0255831 0.0762944 
-0.0020204 -0.0195772 0.0710307 
0.00272827 -0.0576341 0.0900263 
0.00834997 -0.0171941 -0.00147071 
-0.0316013 -0.0257146 0.249764 
0.00234786 0.00146949 0.221571 
-0.0285423 -0.00985058 0.245341 
-0.0169194 -0.0119382 0.170653 
-0.00774762 -0.0036547 -0.00164765 
0.0107782 0.00221528 -0.0158156 
-0.0364742 0.00229506 0.0298964 
-0.0198647 0.00321434 0.0315692 
0.00553765 -0.0088519 -0.00618951 
0.00393277 -0.00415021 -0.00109965 
0.00682671 0.0294464 0.0337464 
-0.000592581 0.0109196 0.0493751 
0.00791163 0.00163695 -0.0026034 
-0.0163481 -0.00940754 0.079026 
-0.0206934 -0.00908604 0.122418 
-0.00464314 -0.00446263 0.0848226 
-0.0103914 -0.00611738 -0.00360491 
0.0237306 0.0206619 0.0663547 
0.0231458 0.0128115 0.0603061 
0.0072543 0.0073515 0.067151 
0.00695791 0.0200222 0 
-0.00519909 0.000344497 0 
-0.00850067 0.00240845 0 
-0.00368144 -0.0278595 0.00541226 
-0.00211587 0.000325744 -0.00109764 
-0.00258008 0.000758452 -0.00121097 
0.00058375 0.000436268 -0.00116066 
0.00837278 -0.00353568 0.00845207 
-0.00299513 0.000780607 0.251134 
0.000848126 0.00159865 0.222967 
0.0029401 -0.00018432 0.280268 
0.00628226 0.0179992 0.297604 
0.00059041 -0.00326109 0.155366 
-0.000439826 0.00105263 0.0806394 
0.00370799 -0.0111004 0.104609 
0.0022707 -0.00692186 0.0894343 
-0.00111501 -0.000438752 0.000850241 
-0.000280347 -0.00066576 0.00133812 
0.00106606 -1.08654e-05 0.0764126 
0.00652153 0.00227505 0.105919 
0.000401698 0.000400296 -0.00577781 
0.000114625 0.000993136 0.00113637 
-0.00296529 -0.00623277 0.0903577 
-0.00115784 -0.0039393 0.0771116 
0.00012823 -8.99661e-05 0.257044 
-0.00388499 -0.0290251 0.238031 
0.000782525 0.00165564 0.187641 
-0.00732229 -0.01888 0.183441 
0.00153657 -0.00948301 -0.00361332 
0.00593599 0.0116101 0.0119549 
0.00195489 -0.00780454 -0.00251248 
0.0120617 0.0264109 0.0103034 
-0.00132426 -0.00155795 0.0923582 
0.00659662 0.00357012 0.08159 
0.000262807 0.000140886 0.169026 
0.0150798 0.0138276 0.175662 
0.0882629 0.0503409 0.139661 
0.0192075 0.0145064 0.0522339 
0.0118443 0.0312476 0.0695526 
0.0631997 0.0397831 0.210777 
0.000771219 -0.000189034 0.138161 
0.0132421 0.000500954 0.110743 
-0.00226655 0.000720391 0.0642079 
0.00684383 0.00011253 0.0850458 
0.0276302 0.0665096 0.270062 
-0.0219377 0.024721 0.243024 
0.022746 -0.0157004 0.641104 
-0.00714057 0.218454 0.327115 
-0.0249045 -0.00687971 0.120295 
-0.0507835 -0.0316946 0.19384 
-0.0295774 -0.00762936 0.241104 
-0.0143431 -0.0120585 0.176264 
-0.0241718 0.00768833 0.129111 
-0.0221774 0.013427 0.123546 
-0.0173579 0.0076747 0.0664794 
-0.0033285 0.00184029 0.0877735 
-0.000313184 4.57713e-05 -0.000581953 
0.000843304 -0.00345331 -0.0017386 
-5.27951e-05 -5.70539e-05 -0.00176481 
0.00274084 0.00698277 0.00276005 
-0.0443333 -0.0135512 0.361215 
-0.00495216 -0.0177803 0.338707 
-0.00799404 0.0135102 0.330269 
-0.0156113 -0.00526629 0.298249 
0.0187801 -0.0082698 0.120419 
0.025274 -0.00763653 0.133712 
0.00422834 -0.00241023 0.0864404 
0.0140835 -0.00330038 0.0602355 
0.014098 0.00166723 0.10422 
0.0034113 0.0049687 0.0843239 
-0.00547606 -4.86051e-05 0.00250006 
0.0079762 0.00374401 0.0658374 
0.0166778 0.00763535 -0.0148892 
0.00528653 -0.00655189 -0.00429051 
-0.00917496 -0.084659 0.102128 
-0.0183221 -0.0884631 0.0865553 
0.00106019 -0.0123181 0.0984953 
0.00143736 -0.0513371 0.196853 
-0.00565109 -0.0271224 0.137973 
-0.00205371 -0.0157815 0.161265 
0.000135378 0.000584974 -0.000736753 
-0.00126666 0.00169372 -0.00133382 
0.00170528 0.00221916 -0.00201777 
-0.00206796 -0.0169248 0.0129951 
-0.0332551 0.074696 0.23199 
-0.105184 0.100927 0.336001 
-0.0595762 0.0567807 0.394047 
-0.0705445 0.03161 0.23013 
-0.00107117 -0.00167932 0.139176 
0.000937737 0.000437517 0.218394 
0.0105634 0.0252443 0.212112 
0.0110862 0.0161595 0.178088 
1.62021e-05 0.000668791 0.000605607 
2.82343e-05 -0.000694129 0.0821163 
-0.000590124 0.00112426 0.00138384 
0.00163575 -0.00785077 0.101134 
0.00616495 -0.0729889 0.108795 
-0.006919 -0.0153427 0.0650096 
0.0119505 -0.019767 0.0711242 
0.00382944 -0.0682234 0.200404 
0.142857 -0.027492 0.312156 
0.136537 -0.09501 0.508025 
0.116771 -0.0794858 0.168759 
0.107323 -0.0518774 0.267091 
0.00123268 9.47749e-05 -0.00254255 
0.001376 0.000122409 0.00192883 
0.000207879 -7.56124e-06 -0.007184 
-0.0018229 -0.00995619 0.0520004 
-0.000344395 0.0022597 -0.00430067 
-0.000609518 0.00241111 0.00698639 
0.00438821 -0.0158778 0.070126 
0.000346562 -0.0151873 0.0651625 
-0.00147803 0.00022751 -0.00371134 
0.0104885 -0.00249604 0.0613433 
-0.00212403 0.00133441 0.00724644 
0.0112944 -0.0026703 0.0470148 
-7.8854e-05 0.000632086 -0.00524614 
0.00781259 -0.0100597 0.0924988 
-0.00225479 0.0023258 0.00384012 
0.00529479 -0.00704017 0.10357 
4.53251e-05 0.000285045 0.00213484 
8.1741e-05 0.000407945 0.00172577 
0.000246069 0.000749544 -0.00438398 
0.0063419 -0.00271981 0.00788382 
-0.043089 0.0693965 0.23228 
-0.0459511 0.112502 0.194427 
-0.0980162 0.100228 0.3132 
-0.0597683 0.0565102 0.125069 
-0.00230485 0.00254519 0.232795 
0.00115016 -0.00138432 0.213243 
0.00107378 -0.000882256 0.279349 
0.0184913 0.00864083 0.199391 
-0.000449839 0.00182981 -0.00142516 
-0.000444577 -0.00451662 -0.00303295 
-0.000931563 -0.0061999 -0.00262444 
0.00703267 0.0103921 0.00780517 
0.00470829 -0.00299254 0.525901 
0.0127007 0.00344408 0.591931 
-0.0399533 -0.028535 0.262518 
-0.267667 -0.0925331 0.305421 
0.00212828 -0.00119879 0.30689 
-0.00317211 -0.0194965 0.320268 
-0.00428371 0.000274863 0.27525 
-0.0111218 -0.00730722 0.299645 
-0.0146814 0.0241643 0.54946 
-0.251839 0.0107096 0.26172 
0.00624742 -0.000559418 0.629762 
-0.134432 0.0295184 0.622496 
-0.00496382 0.0964017 0.24464 
-0.0437313 0.0667578 0.271535 
-0.00128018 0.00411039 0.502331 
-0.140644 0.12144 -0.0687636 
0.0103064 -0.0746376 0.115898 
0.00477319 -0.0644671 0.214926 
0.00572687 -0.0180433 0.0580952 
0.0267645 -0.0722072 0.170117 
-0.00169531 0.00130792 0.220762 
0.000206384 -0.000625105 0.257503 
0.00152511 -0.00096287 0.1905 
-0.00718101 -0.0164889 0.182225 
0.00154036 -0.000156789 -0.000588415 
0.000422925 0.0021484 -0.00100574 
0.000634855 -0.000415329 -0.000601786 
-0.00646454 0.00075438 0.00159172 
0.000652886 -0.000162452 -0.00166809 
0.000665004 -0.000140268 0.000570436 
0.000521427 -9.56363e-05 0.00173946 
-0.00199682 -0.00317359 0.0902993 
0.0229964 0.0280935 0.0686776 
0.0258606 0.01276 0.0516701 
0.0244512 0.0167837 0.130745 
0.0602803 0.040806 0.210945 
0.000372574 -0.0010684 0.000142181 
0.000787408 -0.00269091 -0.00208199 
0.000439724 0.000797305 0.000388999 
-0.00802707 0.00320129 0.00344637 
-0.00161993 -0.000487387 0.000509623 
-0.0026118 -0.000687755 0.00464243 
-0.00110404 -0.000338425 0.000103637 
0.00266257 0.00883977 0.0565649 
0.0511163 -0.027032 0.0867359 
0.0270308 -0.0139039 0.0600476 
0.0209058 -0.015366 0.026417 
0.0138108 -0.00208679 -0.00838187 
-0.0134214 -0.0116359 -0.0114942 
0.0248439 0.0130623 0.054979 
0.0274048 0.0280251 0.0603598 
0.0189477 0.0147327 0.0174892 
-0.00285194 -0.0123725 0.101854 
0.00664844 -0.0211853 0.0756001 
0.0119022 -0.0344257 0.171212 
0.004648 -0.00638782 0.0879279 
-0.0149774 -0.00219155 -0.00956348 
-0.0124145 -0.0175157 0.0339356 
0.00250341 0.00434545 -0.0215997 
-0.0439941 -0.0507814 0.0640858 
-0.0363738 0.0202661 0.286566 
-0.045001 -0.0143694 0.357663 
-0.00777867 0.0144069 0.325845 
-0.0155306 -0.00579362 0.30419 
-0.000681321 0.000275576 0.0855837 
0.000149619 0.00126638 0.0533954 
-0.00385137 -0.00686987 0.0899383 
-0.00276511 -0.00339455 0.0782477 
0.0106753 -0.0366148 0.0328332 
0.0162804 -0.016881 0.0380076 
0.0586171 -0.0665112 0.149519 
0.043766 -0.0700905 0.168968 
0.00988219 0.0109632 -0.0120941 
-0.0133481 -0.0281878 0.0276948 
0.00455843 0.00607859 -0.0103555 
-0.00745017 -0.016671 0.0176438 
0.0108907 -0.0307179 0.164358 
-0.00111741 -0.055891 0.211312 
0.0451418 -0.0843982 0.309495 
0.0297418 -0.0678759 0.175691 
0.00142559 0.000274932 0.186225 
0.000403662 0.000505081 0.193762 
-0.0013374 -0.0020067 0.123976 
-0.00119313 0.0174042 0.170277 
0.000922458 0.000666604 0.243431 
-0.0143226 0.0241829 0.207914 
-0.000199973 -0.00104629 0.175965 
-0.00591997 0.0175796 0.170464 
-0.0152512 -0.0030372 0 
-0.00314451 0.0206555 0 
0.00914927 -0.00501851 0 
0.0276606 0.0335704 0.018303 
0.000688986 -0.000514855 0.00116831 
0.000311754 -0.000124076 -0.00188534 
0.00120191 -0.00079737 -0.000196155 
-0.00497525 -0.000719161 0.00712198 
0.00133517 0.0043791 -0.00042999 
0.00020044 -0.0213935 0.04578 
0.00274095 0.00688222 0.000610982 
0.00228005 -0.0161871 0.0145849 
0.000926198 -0.00585805 0.00182218 
0.00839262 -0.0727875 0.0734718 
-0.00597158 -0.0139167 0.0148397 
0.00521579 -0.0124149 0.00701999 
0.0323052 -0.001733 0.588135 
0.0552939 -0.0512111 0.705807 
-0.0117221 -0.0736482 0.639916 
-0.0110909 0.0374086 0.720543 
-0.0621146 -0.0504423 0.129115 
-0.0268376 -0.0774908 0.21304 
-0.0546021 -0.129824 0.30469 
-0.0573699 -0.0764991 0.332007 
-0.000258759 -0.000516131 0.0669853 
0.00158635 -8.35542e-05 0.136523 
-0.000513611 0.000421996 0.0754954 
0.0100357 0.00194138 0.108739 
1.63183e-05 -0.000205213 -0.00314839 
0.000134776 -0.000553784 0.000576885 
6.65188e-05 -0.000210573 0.00174631 
-0.00479002 0.000754394 0.0961484 
0.0015659 0.0996398 0.496431 
0.100114 0.0645372 0.539923 
0.0478193 0.0656359 0.366711 
0.0304614 0.00647182 0.599051 
-0.000371323 -0.00483123 -0.00216059 
-0.00128282 -0.00256159 0.00109948 
0.00239659 0.0200957 0.0176027 
0.00148284 0.0116485 0.0384654 
0.00667446 0.0548737 0 
0.0329207 -0.0559509 0 
-0.0129674 0.012942 0 
0.0714749 -0.120045 0.096158 
0.00905231 0.0214092 0.391647 
0.00589427 0.0237243 0.306105 
0.0175315 -0.00468995 0.319429 
0.0388313 0.0125792 0.358834 
-0.000542701 0.00257336 -0.00193913 
-0.00162073 0.0038037 0.0030901 
0.0047551 -0.0165327 0.0735398 
0.00246954 -0.00740929 0.0833614 
8.23349e-05 0.000579664 -0.00848328 
1.31467e-05 0.00067905 -0.00472879 
-4.8819e-05 6.53377e-05 0.00267671 
0.0148591 0.00138491 0.0675538 
-0.00564034 -0.00100474 -0.0068212 
-0.00350242 -0.00289827 -0.00711054 
0.0102786 0.0107489 0.0115666 
0.0201855 0.0128319 0.0254949 
0.00966682 0.00634469 0 
0.0174249 -0.010053 0 
-0.00733089 -0.0013146 0 
-0.0112905 0.0114555 -0.0031768 
-0.000116101 0.000973817 -0.00178477 
0.000936431 0.000516076 0.000243508 
0.00064154 -0.000110718 0.000579685 
-0.000231985 -0.00591889 0.00370906 
0.00131014 -0.00728322 -0.0073123 
-0.00409244 0.0185113 0.0181744 
-0.0115578 0.089962 0.0878897 
0.00650068 0.0169585 0.00305869 
-0.000673879 -0.00250098 0.000611121 
0.000458017 0.00176545 0.00685697 
-0.000376787 -0.00142007 -0.00206358 
-0.00630934 0.00478898 0.0114326 
-0.0595219 -0.00796494 0.262245 
0.0155837 -0.0247408 0.623284 
0.00928478 -0.0279138 0.524879 
-0.276771 0.0763678 0.278157 
-0.126639 -0.0636128 0.29172 
-0.0700927 -0.0669911 0.339087 
-0.0776439 -0.00234867 0.250291 
-0.0546371 -0.0351128 0.183556 
-0.00517317 -0.0763927 0.360347 
-0.0564894 -0.139388 0.334513 
-0.0244909 -0.0789644 0.201668 
-0.0632982 -0.0605011 0.337121 
-0.020139 0.020441 0.125563 
-0.020592 0.0275665 0.203544 
-0.00849321 0.0169059 0.107201 
-0.000295438 0.00211034 0.0804981 
-0.0119579 -0.0192497 0.127218 
-0.00182324 -0.00348178 0.085403 
-0.0113675 -0.0300536 0.139226 
-0.00867346 -0.021203 0.181003 
0.00285824 0.00084198 -0.000691958 
-0.0119794 0.0015771 -0.00387778 
0.0202493 0.00131799 0.0103817 
0.0103617 -0.00514915 0.0115372 
-0.00417256 0.000887235 -0.00275836 
0.00280428 -0.00449748 0.0891332 
-0.0015659 -5.37062e-05 0.00159523 
0.00799729 -0.00629634 0.107092 
-0.00793899 0.0176901 0.714896 
-0.0200655 0.00783222 0.609663 
0.00381727 0.00510927 0.750329 
-0.0888472 -0.083468 0.632612 
-0.00382673 0.0770739 0.0954323 
-0.00466231 0.0258635 0.0141954 
-0.0141865 0.030433 0.0807888 
0.0035626 0.0178775 0.00231959 
0.000440661 -0.000229208 0.00249305 
0.000487348 -0.00021057 0.00056584 
0.000137545 2.23584e-05 -0.00401597 
-1.18592e-05 0.00505806 0.0919769 
-0.00162203 -0.00200009 -0.000502621 
-0.00165123 -0.00466093 0.00179026 
0.00629026 0.0178738 0.082655 
0.00236433 0.00745957 0.0869356 
0.00350373 0.0201075 0.402203 
0.0156582 0.000244572 0.300102 
0.0374649 -0.0213435 0.428499 
0.0470466 0.0102038 0.361532 
0.0175595 -0.00818969 0.119293 
0.00212374 -0.00140904 0.0842593 
0.026286 -0.00908521 0.135028 
0.0241931 -0.00973612 0.188005 
-0.000643555 -0.000896905 0.0026278 
-0.0011898 -0.0016258 -3.50206e-07 
-0.00181793 -0.00246261 -0.00322718 
0.0101936 0.000101832 0.0473107 
0.00281757 -0.00725625 0 
-0.00617136 0.00435002 0 
0.00979878 0.0144449 0 
0.00114488 -0.043811 0.00950086 
-0.0356048 0.0178096 0.291717 
-0.0373831 -0.00417879 0.23837 
-0.0454656 -0.0123052 0.350238 
-0.014841 -0.00713737 0.302422 
-0.00136722 -2.89352e-06 0.116249 
0.00963678 0.0128862 0.118225 
0.00546294 0.00539757 0.0919197 
0.0128673 0.0141238 0.170854 
0.0010043 -0.000290856 0.00221485 
-0.000626489 -0.00287134 -0.00496778 
-0.00542221 0.0118187 0.104463 
-0.0032668 0.00543949 0.0840208 
-0.000115997 -0.000261666 -0.00150089 
-0.00145467 -0.00228359 -0.0014837 
-0.000488379 -0.000543981 0.00337127 
-0.00334356 0.00516883 0.00706365 
0.0305939 0.0538537 0.171101 
0.00704179 0.0265318 0.0829945 
0.00917722 0.0155202 0.115968 
0.0084531 0.015834 0.0556977 
-0.00589633 -0.0177616 0.34248 
-0.045041 -0.01341 0.363029 
-0.0306022 -0.037303 0.257605 
-0.015284 -0.00528986 0.297077 
-0.14446 -0.071988 0.31115 
-0.0962231 -0.163846 0.0860198 
-0.0749211 -0.036332 0.500964 
-0.126981 -0.0791075 0.576856 
-0.00180155 -0.000821841 0.00201811 
0.00895378 0.00227848 0.105131 
-0.000331603 -0.000754563 -0.0023663 
0.00560129 8.54329e-05 0.0834543 
-0.000949478 0.000983696 0.00458998 
-0.00296508 0.00308141 -0.000828111 
-0.00149373 0.00155536 -0.00525654 
-0.00170326 -0.00973834 0.0176414 
0.000282084 -0.00131638 -0.000730998 
0.000221504 -0.00111041 -0.00209746 
0.000117854 -0.000430573 0.00206539 
0.0047264 0.0054298 0.00536539 
-0.0201801 -0.0173645 0.0720931 
-0.0499521 -0.0286076 0.182165 
-0.0219211 -0.00870641 0.125008 
-0.0138625 -0.0124276 0.177293 
0.0123693 0.00154122 0.105373 
0.00284848 0.000549061 0.0814379 
0.0245574 0.0169606 0.132164 
0.0220921 0.0139844 0.19591 
-0.000165594 0.000379867 0.15574 
-0.00178211 -0.000575477 0.209508 
0.00144621 0.000570402 0.197996 
0.00831932 -0.0196338 0.244902 
0.000116647 9.05277e-05 0.00379292 
-9.6648e-05 -0.000114097 0.00198492 
-5.77222e-05 -4.75043e-05 -0.00152182 
-0.0047667 0.00397101 0.0551181 
-0.00462901 -0.00655013 -0.00121428 
0.00787615 0.00771088 0.0677564 
0.0111117 0.0183403 0.110933 
0.00751257 0.011318 0.0607535 
0.00123495 0.000732973 0.166972 
0.00727594 0.00478073 0.0825727 
-0.00048603 -0.000792319 0.112386 
0.0158626 0.00824848 0.194873 
0.0405699 0.00241226 0.238933 
0.0154843 8.26918e-05 0.327579 
0.0271207 0.0258052 0.280002 
0.0437908 0.00561758 0.345298 
0.00113828 0.00011687 0 
-0.00210463 -0.0063229 0 
-0.00230795 0.0051835 0 
0.0070941 -0.011677 0.0107461 
0.0299079 -0.079825 0.0970323 
-0.0180767 -0.10636 0.141677 
-0.0421349 -0.0753285 0.223732 
-0.00590097 -0.130557 0.271853 
0.0329015 0.0268954 0.270484 
0.0244152 0.0164063 0.131722 
0.0524649 0.0400871 0.207391 
0.00972159 0.0166653 0.174196 
0.0920027 -0.0862111 0.508944 
0.0255544 0.0079431 0.605887 
0.106118 0.0470621 0.531509 
0.0602859 -0.0502909 0.709099 
0.0545135 -0.146965 0.313656 
0.0273993 -0.0656451 0.153028 
0.0506599 -0.0705112 0.329662 
0.00406572 -0.12164 0.292699 
-0.00157103 -0.000105355 -0.000996088 
0.000382581 8.11427e-06 0.00159446 
-0.00258453 -0.000170693 -0.00184118 
0.00541982 0.00502233 0.00320248 
0.000419705 0.00104925 0.177901 
-0.000996436 -0.00125185 0.210773 
0.0013641 -0.00157769 0.131869 
-0.0149714 0.0188943 0.202477 
4.10833e-05 0.000543432 1.13327e-05 
-1.09044e-05 -5.41063e-05 -0.000515939 
-0.000101482 -0.000933525 -0.00235459 
-0.00274515 0.00215234 0.00647921 
3.32722e-05 0.000409399 0.00110975 
-5.59037e-05 -0.000687869 -0.00294129 
-3.65938e-05 -0.00045027 -0.000555312 
-0.00432949 -8.08048e-06 0.0940797 
0.000170764 0.000199543 0.0583751 
-0.000423216 -0.000865506 0.122078 
0.000397855 0.000100902 0.0708627 
-0.00063814 -0.00632007 0.0928825 
4.37506e-05 3.96716e-05 -0.00213805 
0.000102308 -0.000426722 0.00272286 
0.000237587 -0.000554184 -0.00016978 
0.00133855 0.00263994 0.0842704 
-0.00135656 0.000338218 0.157924 
-0.0142874 0.00767633 0.17934 
-0.000560426 -0.00136617 0.117395 
-0.00717785 0.0034589 0.0881823 
-0.00739906 -0.00608934 -0.00968742 
-0.00860647 -0.0119103 -0.0117885 
0.0152132 0.0278701 0.0238965 
0.00722317 0.014905 0.0162517 
-0.00135414 0.0009897 -0.00608153 
0.000216262 -0.000158194 0.00126389 
-8.17884e-05 5.87294e-05 0.00190082 
-0.00427539 -0.0078036 0.0655642 
-0.00156205 0.00216333 0.00149772 
0.00376116 -0.010218 0.100717 
-0.000379655 0.000441551 0.0834006 
0.00169206 -0.00700074 0.0893954 
0.000964069 0.00257603 0 
0.00589926 -0.00260059 0 
-0.00407914 0.00238957 0 
-0.00506725 -0.00164061 0.00657281 
0.0241319 -0.0356991 -0.0361446 
-0.0396182 0.124309 0.13922 
-0.0301608 0.116981 0.139654 
-0.00264165 0.0119744 -0.0183264 
-0.00783946 0.00483473 0 
0.00703666 0.0140964 0 
0.000146221 -0.0163074 0 
0.0187668 0.0109521 0.00795638 
0.0023189 0.00769555 0.630275 
-0.254267 -0.0831182 0.255928 
4.13392e-05 -0.0283564 0.543138 
-0.103699 -0.0754358 0.604124 
-0.0181214 0.00945449 -0.0145883 
-0.00349152 -0.041821 0.0440642 
0.00283102 0.00820512 -0.0302761 
-0.0240045 -0.0821424 0.0853801 
0.0336786 -0.0711516 0.31802 
4.8853e-05 -0.0702887 0.208351 
0.005277 -0.0912588 0.352451 
0.0397127 -0.0651337 0.170564 
-0.00175894 -0.0032164 0.000709812 
0.0218307 0.00903478 0.0230891 
-0.00745612 -0.000997389 -0.00282402 
0.0159456 0.00473758 0.0445692 
-0.00343675 0.00039508 0.172731 
-0.00302107 -0.00190732 0.234981 
0.0299081 -0.00243795 0.232527 
0.0227627 -0.00632211 0.192183 
0.00144942 -0.00693845 -0.00836036 
0.00417887 0.0178301 0.0265562 
0.0024692 -0.00277995 -0.00267718 
-0.000763222 0.015884 0.0149713 
-0.000658809 0.0010837 -0.00161825 
0.000830127 0.0014857 -0.00103242 
-0.000834892 0.000666534 -0.00178073 
0.00425606 -0.00818789 0.0142488 
0.00433469 0.00102371 -0.000198844 
-0.0236019 -0.00827852 0.0398842 
0.00611281 -0.000185027 -0.0103192 
-0.0182741 -0.00443527 0.010958 
-0.00109722 0.0015846 -0.00737109 
-0.00108686 0.00151423 -0.00151231 
-0.000756297 0.00101986 0.00248113 
0.0134067 0.00145871 0.0488758 
0.00117064 -0.000209961 -0.00111814 
0.00106877 0.000917056 -0.00172059 
0.00335189 -0.00073453 -0.00127465 
-0.00711057 -0.00180764 0.00381861 
-0.0015506 0.000824527 0.126701 
-0.000452117 -0.00164832 0.155548 
0.000114753 0.000721415 0.177759 
0.0188092 -0.010017 0.188357 
0.00255314 0.00105481 0.140534 
-0.001643 0.00119283 0.202765 
0.000425333 -0.000504005 0.224451 
-0.0145127 -0.00841621 0.177844 
0.0357541 -0.0274641 0.290068 
0.00690154 -0.024999 0.189679 
0.0530112 -0.0254537 0.218421 
0.0245729 -0.0065756 0.193748 
0.0407544 0.00579063 0.0880842 
0.0281924 -0.00193941 0.00455798 
0.0763493 0.0552668 0.137473 
0.0252704 0.0114986 0.0538622 
-0.0106078 -0.073963 0.355783 
0.0321814 -0.0623622 0.319422 
0.0542949 -0.0872959 0.16655 
0.015834 -0.12519 0.299451 
0.000921511 -0.000339423 -0.00347373 
0.00135314 -0.000555749 0.000502032 
-0.000820158 0.000284022 0.00485717 
-0.00647252 -0.00665176 0.0222245 
0.000481624 -0.000609051 0.0697264 
9.44811e-05 0.00139278 0.1262 
-0.000155372 -0.00034606 0.0582585 
-0.000104375 0.00671337 0.0915391 
0.00215964 0.000959985 0.0795585 
0.0242289 0.0173202 0.130978 
0.0218507 0.0126593 0.197857 
0.01357 0.0162357 0.17547 
0.000402021 0.000274025 0.00160012 
0.0002551 0.0001754 0.00404619 
0.000380103 0.000257258 -0.00213553 
0.00343659 -0.00632634 0.0894932 
0.124834 0.0140733 0.182866 
0.138996 -0.0130956 0.317805 
0.105044 0.0211781 0.0609591 
0.154271 0.0322239 0.335894 
0.00163732 -0.00337281 -0.00195019 
0.000892718 -0.00205459 0.00728692 
0.000113832 -0.000227997 -0.000387011 
-0.0108263 0.00061693 0.0410929 
0.014033 -0.0362659 0.182005 
-0.00104868 -0.032479 0.241193 
0.000292239 -0.0580782 0.208476 
-0.00271482 -0.013049 0.156643 
-0.142273 -0.0666102 0.317293 
-0.0616698 -0.0706601 0.316134 
-0.0630105 -0.133619 0.366989 
-0.112946 -0.0975656 0.54982 
-0.0108364 -0.0142178 0.121713 
-0.00763889 -0.00449259 0.0863024 
0.00190007 0.00335707 -0.00186052 
-0.00122798 -0.00465092 0.0779985 
0.00315692 0.000861653 0.00136038 
-0.0161621 -0.00199434 0.0821699 
0.00259145 -0.000266516 -0.00102167 
-0.00632985 9.34381e-05 0.0913254 
0.0959088 0.0516397 0.541568 
0.0322775 -0.0171578 0.599682 
-0.00692861 0.136903 0.496844 
-0.00868306 0.0469744 0.707072 
-0.000590379 -0.00136753 -0.0051646 
0.000134459 0.000165257 -0.00448682 
0.000600019 0.00131407 0.00231331 
-0.0117649 0.00399689 0.0566829 
-0.000383396 0.00308023 0.146343 
-0.00784299 -0.0074029 0.0825466 
-0.0178548 -0.0111596 0.126922 
-0.0149313 -0.0103777 0.170707 
5.21046e-05 0.000159707 -0.00151346 
-0.000329686 -0.000760449 0.00187533 
-0.000385467 -0.000782402 -0.00109342 
0.00437593 -0.000157381 0.0853443 
-0.00344205 7.34475e-05 -0.0142625 
0.0809653 -0.0494965 0.102646 
0.0208665 -0.0166147 0.0288152 
0.00637559 -0.00340646 -0.00446965 
-0.00241292 0.000150522 -0.00527311 
-0.00119612 0.00015068 0.00321361 
-0.000800216 2.46524e-05 -0.00368453 
0.00459133 -0.00983961 0.0509229 
0.0337152 -0.0321952 0.299405 
0.0379134 -0.0251012 0.406126 
0.0160569 0.0050502 0.322237 
0.0435585 0.00531053 0.359522 
0.0214816 0.0163647 0.132234 
0.0510572 0.0199415 0.175907 
0.0233123 0.0124643 0.0593973 
0.0031656 0.00298658 0.0584868 
-0.0854217 -0.00960469 0.550907 
0.0419055 -0.00294378 0.599737 
-0.0147597 -0.0644758 0.636038 
-0.0147839 0.0313996 0.716233 
-0.000216754 -0.00292217 -0.00203975 
0.0012643 -0.00228535 -0.00128934 
-0.000664669 -0.000204661 -0.000768364 
0.00343478 0.0155046 0.0100022 
0.000193318 0.000192221 -0.00407903 
-0.000539726 -0.000530978 0.00156625 
-0.000844767 -0.000829926 0.000464314 
0.00345898 -0.00399296 0.104792 
-0.00948262 -0.000731991 0.756238 
0.0133054 0.00383748 0.53937 
-0.012073 0.0150681 0.622665 
0.148501 0.077078 0.584203 
0.00126917 0.000887808 -0.00125706 
-0.000479904 -0.000428797 0.00292155 
-8.50594e-05 2.14618e-05 -0.00204319 
0.00405759 -0.00566013 0.015078 
0.0277967 0.0258791 0.276758 
0.0142527 -0.00279576 0.326434 
0.00226926 0.0287835 0.310431 
0.0433211 0.00738812 0.352237 
-0.00240627 0.00289356 -0.00310704 
0.00220265 -0.00779235 0.100122 
-0.000457038 0.000682301 0.00188577 
0.0033874 -0.00821503 0.0898424 
-0.00470236 -0.0027561 -0.00362316 
0.0172479 -0.0101742 0.0205391 
-0.00958119 -0.000990986 -0.00928125 
0.0150396 -0.00352712 0.0345088 
0.00267517 0.00058781 0 
-0.00269592 -0.000636392 0 
0.00808289 0.00617815 0 
-0.0183711 -0.027647 0.0124922 
-0.0451546 -0.0123737 0.350762 
-0.0378593 -0.00426563 0.239128 
-0.0282447 -0.0313137 0.260598 
-0.0157459 -0.00700354 0.301433 
0.00292453 -0.087324 0.352088 
0.0388321 -0.0701768 0.173383 
-0.000179078 -0.0579989 0.202915 
0.000158588 -0.121719 0.286807 
8.99115e-05 0.000847507 0.00100856 
-0.000119197 -0.000403055 0.0621122 
-0.000136931 0.000742805 0.000700287 
0.000938623 -0.00651126 0.0992373 
-0.000425919 0.00114747 0.150237 
0.017141 -0.0161919 0.195195 
0.000703792 0.00178258 0.180424 
0.01848 -0.013415 0.192408 
0.00442764 -0.00299822 0 
-0.000523726 0.00201839 0 
0.0104992 -0.00368665 0 
-0.0414071 0.00462655 0.0114321 
-0.0168368 -0.000385462 -0.00698664 
0.0400282 0.0019316 0.0695884 
0.0291768 0.000358626 0.0214979 
0.0163872 -0.00301441 0.0441076 
-0.000580068 4.24598e-05 0.00165496 
-0.000524758 0.000248573 -6.48715e-07 
0.000519602 -2.53061e-05 0.0579066 
0.00447033 -0.0017601 0.0895455 
0.000418252 0.000415116 0.000505256 
-0.00036157 -0.000489577 0.0843579 
0.00096333 -0.00104242 0.056578 
-0.00498068 -0.00374862 0.086968 
0.0259241 0.0174678 0.129892 
0.0312189 0.0257983 0.271532 
0.0520899 0.0397099 0.209145 
0.0199366 0.0074596 0.201652 
0.0549445 0.0537898 0.37961 
0.0630058 0.0465319 0.227178 
0.0267529 0.0215299 0.259127 
0.0487618 0.013829 0.370524 
-0.00230451 0.00735114 -0.00863061 
-0.00479731 -0.01855 0.0302781 
-0.00150132 0.00393429 -0.00247325 
-0.00164113 -0.0184436 0.0158906 
0.0246746 0.0159019 0.131196 
0.0333557 0.0274394 0.270521 
0.0212016 0.00916645 0.200187 
0.0132191 0.0201132 0.173981 
0.00233753 1.47651e-05 0.161491 
-0.000613049 0.000451893 0.221574 
-0.0133033 -0.0149995 0.185924 
-0.0125731 -0.01349 0.176376 
0.00547746 0.0308436 0.274993 
0.00323736 -0.0236924 0.555855 
0.0687631 0.00593457 0.240469 
0.207225 0.0872682 0.351473 
0.0089931 0.0193771 0.629149 
-0.00252602 0.0354128 0.557664 
0.168175 0.0528492 0.537179 
0.198315 0.0232616 0.311001 
0.0015732 0.000812559 -0.00130331 
-0.001684 -0.00262571 0.000846203 
-0.00039651 0.00267435 -0.000950493 
-0.00567783 -0.00674202 0.00900553 
-0.000282029 9.68189e-05 0.00237936 
0.0015625 -0.000641713 -0.00258898 
0.00386404 -0.00162437 -0.00263836 
-0.00247545 0.0114713 0.0153103 
-0.0011068 -0.00144183 -0.00438709 
0.00540277 0.0152859 0.0780969 
-0.000471122 -0.00239447 0.00616808 
0.0018551 0.0106455 0.0563932 
-0.00614882 0.0144936 -0.00655953 
0.00945303 -0.0263393 0.0596472 
0.0166442 -0.0343827 0.0332743 
-0.000660338 -0.0134938 0.0125912 
-0.0116778 -0.00680063 0.00280621 
-0.0041389 -0.000880728 -0.00418534 
0.0220802 0.0168218 0.0478393 
0.0182015 0.0153107 0.0192881 
-0.0250127 -0.0145163 0.208055 
0.00858053 0.0479238 0.526774 
-0.182885 -0.200293 -0.0290165 
-0.104172 -0.107341 0.672587 
-0.00176761 0.00394205 -0.00589438 
-0.00103987 0.00221141 -0.000152078 
-0.000635407 0.0012425 0.00325634 
0.0135517 -0.0045646 0.0145961 
0.0568202 -0.0137658 0.0919208 
0.042916 0.00397347 0.081152 
0.0327442 -0.0117502 -0.00874447 
0.0903289 0.0225873 0.130033 
0.00300861 -6.39194e-05 0.19385 
-0.00192631 0.00108062 0.245869 
-0.00180068 -3.29363e-05 0.176717 
-0.00455724 0.0164041 0.170071 
-0.000945213 0.00041659 0.133568 
0.000632817 -0.00186819 0.155911 
0.000182525 0.000117807 0.0812638 
0.00285056 -0.0104831 0.103518 
0.00200679 -0.00156181 0.219115 
-0.00204136 0.000317771 0.252098 
-0.00151938 0.000679927 0.182488 
0.00925497 0.0250654 0.215398 
-0.0146419 -0.0231062 0.120649 
-0.00481828 -0.0203436 0.183715 
-0.0318977 -0.0297202 0.245346 
-0.0161866 -0.0102491 0.175649 
-0.00698641 -0.0023676 0.620577 
-0.0273986 0.0352958 0.293468 
0.0124493 0.0179526 0.537003 
-0.161785 0.0508996 0.657795 
3.23669e-05 0.00129658 -0.00303198 
-0.00218269 0.0117199 0.0118592 
0.00222916 -0.00364433 -0.0101009 
-0.000342223 0.00864481 0.0157921 
-0.0037734 0.0207602 0.372706 
-0.0135451 0.00974976 0.328423 
0.0232162 0.000395351 0.331765 
0.00832196 0.0206921 0.307098 
0.000161076 0.000238792 0.228768 
-0.00106568 -0.000257123 0.17889 
0.017978 -0.0152087 0.195844 
0.0200811 -0.0115807 0.193843 
0.00434772 0.00221712 0.0837624 
0.00977142 0.00622393 0.0652108 
0.0194156 0.014973 0.124016 
0.00787897 0.00822083 0.0687119 
-0.00120429 -0.0738054 0.364204 
-0.0231643 -0.0730909 0.194083 
-0.0614079 -0.144937 0.333886 
-0.00339215 -0.122627 0.288704 
0.000674038 -0.000665083 0.00535917 
-0.00261333 0.00256844 -0.00319591 
-0.00241591 0.00237404 -0.00231909 
0.00831873 2.13976e-05 0.0107111 
0.0419653 -0.0330143 0.540769 
0.00419449 -0.0150164 0.629188 
0.0162634 0.0603593 0.24524 
0.00934609 0.279651 0.356703 
0.0452357 0.00731208 0.0841485 
0.0959757 0.0258839 0.162724 
0.00752254 0.0316941 -0.0252038 
0.0951058 0.00736387 0.125934 
-0.0393109 -0.0149344 0.0656867 
-0.012358 -0.00835691 0.0643227 
-0.0539713 -0.0562847 0.141544 
-0.0599943 -0.0436178 0.191459 
-0.00433319 0.00255391 -0.00437733 
0.0124582 -0.014866 0.0856856 
-0.00343113 0.00459193 0.000309053 
0.0135733 -0.0165408 0.0522097 
0.000299232 -0.00042225 0.0020046 
0.000773033 -0.00102373 -0.0048885 
-0.000655741 0.00089878 -0.000411152 
0.00290957 0.00520023 0.0672226 
-0.0378862 0.0729315 0.241815 
-0.103739 0.0875872 0.289973 
-0.0637344 0.0412916 0.237603 
-0.0558708 0.0598634 0.133237 
0.000225601 0.000190853 -0.000289569 
0.000449395 -5.57528e-05 -0.000639589 
0.000315297 -0.00142367 -0.00054789 
0.00080814 0.00170391 0.00144544 
0.00167838 -0.00674506 0.00166931 
0.00365977 -0.00524509 -0.00473791 
-0.00598444 0.0225663 0.0459824 
-0.00631045 0.0236875 0.0174421 
0.000559378 -0.000151138 -0.00141893 
0.000584968 -0.0021959 -0.00113906 
0.000491626 -0.00102731 -0.00155886 
-0.00753894 0.000529997 0.00627275 
0.0116791 0.0055507 0 
0.0407402 0.0100187 0 
-0.011589 -0.0366306 0 
-0.0868693 -0.0736703 0.0550154 
0.000832208 -0.00119583 -0.000481848 
0.00318207 0.00159718 -0.00204005 
-0.00348136 -2.16537e-05 0.00279905 
0.000700157 0.00204986 0.00106772 
0.0127029 -0.0158714 0.0951456 
0.0142601 -0.0363459 0.175323 
0.0066217 -0.0220328 0.0742548 
0.00259544 -0.00478986 0.08424 
0.0579827 -0.150868 0.376019 
-0.000459654 -0.088911 0.631876 
0.104874 -0.0769154 0.507462 
0.0508409 -0.0596604 0.712177 
0.000522898 0.000409336 -0.000282275 
-0.000685617 -0.00070997 -0.00112933 
-0.0016114 -0.000110657 -0.000450932 
0.00198531 0.00119008 0.00220184 
-0.00212491 -0.000550445 -0.00454786 
-0.00169937 -0.000464797 0.00247353 
0.000347424 0.000112053 -0.0047382 
0.00563607 -0.0109065 0.0542902 
-0.00113484 0.00464798 0.00207668 
0.000101114 0.00248064 -0.0022431 
0.000985724 -0.0109794 0.0933484 
0.000701633 -0.0151829 0.0684207 
-0.0161738 -0.0134742 0.0787253 
-0.00476005 -0.00275047 0.0826283 
-0.0141467 -0.0184667 0.125431 
-0.0165402 -0.0144233 0.171383 
-0.00118881 3.66252e-05 0.00454936 
-0.00261831 0.000225324 0.000974419 
-0.00217453 0.000219221 -0.0011971 
0.00571262 -0.00727886 0.0600881 
0.0329792 -0.0673582 0.186717 
0.00795358 0.0223399 0.628018 
0.00105436 -0.0632996 0.234159 
0.0828594 -0.251853 0.280689 
-0.00321794 0.00669683 -0.0121424 
0.00381198 -0.0276995 0.0266943 
0.00801468 -0.000176197 -0.0052588 
0.00742431 -0.0124737 0.0162957 
-0.000880629 -0.00041261 0.000210532 
0.000677801 0.000372609 0.00335348 
-0.00146551 -0.000694796 -0.000170095 
-0.00166298 0.00591962 0.0982582 
-0.000450541 -0.00135405 0.0956832 
0.000838462 0.00120541 0.169053 
0.00535363 0.00584876 0.0929454 
0.0113567 0.0123193 0.169253 
-6.09882e-05 -0.000365375 -0.00171146 
-8.06507e-06 -0.000792108 0.00405289 
-3.55231e-05 -0.000757092 0.0021345 
0.00596902 0.000657648 0.044975 
4.0601e-05 0.000720712 0.00135466 
6.62853e-05 0.000982361 0.000726783 
1.26704e-05 5.26165e-05 -0.000894109 
-0.0033784 -0.00106991 0.0946565 
-0.0213247 -0.0220007 0.659021 
-0.159552 0.159347 0.313845 
-0.0994877 0.037229 0.29202 
-0.106704 0.0622248 0.63413 
-0.000355696 -0.000132747 0.00119532 
-0.000958595 -0.000412552 -0.00226804 
0.000279711 0.000167327 0.00536446 
0.000257188 0.00996805 0.00478184 
-0.0103574 0.00298035 0.737623 
-0.021474 -0.109545 0.653589 
0.0373302 0.00474743 0.717025 
0.0352689 -0.0579927 0.704926 
-0.0032859 -0.00365663 0.0010657 
0.0209509 0.0109813 0.0716812 
-0.00277028 -0.00794065 -0.00840478 
0.0135522 -7.39523e-05 0.0441927 
-0.00687184 0.0950906 0.659738 
0.12538 0.118657 0.239385 
0.024099 0.110311 0.240789 
0.0250682 0.144566 0.316167 
0.00119308 0.00140876 -0.00122851 
0.00177202 -0.00247573 -0.00280277 
-0.000321099 -0.00111958 -0.00125239 
-0.00419238 0.00179486 0.00685009 
-0.00143611 -0.000769128 0.153499 
-0.00645428 -0.0152368 0.177736 
-0.00205865 -0.00826572 0.0887862 
-0.00315617 -0.00405127 0.0775497 
0.0236897 0.0165493 0.123332 
0.00903256 0.00168717 0.0659684 
0.0194103 0.0127812 0.0639423 
0.00793704 0.0121673 0.0681141 
-0.00562785 -0.0247216 0 
-0.0121017 0.00282523 0 
0.00428412 0.00704357 0 
-0.000324614 0.024911 -0.000790585 
-0.00118253 0.00102116 0.140447 
0.000440159 -0.000120646 0.169145 
0.000247394 -2.19764e-05 0.219034 
0.0112558 0.015217 0.177486 
0.000306562 7.99839e-05 0.000856782 
-1.69303e-05 1.45951e-05 0.00185372 
0.000214247 2.274e-05 -0.00271671 
-0.000440943 -0.00467253 0.0998461 
0.00022481 0.000417402 0.214457 
-0.00132474 -0.00404721 0.237256 
0.000308594 0.00190775 0.278806 
0.0259516 0.00185719 0.230042 
0.000301364 0.0003447 0.0700348 
0.000222456 -0.00056776 0.000810363 
0.000186591 -6.63701e-05 -0.000416443 
-1.8782e-05 0.000187342 0.0633589 
-0.000373917 -0.000379742 0.116223 
0.000354791 9.36225e-06 0.138268 
-0.000507853 1.50159e-05 0.0639621 
0.00662782 0.000883337 0.0861484 
-0.0240723 -0.00815127 0.127133 
-0.0155864 -0.0174803 0.0681349 
-0.0382327 -0.0195038 0.0702066 
-0.0571195 -0.0327687 0.185992 
0.0255185 0.0660101 0 
-0.0187732 -0.116538 0 
-0.019726 0.0769198 0 
-0.03632 0.153457 0.193554 
0.00037761 0.00267246 -0.00209673 
-0.000906986 0.000634702 -0.000939375 
-0.00113181 0.000820886 -0.000703073 
0.00179043 -0.00781219 0.00359599 
0.000114133 4.92274e-05 0.0616605 
-0.000638583 -2.76257e-05 0.114713 
-0.000113915 -0.00032152 0.0832779 
-0.00478278 0.000451101 0.0918219 
-0.00146126 0.000417899 0.185549 
-0.00102663 -0.00157212 0.139236 
0.000798348 -0.000271204 0.2193 
0.010041 0.0245942 0.209625 
-0.059837 -0.145373 0.334267 
-0.0292743 -0.0772374 0.203208 
-0.0141635 -0.115761 0.11708 
-0.00426951 -0.121939 0.287684 
0.0336216 -0.178513 0.332786 
-0.0199882 -0.107424 0.139051 
0.0117829 -0.0728045 0.0780534 
0.00284654 -0.117458 0.286719 
-0.0537381 0.0439535 0.117302 
-0.0246266 0.0175903 0.00441833 
-0.0105714 0.0105242 0.0446202 
-0.0514208 0.0566614 0.128606 
0.000459765 0.00078679 0.167537 
-0.00109425 -0.000752176 0.112823 
0.000490952 -0.00138071 0.139277 
0.0158665 0.00797262 0.193869 
0.0540667 -0.0509693 0.13413 
0.0180807 -0.0191457 0.0216375 
0.026394 -0.00897729 0.064614 
0.0125304 -0.0183931 0.0435616 
-0.00023747 0.000816343 0.112698 
-0.00191379 -0.000547859 0.074547 
0.00076519 -0.000650449 0.137572 
0.0122543 0.00347612 0.108542 
-0.00482848 0.00567033 0.708447 
0.0140168 0.00378723 0.787732 
-0.0182986 0.000581646 0.746323 
-0.00798564 -0.0919271 0.698037 
0.00139678 -0.000437576 -0.00651676 
-0.000409678 0.000130629 0.00209165 
-0.000865559 0.000188856 -0.00244651 
-0.00785669 -0.00730774 0.0292021 
0.000138766 0.000557979 -0.00141916 
0.000105509 0.000485987 0.000146605 
0.000123822 0.000654767 0.00184834 
0.00293031 -0.00303276 0.089128 
0.00122315 -0.000159623 0.133517 
-0.000734165 -0.0113608 0.102137 
0.000593548 0.00230242 0.0703921 
-0.00217348 -0.0140722 0.158906 
0.0118027 0.00605857 0.517209 
-0.011907 -0.00472423 0.772435 
0.0212349 0.00393427 0.592068 
0.148616 0.0752879 0.597008 
-0.0498316 -0.013036 0.365064 
-0.0534039 -0.0817004 0.341314 
-0.0862571 -0.0121044 0.531573 
-0.0269706 -0.0348783 0.45588 
0.000708389 0.000865189 0.141294 
-0.000745738 0.000559787 0.12413 
-0.000114269 -0.0014322 0.0714828 
0.00236071 0.00969011 0.0945872 
0.00112882 -0.000883712 -0.000652791 
-0.000303327 -0.00154984 -0.000644406 
-0.000545218 -0.000307091 -0.000122243 
0.000426342 0.00215423 0.00136293 
0.000528027 0.000235423 0.000805761 
0.000621266 0.000284037 0.000713399 
0.00238711 0.00126765 -0.00313184 
-0.00733642 0.00463643 0.0959824 
-0.00125687 -0.00103125 0.133581 
0.000853072 0.000108994 0.112737 
-0.00107572 0.00166159 0.176544 
-0.00489609 0.00760935 0.0863751 
0.0582003 0.0432376 0.554399 
0.200264 -0.0997951 0.223324 
0.0803272 0.060565 0.266573 
0.13183 0.0482445 0.384884 
0.000448204 0.000137062 0.218517 
0.000638032 -0.00157726 0.153644 
-0.000715003 0.000240124 0.158126 
-0.0183595 0.00722218 0.187098 
0.000504282 -0.00158845 -0.00171084 
-0.00473449 0.000607113 -0.00279342 
-0.00149258 -6.95397e-05 -0.00143372 
0.00870853 0.00177237 0.00643887 
-0.000889403 0.00373683 -0.00337713 
-0.00122098 -0.000502424 -0.00012192 
0.000588228 0.00285428 -0.0016475 
0.00730591 -0.0143641 0.0123705 
-0.00181091 0.00353948 0.258424 
-0.00126476 0.00100531 0.205399 
0.00225903 -0.0311079 0.240034 
0.00739272 -0.0249036 0.252113 
-0.0706997 0.0112671 0.114036 
-0.0648872 0.0435078 0.238038 
-0.100605 0.101549 0.270051 
-0.05389 0.0537822 0.134621 
0.000573756 -0.00148811 0.132429 
-0.000159418 0.000687995 0.0616046 
-0.00111294 0.000352542 0.0709899 
0.000848566 -0.00887918 0.103093 
0.000837638 0.00120076 0.15726 
0.000540716 0.000909592 0.13281 
-0.000991677 -0.00117504 0.205818 
0.00177196 -0.0153367 0.164703 
0.000519834 0.00101215 0.000494543 
-0.000568317 5.65985e-05 0.0667292 
-6.0677e-05 0.000585359 0.00183071 
-0.0045858 -0.00285728 0.0861362 
-0.00727504 0.0183874 0.108672 
-0.00401763 0.0326004 0.138579 
-0.00206121 0.00276036 0.0860594 
-0.00357925 0.0175764 0.166691 
0.00151418 -0.00740725 0.00929573 
0.000188405 -0.0207528 -0.0175718 
0.0230111 0.0381817 0.0122177 
0.017324 0.0495549 0.0265938 
-0.00244232 0.0034778 -0.00289593 
-0.00433618 0.0103673 -0.0034924 
0.00265562 -0.0115819 0.00820981 
0.00451088 -0.0169237 0.008035 
-0.000214665 -0.000229883 0.228153 
0.00104942 0.00160017 0.181114 
-0.000425765 0.000977643 0.150311 
0.0168071 -0.0162312 0.194621 
0.00160247 0.00138402 0.00264704 
-0.0107744 -0.00919692 0.0747285 
0.00244706 0.00235236 -0.00124499 
-0.00614581 -0.00442739 0.0819426 
0.0500023 -0.0261822 0.204328 
0.0127266 -0.018999 0.197726 
0.016637 -0.0163818 0.114725 
0.023269 -0.007988 0.192238 
0.000260819 -0.000278102 -0.000140107 
0.000311727 -0.00106792 0.00145667 
-1.32726e-05 0.000443346 0.0583003 
-0.000820518 0.00485008 0.0879331 
-0.0013973 0.00981298 0 
-0.00150527 0.00870292 0 
0.000659948 -0.00510513 0 
0.00970295 -0.0232242 0.00334663 
-0.000693611 0.000402661 -0.00125132 
-0.00173505 -9.94568e-05 -0.000951978 
-0.000511696 0.000687813 -0.000890215 
0.00337565 0.00117912 0.00393936 
0.00118488 -0.00671848 -0.00592529 
0.00467163 0.00588591 -0.018659 
-0.0127278 -0.0157111 0.0299673 
-0.0494944 -0.0571957 0.0610071 
0.0023263 -0.00219235 0 
-0.00872893 -0.00810325 0 
-0.00783845 -0.00610768 0 
0.0288266 0.0284589 0.00253909 
-0.000952953 0.00161918 -0.00226377 
0.00103298 0.0037151 -0.00158181 
-0.000325141 0.00128368 -0.00275691 
-0.00114441 -0.00705459 0.00824125 
-0.00109586 -0.00581966 0 
-0.000150154 0.00300535 0 
-0.00295316 -0.0038228 0 
-0.003688 0.00928365 0.00323594 
0.000734495 -0.000721684 0.00374146 
0.00197708 -0.00204531 -0.00232753 
0.00153497 -0.00156556 0.00089432 
-0.00880743 -0.000658554 0.0700633 
0.0049191 -0.00725473 0.313798 
-0.00475086 0.0141367 0.320094 
5.05645e-05 0.0012571 0.291914 
0.00108733 0.0158822 0.304456 
-0.000500081 0.00026417 -0.00186158 
0.000530068 -0.00022172 -0.00183552 
-0.000710469 0.000308481 0.00172179 
-0.000978233 -0.00442937 0.0880921 
0.00106691 0.000262914 0.000484075 
-0.000570024 -0.000167758 0.00193919 
0.000323778 0.000130229 -0.00391561 
0.00091391 -0.00505195 0.0870503 
-0.00274532 0.0045521 -0.0111401 
0.018888 -0.0117691 0.0611679 
-0.00109176 0.00250271 -0.00152904 
0.0087663 -0.00757515 0.0602433 
0.00209016 -0.00467586 0.00123261 
-0.0206551 0.0177701 0.0235014 
0.00547068 -0.00534047 -0.00222108 
-0.0127058 0.010544 0.0442224 
0.00189878 -0.000814137 0.00382114 
-0.000667338 0.000271347 -0.00180538 
0.00177134 -0.000826212 0.00147808 
-0.00528302 -0.00363616 0.0646553 
-0.000487157 -6.94298e-05 -0.00152478 
-0.0025121 -0.000225224 0.000391456 
-0.00164966 -8.17437e-05 0.00436908 
0.00573202 0.00594676 0.0543561 
0.000204565 -0.00146122 -0.00409758 
0.0160227 0.0165826 0.0582706 
-0.00248863 -0.00208544 0.00304287 
0.00434193 0.00539105 0.0595258 
-0.00459211 0.00394063 -0.00495236 
-0.0263742 -0.00546402 0.0279745 
0.00493786 -0.000512092 -0.0092595 
-0.00775056 0.000673879 0.0164347 
-0.000775498 -7.46888e-05 -0.0016251 
0.000256727 -0.000746193 -0.00093207 
0.000811822 -0.00365703 -0.00205715 
-0.0016669 0.0065363 0.00371681 
-0.000200539 0.000749977 0.0833772 
-2.67315e-05 -0.000806353 0.0636663 
0.00053982 0.000281371 0.000454007 
-0.00677851 0.000542453 0.0940383 
-0.00264498 -0.00158431 -0.00181249 
-0.00139551 -0.000555122 -0.00146811 
0.000520944 -0.000756722 -0.000794568 
0.00610312 0.00494212 0.00482889 
-0.0379621 0.0385315 0.273817 
0.0124402 0.00295156 0.623881 
-0.00103721 0.00797382 0.492094 
-0.214019 0.164567 0.367228 
-0.000158269 0.00160272 0.00392901 
0.000131166 -0.00132826 0.000550196 
-2.75182e-05 0.000278664 -0.00639897 
0.00876805 -0.00525457 0.0441826 
-0.00155463 0.00047743 -0.00689172 
-0.000213375 7.21343e-06 0.00375062 
0.000197933 -3.62364e-05 -0.0010997 
0.00676397 0.0100275 0.0255241 
-0.000487386 0.000700529 0.00064771 
0.00906423 -0.0148023 0.0232887 
0.000398156 0.00585597 -0.00863895 
0.00293536 -0.01276 0.0143026 
-0.00733371 0.0059758 -0.015438 
0.0231512 0.0011047 0.0186695 
0.023202 0.0114505 0.0185628 
0.0836776 0.00341926 0.0858862 
0.00170318 -0.00168926 -0.00336729 
0.000843523 -0.000878521 -0.00685017 
0.00104884 -0.000990007 0.00414414 
0.00670376 0.013534 0.0554315 
-0.000103346 -0.000470006 0.000614784 
-0.000263955 -0.00120281 0.00162557 
-0.000113716 -0.000455673 -0.000756871 
-0.00217858 0.00365306 0.0903131 
0.000962999 0.000683379 0.00156739 
0.000267024 0.0011028 -0.00337559 
-0.00450086 -0.00491466 0.0883742 
-0.00225462 -0.00372333 0.0774601 
0.077038 -0.0194608 0.0536376 
0.150195 -0.0377703 0.288269 
0.110249 -0.0607234 0.191126 
0.102269 -0.0507209 0.282842 
0.0136845 -0.0343735 0.176886 
0.0152934 -0.0159136 0.0951606 
0.00438268 -0.0253798 0.071542 
0.0255773 -0.062521 0.156386 
0.00106074 -0.00452205 0 
0.00022831 0.00193663 0 
-0.00155462 0.00137162 0 
-0.00306428 -0.00850175 0.0109201 
-0.00566178 0.00960464 -0.00687561 
0.0133853 -0.0148955 0.0151459 
-0.00391165 0.00521966 -0.00724626 
0.00907236 -0.0088149 0.0099501 
0.0187825 0.0196098 0.0629823 
0.00724994 0.00821445 0.0656945 
-0.00347934 -0.00547834 -0.0104652 
0.00861991 0.0118931 0.0588087 
0.00110353 0.000362472 -4.16719e-05 
0.000358935 -0.000323085 0.0531273 
-0.000969406 0.000259614 0.0668021 
-0.00330152 0.00410006 0.086008 
0.00640893 -0.00204741 0.722727 
-0.0181012 -0.0953059 0.646704 
-0.0165504 0.00664054 0.775596 
-0.0797265 -0.083663 0.603694 
-2.20323e-05 -1.84825e-06 0.0018569 
0.00083953 7.04266e-05 -0.00258743 
-0.000904471 -7.58744e-05 0.00311256 
0.00114602 0.00642563 0.00561382 
-0.00168883 0.000448433 0.000892418 
-0.000664985 0.00016053 0.00433875 
-0.0013693 0.000376923 -0.00259059 
0.00641715 0.0063501 0.0761227 
-0.000948287 0.000559329 0.0857289 
-0.00393211 -0.0067892 0.0900317 
-0.00118461 1.31318e-05 0.107674 
-0.00240466 -0.00377197 0.0779968 
-0.00152592 -0.00815045 -0.00882052 
0.00161679 0.0138087 0.0113676 
0.000664753 -0.0132605 -0.00748432 
0.000639785 0.0183395 0.0126861 
-0.000482131 9.57436e-05 -0.00165695 
-0.000114089 3.8723e-05 0.00121442 
-0.000109623 1.23485e-05 -0.00131874 
-0.000544403 0.00343769 0.00524154 
-0.000122867 4.59609e-05 -0.00136553 
4.94231e-05 -3.31587e-05 0.00170479 
0.000218767 -3.36497e-05 -0.00136374 
-0.000905318 -0.0049096 0.00546501 
-0.0318917 -0.00779868 0 
-0.0657936 0.0208151 0 
0.11899 0.000256511 0 
-0.163362 -0.0950505 0.12324 
-0.0032746 -0.00121686 0.00475189 
-0.000566204 0.000308605 -0.00346238 
0.0107199 0.00241683 0.101492 
0.00815386 0.00395176 0.0658086 
-2.4379e-05 0.000290613 0.00171111 
9.96016e-05 -0.00118731 -0.000922128 
9.74899e-06 -0.000116214 -0.00328689 
0.00361186 -0.000712806 0.0820057 
-0.00297646 -0.0007867 0 
-0.0022977 0.00157349 0 
-0.0026665 0.00349087 0 
0.00350474 0.00113231 -0.00387589 
-0.000128272 0.00045765 -0.00196049 
0.000213039 -0.000742495 0.00428614 
-0.000283084 0.00110686 0.001347 
-0.0063274 0.000380535 0.0749377 
0.000583766 0.00129692 0.00117955 
-0.000654162 0.000269701 0.0763195 
0.00050795 -0.000379854 0.0588151 
-0.00180284 -0.00560516 0.0919651 
0.000581771 0.000769179 0.152025 
-0.00127797 0.00168636 0.165354 
-0.000363139 -0.000560992 0.219975 
-0.00974283 -0.0168008 0.18189 
0.00104601 -0.000696818 0.17784 
0.00884519 -0.00366883 0.0880828 
-0.000576439 -0.000570092 0.128806 
0.0171102 -0.00759499 0.18445 
0.0166129 -0.0118152 0.120358 
0.0192892 -0.0220706 0.191651 
0.0123219 -0.0141797 0.0937676 
0.00576016 -0.00618214 0.104083 
-0.0294736 -0.0744587 0.214948 
0.0029771 -0.0612855 0.214377 
0.00925802 -0.0841398 0.112035 
-0.0041353 -0.116121 0.26728 
-0.00375155 -0.00341446 0.000885344 
0.0163668 0.0107361 0.0439286 
-0.00447915 -0.00545409 -0.00385757 
0.0189745 0.0135019 0.0188594 
-0.000354427 -0.00162286 0.111578 
-2.28786e-05 0.000477507 0.139285 
-0.000153452 -0.000784233 0.177124 
-0.00473326 0.0159755 0.169602 
-0.00312452 0.00909193 0 
-0.00122048 0.00640074 0 
0.00203233 0.00858923 0 
0.0054523 -0.0387323 -0.000746592 
0.0875392 -0.0534124 0.245095 
0.0775853 -0.0499629 0.21261 
-0.0051798 0.00582135 0.658586 
0.142105 -0.0812492 -0.00956023 
0.00383907 0.0308891 0.134309 
0.00444538 0.00773117 0.095166 
0.0056429 0.0250907 0.0886186 
-0.00288779 0.0153806 0.0488042 
0.000735803 0.00104543 0.00162834 
-0.000198831 -0.000280427 -0.00357866 
0.000344931 0.000488225 0.00356951 
-0.007978 0.00193791 0.0113669 
0.0302372 -0.0019626 0.237465 
0.0424546 0.0108202 0.186054 
0.037299 0.0260482 0.276817 
0.0195726 0.0129358 0.194754 
8.62222e-05 0.000241218 0.0775149 
1.62976e-05 0.00124198 0.000533957 
-0.000668323 -0.00096198 0.0772699 
0.00488186 -0.00542546 0.107815 
0.045108 0.0115643 0.188797 
0.0565696 0.03502 0.226901 
0.0298922 0.0251917 0.272786 
0.0181396 0.0110639 0.188906 
-0.000589678 -0.00287283 0.0027023 
0.00540071 0.0191836 0.0796357 
-0.000798371 -0.00515457 -0.0173135 
0.00472913 0.014666 0.0611845 
-0.000995825 -0.000948005 0.0650335 
0.00050144 -0.000224013 0.00021707 
-0.00016224 -8.38454e-05 0.0660152 
-0.00398485 0.00467967 0.0849308 
-0.00140914 -0.00185887 -0.0147602 
0.00626213 0.00826838 0.0658229 
-0.00151414 -0.00154432 -0.000646838 
0.00858407 0.0103351 0.0604961 
-0.00015775 0.00229687 -0.00107047 
-1.1393e-05 -0.000170487 0.0019562 
-0.000139271 0.0023047 -0.00261895 
0.00545568 -0.00357094 0.00394224 
-0.00154308 -0.00189241 0.0922763 
0.000880121 -0.000623289 0.17014 
-0.000655462 0.000834569 0.169272 
0.0138002 0.01334 0.174424 
-4.3706e-05 0.000537714 -0.00090653 
5.7162e-05 -0.000703263 -0.00272558 
-3.40211e-05 0.000418561 0.00178508 
-0.00410202 -3.90505e-05 0.0930841 
0.000684328 3.31135e-05 0.00221613 
9.74185e-05 0.000124783 -0.00881908 
-0.00108613 -8.72108e-05 -0.000880877 
-0.00155083 0.0110074 0.0537368 
7.92901e-05 -0.000518006 0.125454 
-0.000613926 0.00208302 0.0625401 
0.00443272 -0.00739036 0.0904137 
0.00434776 -0.00804348 0.109923 
-8.44023e-05 0.000980772 -0.00366241 
-0.000237956 0.00276511 0.00328138 
-0.000231067 0.00268505 -0.000232588 
-0.00684326 -0.00679251 0.0715215 
-0.00413429 0.00367447 0.272951 
-0.0118667 0.00641194 0.319085 
0.00267506 -0.00259601 0.303815 
-0.0118794 -0.00215625 0.302319 
-0.015432 0.00055265 -0.0100862 
-0.00387911 -0.00236903 -0.00162503 
0.0191325 0.00947168 0.0113092 
0.0183998 0.0032777 0.0172733 
-0.000383929 0.000559992 0.00123221 
7.50112e-05 -0.000630082 0.0587035 
2.52175e-05 0.00037666 -0.000621796 
-0.000331891 -0.00396641 0.0910034 
-0.00289506 -0.0086242 0.806168 
0.0427754 -0.0360827 0.719022 
0.0122148 0.0140784 0.773289 
-0.00631006 0.0260556 0.727969 
0.000360261 -0.000495284 0.00151538 
0.000388135 -0.000530795 -0.00280099 
-0.000579291 0.000792536 0.00366822 
0.00806648 0.00110072 0.0512387 
-0.0502665 0.0562832 0.212055 
-0.0595125 0.0121431 0.213336 
0.0147691 -0.00132247 0.727536 
-0.208029 0.156859 0.303266 
0.000262791 0.00190623 0.175666 
-0.00224402 0.000825205 0.119021 
0.000276845 -0.00109271 0.178178 
0.0189123 -0.00707388 0.187852 
-0.000572905 -0.000584033 0.00315755 
-0.000140548 -0.000142374 -0.00253882 
-0.000970941 -0.000988045 -0.00108362 
-0.00119809 0.00465396 0.0822287 
-0.00166529 0.000386047 0.17396 
-0.000692536 -0.00205824 0.237012 
0.000617449 0.00182196 0.216071 
0.0249518 -0.00163851 0.226775 
-0.00129289 0.00148381 0.143428 
-0.00105613 -0.00142709 0.112606 
0.00042759 -0.000197338 0.168254 
0.01159 0.0144014 0.174027 
0.020848 0.011463 0.278166 
0.0161789 -0.00406593 0.615082 
-0.0132569 0.0159903 0.502838 
-0.11967 -0.0929634 0.637711 
0.00037902 -0.000668844 0.0760627 
0.000558051 0.000711154 0.0014553 
-0.00106792 0.000332117 0.000785766 
0.00303461 -0.00468947 0.107106 
-0.000244994 -0.000397365 3.36111e-05 
0.000192338 7.54809e-05 0.0740146 
0.000170108 0.000614122 0.0703232 
-0.000341248 3.59048e-05 -9.1268e-05 
0.0189253 0.0208116 0.133443 
0.00849937 0.0147581 0.117618 
0.014862 0.0177008 0.173389 
0.00891832 0.00985031 0.0617215 
-0.000830335 -0.000610757 -0.000882385 
0.00113339 0.000832778 0.00106273 
-0.00113331 -0.000864525 -0.00610638 
-0.00664471 0.00477317 0.0495392 
-0.000452185 -0.000238535 -0.00119841 
-0.00197253 0.000378037 -0.00086874 
-0.000501438 -0.000903932 -0.000101059 
0.00402313 0.000899057 -0.000200661 
0.00407953 0.00202856 0.0832308 
0.00290078 0.00456764 0.0926596 
0.0214781 0.0169421 0.129665 
0.0149597 0.0150499 0.171417 
0.00015284 -0.000373895 0.0619876 
-0.00101508 0.000484629 0.125572 
0.00085769 -0.00063794 0.074648 
-0.00736763 -0.000844318 0.0981451 
-0.0196445 -0.0393156 -0.0984565 
0.0110258 0.0340304 0.103365 
0.115962 0.177484 0.280431 
0.0460037 0.0709827 0.0081237 
-0.000347286 -8.47268e-05 0.0692245 
-0.000391568 -0.000883575 0.000425068 
0.000950749 -7.30471e-05 0.0745507 
0.00099966 0.00744729 0.0913919 
0.00137958 9.41652e-05 0.00517909 
0.00126047 0.000111953 -0.00161036 
0.00244304 0.000204422 -4.61282e-05 
-0.00598831 -0.00718423 0.0616174 
0.000894164 7.545e-05 0.0827029 
-0.000143907 0.000706067 0.0612943 
0.000282988 -0.000377363 0.132591 
0.00102573 -0.0096437 0.103336 
-0.00181711 -0.00148053 -0.0014646 
-0.000551043 0.000880275 4.83659e-06 
-0.00133643 6.25786e-05 -0.000608313 
0.00277064 0.00172753 0.00247925 
0.0149051 -0.0355184 0.0398208 
0.0066353 -0.0278172 0.0770875 
0.0126537 -0.0652359 0.0966542 
0.00169259 -0.0125214 -0.00690828 
-0.000399624 0.002606 0.26146 
-0.000859261 -0.00533455 0.226582 
-0.0262396 -0.00483058 0.238599 
-0.01788 -0.00404957 0.296962 
0.000255129 0.000236965 -0.0044876 
0.000508611 0.000705496 0.00173666 
-6.67305e-05 -0.000123082 -0.00162662 
0.00352493 -0.00601067 0.0145819 
0.0057478 -0.00212528 -0.00127472 
-0.0117191 0.0197385 0.061468 
0.00925397 -0.00485681 -0.00806888 
-0.00415053 0.0112824 0.0531478 
-4.6289e-06 -0.000231825 -0.00433399 
-9.84566e-06 1.13399e-05 0.00102337 
0.000318572 0.00130039 0.000739487 
-0.0035435 0.00220086 0.0890123 
4.67024e-06 -2.28611e-05 -0.00244262 
0.000326582 0.00022226 0.000290254 
0.000119387 0.000103203 0.00216888 
-0.00032122 -0.0037536 0.0889505 
-0.000359566 0.000545049 0.00237759 
-0.000655289 0.000966309 0.000813453 
-0.00212217 0.00309351 -0.00204391 
-0.00232916 -0.00769431 0.0702111 
0.0695894 0.0856589 0 
-0.089035 -0.121421 0 
0.0510709 0.104052 0 
0.117589 0.150757 0.337034 
-0.000141939 -0.0010025 0.176374 
0.00112718 0.000836756 0.24493 
-0.00159918 -0.0021416 0.212341 
-0.0138159 0.0224793 0.204064 
0.0226311 0.0171013 0.130374 
0.00395668 0.00202265 0.0831538 
0.0132102 0.00261504 0.106655 
0.00975187 0.00442848 0.0606111 
-0.000209522 0.00093461 0.00220044 
-8.35112e-05 0.000247763 -0.00162033 
-0.000305724 0.00123163 0.000566152 
0.0051926 -0.000717485 0.101907 
-0.00163499 -0.00126554 -0.00117362 
-0.000195507 0.000783749 0.000285944 
0.000551769 -0.000115725 3.18029e-05 
0.00483602 0.00132057 0.00390854 
0.0017263 -0.00106512 0.177351 
0.000446299 0.00107868 0.120335 
-0.000656559 -0.000571964 0.128897 
0.00777704 -0.00328231 0.0889913 
0.00135351 -0.00684291 0.0881161 
-0.0114301 -0.0181759 0.178634 
-0.014379 -0.0202069 0.125615 
0.000709363 -0.00236102 0.0767979 
-0.000185067 -1.51819e-05 0.00118237 
0.000925729 7.59419e-05 -0.00354228 
-0.000487101 -3.99592e-05 0.00327355 
-0.00380105 -0.00749128 0.0089258 
0.000984568 0.000147378 0.152642 
-0.00154611 -0.00108035 0.129587 
0.0133408 -0.0149633 0.186889 
0.00637945 -0.00761188 0.105944 
0.000145246 -0.000190847 -0.000539399 
0.0001011 -0.000122234 -0.000567956 
-0.000196008 -0.000100313 0.0668593 
-0.000584898 0.000797766 0.00164161 
-0.000375752 -0.000160869 0.000836249 
-0.00123356 -0.000567123 0.00121449 
-7.55061e-05 -0.000175336 -0.00544474 
0.00757209 -0.00587522 0.0218352 
0.00035106 -0.000146762 0.00134424 
0.000550836 1.99882e-05 0.000464736 
-0.000568094 -0.000260081 0.0620172 
-0.00338695 0.00129611 0.0909323 
-0.000529111 -0.000563461 0.0698818 
-0.000101084 0.000569689 0.0623652 
0.000796216 8.88542e-05 0.112837 
0.00357013 0.00483244 0.0972243 
-0.000245533 -0.000186446 -0.00190564 
0.000273586 0.000303433 -0.00104091 
0.000661011 0.000608624 0.00160222 
0.00282152 -0.00401025 0.0107198 
0.145945 -0.0448827 0 
-0.112135 0.00855653 0 
-0.0859991 0.0412065 0 
-0.236505 0.0463219 0.317452 
0.0750061 0.0408792 0.12992 
0.0232242 0.0283871 0.0738917 
0.0220831 0.0158163 0.0540748 
0.0178278 0.0207088 -0.00188919 
0.00026511 0.000148917 -0.00206253 
-0.000308417 -0.000168303 0.00214725 
0.0015853 0.000643783 0.000262025 
-5.5194e-05 -0.00586734 0.00371947 
-0.0210046 -0.0106067 0.124612 
-0.00431983 -0.00243225 0.0824985 
-0.0163523 -0.0135172 0.0794631 
-0.0173009 -0.0150061 0.171345 
8.51688e-05 -0.000217111 0.196326 
0.000379948 0.000218913 0.151626 
-0.00177119 0.000322535 0.127763 
0.0143435 -0.0166394 0.190211 
0.0243073 0.017914 0.126202 
0.0525171 0.0384439 0.212215 
0.042643 0.0139221 0.186902 
0.0209029 0.00880713 0.20091 
0.000124207 1.02803e-05 0.00225327 
0.000248322 -3.71344e-05 -0.00207004 
-0.000160496 1.40426e-05 0.000202934 
0.000821247 0.00337308 0.0911017 
0.000143279 1.16459e-05 0.00194465 
-0.00149442 -0.000121468 -0.000246072 
-0.000281599 -2.28887e-05 -0.00356525 
0.00128151 -0.00455549 0.0963769 
0.000216735 0.000149305 -0.000958433 
-8.26618e-06 -6.12246e-06 0.000941731 
-0.000211472 -0.000147766 0.00534714 
0.00484207 -0.00485655 0.038992 
0.000258852 6.14807e-05 0.124974 
0.000261847 -8.04493e-05 0.0756223 
-0.000548132 0.0005982 0.0631862 
0.00344278 -0.00751243 0.11067 
0.000311277 -7.78724e-05 0.000174793 
-0.000386896 -2.51363e-05 0.0834205 
-6.0628e-05 3.75504e-05 0.0633412 
-0.000376218 0.000137211 -0.000572596 
0.000137861 -8.10101e-05 0.00249822 
1.87962e-05 -5.51798e-05 -0.0080846 
-0.00126547 0.000849735 -0.00267389 
0.00413616 0.00824623 0.048818 
0.0388883 0.0419514 0.301996 
0.0191778 -0.0320088 0.596627 
0.0243417 -0.0195434 0.537006 
0.106221 0.23113 0.273234 
0.0713664 0.0446536 0.120545 
0.0232951 0.0138348 0.0581084 
0.0281061 0.00798009 0.0211825 
0.0161448 0.016868 0.00080331 
-0.000285417 -0.000265286 0.00205958 
0.000243573 0.000594172 0.062899 
-0.000514201 -0.000238631 0.000172062 
0.00266711 0.00306735 0.0932557 
2.87344e-05 -0.000192414 0.00126734 
0.000245325 -0.000983524 -0.00127594 
0.000198994 -0.000940969 0.00159229 
0.00412957 0.00277826 0.104833 
-0.00222547 0.00180082 0.00179169 
-0.00196391 0.00106983 -0.000356744 
0.00675845 -0.0031574 0.0845819 
0.0101906 -0.00386084 0.0658138 
-0.00110821 0.00158034 0 
-0.000522818 0.00423481 0 
-0.00205302 -0.00177745 0 
-0.000375022 -0.0187667 0.01053 
0.000156698 0.000105589 -0.00936118 
0.00128306 0.000901501 -0.00156413 
-0.000320082 -0.000224216 0.00177179 
0.00768835 -0.00662765 0.0327886 
-2.48368e-05 2.54509e-05 -0.000517232 
6.4163e-05 -0.000183908 -0.000587424 
-0.000168844 0.000483144 0.00153263 
0.000199973 -0.000183984 0.0629246 
0.000282018 -0.00236703 -0.00164812 
-0.00135411 -0.000429034 -0.000779119 
0.000250445 -0.000587435 -0.000924835 
0.00104673 0.00275959 0.0037256 
-0.00303206 -0.000788674 0.000727202 
-0.00101616 -0.000276033 -0.00238405 
-0.00118502 -0.000282585 0.00603675 
0.00694836 -0.00568818 0.0654352 
0.000606387 -0.00171351 0.00172553 
1.95521e-06 0.00037455 0.000568421 
-0.00042986 -9.52533e-05 0.0639459 
-0.00383477 0.0038258 0.0851287 
0.0213707 0.0147711 0.131905 
0.0162018 0.00352596 0.105645 
0.04102 0.0130213 0.174982 
0.0107097 0.00707876 0.0589484 
-0.000204275 -8.9975e-06 0.000215148 
0.000477497 0.000130462 0.0762501 
-0.000180238 0.00017419 -0.000177046 
1.59683e-05 3.16756e-05 0.0634323 
-0.00176234 -0.000387759 0.000405267 
0.004033 0.00384608 0.0801611 
-0.00194759 -0.00103757 0.000269203 
0.0059794 0.00513032 0.0658308 
0.000211429 4.43613e-05 0.062873 
-0.000375627 -8.12549e-05 0.000544938 
-0.000313761 3.87139e-05 -7.7747e-05 
0.000156282 -0.000394527 0.0832799 
-0.0633627 -0.125891 0.362293 
-0.122496 -0.136806 0.105553 
-0.142507 -0.0597463 0.313083 
-0.12215 -0.115764 0.565737 
0.0180516 0.0824831 0.228931 
-0.00692683 -0.0151515 0.695553 
0.0617226 0.0407966 0.26297 
0.10586 0.194831 0.146898 
2.85543e-05 4.21244e-05 0.00100864 
0.00068627 0.000703558 0.00148363 
0.00071004 0.000692937 -0.00104324 
0.000937078 -0.00490171 0.106613 
-0.00391603 0.0024458 -0.00233137 
0.0169333 -0.012761 0.0599525 
-0.00257028 0.00214799 0.00213861 
0.00971926 -0.0047802 0.0624377 
7.56434e-05 1.36057e-07 -0.00756207 
0.000148324 -7.99633e-05 0.00267669 
0.00187179 -0.000847006 -0.00158876 
0.00358693 0.0072409 0.0480131 
-0.000362063 0.0001166 -0.00017071 
0.000757127 0.00137071 -0.0012791 
-0.000532583 -0.000374649 0.000602723 
-0.00131687 -0.0046811 0.00642487 
0.000103322 0.000286146 -0.00128145 
0.000511995 0.00128015 -0.000871032 
4.79594e-05 1.70874e-05 0.00400659 
0.00295971 -0.00234877 0.00220886 
-0.000569036 -0.000782797 0.0011399 
0.000134859 -2.33444e-05 0.0946268 
-0.000220309 0.000862103 0.0636163 
0.00416859 0.00400127 0.0945245 
0.00155912 0.00357967 0.221765 
0.000436606 -0.00027779 0.267197 
2.02557e-05 0.000564798 0.198386 
-0.0288179 -0.00434539 0.232744 
0.00249525 0.00249943 -0.000519967 
-0.0109559 -0.00939299 0.0744799 
0.00189861 0.00160872 0.00141315 
-0.0060761 -0.0045258 0.0808332 
0.0218645 0.017609 0.132734 
0.045701 0.0118138 0.177887 
0.0122573 0.00442147 0.103177 
0.0214403 0.00947813 0.199676 
-0.0016466 -0.00675272 0.00543291 
0.00427214 0.0128033 0.00905291 
-0.00143766 -0.00631021 -0.0125438 
0.0226627 0.022066 0.0170694 
0.000469805 -0.000220126 -9.10953e-05 
0.00076359 -0.000639062 0.00183054 
-0.000826162 0.000720788 0.0660429 
-0.00315802 0.0036386 0.0845459 
6.75767e-05 0.000828357 -0.00042547 
2.40949e-05 0.000295356 0.00159942 
-9.63537e-06 -0.000118111 -0.00320498 
0.00385166 -0.000689345 0.08187 
0.000491148 0.00232242 -0.00332904 
-0.00313766 -0.00858019 0.00910512 
-0.000161233 -0.000509428 0.00109065 
0.00258746 -0.00686494 0.0110969 
0.00489374 0.00352768 0.0921286 
0.0170858 0.0179627 0.172089 
0.00912489 0.0140324 0.117628 
0.0057958 0.00943195 0.0635709 
0.000411647 0.000672901 0.256985 
0.00131194 -0.000390276 0.211355 
-0.000261667 0.000853488 0.191962 
-0.00241823 -0.0278651 0.23203 
0.00120459 -0.000597261 0.149821 
0.000545133 0.000122366 0.127716 
-0.00186466 0.000707825 0.0747006 
0.00699815 -0.00626536 0.109466 
0.0122303 -0.0738343 0.117452 
0.00601724 -0.0199523 0.0586298 
0.0222694 -0.0347458 0.0338266 
0.0272702 -0.0768649 0.171245 
0.0037381 0.0154435 -0.00627875 
-0.00189387 -0.000870266 6.58115e-05 
-0.00753204 -0.0313767 0.0248986 
-0.00212801 -0.0204579 0.0128485 
0.000632913 -0.000655515 0.000731962 
-0.000471333 0.00013646 0.055064 
-6.53596e-06 1.46858e-05 -0.000194176 
-0.000474305 0.00046691 2.50576e-05 
0.000925682 0.00127141 -0.00198705 
0.000124982 0.000170287 0.00190098 
-0.000404688 -0.000557166 0.00297179 
0.00470987 -0.00456826 0.0514798 
-0.000515817 -0.00207967 -0.0076023 
0.000181908 0.000735343 0.00278094 
0.000472764 0.0017483 -0.00121111 
-0.00693153 0.00303897 0.0614131 
0.0215826 0.0215753 0.126541 
0.0231977 0.0115538 0.058221 
0.0256994 0.0229535 0.0737945 
0.00787303 0.00731613 0.0681815 
5.29234e-05 0.000199611 0.000752373 
-0.000644234 -0.00050733 0.0832932 
0.000139612 0.000298084 0.0631309 
0.00259612 -0.00548761 0.0887356 
-0.00117614 0.000457765 -0.00440233 
-0.000951851 0.00045006 0.00189623 
-0.00026792 0.00016426 0.00311125 
0.00526259 0.00716688 0.0209967 
-0.000553454 0.00529827 0 
-0.00437825 -0.00163718 0 
0.0136466 0.0038742 0 
-0.00691025 -0.00525541 -0.00319448 
0.0014184 -0.000827629 0.17794 
-0.000417451 0.00100956 0.120549 
0.00937293 -0.00379041 0.0873513 
0.0160884 -0.00729483 0.18498 
0.042993 -0.071436 0.148131 
0.0574829 -0.0638437 0.310341 
0.0570182 -0.0270139 0.212631 
0.0986569 -0.0467394 0.284933 
-0.000631956 0.00061307 0.000360479 
-0.000439394 0.000422963 -0.00594982 
-0.000187184 0.000181589 0.000104808 
0.00468486 0.00445282 0.060443 
0.074237 0.0693539 0.144515 
0.0263352 0.0254999 0.0674051 
0.0232566 0.00887062 -0.0163906 
0.0358127 0.0464312 0.0627488 
-0.00139876 0.000172735 0.0818971 
0.000882755 0.000234295 0.000439012 
0.0011531 9.26643e-05 0.00111856 
-0.00557591 0.00110886 0.0954969 
-0.00482837 -0.00243469 0 
-0.00517305 -0.00346556 0 
-0.00471509 -0.00509462 0 
0.0136459 0.0137192 0.000108711 
0.000699423 0.00103493 -0.00155011 
-0.000527849 0.000515521 -0.000787052 
0.0012526 0.00171044 -0.000928673 
-0.00100089 -0.00460744 0.00497657 
-0.000219802 0.000115763 -0.000825801 
5.73163e-05 -5.90911e-05 -0.000651736 
0.000683955 -0.000391664 0.00162632 
-0.000149396 0.000471936 0.0630883 
-0.00129543 0.00283207 -0.00129407 
-0.0147829 -0.00369665 -0.00436984 
0.0218828 0.0076123 0.0132954 
0.0209565 0.00383607 0.0142931 
0.000166837 7.15296e-05 0.0010849 
-0.000710785 0.00123322 0.0679378 
2.28121e-05 -0.000110192 0.084335 
-0.00510674 -0.00372071 0.0860742 
1.12429e-05 -0.000137816 0.00399432 
4.11914e-05 -0.000504926 0.00175717 
-8.21079e-07 1.00648e-05 -0.00239574 
0.00681579 0.00135193 0.00649617 
0.000582513 0.0013704 -0.00198407 
0.00083758 0.00197043 -0.00285239 
0.000542233 0.000918741 0.00302273 
0.00737167 -0.00857296 0.0496559 
0.0268894 0.00783279 0.08601 
-0.0381621 -0.0581387 -0.106887 
0.130828 0.18781 0.312303 
0.0482784 0.0757298 -0.00361269 
0.00120519 -0.000555803 -0.000496364 
0.00065645 -0.000297456 -0.000421886 
0.000329348 -0.00019411 0.00107587 
-0.00665992 -0.00266532 0.0567258 
6.92585e-05 9.15127e-05 0.00130566 
9.431e-05 0.000114017 0.00319172 
-0.000138872 -0.000199613 -0.000467568 
-0.00412536 0.00130572 0.0627903 
0.00173013 -0.00151659 0.291268 
-0.00225211 0.000362124 0.316206 
3.73317e-05 0.00146319 0.277161 
0.0173639 0.00474476 0.30591 
0.000234698 -0.000109326 0.0736233 
-0.000440372 0.000212382 0.00141532 
0.00019605 -9.36431e-05 -0.000592276 
-8.66455e-05 2.23702e-05 -0.000530574 
-0.00926772 -0.0785009 0.0953651 
0.0242013 -0.071756 0.165774 
0.0635007 -0.14142 0.30075 
0.0085752 -0.11684 0.282248 
0.000272724 0.00290864 0.311221 
0.00317168 -0.000864716 0.306691 
-7.05021e-05 -0.00191153 0.279942 
-0.0133093 -0.0069354 0.298396 
0.000384646 -0.000269208 0.00260835 
-0.000215644 0.000151908 0.00053416 
-0.000652153 0.000457701 -0.00184162 
0.00344307 0.00303246 0.0673292 
0.000223222 -0.000209717 0.00105924 
0.000889505 -0.000869931 0.00170812 
0.000389281 -0.000403831 -0.000948688 
-0.00441013 -0.000365567 0.0864886 
-0.00105936 1.16213e-05 0.222397 
-0.000318537 -0.000346034 0.167898 
0.000618016 0.000731266 0.233718 
0.013074 0.0152407 0.173727 
-0.000186739 -0.000178454 0.00497536 
-0.00031457 -0.000304444 0.00118169 
0.000191668 0.00018524 -0.00120678 
0.00429365 -0.00411455 0.0392755 
0.000214292 0.00257804 0.276692 
0.00352117 -0.000350161 0.306895 
-0.0036771 0.000521877 0.266342 
-0.0160644 -0.00222704 0.297642 
-0.000118092 0.00170204 0.000775677 
-4.55394e-05 0.000834589 0.00133397 
3.13443e-05 -0.000637853 -0.00128633 
0.00255639 -0.00252115 0.0832028 
-0.000328653 -0.000263923 0.000965096 
-0.000172493 -0.0010185 0.000689753 
0.000339529 0.000514159 0.0732819 
0.00125616 0.00560486 0.0909635 
-0.00657716 -0.0421756 0.0555293 
-0.00722415 -0.0149912 0.0062517 
-0.00101608 0.00610706 -0.0226123 
-0.0101068 -0.0703461 0.0745796 
0.0518312 -0.00954943 0.0789934 
0.146595 0.0309549 0.112496 
-0.0511158 -0.0112683 -0.134723 
0.189293 0.0355906 0.369255 
-0.000282057 -0.000272719 0.00210435 
-0.00137668 -0.00132367 -0.00208489 
0.000139381 0.000139113 -0.0082665 
0.00712359 -0.00586861 0.0320638 
-0.000627152 -0.000451321 -0.00444046 
-0.00130106 -0.000874172 0.00264654 
-0.00090285 -0.000623263 -0.00134142 
0.0071357 -0.00606204 0.0880555 
0.000385308 -0.00111671 0.0507555 
-0.000625525 1.86538e-05 0.10973 
-0.000957026 0.000296151 0.0668715 
-0.00278606 0.00530447 0.0879819 
-0.00530099 -0.0164295 -0.00312649 
0.00197423 0.00269785 -0.0070515 
0.0134068 0.0311261 0.0171048 
0.00262007 0.016459 0.0165936 
-0.00229876 0.000411179 -0.00116491 
-0.000362031 0.00108143 -0.00089577 
-0.000872132 0.000110621 -0.000183581 
0.00742686 -0.00395562 0.00581094 
0.000835037 -0.000669013 0.000762162 
4.66524e-05 0.000164556 0.000524746 
-0.00249116 0.000469579 -0.00171604 
0.00344962 0.00139777 0.00174955 
-0.0441707 -0.0138153 -0.113738 
0.150497 0.0305646 0.114986 
0.0327899 0.0235447 0.112281 
0.192242 0.0404839 0.324773 
-0.00132378 -0.00137639 0.141227 
0.000876148 -0.000957474 0.084981 
0.000410889 0.000557252 0.0648205 
-0.00684417 -0.00235514 0.0880166 
0.000408768 -1.02212e-05 -0.00586085 
0.00163713 -0.000142456 0.00136923 
0.000500138 -3.48905e-05 -0.00169332 
-0.000963188 0.00759787 0.0426866 
0.00154003 0.00498077 0.232572 
0.0143044 -0.0191227 0.194653 
-0.000478708 -0.000608499 0.194549 
0.0120562 -0.021777 0.249606 
0.000612007 -0.0013146 0 
0.00217843 -0.010053 0 
0.000323924 -0.00258856 0 
0.0004334 0.00982203 -0.00597738 
0.000648902 0.00241579 0.294414 
0.00411178 -0.00227151 0.319308 
-0.000840637 -0.00321086 0.309154 
-0.00709491 0.00975066 0.310507 
7.70913e-05 0.000109324 0.000104288 
-0.000192236 -0.000245824 -0.000724429 
0.00014568 -0.000282987 0.071451 
-0.000246832 -2.60718e-05 0.0625219 
0.0076252 -0.0114686 0 
0.00022184 0.00298129 0 
0.000619367 -0.00593061 0 
-0.00952134 0.0122175 -0.00667458 
-0.0707195 -0.0179152 0.222587 
0.0256067 -0.00978667 0.615651 
-0.0380559 0.0400375 0.229715 
-0.26943 0.065135 0.14261 
0.00106208 -0.000468472 0.124805 
-0.00215426 -0.00977722 0.0879144 
-0.0012625 0.000605601 0.154021 
-0.00628033 -0.0146233 0.177667 
-0.00109018 0.000270509 0.193231 
-0.00205237 -0.02766 0.231622 
0.00288503 0.000177295 0.210518 
-0.0016766 -0.0161507 0.159635 
0.0193105 0.0193047 0.13318 
0.016072 0.0169396 0.172327 
0.00422927 0.00266137 0.0901044 
0.00671215 0.0103884 0.0637089 
0.0616226 -0.0124191 0.0840969 
0.028195 0.00241161 0.00982237 
0.0406363 0.000474207 0.0827992 
0.0142893 0.000713193 0.0403655 
0.00418182 -2.49852e-05 0 
0.00158633 -0.00288336 0 
-0.00138586 -0.00287484 0 
0.00524949 0.0164282 0.0036808 
-0.000162212 -0.00186618 -0.000691434 
-0.000599928 3.28886e-05 0.000523382 
0.0012612 -0.00119968 -0.001117 
-0.00393982 -0.000659009 0.00259573 
-0.0685033 -0.0075573 0.550834 
-0.0139203 -0.0779867 0.628759 
0.0245683 -0.00463457 0.60003 
-0.0347682 -0.0503065 0.44193 
-0.000254446 -0.00110499 0.0729319 
-0.000157758 0.000130268 0.0582834 
-0.000244451 0.000386157 0.000763013 
0.00514731 -0.00217222 0.0880004 
0.000310634 0.000234239 -0.00081809 
0.000445205 -0.000275732 0.0639025 
0.000242553 0.000169169 -0.000260369 
-0.000906083 -0.000645276 0.00133991 
-0.000444507 0.000101492 0.0852935 
-0.000593582 -0.000388115 0.107405 
0.000722664 0.000462827 0.0529426 
-0.00336717 -0.00284742 0.0789172 
0.000974523 0.000351254 0.0839623 
-0.007422 -0.00593516 0.08417 
-0.000792726 0.00181989 0.144986 
-0.0114636 -0.00867073 0.170272 
-0.00225836 -0.00872553 0.0871357 
-0.00586803 -0.0175435 0.180115 
0.000927887 0.0010063 0.12374 
-0.00294599 -0.0151656 0.161105 
0.000567303 -0.000177486 -0.00109492 
0.000578164 -0.00085224 -0.00111243 
0.000284307 0.0021708 -0.000613281 
-0.00510288 0.0031425 0.00166085 
-0.0024366 -0.000670775 0.263048 
0.000834633 0.00122646 0.264545 
-0.00037063 -0.000394511 0.205769 
0.00772138 -0.02059 0.247707 
-0.000542185 0.00461912 0.711708 
-0.00955802 0.00901498 0.550735 
-0.00433776 -0.01548 0.604349 
-0.13325 0.0530517 0.636111 
0.0120445 -0.0257519 0 
-0.00155119 -0.0162127 0 
-0.0331468 0.0373833 0 
-0.0350297 0.122974 0.0986598 
0.000833439 0.00011657 0.000832212 
-0.000780627 -0.000253401 0.0622893 
0.000540592 -0.000269918 0.000556073 
-0.00522699 0.000112693 0.0946574 
-0.000131168 0.000814171 -0.000479411 
6.4986e-05 0.00239298 -0.00157616 
0.00107893 -0.000988522 0.00110605 
-0.000605754 -0.00437827 0.00406753 
0.00259116 0.00253378 -0.00231466 
0.000246585 0.000187348 -0.00193428 
0.000804919 0.000968954 0.00507732 
-0.013453 -0.00354403 0.00770441 
0.00333343 -0.000766845 0.00217352 
0.00180085 -0.000693664 -0.00079988 
-0.0114488 0.00533859 0.0687019 
-0.00663742 0.00319798 0.084329 
0.093447 -0.0630606 0 
-0.0455546 0.0254311 0 
-0.0366354 0.0391037 0 
-0.124344 0.170568 0.190093 
-0.00153345 0.000547369 0.229205 
-0.00124048 -0.000624151 0.167173 
0.0196065 0.0117292 0.200191 
0.0162445 0.0145106 0.177465 
0.0160677 0.00867472 0 
-0.000710259 -0.00223633 0 
-0.0201729 0.0100938 0 
0.0465593 0.013614 0.0149873 
-0.0022499 -0.00155671 0.000774294 
-0.00281142 -0.00200776 -0.003704 
-0.0014769 -0.00100234 0.00196735 
0.0107854 -0.00182657 0.0351513 
-0.000116526 0.00160645 0.173426 
0.000402185 -0.000954642 0.178828 
0.000484504 0.000285418 0.237102 
0.0190476 -0.00796934 0.190962 
-0.00101541 0.0116396 -0.0197002 
-0.00589126 -0.0153041 0.0104869 
0.0152924 0.0100594 -0.0142048 
-0.00641997 -0.092396 0.0751525 
0.000572978 -0.00150451 0.00383285 
0.000142189 -0.000344923 -0.000179336 
4.90958e-05 -9.15418e-05 -0.00115745 
0.00263727 0.00465435 0.0651174 
0.000326292 -0.000573655 0.0013577 
0.00147286 -0.00302811 -0.000636323 
0.000362326 -0.00113895 -0.00623313 
0.00805217 0.00485641 0.0480049 
0.00288251 -0.000750479 -0.00368794 
0.00106857 -0.000300046 0.00292245 
0.00162119 -0.000430665 -0.000389115 
-0.00197415 0.008608 0.0699457 
0.000390481 3.58115e-05 0.00516834 
-0.00093986 -0.000200579 -0.00308803 
-0.00171269 -0.000441285 0.000567793 
0.00144703 0.00752652 0.00613149 
-0.00237997 0.00573348 0 
0.00413049 0.00171852 0 
-0.00278312 7.19112e-05 0 
0.00440211 -0.00985713 0.00121049 
-0.00163825 0.00272257 0 
0.00489108 -0.000150288 0 
-0.00404909 -0.000265342 0 
-0.00414936 0.000153067 0.00613092 
-0.00123207 -0.00128064 0.00270101 
0.000417536 0.000436121 0.00271708 
-0.000247218 -0.00026046 -0.00543332 
-0.0080842 0.00202111 0.0137616 
-0.00145236 0.000685913 0.00289271 
-0.00160061 0.000721418 -0.00373842 
-0.00207256 0.000964657 0.00128571 
0.00730673 0.00230217 0.0515811 
-0.0076209 -0.0694573 0.105152 
0.00775083 -0.0111496 -0.00207258 
-0.00974971 -0.0385501 0.056332 
-0.0216137 -0.0844899 0.0833982 
1.88758e-05 2.6178e-05 2.68285e-05 
0.000279011 0.000419094 -0.000382544 
0.000830782 5.24105e-05 0.0780325 
-0.000369144 -0.000552694 0.000462839 
-0.000129949 -0.00213625 -0.00238238 
-7.28906e-05 -0.0012719 -0.00176388 
-6.45526e-05 -0.000302637 0.00322062 
0.00502378 0.00643156 0.00579881 
0.00121681 0.00080111 0.00319749 
0.000661759 0.000489044 -0.00115401 
-0.000115116 -3.14178e-05 -0.00270809 
-0.00377302 0.00237419 0.0819094 
-0.00275605 -0.0022245 0.00146056 
-0.00262369 -0.00135988 -0.00112013 
0.0064199 0.00652894 0.0663114 
0.00740452 0.00969312 0.060199 
0.000776461 -0.000595199 -0.00263905 
0.000168943 -0.000121345 -0.000115628 
3.41239e-05 -2.60036e-06 0.00120814 
-0.0011846 -0.00231532 0.0759298 
0.000653776 0.000158796 0.0620757 
-0.000675729 6.48816e-05 0.000941918 
-0.000368866 -0.000116115 -0.000423392 
0.00311422 0.00178236 0.0843047 
0.00289227 0.00977464 -0.00710195 
-0.000726676 -0.0041823 -0.000831849 
0.000826582 -0.0113433 0.010275 
-0.000363661 -0.0162803 0.0136338 
-0.00139166 -0.0339225 0.242456 
-0.00874706 -0.0290498 0.136133 
-0.000186207 -0.0559067 0.210534 
-0.00155927 -0.0131599 0.152037 
-0.000154829 0.000723125 0.069512 
0.000257716 -6.68449e-05 0.0592401 
-0.000151034 -1.85369e-05 0.000159305 
-3.14369e-05 -0.000174891 -0.000882993 
-3.6507e-05 0.000511984 -0.00154009 
0.000129553 -0.00158224 0.000665324 
5.57421e-05 -0.000838416 0.00351092 
-0.00482939 0.000983808 0.0762411 
0.00648585 -0.00212828 0 
-0.00588633 0.0107587 0 
0.022034 0.0203915 0 
-0.0816215 -0.086562 0.0229076 
-0.00192874 0.00388689 0 
-0.00423017 -0.00127242 0 
-0.00404582 -0.00124574 0 
0.00999277 0.00425241 -0.00322557 
0.000763452 -0.000987988 0.0037012 
0.00166996 -0.00236447 2.45431e-05 
0.00167495 -0.00247138 -0.00393733 
0.00260978 0.00854771 0.00781187 
4.92323e-05 -0.00016733 -0.000732953 
0.000471453 -0.000338486 0.0792064 
-0.000121084 3.90783e-05 7.91676e-05 
-6.94241e-05 -1.48094e-05 0.0710394 
-0.000331846 -0.000114483 -0.000160285 
0.000127078 -0.000629387 0.0648378 
9.74148e-06 0.000147867 9.13573e-06 
-7.4811e-05 -0.00019777 0.0757235 
0.0197939 0.0130479 0.0190534 
0.0300993 -0.000652577 0.0176759 
0.0433537 0.00505017 0.0846994 
0.0752675 0.0146567 0.0871285 
0.0200512 0.0134812 0.125216 
0.00373143 0.00710356 0.0957484 
0.00505549 0.00255351 0.0845105 
0.00612158 0.00858045 0.0665023 
-0.0023615 -0.0154774 0.563616 
-0.030109 -0.0788847 0.20793 
0.0101626 -0.117561 0.250868 
-0.0381494 -0.100697 -0.159559 
0.000557671 -0.000577294 -0.00412527 
-0.000199905 0.000207401 0.00231943 
-0.00127413 0.00131399 0.000352744 
-0.00314479 -0.00326777 0.0662405 
0.000661196 0.000151973 -0.00208499 
-0.000240148 -0.000137047 -0.00633858 
0.000629237 0.000196754 0.00253489 
-0.00120271 0.0100722 0.0516813 
-0.000399121 0.000503109 0.00102678 
-0.000365037 0.000138564 0.067392 
0.000137646 0.000151173 -0.000212664 
1.04421e-05 -0.000187394 0.0842731 
0.000697721 -0.000193191 0.000544553 
-0.000833111 0.000216873 -7.31947e-05 
1.44979e-05 3.08608e-05 -0.00144633 
-0.00106661 -0.00286558 0.0891879 
-1.16256e-05 -0.000138585 0.0037255 
8.49029e-07 1.0121e-05 -0.00379829 
0.00013231 0.00157722 0.0019694 
0.00665081 0.00134639 0.00889167 
0.00881843 -0.0392467 0.211878 
-0.00492431 0.00448552 0.522974 
5.21263e-05 0.0146827 0.54761 
0.125485 -0.280248 0.347818 
0.000379817 0.000394959 0.000203368 
-0.000113081 -0.000109052 0.000153305 
-0.000786415 0.000481655 -0.000180324 
-0.000121801 -0.000164027 -0.00100124 
0.000239001 -0.000117071 0.0589342 
-0.00111145 -0.000302661 0.0768521 
0.000377038 -0.000511444 0.000159608 
-0.000926834 0.00581515 0.087892 
-0.00126115 -0.00256249 0.151399 
-0.0026423 -0.00586733 0.0915589 
0.000376101 0.000623059 0.0753832 
-0.00238413 -0.00356263 0.0782075 
-0.0621457 -0.184305 0 
0.027393 0.138684 0 
0.0476554 0.11909 0 
0.0391046 0.199918 0.352272 
0.000660318 0.000261252 0.000197978 
-0.000627703 -0.000679871 0.0763288 
0.000695008 0.000484095 0.00100979 
-0.00163741 -0.00412735 0.0915362 
-0.00160824 -0.000856911 0 
-0.00558353 -0.0102389 0 
-0.0023539 -0.0073883 0 
0.022703 0.0297754 0.0160141 
-0.000390965 -0.00103148 -0.00169135 
8.55136e-05 0.000337492 0.00278065 
0.000240464 0.000492137 -0.00202529 
-0.00386123 -0.000554445 0.0050388 
-0.00156236 -0.00100768 0.00101 
0.00490943 0.00490962 0.0823136 
-0.000166017 -0.000249301 0.0948849 
0.00503573 0.00395945 0.0950868 
-0.000516437 0.0010134 0.122192 
-0.000412596 -0.000341448 0.0681644 
0.00122395 -0.000479241 0.0732562 
0.000783558 0.00830743 0.0945016 
0.174137 0.00298461 0 
-0.236623 -0.0124003 0 
0.172074 0.0393588 0 
0.164217 0.0213629 0.375729 
0.00245082 0.00145742 -0.00351545 
-0.00358368 -0.00882526 0.00906955 
0.0012 0.00284613 -0.00325822 
-0.000753769 -0.00945144 0.0107505 
-0.00551896 -0.00531111 -0.00702985 
0.0111358 0.00143177 0.0580149 
-0.00301835 -0.0030503 -0.000823773 
0.0165439 -0.00129404 0.045296 
0.00074538 4.0611e-05 0.00154112 
0.000298067 1.13521e-05 0.00111585 
2.58052e-05 1.43276e-05 -0.00126742 
-0.000615614 -0.00341563 0.0975996 
9.21152e-06 0.00024927 0.11637 
-0.000354163 -9.15604e-05 0.0658449 
-1.7705e-05 -0.000462091 0.120202 
0.00595893 -0.0014899 0.086225 
-0.00150716 0.00107825 0 
-0.00184777 0.000637169 0 
-0.00115385 -0.00411835 0 
0.00113111 0.00523391 0.00218031 
-0.010224 0.000144912 0 
0.00224694 -0.00519353 0 
-0.0102174 -0.00696496 0 
0.0344258 0.0247626 0.000449383 
0.000272119 8.73725e-05 0.0767865 
-0.000108338 -7.62129e-05 -0.000781292 
0.000231193 0.000235723 -3.26185e-05 
-0.000342151 -0.00038969 0.000998041 
-3.99746e-05 0.000224503 0.210115 
-0.000790588 -0.000314861 0.159557 
0.0021218 8.13662e-06 0.131245 
-0.0172986 0.010079 0.184349 
-4.58108e-05 -0.000202286 0.0559526 
-0.000119709 -0.000182019 0.0846849 
0.000353359 -0.000434129 0.000150638 
5.61186e-05 3.84911e-07 -0.000139741 
0.000442727 0.000413014 0.000555239 
0.000320253 -0.00131891 -0.000503652 
-0.000254186 -0.000227351 -0.000568372 
-0.000578409 -0.000541418 -0.00067876 
0.000305726 0.000104182 -0.000647493 
0.000506121 -0.000551809 0.066761 
-0.000475307 0.000196096 0.00160641 
0.00277768 -0.000616533 0.0836907 
-0.00244006 -0.00250115 0.000679263 
0.0159709 0.00929196 0.0593326 
-0.00235038 -0.00338036 -0.00335615 
0.00597942 0.00415018 0.059764 
0.000580467 0.000525813 0.229742 
-0.000133333 0.000251446 0.169657 
0.00130763 -0.00127858 0.168714 
0.0128614 0.0146649 0.176436 
-0.000632577 0.000127122 -0.00161017 
0.00024458 -2.59061e-05 0.00164423 
0.00101374 -0.000279522 -0.000751328 
0.000222289 0.00395004 0.0889745 
0.000203369 0.00206579 0 
-0.00298173 -0.00151363 0 
-0.00227421 -0.00183684 0 
0.00096197 -0.000657862 0.00250677 
-0.0227319 0.0334411 0.0607377 
-0.0127487 0.0125266 0.0449425 
-0.0224803 0.0172273 0.00834986 
-0.0492945 0.0534384 0.124948 
-0.000161295 0.000233919 0.00135635 
0.000452178 -0.000656578 -0.00263493 
-9.21627e-05 0.000134086 0.000155911 
-0.00374144 -0.00375899 0.0675172 
-2.09591e-05 -0.000729984 0.0665383 
0.000162515 0.000504653 0.0662113 
-0.00122315 9.63326e-05 0.000968404 
0.00476431 -0.000370052 0.0854245 
0.00153251 0.00135724 0.083363 
-0.000596269 0.00156336 0.144684 
-9.00867e-05 -0.00113388 0.160839 
-0.0120082 -0.00975345 0.170842 
-0.000333296 3.89146e-05 0.14066 
-0.0014556 0.00883697 0.0869807 
0.00179775 0.000259882 0.129419 
-0.00422745 0.0146962 0.164987 
0.000689955 -0.000330294 0.00118772 
-0.000122992 2.00915e-05 0.000878241 
-0.000502718 0.000197808 0.000338797 
3.49934e-05 -0.00205944 0.089993 
0.000179711 -0.000290704 0.000651663 
0.000152762 -0.000287045 -0.000640815 
-0.000352995 0.000605938 -0.00023505 
0.000898824 0.0016722 0.0815828 
0.000501585 -0.00048426 0.000209671 
-0.000829997 -0.000805546 -0.000739418 
7.94615e-05 -6.11235e-05 0.000431011 
-0.00051218 0.000510336 0.000190178 
0.00190011 0.000671771 0.235216 
0.000125937 6.415e-06 0.195058 
-0.000107688 0.000323612 0.262649 
0.01007 -0.0184777 0.24527 
-0.00112583 0.000489758 0.000710809 
0.000511199 0.000790769 -8.01418e-05 
0.00154687 -0.000409641 -0.000783176 
-0.00167775 -0.00138915 -0.000774712 
-5.98783e-05 0.000673131 0.190012 
-0.00656218 -0.0185857 0.183485 
-0.00371535 -0.0286294 0.236824 
-0.00131331 -0.0170318 0.158521 
-0.000887782 -0.00190947 -0.00159206 
0.00406264 0.00633109 0.0919584 
-0.00137547 -0.00194731 0.00128207 
0.00540657 0.00596666 0.0689963 
-0.0016073 0.000363619 -0.00050234 
-0.000561958 -0.000275042 -0.000603661 
0.000606486 -0.000239729 0.000139472 
0.00443137 0.00250503 0.00121194 
-0.000965671 -0.000297399 9.34657e-05 
-0.00303387 -0.000749419 -0.00519568 
-0.00171719 -0.000540486 0.000511728 
0.00508305 0.00965738 0.0564077 
-0.00120101 -0.000553668 0.000324943 
0.000143719 3.89726e-05 -0.00551405 
-4.75436e-06 5.7663e-06 0.00159835 
-0.000132448 -0.00592605 0.0629003 
0.000219513 0.000277976 0.159535 
5.55829e-05 0.000665349 0.227976 
0.000310086 -0.000866024 0.225336 
-0.0127879 -0.0124382 0.173698 
-0.000249549 0.00090759 0.000635139 
0.000452913 -0.00183323 0.000854945 
-0.000309339 0.00155397 -0.00384181 
0.00393384 -0.000396405 0.0121147 
-0.00540015 0.00433715 0.723143 
0.0210402 0.015758 0.804001 
-0.0161772 -0.105536 0.663332 
0.0354418 -0.0564697 0.718964 
-0.00242141 0.000979763 0.252985 
0.00212837 0.00117761 0.281203 
-0.00275469 -0.00115341 0.298104 
0.00707183 0.0157929 0.294788 
-0.000128794 -0.000243832 -0.000594859 
-2.05029e-05 -7.97981e-05 -0.00132081 
-0.000110136 -0.000165926 0.000765324 
0.00210232 0.000224785 0.000255969 
-0.00102258 0.000574322 0.093621 
0.000684139 -0.000928389 0.11288 
0.00176569 0.000924183 0.166765 
0.00543035 0.0037052 0.0839905 
-0.00493287 0.000278672 0.00061733 
0.0234018 -0.000592465 0.0192217 
-0.00533193 -0.00195698 -0.00340559 
0.0133509 2.97965e-05 0.0349489 
-0.000214624 -0.000229686 -0.000508192 
0.000180091 -0.000176962 0.0772085 
0.000241788 -8.95543e-05 0.0772537 
-0.000375556 0.000189093 0.000198812 
0.000887794 0.000868717 0.00225871 
0.0017503 0.00167057 -0.00399963 
0.00219588 0.00212375 0.000581462 
5.04847e-05 -0.00842445 0.0354044 
-0.0100299 -0.0283915 0.138028 
-0.00761906 -0.0203911 0.179884 
-0.00364437 -0.00585585 0.0869955 
0.00137979 -0.0142491 0.161625 
-0.00133432 6.83097e-06 0.00103554 
0.000390873 -0.000550111 0.0719064 
-6.2435e-05 4.53391e-05 0.00143493 
0.00429077 -0.00206247 0.087726 
-4.38348e-05 -1.82455e-05 0.00204433 
0.000394587 -0.000402416 0.000336626 
0.000479522 -0.000409137 -0.00223315 
0.00130082 0.00280951 0.0931106 
-0.000815555 -0.00116342 0.000857622 
0.00145257 0.00100101 -0.00192386 
0.00376239 0.00237931 -0.00222321 
-0.00732115 -0.00935067 0.0087336 
-0.000984855 -0.000569876 0.233215 
-0.000553144 0.00155403 0.240864 
-0.000575695 0.000177 0.17629 
0.02144 -0.0108124 0.190076 
-0.000349663 -0.000132182 -0.000733434 
0.000230561 -0.00168373 -0.00010476 
4.73877e-05 1.59382e-06 0.0007123 
0.000174818 0.000119507 -0.00163953 
0.00258717 -0.00611725 0.537597 
0.0363623 0.0456138 0.276736 
-0.00358373 -0.0494997 0.564575 
0.217156 0.102999 0.390234 
0.000686234 -0.000259172 0.0659956 
-0.000450957 -0.000539379 0.000961973 
-0.000712041 -0.000338972 0.000453951 
0.00326521 -0.000394448 0.0831816 
5.00151e-05 -0.00042257 0.265169 
0.00108889 -0.00261458 0.22913 
0.000362335 0.000731605 0.201277 
-0.0289585 -0.00441771 0.231449 
-0.000317842 1.69145e-06 0.082826 
-1.44737e-05 -0.000204429 0.000708092 
-2.39504e-05 -0.000338279 -9.97283e-05 
2.06305e-05 0.00029139 -0.000328425 
0.000182528 0.00080555 0.00126263 
-0.000320887 -0.000591668 0.0633335 
0.000842311 -6.01957e-05 0.000668133 
-0.00327367 0.00169185 0.0891587 
0.000268383 -0.000652076 0.000500998 
-0.000205364 0.000492766 -0.000282468 
-0.000567729 0.000496951 0.066957 
4.51223e-05 -9.65291e-05 -0.000129142 
-0.000983394 -0.000122729 0.123756 
0.00162168 -0.000253453 0.134106 
-7.91517e-05 0.00190698 0.0699314 
-0.00139607 -0.0127018 0.158558 
1.07319e-05 -3.35711e-06 -0.000262199 
-7.48733e-05 0.000281317 -0.00119614 
0.000138266 -0.000376319 0.000529216 
-0.0012123 -0.000254956 -0.000567036 
0.000718695 0.00140878 -0.00334711 
-0.000317456 -0.000620215 0.0045679 
-0.000613364 -0.00120358 0.000962874 
0.00577822 -0.00524438 0.0519683 
0.0018597 0.00112622 0.281329 
-0.00115145 -0.00243549 0.316353 
-0.00241667 -0.00108524 0.298138 
0.00783669 0.0159509 0.295072 
0.000387659 0.000105868 0.063361 
-0.000507408 0.000566779 0.0012521 
0.000131429 -0.000153142 -0.000482975 
-5.05721e-05 3.17295e-05 -0.000495381 
0.00115381 -0.000738109 0.0012052 
-0.00147324 0.00136369 -0.000802869 
0.000276788 -0.00076156 0.000203355 
-0.00160851 0.00147338 -0.000667342 
0.000110083 -0.000248686 -0.000477471 
-2.13068e-05 0.000158581 0.0677063 
-0.000551044 -0.00048984 0.0755697 
0.000100316 -9.36845e-05 -0.000145765 
-5.80031e-05 -0.000318886 0.00101723 
-0.000197504 -0.000765222 3.66108e-06 
0.000167274 0.00078911 -0.00152496 
0.0029591 -0.0011935 0.0870951 
-1.60209e-06 -0.000106309 -0.000624203 
-0.000272051 -0.000342834 0.000305276 
0.000260447 -0.000209717 0.0730038 
3.26139e-05 -4.40656e-05 0.0579732 
-0.000488102 -0.0019201 0.136615 
8.04617e-05 -0.000426115 0.214371 
0.000341449 0.00112794 0.167902 
0.0175092 0.00846702 0.197642 
-0.000335697 2.30857e-05 -0.000545365 
0.000585938 -4.02948e-05 5.23759e-05 
0.000140572 -9.66707e-06 0.000784226 
8.40425e-05 -0.00016745 0.0705713 
-0.000467111 0.000189621 -0.000492317 
-0.000473942 0.000493499 -0.000522229 
0.000350152 -0.000142818 0.000343698 
-0.000597827 0.000260703 4.57521e-05 
0.00870003 -0.0810584 0.106228 
0.00329102 -0.0630671 0.217858 
0.03398 -0.0687626 0.172448 
-0.00432471 -0.117045 0.274094 
-0.00783891 -0.0295314 0.138502 
-0.00327642 -0.0357913 0.239242 
-0.0109847 -0.0170034 0.183289 
0.000408331 -0.0151925 0.157757 
-0.00103235 8.39106e-05 0.00154479 
-0.000936195 7.6095e-05 0.00272941 
0.000868976 -7.06313e-05 -0.00262584 
0.00154963 0.00449212 0.00734537 
0.00010079 6.44014e-05 0.00160817 
0.000497488 0.000111709 -0.000719587 
-0.00100958 -0.000291444 -0.00125845 
-0.000312027 0.0035705 0.0859407 
0.000177386 9.16257e-05 -0.000737946 
-0.000895954 0.000154942 0.0013101 
0.000590049 0.000213231 0.066131 
0.00349957 -0.000545908 0.0841763 
-0.0126891 -0.00699571 0.721927 
0.00508685 -0.00738336 0.702652 
0.00215853 0.00297645 0.787122 
0.0527843 -0.0402267 0.730737 
9.90545e-06 -5.45106e-06 -0.000367598 
-0.000407184 -0.00059678 0.000374842 
-0.000108296 -7.72776e-05 0.0637549 
0.000489999 0.000760026 0.000300552 
-0.000126999 0.00017998 -0.00171659 
0.0011296 -0.00106225 -0.00243639 
-0.000584743 0.000531177 0.00187605 
-0.00232729 -0.00220602 0.011239 
0.000191891 9.13168e-05 -0.000317713 
6.11464e-05 3.89347e-05 -0.000472089 
-0.000540672 -0.000257494 0.00090275 
9.28935e-05 -0.000242215 0.0831872 
0.00035524 -0.000814361 -0.00111788 
0.000208994 -0.000737476 0.00474188 
0.000234814 -0.000517115 -0.00118154 
-0.00787841 0.0027681 0.00117427 
0.000735685 0.000335945 0.000811352 
0.000233919 0.000542456 0.0828738 
-0.00045901 -0.000816775 0.06382 
-0.00433157 0.00242746 0.0901991 
0.0905901 -0.0836473 0.513739 
-0.00559127 -0.085337 0.622575 
0.0264632 0.00604184 0.601465 
0.0599851 -0.0515089 0.70075 
0.0021185 -0.00145545 0.00102361 
0.0013134 -0.000899864 -0.00458804 
0.000944622 -0.000649586 0.00174956 
-0.00129627 0.00673449 0.0520884 
0.000168232 -0.000242043 -9.18467e-05 
-0.000647358 -0.00130481 -0.000255571 
0.000503927 0.00186417 0.00100433 
0.00354184 -0.000347562 -0.00237319 
-6.12706e-05 -5.83418e-07 -0.000320882 
5.1085e-06 -7.11201e-05 0.0661024 
-0.000418519 0.00012012 0.0646723 
-0.000176449 -0.000327564 -0.000102547 
-3.94594e-05 -0.000568669 -0.000828635 
1.69157e-05 0.00024378 0.001011 
-5.36562e-06 -7.73266e-05 4.54916e-05 
2.84043e-05 -0.000580254 -0.000123638 
0.00692926 -0.014373 0.793371 
0.0113967 -0.0027676 0.764379 
-0.00265793 0.00432151 0.795404 
-0.0191042 0.0512039 0.754804 
-5.35215e-05 -4.35042e-05 0.00100292 
-0.000496251 -0.0012254 -0.00337803 
-0.000325814 -0.000562093 0.00152104 
0.00579763 -0.000312011 0.0635784 
0.000546786 -0.000580254 0.000856068 
-1.7848e-05 0.00024378 -0.000213583 
5.66135e-06 -7.73266e-05 -0.000238194 
-3.9178e-05 0.00053512 -0.000594719 
8.45342e-06 -0.000122924 -0.000677064 
8.43902e-06 -0.000122714 0.000181738 
-6.0063e-06 8.73394e-05 -0.000675957 
-0.00110122 0.00019911 -7.08649e-05 
0.00045477 -0.000173334 0.000849626 
-0.00133961 0.00108301 0.000893656 
-0.000176849 -0.000615465 0.0828485 
0.00200976 -0.00494665 0.0885992 
0.00560611 -0.0555412 0 
-0.0257838 -0.038674 0 
0.00942937 0.115643 0 
-0.092698 -0.167692 0.143483 
-0.000501958 4.21083e-05 0.00229547 
0.000953965 -8.00263e-05 -0.00347011 
0.000805439 -6.75668e-05 0.0022175 
-0.00423412 -0.00509908 0.00884441 
0.000674504 0.00197192 0.000235366 
-0.00012025 -8.80394e-06 0.000357161 
-0.000142231 -1.04132e-05 -0.000898908 
-0.000153121 -1.12105e-05 -0.00153478 
0.000232063 -1.64304e-05 -0.000357743 
5.82925e-05 -0.00105999 -0.00029007 
-0.000169867 1.20268e-05 0.000349915 
-0.000113403 8.02906e-06 -0.000759248 
0.000185024 0.000409274 -0.000310639 
-0.000200102 -0.000396861 0.00108147 
-7.77422e-05 -0.000208786 -0.000469292 
-2.69111e-05 0.000357836 0.0634659 
3.2296e-05 0.000469626 0.000854067 
7.07585e-06 0.000102892 -0.000482203 
0.000376058 -0.000621895 0.0664658 
-4.32521e-06 -6.28942e-05 0.000302638 
0.00444622 0.00119348 0.644237 
0.00181613 -0.0046591 0.750166 
0.000217296 0.0204092 0.586951 
-0.0458169 0.061041 0.767162 
7.42298e-05 0.000158556 0.0635873 
0.000308443 0.000134376 0.0944606 
-0.000579715 0.000312098 0.000862479 
-0.000122455 0.000199834 -0.000185141 
-0.00012025 8.43706e-06 0.000284741 
0.000674504 0.00121324 -0.000629016 
0.000404114 -2.83537e-05 -0.000601879 
-0.000153121 1.07434e-05 -0.000168684 
6.12796e-06 8.73394e-05 -0.000666815 
-8.60996e-06 -0.000122714 0.000265234 
1.58609e-05 0.000226059 -0.000522721 
-0.00122146 0.00019911 -0.000349832 
0.000238379 1.67242e-05 -0.000637256 
5.82925e-05 -0.000873345 -9.10699e-05 
-0.000169867 -1.19176e-05 0.000235172 
0.000232063 1.62811e-05 -0.000458981 
0.000304239 -0.000598565 -0.00187542 
-0.000371174 0.000729185 0.000685791 
-0.00045051 0.000887168 0.00401998 
0.00658976 3.32902e-07 0.0500821 
0.00286755 -0.0861542 0.346002 
-0.000171162 -0.0580407 0.202657 
-0.0379703 -0.0732305 0.209281 
0.000133528 -0.121451 0.286379 
-0.000125367 0.00105605 0.000902304 
0.00109909 -0.00126923 -0.000762563 
0.000907563 0.000435023 6.01484e-05 
-0.00134973 0.000307295 -0.000490207 
-2.08301e-05 -8.02441e-06 -0.00100338 
0.00051901 0.000930392 -0.000292216 
0.000176341 -0.000387595 0.000804555 
-0.000375668 0.000879011 -0.000814259 
0.00025825 0.000484042 0.066608 
-0.000601004 0.000650957 0.130829 
-1.18846e-05 -0.000907519 0.0625416 
-0.00569039 0.00405538 0.0875819 
-0.00196722 0.00100161 -0.00113721 
-0.00156326 0.000795376 -0.00254663 
-9.44048e-05 4.89116e-05 0.00243377 
-0.000480583 -0.00391473 0.0622335 
0.00313559 -0.00026319 0.000123916 
4.77664e-05 -1.16413e-05 -0.00218786 
0.00159488 -0.000117271 0.00482518 
-0.00311507 0.00481538 0.0530381 
0.000739374 0.000596939 0.000936067 
0.000341791 0.000333992 0.0771035 
-0.0030146 -0.00554723 0.0904899 
-0.00179941 -0.00361289 0.077303 
0.000253246 -0.000348122 0.000636143 
-0.000262111 0.000418278 0.000514521 
-6.31882e-06 4.74298e-05 0.00076805 
0.00128493 0.000853587 0.0830245 
-0.00066197 0.000490546 -0.000828552 
-0.000116376 5.39001e-05 -0.00209109 
-0.000237268 0.000179381 -8.30331e-05 
-0.00116327 -0.000834677 0.0116321 
0.00023267 0.000643902 -0.00121183 
0.00187882 -0.000359312 -3.13669e-05 
-3.97975e-05 -0.000100167 3.62489e-05 
-5.16633e-05 -0.000117087 -0.000174999 
-0.000345555 -4.5688e-05 -0.0016622 
-5.23409e-05 1.92982e-05 0.00194183 
3.62531e-05 3.26098e-06 4.61872e-05 
-0.000514238 0.0029004 0.0872246 
3.16899e-05 -0.000764937 -0.00115788 
0.000611913 0.000117471 -0.00055052 
0.00172192 -0.000389988 -0.0015788 
-0.00385065 0.00106148 0.00306336 
-7.94282e-05 0.000268609 0.0767579 
-0.000115025 -0.000176657 -0.000338044 
-7.84396e-05 -0.000158581 -0.00031783 
-1.7467e-05 6.34879e-05 0.0586694 
-0.00092354 -0.00142885 0.151763 
0.000968945 -0.000285491 0.124918 
0.000176912 0.000621547 0.0757803 
-0.00279493 -0.00680701 0.0910027 
-7.92982e-05 8.37024e-05 -7.74841e-05 
0.00027893 -0.00047665 -0.00033867 
0.000152053 -0.0001688 0.000341677 
0.000439202 -0.000430981 -0.000329429 
-0.0324585 0.0211958 0 
0.0019365 0.0169498 0 
-0.000152082 -0.0373734 0 
0.0404475 -0.104971 0.0492284 
1.20172e-05 0.00222 0 
-0.0018711 -0.00311359 0 
-0.00123902 -0.00394765 0 
0.00384092 0.00874309 0.00196048 
-0.00115816 0.00229471 -0.00147274 
-0.000479084 -3.10468e-05 -0.000558987 
0.00102687 -0.000937615 0.000583118 
0.000122627 -0.00491655 0.00249732 
0.000329427 0.000326428 2.29616e-05 
3.88424e-05 1.78338e-05 -0.000474396 
-5.89253e-05 0.000221544 0.0641059 
-0.000595494 -0.000561986 0.000607268 
5.0369e-05 1.13851e-05 -0.00305572 
-0.000677031 0.00114891 0.00128396 
-0.000446473 0.000740789 0.00136225 
0.00427561 0.000745923 0.0637565 
8.36305e-06 4.96104e-05 -0.00123367 
2.64288e-05 -0.000506092 0.00116341 
3.6573e-05 -0.000585528 0.000733134 
-0.00330682 0.00126299 0.094004 
-0.0018402 0.00448346 0 
-0.00621182 -0.000176055 0 
-0.000963166 -0.000403153 0 
0.0130682 -0.0158961 0.00219641 
-0.00159638 -0.00164294 0.00306228 
-0.00013858 -0.000143499 -0.00330083 
-0.00167441 -0.00172412 -0.000357424 
-0.00123156 0.0069152 0.0526487 
-0.000654207 0.000116759 0.115342 
0.00602918 0.00655486 0.0930295 
0.000761524 0.00106363 0.168025 
0.0109506 0.0119488 0.1701 
-0.00368326 -0.0368448 0.600924 
-0.0235425 -0.0168039 0.537963 
0.0199712 0.0285925 0.292421 
0.0384873 0.28266 0.366851 
0.000454331 0.000685403 9.89143e-05 
0.000520296 -0.000102395 -0.000220304 
-0.00112483 -0.00139711 0.000581392 
0.00193792 -0.00126729 0.000143966 
-0.000117158 8.28166e-05 0.0823259 
9.26407e-05 0.000140723 -0.000129701 
-0.000244579 0.000234327 0.064238 
0.000652085 0.000532121 -4.79858e-05 
5.80176e-05 0.000168876 -0.00116137 
-1.2388e-05 -8.27491e-05 0.00166924 
-0.000226286 -0.000414029 -0.00291716 
-0.00305487 0.00229435 0.087998 
-0.00320236 0.00242504 0.265572 
0.00262139 -0.00234484 0.279974 
0.000731127 -0.00155124 0.226133 
-0.0160322 -0.00534186 0.293528 
-0.000388917 0.000602546 0.000376064 
0.000603368 -0.000133006 0.0654687 
-0.00111026 0.000583437 0.00134458 
0.00420593 -0.000676154 0.0837519 
0.00162856 -0.00253262 -0.00233487 
0.0161848 -0.0122828 0.0143346 
-0.00980315 0.00677415 -0.00324186 
0.0130398 -0.00527838 0.0084095 
-0.00163908 0.00039673 0.152949 
0.00120145 -0.00208342 0.127214 
0.000283751 0.000563724 0.0818845 
-0.00976338 0.00217549 0.0976286 
0.000170733 4.65128e-05 -0.000944111 
0.00064726 0.000269811 0.000315738 
-0.000136615 -5.03291e-05 0.000209155 
0.000395411 0.000182519 0.0002496 
0.000564165 0.000324415 -0.000921731 
-0.000344214 -0.000507856 0.000633594 
-0.00160148 0.00114987 -0.000210262 
-0.000207881 0.00176227 -0.00153165 
0.000756164 0.00152921 0.297396 
-0.000395206 -0.00182942 0.308944 
-0.00230849 -0.000245954 0.27632 
-0.00795696 0.00928621 0.30542 
-7.7197e-05 -0.00107741 0.000917134 
0.000103884 -0.000323642 0.00073769 
-0.00050051 0.000138057 0.0758022 
-0.000800986 0.00544362 0.0875452 
0.000563614 -0.0011054 0.002879 
0.000329867 -0.0008831 -0.00162412 
-0.000980793 0.0021702 -0.00155425 
0.00501334 -0.00163973 0.00770568 
-0.000975928 -9.96161e-05 -0.0028555 
-0.00141384 -0.000139256 -0.00356014 
0.000717241 6.74105e-05 0.00143747 
0.00268735 -0.00616067 0.0108615 
-3.8895e-05 3.88298e-05 0.00131314 
-0.000894127 0.000910221 0.000321579 
-4.96831e-05 5.28638e-05 -0.00386361 
-0.0030839 -0.00206428 0.0850806 
-0.000321068 -0.000251935 -0.000124579 
1.43221e-05 -0.000273754 0.000696288 
3.00812e-05 0.000274367 0.082886 
3.61501e-05 3.38473e-05 0.0636973 
-7.32118e-05 -0.000125063 -0.000590218 
-0.000310602 -0.00084123 0.00114029 
0.000148327 0.000373785 -0.000216744 
0.000377814 0.000172174 0.0723608 
-0.000324611 -0.000319041 0.139809 
0.000546074 -0.00084282 0.128054 
-0.000117515 0.000875059 0.192078 
-0.00293688 0.0159927 0.16677 
-0.00047502 0.00061838 0.149467 
-0.00156545 -0.000641724 0.197991 
0.000329244 0.000634392 0.231288 
0.0161063 -0.016835 0.191598 
0.000483423 -0.000563041 -0.00085307 
-0.00178308 0.00117009 0.000140971 
-0.000455185 -0.00024688 -0.000739346 
-0.000252465 0.00154518 -2.75037e-05 
6.39222e-05 0.000234778 0.0688507 
3.14859e-05 0.000186721 0.0745347 
5.89283e-05 -0.000194415 -0.00028109 
0.000162927 -0.000166307 -0.000189582 
0.000219915 -0.000677273 0.00195979 
0.000103482 -0.00015402 0.0027959 
3.66172e-05 -0.000392615 -0.0028578 
-0.0065023 0.00216119 0.00493999 
0.0116512 -0.00677887 0 
0.00200401 0.00235357 0 
-0.0237251 -0.00726342 0 
-0.0790545 -0.0729807 0.0468799 
0.00269543 -0.000266175 0.000857408 
-0.000599135 5.91649e-05 0.00181385 
0.000186138 -1.83812e-05 -0.00424815 
0.000390158 -0.00342092 0.0566669 
0.000203034 0.000434016 -0.000549567 
-0.00020132 -0.00048509 -0.000346191 
2.91242e-06 -1.2269e-05 -0.00030898 
-0.000657472 0.00130647 -0.000491942 
-0.000607049 -0.00131203 -9.04029e-05 
0.000374931 0.000795378 0.00143213 
-0.00101825 -0.00213787 -0.00593401 
-0.00465988 0.00285416 0.0622869 
4.84645e-05 -7.53078e-05 -0.00199276 
0.000122201 -0.000119726 0.000145074 
0.000733193 -0.000729401 5.532e-05 
0.00143479 0.000884411 0.00536277 
-4.47758e-05 -2.47215e-05 0.00250886 
8.10929e-05 4.47589e-05 -0.00454105 
0.00225456 0.000603901 -0.000437571 
-0.000600892 -0.00475506 0.0606544 
0.000725805 -6.465e-05 0.19271 
-0.00110196 -0.000763435 0.179389 
-0.000249653 -0.00051878 0.138369 
-0.00367659 0.0170028 0.168608 
-7.77807e-06 0.000109858 0.000499251 
-0.000246523 0.00014693 0.062797 
-1.00107e-05 0.000141392 -0.000227413 
6.2172e-06 -8.78118e-05 -8.53591e-05 
-0.000397127 0.000843637 0.108813 
-0.00050872 -0.00177622 0.152037 
0.000173562 0.000101285 0.0754429 
-0.00257532 -0.00361937 0.0779384 
0.000361111 0.000519816 0.190335 
0.000566187 0.00311567 0.121171 
-0.0059613 -0.0192561 0.182445 
-0.00247385 -0.0155139 0.16127 
-0.00172728 -0.0012768 -0.00133499 
-0.000866808 0.00135468 -0.00162629 
-0.000155571 -0.000655713 -0.000495437 
0.00126307 0.000253197 0.00313336 
0.000689289 0.000730459 -0.00248475 
-0.00100881 -0.00100912 -0.00555322 
0.00105913 0.00108251 0.00229604 
-0.00625545 0.00408189 0.0489812 
0.000152177 0.000524042 0.00106597 
-0.000280746 -0.00116089 0.00250919 
0.000139401 0.000807073 -0.00656424 
0.00686745 -0.0039299 0.0360221 
-4.50869e-05 -0.000706707 0.000609632 
-3.88118e-05 -0.000690844 0.00102351 
4.89271e-07 0.000142715 -0.000823027 
0.002228 0.000519908 0.0827828 
-0.000343351 -8.27203e-05 0 
-0.000819826 0.000501626 0 
0.000950201 -3.86099e-05 0 
-0.000557484 0.000238465 -0.000951902 
0.000610815 0.00091095 0.1265 
-0.000271775 0.000124121 0.0807342 
0.000287763 -0.00180931 0.155308 
0.00242143 -0.00768119 0.0894821 
0.000497204 -0.000330007 0.0649984 
0.00117217 0.000453462 0.112814 
-0.000659098 5.87743e-05 0.1331 
-0.00592591 0.00561381 0.0873689 
0.0373518 0.0615349 0.209088 
-0.00174857 0.0717344 0.255189 
-0.00522198 -0.0291284 0.636027 
0.0349346 0.23865 0.219312 
0.00102654 0.000592016 0.128257 
-0.000477461 0.000837515 0.139135 
-0.000595863 -0.000846933 0.0744716 
-0.00120871 0.00702895 0.0903749 
-0.000213132 -0.00101659 -0.00129284 
0.000136771 0.000632154 0.00045014 
-0.000149228 -0.000715453 -0.000974172 
-0.000826528 0.00217486 0.00456952 
-0.00065108 -0.00134324 -0.00148473 
0.00123837 0.00164435 -0.000883555 
0.00203481 -0.00422456 -0.00314544 
0.000133844 0.00297422 0.00203284 
-0.00158129 0.0012034 -0.000704601 
0.00109842 -0.000652046 0.000547265 
0.00086354 -0.000140399 0.000139792 
-0.000955461 0.00265302 -0.00238236 
-0.00019666 -0.00114089 0 
-2.54043e-05 0.00125475 0 
0.000326544 -0.000660435 0 
0.000139602 -0.00106024 -0.000974781 
0.000356678 -0.000253202 0.190856 
0.000791657 0.000873855 0.123085 
-0.000790709 6.00436e-05 0.154095 
-0.00633697 -0.0155512 0.179277 
-2.19083e-05 0.000315247 0.0615556 
-0.000498708 -0.000275848 0.0764847 
0.000445811 -0.000117922 0.000135179 
-0.000107112 -0.000630705 -1.27458e-05 
-0.000501399 0.00193018 0 
0.000646819 0.0014189 0 
-0.00266268 -5.77834e-05 0 
0.00375652 -0.00068279 0.001679 
0.000993024 0.00183019 0 
-0.000358369 -0.000788914 0 
-0.000443911 7.79778e-05 0 
-4.14244e-05 0.000215398 -0.000947989 
-0.000472266 0.000206268 -8.54615e-05 
0.000339147 -0.000154477 0.000300789 
0.000400849 -0.000180595 0.000280616 
0.00102213 0.000342691 -0.000886121 
0.000248711 -0.00111932 0.222521 
0.000372888 -0.000354695 0.156309 
0.000951461 0.000824365 0.213716 
-0.0195972 0.00955527 0.184713 
-0.000230783 0.000228323 0.0737513 
0.000288183 -5.50359e-05 0.000551354 
0.000139527 -3.37455e-05 -0.000151171 
-0.000221646 4.46088e-05 -0.000289787 
0.000275315 0.000184216 -0.000234411 
-0.000141334 -4.1926e-05 0.0622068 
-4.50716e-05 -0.000446658 0.0832059 
0.00010621 8.47288e-05 -0.000553256 
-0.000250031 0.000332711 0.000595384 
-0.000128891 0.00029074 -0.00146609 
0.000121533 -0.00021718 0.000535318 
0.000988252 0.000562096 0.0829394 
0.0441654 -0.056688 0 
-0.092292 0.0613603 0 
0.0678942 -0.0109982 0 
0.15769 -0.103448 0.171458 
0.000281792 -2.61058e-05 0.0587677 
0.000119861 8.31769e-06 -0.000439345 
-0.000146069 -1.01363e-05 0.000325497 
7.49972e-05 5.20438e-06 0.000230337 
0.000111755 6.00039e-05 0.0583891 
-0.00120261 0.000439983 0.0769531 
9.5432e-05 -0.000687962 0.123241 
-0.00093314 -0.00625361 0.0920158 
-0.000328096 0.000134057 0.00185187 
0.000463317 -0.000208692 -0.00104558 
-7.86325e-05 1.42211e-05 0.00189374 
0.00179803 0.003051 0.0562309 
0.00395783 0.00187155 0 
0.00178244 -0.00600491 0 
-0.00456642 -0.000534854 0 
0.00157393 0.00538674 0.00209381 
-0.00352087 -0.00648773 0 
-0.00208822 -0.00500779 0 
-0.000474595 0.000839712 0 
0.0168406 0.0230675 0.00736896 
8.5857e-05 -0.000474429 0.0699166 
0.000154007 1.57928e-05 0.0594408 
-6.96899e-05 0.000480397 -1.06377e-05 
-0.000420084 0.000142061 -0.000188579 
-0.00162939 -0.00143819 0.211117 
0.000589319 -0.000629185 0.262116 
0.000224006 0.000512187 0.197683 
0.00937061 -0.0182448 0.242754 
2.46865e-05 -0.000351846 0.000641307 
-1.38133e-05 0.000196876 -0.000173789 
0.000250626 0.000400074 0.0660338 
1.83219e-05 -0.000261135 -0.000190664 
-8.69829e-05 0.000368693 -0.000235433 
-5.03799e-05 0.00028159 0.000609329 
0.000320311 -0.00042579 0.0773684 
0.000108317 -0.000514784 -0.000316823 
-6.7932e-06 -2.13357e-05 0.00223269 
0.00212181 -0.000141076 -0.00178341 
-0.000112899 2.19182e-05 -0.0013782 
-0.00161067 0.001314 0.0051 
4.40607e-05 -3.22584e-06 -0.000614107 
-7.85481e-06 0.000410245 0.0687481 
-0.000165431 1.21118e-05 0.00053641 
-0.000117637 8.61263e-06 0.000246758 
0.00110258 -0.00593598 0.609815 
0.0115496 0.00103904 0.712086 
0.00767622 0.000634527 0.751577 
-0.104393 -0.0864911 0.639519 
0.000312849 8.27009e-05 -0.00385021 
-0.000639546 -0.000248579 0.00241699 
-0.00102535 -0.000461096 -0.000416023 
0.00108444 -0.00366193 0.0862104 
-0.000853174 -0.000182268 0.00129548 
0.00192924 0.000440157 -0.000723682 
0.00153568 0.000326321 -0.00246993 
-0.0017971 0.00324082 0.00242915 
-0.00102884 -0.000857579 0 
-0.00219942 0.00295779 0 
0.00266665 -0.00094209 0 
0.00311068 -0.00477966 0.00490637 
-0.000105888 4.45548e-05 0.00282088 
-0.0020531 0.000135437 -0.00147644 
0.000306076 -4.77075e-05 -0.00190172 
0.000238725 -0.00263779 0.00583004 
-0.00017219 -0.00123299 -0.00598473 
0.000115585 0.000366264 -0.000112134 
-0.000164556 -0.000530928 7.47377e-05 
0.00569834 -0.0024671 0.057199 
0.000198953 -3.25493e-05 -0.00161959 
-0.000308353 6.15842e-05 0.00107927 
-0.000257115 5.00159e-05 0.00107146 
0.000964926 0.00288279 0.0900209 
2.17678e-05 1.54119e-06 0.000311104 
-6.85499e-05 -4.85343e-06 -7.25871e-05 
-0.000327166 -0.000182583 0.0623137 
-0.000153619 -1.08764e-05 -0.000216943 
-0.00179472 0.000517591 0 
-0.00161149 0.00337887 0 
-0.00141381 0.00102138 0 
0.0061166 -0.0007989 0.00209868 
3.80884e-05 0.00037778 -0.00275597 
1.37587e-05 -6.7193e-05 0.00142774 
0.000481742 0.00192567 -0.000916426 
-0.00188469 -0.00088624 0.00782349 
-0.000835811 0.00126201 0.00104585 
-0.000292081 0.000465757 0.00192539 
-0.000138823 0.000178205 -0.00180676 
-0.00177092 -0.00379575 0.084993 
-8.34751e-05 -0.000580656 -0.000508309 
0.00135909 -3.13498e-05 0.000994176 
-0.00228979 -0.00184985 -0.00121312 
0.0014717 -5.0227e-05 0.00220694 
0.000365922 -0.000498439 0.126852 
9.24275e-05 0.00131483 0.121335 
-0.00048068 -0.000344402 0.0708801 
0.00666879 -0.0035819 0.0909618 
-0.00117236 0.00204044 7.70598e-05 
0.00148365 0.00127719 -0.000787165 
-0.000610361 0.000119203 0.000321887 
-0.00045846 0.00363999 -0.000365444 
1.80585e-05 0.00125349 0.0831527 
-0.000447878 0.000134909 0.126762 
0.000616912 -0.000409475 0.0620507 
-0.0080122 -0.000477958 0.0969066 
0.0100395 0.00233762 0.814954 
-0.0313673 0.0214558 0.670909 
-0.104453 0.0429658 0.593904 
-0.023546 0.0432786 0.725142 
-0.000181221 -0.000139141 -0.00178015 
-0.00181302 0.000294637 0 
0.000863967 -0.000416814 0 
-0.000726681 0.000311658 0 
0.000292023 0.000965261 -0.00249913 
0.000270572 0.00106921 0.000825852 
0.000318191 0.00137747 0.00312861 
0.00396005 -0.0042684 0.0625073 
-0.00038237 -7.53282e-05 0.000397916 
-6.41419e-05 -1.94547e-05 -0.000271994 
0.000170896 3.84649e-05 6.05072e-05 
0.000233946 0.000219989 0.0759366 
0.000449709 -0.000219983 0.0592897 
1.58504e-05 -7.06866e-05 6.75603e-05 
-0.000474654 -0.000104504 -0.000326775 
-0.00010729 -4.51742e-05 0.0662513 
0.000182039 0.000380319 -2.82969e-05 
0.000358712 0.000212761 0.000234202 
-1.21332e-05 1.09199e-05 0.0626256 
-0.000431296 -0.000147884 0.082154 
-3.54128e-05 -0.000345961 0.0586025 
0.000522737 0.00102703 0.12724 
-0.00122097 -0.000730788 0.0756561 
-0.000561498 0.00672103 0.0902322 
0.000221308 0.000435312 0.152842 
-0.000426698 -8.94401e-05 0.220757 
0.00172328 -0.000191909 0.192175 
-0.0088617 -0.0160963 0.179758 
-0.000596387 0.00057349 0.000795414 
0.000354642 -0.00034289 0.00262722 
-0.000605255 0.00058318 -0.00112679 
0.00285963 0.00156265 0.0650218 
0.000856608 0.00878679 0.644 
0.00533655 0.0109345 0.709578 
0.0255165 0.000263461 0.795178 
-0.148875 0.0506352 0.647735 
-0.000403433 9.00904e-05 -0.000134946 
0.000181694 -0.000165751 0.0779873 
0.000141661 8.21012e-05 0.0662976 
4.77335e-05 0.000313625 -0.000299736 
-1.35249e-05 3.43379e-05 -0.000826757 
-0.000714109 0.00106839 -0.00151251 
-4.19035e-06 -2.28259e-05 0.00163766 
0.00145436 0.000560205 0.00297162 
0.000405774 0.000972589 0.00096318 
-3.38279e-05 -0.00010239 -0.000981374 
6.27007e-05 0.000172315 0.00108035 
-0.00214257 0.00074266 0.0888901 
-0.000250932 -0.000405851 0 
0.000386535 -0.00034826 0 
-0.000313548 8.80026e-05 0 
0.000657543 -0.000514691 -0.0011575 
-0.000376136 -0.000142505 -0.000711761 
0.00013138 -0.000176017 0 
6.59331e-05 -0.000125289 0 
-0.000941193 0.000757025 0 
-0.000598642 -5.15173e-05 0.00178208 
-0.0017038 -0.000146624 0.000174594 
0.000185985 1.60053e-05 -0.00313189 
0.000390467 -0.00349023 0.0566543 
0.000606136 -0.000158144 0.120375 
-0.000425485 0.000355417 0.0571936 
-0.000429745 -0.00109342 0.0724516 
0.00623576 -0.00174429 0.090124 
-0.000338316 -0.000190309 -0.00451522 
0.00240361 0.000658368 0.00158854 
-0.000410291 -5.80256e-05 0.00211796 
-0.00015273 -0.00374044 0.00833357 
0.000383508 0.000757604 0 
-0.000404457 8.58215e-05 0 
0.00016241 -0.000217358 0 
-0.000440429 0.000297206 -0.000531494 
-0.000127831 -8.53969e-05 0.000213409 
0.000203857 0.00012377 -0.00147703 
-5.28407e-05 -1.10052e-05 0.00231232 
-0.00139238 0.00207777 0.083474 
-2.83832e-05 4.34389e-05 0.00227379 
-4.04744e-05 5.72839e-05 -0.00307979 
0.000616373 -0.000907585 -0.0008899 
-0.00310881 -0.00207983 0.0835045 
0.000155881 -0.00164144 0.16186 
0.000129126 0.00151275 0.142618 
-0.000674583 -5.98748e-05 0.225851 
-0.0122105 -0.0102432 0.173187 
0.0230381 -0.0104768 0.583227 
0.00919766 -0.00498733 0.717972 
0.00628273 -0.00126172 0.695648 
0.0502712 -0.0534361 0.740247 
-0.000299448 -0.000430355 0.0824971 
-0.000680474 -0.000159367 0.000290882 
0.000266788 6.40268e-05 -0.000188713 
0.000285597 6.53721e-05 -4.89004e-05 
0.00043416 8.23011e-05 0.00127154 
-0.000394687 -6.59841e-05 -0.00198366 
0.00015924 2.61798e-05 0.000841743 
-0.000577892 0.00261033 0.0867218 
5.09935e-05 4.8422e-05 0.000583016 
-0.000112925 -0.000114798 -0.00114308 
0.00070639 -0.000782487 -0.000449289 
2.51717e-05 7.24728e-05 -0.000662098 
6.7654e-05 3.70065e-05 0.00254592 
0.000108221 0.000135383 -0.00217237 
-9.54391e-05 -0.00010056 0.000372086 
-0.00139144 0.00217486 0.0841459 
0.000409765 -8.24689e-06 -0.000877351 
4.75008e-05 -5.55398e-05 0.00033879 
2.94249e-05 -1.48495e-05 0.000592292 
-2.09537e-05 -1.73012e-05 -0.000966915 
5.11641e-05 0.000351375 -0.00035407 
-4.06162e-05 -3.41841e-05 -0.000231162 
-0.000194266 -0.000118283 0.000250841 
0.000231852 0.000136612 -0.000436037 
0.00697661 -0.00144142 0 
0.00034414 -0.00167561 0 
0.0026872 -0.000454358 0 
-0.00866759 -0.00309759 -0.00123675 
9.8443e-05 -2.59696e-05 0.00318228 
0.000527334 -0.000368489 -8.94618e-05 
-0.00091969 0.000646417 0.000436779 
0.00142348 0.00274963 0.0548094 
-0.00107544 -0.00156384 0 
-0.000989731 7.7889e-05 0 
-0.00186498 0.000306548 0 
0.00890056 -0.0035395 0.00353452 
-0.000517383 -5.11618e-05 0.00121464 
0.00168842 0.000166961 -0.000606231 
-0.000793348 -7.84507e-05 -0.00582263 
0.00372783 0.00488908 0.0531359 
-0.00359719 0.00232335 0 
0.00225138 0.00496437 0 
-0.00114793 -0.00782755 0 
-0.00507979 -0.0119984 0.0100542 
0.000132682 0.000416265 0.0625939 
-0.000931295 -0.000365165 0.0824488 
-0.000104386 -0.000730535 0.124698 
0.00360083 -0.00565575 0.0902077 
-0.000395375 -0.00015558 0.0760871 
2.41227e-07 -1.28696e-05 0.000128482 
0.000161265 -0.000721881 6.82858e-05 
-9.11662e-05 0.000426288 -0.000236725 
0.000480531 0.000727024 0 
0.00396934 0.00160715 0 
0.00103406 -0.00134862 0 
-0.00176057 -0.00156274 -0.000551968 
-0.000110371 0.000528641 -0.00123475 
0.000186162 -0.000880761 0.001765 
-0.00037439 0.00167407 -0.000714424 
-0.00216988 3.00671e-05 0.00187436 
0.00011247 -0.000464954 -0.000748629 
0.000946591 4.21337e-05 0 
-0.000577615 0.000104918 0 
0.000826797 -0.000461928 0 
0.000833292 0.00030473 0 
-0.000301361 0.000447878 0 
-0.000224896 -0.000160883 0 
0.000612375 9.3772e-05 -0.00067476 
0.000560821 -0.00099693 0.0954986 
0.001031 0.0018431 0.16791 
-0.000358281 0.000530505 0.115004 
0.0047237 0.00484607 0.0945772 
0.00211797 0.00121063 0.75823 
-0.0128327 0.00877194 0.60445 
-0.00819421 0.00254453 0.5291 
-0.0872568 -0.0836374 0.632149 
0.000439827 -0.000218989 0 
0.000334084 0.000872039 0.00018525 
-5.93158e-05 -0.00048354 0 
-0.000110695 0.000392916 0 
7.15411e-05 1.59897e-06 0.00105463 
0.000693232 -0.000280952 0.000557712 
-0.000227365 3.07983e-05 -0.00218234 
-0.000735672 -0.00171561 0.0898436 
0.000159892 0.000228968 -0.000257585 
-0.00014373 0.000626672 0.00102331 
3.63906e-05 -0.000709279 0.076549 
-0.00125674 -0.00245735 0.0783496 
-7.24524e-05 0.00014985 0 
-0.00105601 -0.00155239 0 
0.00120914 -0.000564359 -0.0015097 
0.000288221 -0.000334553 0 
0.000290182 0.000509306 -0.00232051 
-6.40569e-05 -5.71073e-05 0.00128747 
-0.000121984 -0.000183849 0.00139935 
0.00229686 -0.000996793 0.0874294 
-0.000390699 -0.000558596 0.166882 
-7.3753e-05 -0.00177765 0.21623 
-0.000605274 0.00130634 0.231475 
0.0181242 0.0106223 0.196961 
-0.000283438 7.08473e-05 -0.000466287 
0.000247314 4.28002e-05 0.0591814 
-0.000221162 3.19096e-05 0.000783148 
0.000341968 -6.80982e-05 -0.000290333 
5.14022e-05 0.000145619 0.0033887 
0.000678003 0.00149519 0.00100047 
-9.79223e-05 -0.000222049 -0.000771191 
-0.00292104 1.12131e-05 0.0633631 
0.000529105 0.00113437 0 
-0.000228174 -0.00104473 0 
-0.000231316 0.000797412 0 
0.000269422 0.00112685 -0.000846092 
2.05042e-05 -0.000665422 0 
-0.00047083 0.000307568 0 
0.00058819 -0.000291798 -0.000211604 
0.000362168 -0.000236193 0 
0.000364979 -0.000355153 -0.000530471 
0.000839075 -0.000814455 -0.000812219 
0.000420884 -0.000399439 0.00141799 
0.000265611 0.00396442 0.0634535 
0.013487 -0.00794003 0.719911 
0.00256044 0.0112597 0.761757 
-0.000370441 0.00330467 0.799529 
0.0465033 -0.0436139 0.73091 
-0.000159271 0.000267463 0 
-0.000248486 -0.000313197 0 
0.000596658 0.000300652 0 
0.0004023 -8.24256e-05 2.89095e-05 
-0.00045642 0.00146033 0.794245 
0.00450426 -0.0058027 0.753206 
-0.0192084 -0.000440908 0.648079 
-0.0229688 0.0621359 0.764716 
-0.0020003 0.00195675 0 
0.000399394 -0.00138338 0 
0.0025064 -0.000136496 0 
0.00267538 -0.00330294 0.00313766 
0.000812283 6.35818e-05 0 
-4.25187e-05 -7.72214e-05 0 
5.44006e-05 0.000273231 0 
0.000439289 0.000191313 -0.000602088 
0.000940209 -0.000474181 0.151977 
-0.000761308 0.000601077 0.0745269 
-0.000661863 -0.0011109 0.127982 
0.00533701 -0.00694022 0.108596 
-0.000159372 0.000495174 0.000364706 
7.27515e-05 -0.000322237 0.000994997 
0.00014991 -1.64659e-06 0.0766448 
9.65732e-05 -0.000251502 -0.000807245 
-0.000473927 -0.000639373 0 
0.000441434 0.000396749 0 
0.000308111 0.000710228 -0.00044413 
-7.25549e-07 0.000557869 0 
0.000890303 0.000451163 0.0827504 
-0.00145323 0.000678347 0.157214 
-0.00054789 -0.00102368 0.116763 
-0.00576979 0.00282083 0.0904373 
0.000630495 0.000216951 0.000574407 
0.000322457 0.000129905 -0.000406611 
-0.000548036 -9.00672e-05 0.0538153 
-0.00195366 -0.00205423 0.0786927 
-0.00109012 0.000908705 0.0934666 
-7.8301e-05 -6.96753e-05 0.0619565 
0.000620366 -0.000335294 0.112381 
0.00528245 0.00294432 0.0855523 
0.000396521 0.00122366 0.31316 
0.00103453 -0.0018171 0.282916 
-0.00140958 0.000553622 0.265149 
-0.0154252 -0.00464802 0.290365 
-0.000121863 0.000166056 -0.000544642 
-2.78593e-05 -5.62722e-06 0 
-0.000817202 0.000615752 0 
0.000767087 -0.00034811 0 
-0.000583188 0.000124579 0.0538752 
0.000652802 -0.000282721 0.0764797 
0.000241023 0.00072142 0.0012549 
-0.0018912 -0.00300295 0.0785917 
0.000148306 -0.000250876 -0.000832318 
-0.000326436 0.000932955 -0.00336307 
0.000513608 -0.00113437 0.000740658 
0.00354114 0.00129387 0.060849 
-7.35006e-05 -0.000334576 -9.16293e-05 
5.43998e-05 0.000204582 -0.000400918 
5.06119e-05 0.000294169 0.000757622 
6.84424e-05 3.57953e-05 0.0626186 
-0.0009541 0.000616249 0.193814 
0.00101237 -0.000890902 0.209189 
0.000160481 0.000293874 0.132396 
-0.000133447 -0.0149849 0.161248 
-0.000168188 0.00049025 -0.000317327 
-0.00113282 0.00053874 -0.00192324 
-7.70441e-05 0.00106018 -0.000586899 
-0.00050605 -0.00368831 0.00437533 
0.000100311 4.28852e-05 0.000741408 
0.000434235 0.000270819 0.000585478 
-0.000306902 -1.35257e-05 -0.00113312 
-0.000702727 -0.000440833 -0.000868486 
0.000471817 0.000184955 0.0016688 
0.000345776 0.000140112 0.000763805 
-0.000150037 -5.40349e-05 -0.00101152 
-0.000770805 -0.00308147 0.0873358 
5.69076e-05 0.000510516 0 
7.98012e-06 -0.000820568 0 
-2.95257e-05 -0.000233881 0 
0.000110828 -0.000561053 -0.000504982 
-0.000227311 0.000361946 0 
-0.000812307 -6.77898e-05 -0.000218098 
0.000548938 0.000133138 0 
-0.00034362 -0.000138348 0 
6.77366e-05 0.000749051 0 
0.000105427 -0.000426137 0 
0.000154419 0.000111202 0 
0.000237282 1.04963e-05 -0.000428929 
0.0746708 0.00687634 0.225171 
0.082086 0.0262402 0.211267 
-0.041333 0.0120682 0.662656 
0.200638 0.0532306 0.27817 
0.000324109 -0.000347234 -0.000313063 
0.000342725 -0.000456424 0 
-0.000512981 0.000203806 0 
7.13646e-05 0.000243132 0 
-0.000215236 -0.000794341 0 
0.000241877 0.000802617 0 
9.6615e-05 -0.00153809 0 
6.23734e-07 -0.000353319 -0.00108356 
1.63946e-05 0.000263391 0 
0.00155771 0.00156954 0 
-0.00139936 0.00188868 0 
-0.00171299 -0.00138794 0.000303646 
0.00093112 -0.00115447 -0.000860287 
-0.00054242 0.000540956 -0.000641691 
0.00209351 0.001729 -0.00121075 
-0.00120661 0.00239898 0.00184859 
9.97805e-05 -4.75359e-06 -0.000853062 
-0.000511968 0.000126566 0.000960847 
0.000112328 6.28929e-05 0.0732056 
0.000367214 -0.000120256 0.00029633 
-0.00460904 0.00268382 0.534578 
0.00416543 0.00632499 0.723284 
0.00251718 0.00303694 0.628983 
-0.149947 0.0639068 0.653993 
-0.000827766 0.000672554 0 
-0.000415287 -5.82185e-06 0 
6.10221e-05 0.000281904 -0.000585331 
0.000541729 -0.000108709 0 
-0.000199682 -0.000122831 0 
0.00113921 0.000526729 0 
0.000136458 -0.000237597 -0.000497661 
-0.00064653 -0.00045658 0 
0.000306614 -0.000263834 0 
3.54758e-05 4.32274e-05 0 
-0.000129276 -0.000157523 0 
2.43139e-05 7.95609e-07 -0.000791153 
0.000182828 0.000451242 0 
-0.000267284 -0.000219354 0 
1.04929e-05 8.61129e-06 0 
0.000112305 0.000112456 -0.000678197 
0.000892134 -0.000177538 0 
-5.43564e-05 6.62334e-05 0 
-0.000300336 0.00036596 0 
-0.000247341 0.000313166 -0.000323153 
-0.000343711 0.000205732 0 
-0.000352348 2.63903e-05 4.10489e-05 
0.000325526 0.000261157 0 
-0.00038034 -0.000173734 0 
-1.39629e-05 -3.93863e-05 9.13622e-05 
-0.000376292 -0.000866077 -0.000441971 
5.26555e-05 0.000166654 -0.000613964 
0.000326669 0.00126511 -0.000604765 
-0.000397202 0.000261283 0.0009094 
-0.000497411 0.000347937 -0.000572827 
-0.000233516 0.000157901 0.000180353 
0.000569813 -0.00208546 0.0772362 
0.000115992 0.000600617 0 
0.000270137 -0.000954907 0 
-0.000537437 0.00128061 0 
-2.04776e-05 0.000358454 -0.000674 
-0.000532043 -6.01331e-05 -0.000614136 
-0.000677777 3.49031e-05 0 
0.000590031 -0.000304054 0 
-0.00053261 0.000269819 0 
-0.000423867 -0.000591454 0.0770896 
0.00106311 -0.000950763 0.149031 
3.20903e-05 0.00081906 0.0764801 
0.00502573 -0.00581332 0.108695 
-0.000381545 0.000493155 0.000673223 
0.000116219 -0.000162965 -0.000508999 
-5.86908e-05 -1.10606e-05 0.0846539 
0.000324763 -0.000368096 0.000658631 
-0.000697824 -0.000102975 0 
7.18303e-05 -0.000134385 0 
-6.48708e-05 0.000121365 0 
-0.000108729 0.000148617 -0.00107436 
-0.000123304 0.000468314 0 
-0.00034255 -0.000192828 0 
-0.000114933 -0.000733759 0 
0.00077382 -0.000682723 5.41645e-05 
0.000102364 -7.86779e-05 -0.000878949 
-0.000495656 0.000285191 0.000743022 
0.000429169 -0.000216764 0.000463299 
-5.96105e-05 -0.000387031 0.077422 
-4.93795e-06 -1.44004e-05 -8.93768e-05 
-8.3611e-05 -0.000471047 0.000900076 
4.6065e-05 0.000272874 -0.000637731 
0.000136423 4.89759e-05 0.0583683 
-0.00358383 -0.000198572 0 
-0.000532782 -0.00159111 0 
-0.00281451 -0.0042398 0 
0.00810253 0.0016944 -0.000823038 
-8.85806e-06 -3.33684e-07 0.000318417 
-9.31469e-05 0.000141543 -0.000167216 
-0.00110961 -0.000209241 -0.000337934 
-0.000114606 0.000215867 -0.00121678 
0.000465341 0.000401357 0.000565321 
-3.35147e-05 -5.47022e-05 -0.000790024 
-0.000274132 -0.000200645 0.000706736 
-0.000103929 -0.000274545 0.0758089 
0.00397148 0.00041424 0 
0.00180029 0.000866436 0 
-0.00193634 -0.000913987 0 
-0.00300207 -0.00156463 0.00382424 
0.000236192 -8.93255e-05 -0.000504282 
-0.00050172 -0.000243668 0 
2.02236e-05 -0.000639205 0 
0.0018582 0.000670691 0 
-2.07107e-05 2.00407e-06 0.000431742 
-0.000290845 0.000176471 0.000866614 
0.000260319 -0.000179861 -8.02451e-06 
-0.000761285 -0.000853023 0.077803 
-0.0212709 -0.00810881 0 
0.0175783 0.0782518 0 
0.00684903 -0.0293901 0 
-0.0374383 -0.185839 0.0841074 
0.00313797 0.00694163 0.801584 
0.0151804 -0.00633218 0.749292 
0.00361197 -0.00702146 0.734137 
-0.027376 0.0552626 0.77425 
-0.000289989 -0.000338764 0.0758072 
-0.000131885 0.00052352 0.00101957 
-1.16468e-05 -5.28626e-05 -0.00104835 
0.000117901 -0.000358587 0.000345576 
-6.96475e-05 -2.60157e-05 0.000516808 
0.000705463 -0.00153414 1.57433e-05 
0.000191812 5.55887e-05 -0.000632504 
0.000366513 0.000118986 -0.00183727 
-3.83542e-05 -9.45498e-05 0.000849251 
0.000105033 0.000348458 -0.00134451 
-0.00244251 0.000928363 0.000382412 
0.000133718 0.000346138 -0.00278 
0.000301556 -5.90109e-05 0.000403853 
-0.000258754 0.000920161 -0.000158022 
-0.000431432 8.2427e-05 -0.000676071 
-0.000143971 2.23961e-05 -0.000476814 
-0.000194844 -0.000302097 -0.0002037 
-0.000114018 -0.000217612 -0.000945368 
7.0819e-05 0.000116791 0.000215453 
-0.000913614 -1.42284e-06 0.000177113 
6.51591e-05 0.000135207 -0.000137288 
0.000139399 -0.000102399 -0.000284801 
7.65804e-05 -5.30427e-05 -5.90657e-05 
-2.23158e-05 2.21943e-05 0.000221531 
0.000510077 0.000169459 0.00055777 
2.59051e-06 -2.17847e-05 -0.000854758 
-0.0003527 -8.47699e-05 0.000841493 
-0.000238746 -0.00034005 0.0824239 
-0.000134475 -0.0002287 0.000448665 
0.000294715 0.000589164 0.000740879 
2.824e-05 7.05791e-06 -0.000897437 
4.99694e-05 -0.000425057 0.0712469 
0.000617736 2.3871e-05 0.115425 
-3.03392e-05 0.000895442 0.065393 
0.000142825 -0.000678627 0.0672052 
0.0048077 -0.00061108 0.0856198 
0.000100887 0.000169763 0.00179452 
-0.000452027 -0.00147285 0.00014107 
-5.77287e-05 -0.000180303 -7.15431e-05 
0.00268647 -0.000205206 0.0582352 
0.000192901 -0.000177679 0.0013959 
0.000459875 -0.000304391 4.30885e-05 
-0.00101561 0.000698484 -0.00081867 
-0.000877386 0.0004123 -0.00236854 
0.000195501 3.56028e-05 0.0704131 
-9.37661e-05 6.39789e-05 -0.000477966 
-0.000594577 0.000303691 0.000486829 
0.000635515 -0.000353138 0.00046375 
0.000488539 -0.000396645 0 
0.000218509 6.62841e-05 0 
-7.80847e-05 -2.36867e-05 0 
-0.000134022 -6.40473e-05 -0.000931945 
-0.000465103 0.000355076 0 
0.000378554 -0.000114833 0 
0.0005219 -0.000158317 0 
-0.000578942 0.000185505 -0.000393466 
-0.000297968 0.000729138 0 
2.53686e-06 8.3629e-06 0 
0.000115211 0.000379799 0 
-0.000222852 -0.000653547 -0.000979189 
-0.000469717 0.00114584 0.00148797 
0.000756074 -0.00167939 -0.000739678 
-0.000660834 0.00146161 0.000583989 
0.00186202 0.00100174 0.0611691 
0.000254446 0.00257666 -0.000455612 
0.000172889 0.00175076 0.00316705 
3.006e-05 0.000304404 -0.00264389 
0.0032876 -0.00770457 0.040285 
-4.23187e-05 -0.000184043 -9.90983e-05 
0.000432785 -0.000217696 -0.000400136 
-6.6544e-07 -4.80868e-05 0.000479453 
3.56465e-05 0.00023648 -0.000783484 
0.000424414 -0.000548731 0.00066114 
0.000182154 -0.000191808 -0.000631144 
1.36086e-05 0.000455103 0.0951285 
-0.000457488 0.000531172 0.000550143 
0.00606526 0.00334718 0.759919 
0.00873567 0.0147956 0.524707 
0.00230716 -0.000928672 0.607874 
-0.106082 -0.097927 0.639548 
-3.44788e-06 0.00012376 -0.000575908 
5.22445e-05 0.000511665 6.81299e-05 
-3.10507e-05 -0.000632311 0.00115005 
-4.69236e-05 -5.91658e-05 0.0830002 
6.14785e-05 4.6126e-05 0 
-0.000109646 -2.32045e-05 -0.000306268 
-3.21031e-05 -8.64454e-05 0 
-0.000530525 -0.000358758 0 
-0.000220442 4.06408e-05 0.000436644 
0.000176694 -1.62593e-05 -0.00113838 
0.000103282 -1.6179e-05 -0.000342883 
0.000182233 -0.00117043 -9.89727e-05 
0.000140278 9.21839e-05 0 
-3.08727e-05 -0.000101774 0 
-0.000100075 -0.000329903 0 
0.000163194 0.000506984 -0.000313116 
-0.000479338 -0.000231957 0.191363 
0.00133032 -0.000684915 0.13513 
-0.000639902 0.000758109 0.121662 
-0.00141228 -0.0136045 0.16071 
-7.03246e-05 9.39077e-05 -0.0012098 
-0.000317672 0.000250115 0.000354023 
0.000153338 0.000475003 0.0623184 
0.000457878 -0.000402119 0.000880715 
-0.000126207 -0.00113364 0.00177378 
-6.04785e-06 -0.000386397 -0.00222778 
0.000109511 0.000532806 -0.00467921 
0.00477615 -0.00298783 0.0374809 
-0.000477052 0.000144712 0 
-0.000682669 0.000207085 0 
0.000725553 -0.000225602 -0.000208603 
0.000379407 -0.000495181 0 
-5.47172e-05 -2.9247e-05 0 
0.000143929 7.69316e-05 0 
0.000593386 -0.000144787 0 
-0.000401959 -0.000222154 -0.000205943 
-0.000256593 -0.000506334 -0.000484584 
0.000205281 0.000384053 0 
0.000202495 0.000378841 0 
0.000110841 -0.000717195 0 
0.000229022 0.000520177 0 
0.000159191 -0.000297826 0 
0.000133107 -0.000249026 0 
-0.00013942 0.000285302 -0.000450985 
-0.000103275 -5.14048e-05 -0.000130932 
-6.46143e-05 -3.45371e-05 0 
0.000139712 7.46774e-05 0 
-0.000155193 0.000268111 0 
-0.000225144 1.24393e-05 -0.000212866 
0.000243553 -0.000853075 0 
0.000451269 0.000536242 0 
-0.000858349 -0.000898933 0 
-0.000524348 4.51238e-05 0.0022035 
-0.000804028 6.91921e-05 -0.00247334 
-0.00217066 0.0001868 -0.000922963 
0.00390481 0.00244245 0.0483734 
-7.42903e-05 0.000411889 0.114825 
-0.000463719 0.000116321 0.0618913 
0.000611852 -0.000956056 0.0950969 
0.00433156 0.00480394 0.0960482 
0.000160585 -0.00339227 0 
0.000845217 0.00322734 0 
-0.00240263 -0.000459443 -0.00308001 
-0.00193062 -0.00409338 0 
-0.000762694 -0.000358018 0.115733 
0.000515956 -0.00029358 0.0621133 
0.000891269 0.00156214 0.0835182 
-0.00555959 0.00118105 0.0907677 
0.000660093 0.000541724 0 
0.000530603 0.000435455 0 
-0.000630413 -0.000707855 0 
-0.00090344 -0.00075233 -0.000280163 
3.31057e-05 0.000195117 -0.00098789 
0.000113653 0.000306183 0.000786812 
-9.39596e-05 -0.000355404 0.000524618 
-0.000148398 -1.96043e-05 0.0625855 
0.000223722 -0.000198329 -0.000427725 
-0.00038664 0.000317307 0 
-0.000176238 0.000144635 0 
0.000163955 -0.000340797 0 
-0.000147134 -4.46326e-05 0 
-2.42282e-05 -7.34955e-06 0 
-0.000230097 0.000337266 0 
0.000100168 4.56541e-05 -0.000510495 
0.000318537 0.000690444 0 
-1.09353e-05 3.60487e-05 0 
0.000104295 -0.000343815 0 
-8.53947e-05 0.000366261 -0.000859578 
8.32009e-05 2.25453e-05 0.0706759 
-0.000114163 -8.27635e-06 -0.000658217 
0.000659453 -2.59517e-05 0.00131502 
-0.000520682 4.77182e-05 -0.000120193 
-0.00301517 -0.00153597 0 
0.00167124 -8.04133e-05 0 
-0.0024593 -0.00196051 0 
0.00183734 -0.000278609 0.00198062 
8.41517e-05 8.27457e-06 -0.000661685 
-0.000513572 2.82401e-05 0.000892579 
-3.3767e-05 8.02648e-05 0.0689373 
0.000413815 -4.56572e-05 0.000195756 
-0.000468068 -0.000677846 0 
0.000769106 -0.00360216 0 
-0.00173016 -0.00207599 0 
0.00467749 9.22545e-05 -0.00140236 
0.000917868 0.000183546 0.00318322 
-0.00240803 -0.000527833 -0.00240221 
-0.000738027 -0.000162841 -0.000599056 
0.00249234 -0.00198933 0.00519125 
3.44522e-05 0.000669119 0.00106048 
1.13258e-06 -0.000240217 -0.000835967 
-1.59354e-05 -0.000104431 0.000190509 
-4.05288e-05 -0.000416999 0.0669127 
9.3933e-05 0.000175736 0 
2.8089e-06 5.25508e-06 0 
6.12999e-05 0.000134895 -0.000300772 
-0.000428475 -0.000454627 0 
0.00024131 0.000249134 0 
0.000114252 -6.10692e-05 0 
-8.68856e-05 4.64413e-05 0 
-0.00021521 0.000119799 -0.000132727 
1.50969e-05 0.000153282 0 
6.24322e-06 6.33885e-05 0 
0.000182362 -0.000338556 0 
-5.58774e-06 -0.000129135 -0.000244958 
-4.26599e-05 -1.2026e-05 -0.000928158 
-0.000298484 4.22148e-05 0.0635164 
0.000431984 0.000500348 0.000604571 
-0.000313643 -0.000405015 0.00053056 
0.000167148 0.000203671 0 
0.00031911 0.000388836 0 
-0.000324241 -0.00039775 5.57264e-05 
-0.000377237 -0.000235488 0 
4.55702e-05 -3.73985e-05 0 
0.000250831 -0.000205852 0 
0.000191447 -0.000141583 -0.000396241 
0.000273371 0.000591052 0 
-0.000359343 0.000482318 -0.000162869 
-0.000186821 -3.91326e-05 0.000153977 
5.25131e-06 5.64647e-06 0.000263441 
-0.000216775 -6.64531e-05 -0.00106085 
0.00101747 0.000773985 9.00152e-05 
1.10052e-05 -3.94094e-05 0.000129497 
-0.000115694 0.00044231 -0.000992731 
-2.45096e-05 7.75258e-05 -0.000423203 
0.000206966 0.000212847 -0.000713452 
0.000104413 -0.000137225 0.0774895 
-0.000508818 -0.000612555 0.000134943 
0.000404154 0.000543816 0.00093129 
-0.000531865 -0.000296777 0.000442098 
0.000644473 0.000333516 0.000388063 
9.03303e-05 0.000137375 0.0516645 
-0.000140842 -5.9462e-05 -0.000559995 
0.000125404 0.000306557 0.0828322 
0.000189848 0.000342648 0.00016834 
0.000264824 0.000536401 -0.000550047 
-0.000478524 -0.000967721 0.000973364 
0.000787478 0.000202808 0.00109377 
-0.000525531 -0.000156744 -8.10876e-05 
-0.000344015 -7.88949e-05 -0.000772042 
-0.000149582 0.000194394 0.0752919 
-8.19963e-05 -3.87968e-06 -0.00016764 
9.60988e-05 9.4649e-06 0 
0.000114456 1.1273e-05 0 
-0.000353426 0.000167846 0 
5.8159e-05 -0.000590498 0 
8.36824e-06 -8.49641e-05 0 
0.000271857 0.000594372 0 
-2.71323e-05 0.000253811 8.52552e-05 
7.14288e-05 -1.40983e-05 -0.000260135 
-0.000360814 3.55371e-05 0 
-5.71373e-05 5.62754e-06 0 
0.000361087 -7.72491e-05 0 
0.00086053 -0.000429043 0.0768985 
-4.49529e-05 1.91036e-05 0.0536497 
-0.000312709 -9.43472e-05 0.107369 
-0.00294043 -0.00266769 0.0784104 
-0.000361308 8.99866e-05 0 
0.000150417 -1.48147e-05 0 
0.000279911 -2.75688e-05 0 
-1.55536e-05 5.46784e-06 -0.000144033 
6.93101e-05 0.000779639 -0.000273639 
-3.92774e-05 -0.00039879 0 
-4.23578e-05 -0.000430066 0 
-0.000250563 0.000340918 0 
0.00045825 -0.000322651 0 
-0.00044433 -4.37627e-05 0 
-0.000274088 -2.69953e-05 0 
0.000368809 3.09179e-05 -0.000197888 
0.000476712 1.913e-05 0.000958231 
-0.000408428 -4.45714e-05 0.000149637 
-0.000120531 8.17634e-06 -0.000690469 
0.00012784 -7.46882e-05 0.0586368 
-0.0213018 0.041081 0.56929 
0.0577351 -0.00253862 0.260759 
-0.00932622 -0.0121749 0.535692 
0.228369 0.0698146 0.381462 
-4.3932e-05 0.000771558 0.00118076 
1.66595e-05 -0.000131657 0.0626654 
3.63611e-05 -0.000386444 -6.26218e-05 
8.05859e-06 -0.000258793 -0.000641957 
-0.000224742 -0.00037478 0 
-2.48156e-05 0.000251957 0 
-1.94366e-05 0.000197344 0 
8.74915e-06 -0.000143078 -0.000180156 
0.00409872 0.00484068 0.794104 
0.00204735 -0.00693719 0.697177 
0.00492578 -0.00918577 0.721953 
0.0581591 -0.043572 0.736271 
-0.000149819 0.000178129 -8.0279e-05 
0.00039984 -0.000487207 0 
0.000141575 -0.00017251 0 
-0.00079871 0.000287901 0 
3.47204e-06 -1.14458e-05 0 
1.19391e-05 -3.93578e-05 0 
-3.74289e-05 9.44825e-05 -0.000273046 
-0.00015059 -0.000400958 0 
-2.5568e-05 9.68043e-05 0.000226541 
9.8373e-05 -0.000357654 -0.00102882 
-0.000863302 -0.000518529 3.81644e-05 
3.74967e-05 -0.000161461 -0.000125182 
-0.000171635 1.22252e-05 0.0622549 
0.000523686 5.28779e-05 4.78531e-05 
-0.000633982 -3.57016e-05 0.000984842 
0.000180101 2.45543e-06 -0.00056287 
-0.000105277 -2.15455e-06 -0.00106161 
0.000291704 -7.28763e-05 0.000486156 
0.000283923 -0.0002547 0.0590493 
-0.000517705 0.000182683 0.000798441 
7.84994e-05 0.000169596 -0.000842476 
-0.000209259 -0.000655839 0.000321135 
0.000130047 0.000511152 0.000778817 
8.04974e-05 -0.000162544 0.0580198 
0.00246582 -0.00131801 0 
0.00111377 -0.00059532 0 
-0.0013739 0.000719 -0.000385913 
-0.00332007 -0.000196344 0 
-4.08792e-07 0.000188484 -0.000664377 
2.55378e-05 8.06455e-05 0.0665118 
3.71521e-05 -0.000639004 0.000943554 
-4.69112e-05 0.000433821 0.000153094 
-0.000789889 -0.000398504 0.000595295 
0.000443307 0.000207075 -0.000750424 
-0.000157264 -0.000297608 0.0633931 
0.000671128 0.000373232 0.000364368 
0.000280323 -1.0104e-06 0.0625931 
0.000268225 -0.000526105 0.000361501 
1.31578e-05 3.98376e-05 -0.000959202 
-0.000320179 0.000549475 0.000737203 
-0.001706 0.00281503 0 
0.0098018 -0.00440976 0 
0.00152495 0.00138762 0 
-0.00219517 0.00589748 -0.00182398 
-0.000520098 -0.000454498 0.000583228 
-2.56743e-05 7.89226e-05 0.0658795 
1.66284e-05 5.04946e-05 -0.000776836 
0.000523831 0.000406456 0.000494177 
-0.000252078 0.000534677 0.000846759 
-7.04971e-05 6.05044e-05 -0.000958384 
-0.000376691 0.000142309 0.0664113 
0.000381095 -0.000699128 0.000185944 
-0.000157674 -0.000131148 0.0544993 
-0.000565263 0.000501422 0.00082914 
-1.22515e-05 -3.49707e-05 -0.000994944 
0.000466047 -0.000369773 0.000280667 
-0.00445217 0.00556349 0.0958661 
0.000499114 -0.000865922 0.051174 
0.00051397 0.000340645 0.110723 
0.000694122 0.000932933 0.0741255 
-0.00127712 0.00778825 0.0929478 
-0.00116371 0.000472426 0.11191 
0.00155705 -0.00358931 0.0511415 
-0.00727413 0.0155637 0.109794 
0.0567102 -0.156156 0.373842 
0.0469652 -0.029766 0.598575 
0.0540667 -0.0479504 0.717796 
0.102945 -0.0851953 0.504178 
0.0551366 -0.200793 0.390873 
0.0588225 -0.0660018 0.718395 
0.0373651 0.0190814 0.593141 
0.0108225 -0.03427 0.536297 
0.00586082 0.00183937 0.235554 
0.0184922 -0.00356175 0.323494 
0.0263316 -0.0175319 0.296219 
-0.00148198 -0.000677975 0.282972 
0.0362542 -0.0181341 0.308212 
0.0208386 -3.73929e-05 0.329087 
-0.00417568 0.000957887 0.222302 
0.0302755 -0.000526332 0.235662 
-0.00427897 -0.0210364 0.720952 
0.220712 -0.0130277 0.340481 
0.0115725 -0.028952 0.573396 
0.0394504 0.000353704 0.512206 
0.0290503 -0.0315347 0.591528 
0.211257 -0.0270691 0.320791 
0.000123497 -0.00878743 0.733776 
0.0453062 -0.0363208 0.733611 
0.0067361 0.00185836 -0.0101232 
-0.0152743 -0.0125527 0.0554712 
-0.0114418 -0.0174988 0.0275474 
0.00328976 0.00102497 -0.00152591 
-0.0129411 -0.0177824 0.0245355 
-0.00998043 -0.0227855 0.0636068 
0.0061752 0.0186206 -0.00749773 
-0.0120907 -0.0378822 0.0355438 
0.0511107 0.0522554 0.217737 
0.00503204 0.0102912 0.106135 
0.0311522 0.0199542 0.0557896 
0.0379116 0.0698034 0.197057 
0.0549589 0.039597 0.204908 
0.0244592 0.027548 0.0712672 
0.00185177 0.0219029 0.117282 
0.0255394 0.015803 0.133281 
0.000454862 -0.000310154 0.000765012 
-0.000316841 0.000284294 0.076699 
6.62386e-05 6.84591e-05 -0.000660654 
8.08798e-05 0.000333344 0.0515538 
3.02304e-08 -3.16407e-05 -0.000866252 
-0.000534584 -3.23904e-05 0.0760387 
0.000841823 0.000430769 0.00216424 
-0.00019835 -0.000115708 -0.00089884 
-0.204027 -0.0414855 0.189538 
0.0340515 -0.0113436 0 
0.0459775 0.0427868 0 
-0.105798 0.00299899 0 
-0.16919 -0.0114063 0.229878 
0.0077021 0.0140992 -0.044321 
0.00966794 -0.0184146 -0.0282349 
-0.04639 0.0104404 0.0382804 
-0.00485198 -4.33773e-05 0.197146 
-0.010706 9.28078e-05 0.0952028 
-0.021463 -0.00446976 0.137097 
0.000743865 -0.000347936 0.124143 
-0.0230054 -0.00809861 0.131825 
-0.0146213 3.6823e-05 0.0914668 
-0.00263365 0.000756813 0.200072 
-0.026969 -0.00411383 0.231232 
-0.0169216 -0.000151031 0.0220058 
0.000131779 -0.000491091 0.000176681 
0.00521841 0.000492897 -0.0131383 
-0.0202869 -0.00356592 0.03705 
-0.00605343 0.0087099 0.0117758 
-0.000337319 -0.00403673 -0.00299694 
-5.36714e-05 -0.00064229 0.00358171 
-0.000230329 -0.00275637 -0.002044 
-0.0229839 0.04138 0.721679 
-0.0873053 -0.0760185 0.61203 
-0.106284 0.0314992 0.595021 
-0.00481501 -0.00540064 0.796163 
-0.0301107 0.0468485 0.721764 
-0.10072 0.0372012 0.595299 
-0.0835151 -0.0780045 0.612016 
-0.0740413 -0.00923646 0.538987 
-0.00952329 0.00706066 0.0662565 
-0.000697912 1.83903e-05 -0.00956474 
0.00256086 -0.00294093 0.0022067 
-0.0104324 0.00979308 0.0571129 
-0.00787264 -0.0013 0.0597662 
0.00153407 0.0022317 0.0027959 
-0.000532751 -0.000773843 -0.00478574 
0.00176001 0.00256093 0.00146047 
0.000499431 0.000603274 0.0646729 
0.000565778 3.89897e-05 1.21142e-06 
-0.00442289 0.00367095 0.092151 
6.54533e-05 0.000427739 0.0823763 
-0.00396677 0.00360708 0.0922994 
-3.63633e-06 0.000516748 5.82037e-05 
-3.81937e-05 -0.000228099 0.0639463 
0.00148972 -0.000607905 0.00210738 
0.0142351 0.0197154 0.0251475 
0.000702376 -0.00021283 0.0104447 
0.00936571 0.00991087 0.0117703 
-0.00352984 -0.00616922 -0.00632837 
0.0325893 0.0443823 0.0413642 
0.0203331 0.0133876 0.0145657 
-0.0148369 -0.0197899 -0.00248494 
0.0189559 0.0260352 0.059723 
-0.00019984 -0.000185654 0.0032843 
0.000653315 0.00455049 0.0904583 
-0.000547328 -0.000121255 -0.00374672 
-0.00038436 -0.000163106 -6.5952e-05 
0.00305175 -0.0016009 -0.00339013 
-0.000586531 0.00555794 0.0897473 
0.000642536 -0.00055981 0.00340066 
-0.00728162 0.0118225 0.103336 
0.240863 0.0924924 0.425923 
-0.011229 -0.0136287 0.508702 
-0.0484588 -0.0313717 0.747844 
-0.00510795 -0.016335 0.581573 
0.129282 0.0350762 0.371529 
0.00688241 -0.0181644 0.761439 
0.0528162 0.000738969 0.523631 
0.214418 -0.0161577 0.299322 
0.00929886 -0.0180628 0.0721215 
-0.00103755 0.00358237 -0.0184093 
0.00891976 -0.0175707 0.0498931 
-0.000920933 0.00254175 -0.00251 
0.0075311 -0.0257124 0.0709262 
0.0157576 -0.0174967 0.0466378 
-0.00988661 0.0154126 -0.0110128 
0.0197312 -0.0341404 0.0338584 
-0.00555616 0.00463237 0.0908443 
-0.0010756 -0.00190638 0.155882 
-0.00973788 -0.00189276 0.096728 
-0.0219889 0.0070384 0.126214 
-0.00565054 -0.000285371 0.0912736 
-0.00804355 0.000770657 0.0989616 
-0.00285024 0.00202049 0.152763 
-0.000275886 0.00112632 0.115938 
0.00724014 -0.0133835 0.00180676 
0.0208381 0.000621183 0.0509673 
0.0285374 -0.00178516 0.0179405 
0.0519366 -0.0111221 0.0663217 
0.0284717 -0.00353947 0.0182239 
0.0175489 -0.00335258 0.0378888 
0.00968648 -0.00551954 0.00993859 
-0.0117884 0.0021328 -0.00348123 
0.007339 -0.00944592 0.0128114 
0.000206613 -0.000557763 0.000812846 
-0.00103511 0.0007493 -0.00171901 
-0.00275875 0.00201221 -0.00276351 
0.0137407 -0.026814 0.0292818 
-0.00396342 0.0126577 -0.0140517 
-0.00598843 0.0113323 -0.00917279 
0.0145465 -0.021399 0.0244254 
0.0077433 0.00597255 0.071079 
-0.00281903 -0.00238176 -0.000556262 
0.00512318 0.00600794 0.0947592 
0.0043588 0.00385387 0.0817697 
0.00604896 0.0062316 0.0694151 
0.00430131 0.00644577 0.090419 
0.000810195 -0.00293716 0.00301352 
-0.00181673 -0.00231412 4.97552e-05 
-0.00108305 -5.33746e-05 0.0011897 
0.00478824 0.00453371 0.0951653 
-0.00170528 -0.00146951 -0.00106983 
0.00382092 0.00342527 0.0820152 
-9.88386e-05 0.000156828 0.00124166 
-0.000129942 0.000186705 0.000739818 
0.00274204 0.00305697 0.0936972 
0.000324781 -0.00047297 -0.00213855 
0.0246462 -0.00349796 0.12591 
-0.0058818 0.000479607 -0.00185331 
0.00465539 -0.0043871 0.0895073 
0.0127088 -0.00279703 0.0660243 
0.0197204 -0.00188869 0.125219 
0.00707374 -0.00456538 0.0894414 
-0.00406188 -1.23533e-05 -0.0016661 
0.00598645 0.000844387 0.083834 
-0.0272514 -0.0394908 0.462451 
-0.0718525 -0.166499 0.347625 
-0.0930193 -0.0914591 0.581893 
-0.0140602 -0.0814094 0.631899 
-0.0198682 -0.0420536 0.477581 
-0.110954 -0.101452 0.545307 
-0.0631885 -0.132099 0.364998 
-0.0631498 -0.0662721 0.316424 
0.00758271 0.022221 0.307164 
-0.000539577 -0.00442825 0.212488 
0.0202054 0.0297358 0.279625 
0.0114872 0.0270086 0.214498 
0.00839867 0.0193255 0.303126 
0.0188705 0.0234118 0.272171 
0.000316288 0.00219616 0.220534 
0.00194217 -0.000231442 0.277015 
0.0031777 -0.00336015 0.232165 
0.0224578 0.0234105 0.263777 
-0.00264162 0.00122024 0.220477 
0.0120824 0.0257005 0.220024 
0.000457524 -0.000480467 0.231664 
-0.00182874 0.00202107 0.224744 
0.0238449 0.0203227 0.260019 
-0.000850099 0.00061608 0.28323 
-0.0132442 0.00536734 0.0694198 
0.00185791 -0.000364295 0.00326562 
-0.00699733 0.00301883 0.0855448 
0.00320157 -0.000723509 -0.00131697 
-0.016557 0.00317401 0.0728994 
-0.004438 0.00385207 0.0899892 
0.00500869 0.00165137 0.000539294 
-0.0219599 0.00460539 0.122252 
-0.063337 -0.1216 -0.0880216 
-0.00110626 0.00330518 0.696318 
-0.0331178 -0.0940419 0.226799 
-0.0856414 -0.066418 0.238651 
-0.155185 -0.0894422 0.0183465 
-0.0280357 -0.085046 0.221713 
0.00736624 -0.074622 0.680944 
-0.097714 -0.161875 0.369928 
0.00694474 0.176401 0.268658 
0.00648191 -0.0409362 -0.092081 
-0.00448708 0.107802 0.0904089 
-0.0048202 0.101675 0.145699 
8.20172e-05 0.222228 0.248638 
-0.00815379 0.054259 0.0680863 
0.0147259 -0.0112167 -0.0554011 
0.0188719 -0.0592284 -0.0507147 
-0.0238711 -0.0309653 0.250109 
-0.00976509 -0.0185895 0.183419 
-0.000123253 -1.51351e-05 0.284834 
0.000265769 0.00204946 0.215187 
-0.0212169 -0.0338238 0.257007 
0.000799209 0.00808158 0.288919 
-0.0115182 -0.0261815 0.177102 
-0.00834259 -0.0282803 0.24499 
0.00257454 0.000998646 0.25923 
-0.000673077 -0.00050389 0.286166 
-0.00881053 -0.0168358 0.182186 
-0.00143997 -0.000168827 0.218483 
0.00201727 0.00174746 0.259289 
-0.00943758 -0.0215164 0.179292 
-0.00235231 0.00282759 0.286921 
-0.00522591 -0.0278208 0.243522 
0.0966283 -0.00751314 0.096784 
-0.0129605 0.00106433 -0.0177247 
-0.0126177 0.0109333 -0.0217012 
0.0173786 0.00653639 0.0117696 
0.102664 -0.0127639 0.0749315 
-0.0186114 0.0358577 0 
-0.017856 -0.00357087 0 
0.04579 -0.0257654 0 
0.00437689 0.00161623 0.0942304 
-0.00062131 0.000502469 -0.00239828 
-0.000872658 0.0004655 0.00294428 
-0.000858917 0.000582402 -0.000366491 
0.00375537 0.00425548 0.0944426 
-0.000620281 -0.00088845 0.00304508 
-1.85342e-05 -0.000560861 -0.0035951 
0.00542578 0.0107293 0.112267 
0.00534608 -0.0022049 0.0866747 
-0.000693349 0.000690241 0.057807 
0.00132198 -0.000537524 0.120139 
0.00634683 -0.0016191 0.0905885 
0.00507152 -0.00244282 0.0869904 
0.000653198 0.000217853 0.119704 
-0.000436517 -0.000141398 0.0584621 
2.75295e-05 0.000225797 0.0657007 
0.0131237 -0.00814062 0.0139688 
-0.00221424 0.00248486 -0.00215915 
-0.00382372 0.00345025 -0.000920324 
0.0181632 -0.010681 0.047191 
0.00678678 -0.00264855 0.0054873 
-7.05908e-05 0.000256174 0.00407425 
-6.45259e-05 -3.34792e-05 0.00103895 
0.000239457 0.000326913 -0.00182216 
-0.0263907 0.0571435 0.680984 
-0.0792767 0.0642855 0.401261 
0.0327661 -0.00386662 0.607158 
-0.000688277 0.109874 0.494368 
-0.0268451 0.055857 0.68895 
0.0354186 -0.00473197 0.601019 
-0.0829884 0.0668415 0.403369 
-0.0641977 -0.0114402 0.554921 
-0.00365448 0.00435433 0.544345 
-0.1404 -0.0499223 -0.0977569 
-0.0727295 -0.0582919 0.248784 
-0.0404297 -0.0715074 0.212641 
-0.0736455 -0.0256797 0.214191 
-0.0776882 -0.166517 0.0175872 
-0.0880986 0.0100187 0.550151 
-0.148771 -0.107492 0.326633 
0.00122174 0.000533514 0.00525569 
-0.00425521 -0.010379 0.0669465 
0.00191278 0.000880395 -0.0016142 
0.00234646 0.00107027 0.000144735 
-0.00111536 0.00290967 -0.00894965 
0.00799792 -0.0175787 0.0757371 
-0.00204326 0.00241494 0.00367835 
0.0086395 -0.013863 0.0908896 
0.00949153 0.00971165 0.308469 
0.00492942 0.00231381 0.276467 
-0.00483047 -0.00106632 0.310618 
0.0150449 0.00618882 0.317461 
0.00966556 0.01618 0.300875 
-0.00220019 -0.00307198 0.313597 
0.00242591 -0.00252812 0.281599 
0.001594 0.00153173 0.27999 
0.00058389 0.000456624 0.062774 
-0.000810304 -0.00020849 0.000980396 
0.00301505 0.00485011 0.0967652 
0.000239122 -0.000407245 0.0708296 
0.000416259 0.000737669 0.0622695 
0.0027623 0.003615 0.0944178 
-0.000287196 -0.000729854 0.00289483 
-0.0003615 -0.00012297 -0.000420693 
-0.00521022 0.00472483 0 
-0.0153849 0.00911409 -0.00356092 
0.0130511 -0.00950405 0 
0.0084395 -0.00495822 0 
0.0199568 -0.0141255 -0.014567 
-0.0082511 0.0147326 0.001625 
-0.0132905 -0.00923378 -0.0206605 
-0.0317129 0.117745 0.110181 
-0.000416024 -0.000253347 0.00116033 
0.000426648 0.00044887 0.066626 
-0.000108974 -9.21437e-05 -0.000546161 
0.000203238 0.000126254 -0.00048481 
0.000197019 -0.000261182 -0.000370362 
-0.000142598 -0.000118607 -0.000452797 
-4.18358e-06 0.000422228 0.0677129 
-0.00016495 8.42406e-05 0.0520786 
0.0149897 0.0114706 0.0134882 
-0.0113097 -0.00853464 -0.00769246 
-0.00329219 -0.00647701 -0.0103151 
0.0166283 0.0125023 0.0165062 
0.0010297 9.29021e-05 0.00176707 
-0.000469733 0.0013515 -0.0016467 
0.000360752 6.61959e-05 0.00106854 
-0.00257881 -0.00126626 -0.00125959 
0.00123163 0.0192955 0.0102031 
0.00133082 -0.0145928 -0.00331366 
0.00113376 -0.00450019 -0.00107911 
0.000132639 0.0146864 0.0081221 
-0.00362692 0.00274466 0.00114874 
0.00130989 -0.000502053 0 
0.00178599 -0.00188484 0 
0.00196938 -0.000672775 0 
-0.0140517 -0.0168901 0.129402 
-0.0121436 -0.0135796 0.173204 
0.00166264 0.00360964 0.107678 
-0.000956135 -0.00113512 0.160141 
-0.0137978 -0.015554 0.127192 
0.00126861 -0.000190185 0.112132 
-0.0120685 -0.0120476 0.171876 
-0.00765981 -0.00419007 0.0823723 
0.00107561 0.000809672 0.0840741 
0.00150556 3.25444e-05 0.110617 
-0.0118375 -0.00954624 0.17057 
-0.00103699 -0.00110706 0.159685 
0.000700503 -3.16644e-05 0.0848891 
-0.0112946 -0.00839206 0.169442 
0.000274583 -0.00114636 0.112002 
-0.00634066 -0.00506678 0.0844134 
-0.000222623 -0.000987368 0.00113472 
0.00265053 0.00284523 0.0840963 
0.000974559 0.00114355 0.0943594 
-0.000371148 -0.000427644 -0.0004737 
-0.00038091 0.000523662 0.0937693 
0.00415248 0.00350977 0.0846993 
-0.000899202 -0.000980572 0.00156026 
0.000399241 -0.000341988 0.0620596 
TENSORS Stress float 
-9.31666 -0.665665 0.931805 
-0.665665 -8.71328 -0.649617 
0.931805 -0.649617 -9.82994 
-8.85757 -0.545359 1.21495 
-0.545359 -8.75818 -1.3813 
1.21495 -1.3813 -10.2441 
-9.81613 0.248557 -0.303609 
0.248557 -9.02555 -1.29082 
-0.303609 -1.29082 -9.01821 
-10.0068 -0.825043 0.277482 
-0.825043 -7.76758 -1.87231 
0.277482 -1.87231 -10.0855 
-9.53346 0.224168 0.447797 
0.224168 -8.66282 -0.19655 
0.447797 -0.19655 -10.494 
-9.80887 0.166435 -0.1021 
0.166435 -8.25493 -0.401303 
-0.1021 -0.401303 -10.6264 
-9.63433 0.278329 -0.147039 
0.278329 -8.55336 -0.148968 
-0.147039 -0.148968 -10.5026 
-9.75438 -0.0127764 0.0840474 
-0.0127764 -8.6548 0.302539 
0.0840474 0.302539 -10.2811 
-9.12697 -0.580737 -1.06018 
-0.580737 -8.91378 1.23549 
-1.06018 1.23549 -9.707 
-9.59414 -0.128072 -2.20201 
-0.128072 -8.56279 2.19296 
-2.20201 2.19296 -9.59081 
-8.67751 -1.22612 -1.22908 
-1.22612 -8.9755 1.31996 
-1.22908 1.31996 -10.0947 
-9.12117 -1.03902 -1.30939 
-1.03902 -9.0926 1.16775 
-1.30939 1.16775 -9.53397 
-9.34857 -0.332859 1.04007 
-0.332859 -9.31802 -1.22232 
1.04007 -1.22232 -8.23084 
-9.13594 -0.489608 1.30653 
-0.489608 -9.4084 -0.887623 
1.30653 -0.887623 -8.3531 
-9.46665 0.151677 1.05345 
0.151677 -8.80422 -1.25667 
1.05345 -1.25667 -8.62657 
-9.51699 -0.319246 1.04878 
-0.319246 -9.21193 -1.31196 
1.04878 -1.31196 -8.16852 
-9.41789 0.314261 0.0568558 
0.314261 -8.83213 0.806174 
0.0568558 0.806174 -9.73671 
-9.31012 0.113882 0.16804 
0.113882 -8.61023 0.641282 
0.16804 0.641282 -10.0664 
-9.49939 0.159899 0.0821473 
0.159899 -8.5547 0.652997 
0.0821473 0.652997 -9.93265 
-9.32521 0.132852 -0.0414175 
0.132852 -8.79454 0.52775 
-0.0414175 0.52775 -9.86698 
-9.79133 -0.0263063 -0.115307 
-0.0263063 -8.74191 -0.327689 
-0.115307 -0.327689 -9.8064 
-9.60541 0.0736718 -0.129381 
0.0736718 -8.4892 -0.500962 
-0.129381 -0.500962 -10.245 
-9.43872 0.0491315 0.199959 
0.0491315 -8.2353 -0.222172 
0.199959 -0.222172 -10.6656 
-9.10257 0.529181 -0.358384 
0.529181 -9.18432 -1.22148 
-0.358384 -1.22148 -10.0527 
-9.64837 -0.09936 0.467449 
-0.09936 -9.47153 -0.818043 
0.467449 -0.818043 -9.76438 
-9.80585 -0.133123 0.24907 
-0.133123 -9.53057 -0.983079 
0.24907 -0.983079 -9.54786 
-9.68385 -0.0112264 0.395407 
-0.0112264 -9.44389 -0.918825 
0.395407 -0.918825 -9.75654 
-9.71234 -0.070654 0.358246 
-0.070654 -9.48495 -0.877206 
0.358246 -0.877206 -9.687 
-9.18348 -0.165147 1.53232 
-0.165147 -9.21337 -0.120741 
1.53232 -0.120741 -8.56736 
-8.78047 -0.197678 1.52839 
-0.197678 -9.94417 -0.150346 
1.52839 -0.150346 -8.23957 
-9.38967 0.134248 1.11143 
0.134248 -9.08703 -0.291259 
1.11143 -0.291259 -8.48751 
-8.81844 -0.12014 1.3781 
-0.12014 -9.4467 -0.301712 
1.3781 -0.301712 -8.69907 
-11.552 -0.327754 1.2554 
-0.327754 -7.21597 -3.82772 
1.2554 -3.82772 -8.52341 
-11.4711 -0.241506 -0.0255444 
-0.241506 -7.80448 -3.39318 
-0.0255444 -3.39318 -8.01582 
-11.4844 0.825366 0.125633 
0.825366 -7.26869 -3.10196 
0.125633 -3.10196 -8.53831 
-11.0941 0.665267 -0.39306 
0.665267 -6.6226 -2.64544 
-0.39306 -2.64544 -9.57477 
-9.0467 -0.0850543 0.703489 
-0.0850543 -9.29852 -0.315287 
0.703489 -0.315287 -9.66671 
-8.62287 -0.390428 0.821443 
-0.390428 -9.25232 -0.445482 
0.821443 -0.445482 -10.1367 
-8.95684 -0.286255 0.486357 
-0.286255 -9.2139 -0.346474 
0.486357 -0.346474 -9.8412 
-8.8369 -0.323971 0.727452 
-0.323971 -9.19993 -0.362192 
0.727452 -0.362192 -9.9751 
-10.3261 0.207039 0.143176 
0.207039 -8.64671 1.03625 
0.143176 1.03625 -10.562 
-9.56515 -0.0672996 0.257658 
-0.0672996 -9.28341 0.581439 
0.257658 0.581439 -10.6862 
-10.3599 -0.437233 -0.426471 
-0.437233 -8.58841 1.24112 
-0.426471 1.24112 -10.5865 
-10.258 0.0292812 -0.000379394 
0.0292812 -8.48976 0.823038 
-0.000379394 0.823038 -10.787 
-9.47186 -0.629745 0.394004 
-0.629745 -8.89635 -1.29472 
0.394004 -1.29472 -10.0309 
-9.91549 -0.260727 0.279337 
-0.260727 -8.43495 -1.09311 
0.279337 -1.09311 -10.0487 
-9.52011 -0.34135 0.466208 
-0.34135 -8.97556 -0.939628 
0.466208 -0.939628 -9.90347 
-9.19909 -0.126078 0.474138 
-0.126078 -9.48422 -0.827626 
0.474138 -0.827626 -9.71583 
-9.58413 0.190625 0.0807824 
0.190625 -7.73275 -0.770317 
0.0807824 -0.770317 -10.6034 
-10.1459 -1.7891 2.06438 
-1.7891 -7.70522 -2.35177 
2.06438 -2.35177 -10.0692 
-9.27989 0.0289862 0.451868 
0.0289862 -9.21771 -1.7709 
0.451868 -1.7709 -9.42269 
-10.059 -0.781829 0.610225 
-0.781829 -9.02304 -1.83285 
0.610225 -1.83285 -8.83828 
-9.25168 0.824284 -0.296312 
0.824284 -8.33589 -0.210164 
-0.296312 -0.210164 -10.8008 
-9.31836 0.444212 -0.204685 
0.444212 -8.89227 -0.406772 
-0.204685 -0.406772 -10.1777 
-9.28763 0.535832 -0.0453749 
0.535832 -9.33796 -0.0436767 
-0.0453749 -0.0436767 -9.76275 
-9.32201 0.0025471 -0.458485 
0.0025471 -9.17979 -0.882556 
-0.458485 -0.882556 -9.88655 
-9.70159 -0.0722964 0.246365 
-0.0722964 -9.44423 -0.955466 
0.246365 -0.955466 -9.79953 
-9.88646 -0.0933029 0.358148 
-0.0933029 -9.60037 -1.23398 
0.358148 -1.23398 -9.45852 
-9.56596 -0.111764 0.349022 
-0.111764 -9.54865 -0.736931 
0.349022 -0.736931 -9.83074 
-9.72139 -0.0198063 0.309564 
-0.0198063 -9.49326 -0.997985 
0.309564 -0.997985 -9.7307 
-9.06375 0.0547967 0.513622 
0.0547967 -9.61419 -0.595994 
0.513622 -0.595994 -9.41382 
-8.94225 -0.180409 0.654626 
-0.180409 -9.18137 -0.163231 
0.654626 -0.163231 -9.96814 
-9.13239 -0.445477 0.738549 
-0.445477 -9.30363 -0.666492 
0.738549 -0.666492 -9.65574 
-9.23907 -0.267617 0.690355 
-0.267617 -9.10172 -0.250918 
0.690355 -0.250918 -9.75096 
-10.0239 -0.322171 -0.0199855 
-0.322171 -8.82972 -0.695602 
-0.0199855 -0.695602 -8.95834 
-9.32859 -0.15072 0.646341 
-0.15072 -8.29704 -1.55978 
0.646341 -1.55978 -10.1863 
-9.12744 -0.28535 0.574882 
-0.28535 -9.04968 -1.57011 
0.574882 -1.57011 -9.63487 
-10.2847 -0.535597 0.371249 
-0.535597 -8.53201 -1.67842 
0.371249 -1.67842 -8.99525 
-9.80545 -0.110463 0.253339 
-0.110463 -9.67737 -0.871533 
0.253339 -0.871533 -9.81356 
-9.83475 -0.0627758 0.358448 
-0.0627758 -9.57993 -0.90306 
0.358448 -0.90306 -9.8817 
-9.84794 -0.0965293 0.359041 
-0.0965293 -9.66849 -0.913845 
0.359041 -0.913845 -9.77995 
-9.76746 -0.0767451 0.387727 
-0.0767451 -9.67936 -0.862199 
0.387727 -0.862199 -9.84956 
-9.50635 -0.289362 -0.995521 
-0.289362 -8.62707 0.780291 
-0.995521 0.780291 -10.0646 
-9.93216 -1.01547 -2.29169 
-1.01547 -8.97171 1.80317 
-2.29169 1.80317 -9.29414 
-8.82232 -0.963762 -0.663266 
-0.963762 -8.40576 1.96365 
-0.663266 1.96365 -10.9699 
-8.83025 -1.48194 -1.11933 
-1.48194 -8.98292 1.4079 
-1.11933 1.4079 -10.3848 
-9.6698 0.426707 -0.551563 
0.426707 -9.91835 -0.12212 
-0.551563 -0.12212 -10.0776 
-9.65559 0.0254331 0.435417 
0.0254331 -9.91081 0.084195 
0.435417 0.084195 -10.0993 
-9.33981 0.381298 0.0689932 
0.381298 -9.72975 0.0774443 
0.0689932 0.0774443 -10.5962 
-9.65189 0.505491 -0.0176289 
0.505491 -9.61539 0.0877873 
-0.0176289 0.0877873 -10.3984 
-9.10956 0.108268 1.86739 
0.108268 -9.37492 -0.211176 
1.86739 -0.211176 -9.02321 
-9.07518 -0.189059 2.00569 
-0.189059 -10.1187 -0.168199 
2.00569 -0.168199 -8.3138 
-8.73666 -0.302541 1.29554 
-0.302541 -9.59226 -0.439693 
1.29554 -0.439693 -9.17876 
-8.50221 -0.400817 1.85595 
-0.400817 -9.25528 -0.0469274 
1.85595 -0.0469274 -9.75021 
-9.6785 -0.0938204 0.596309 
-0.0938204 -9.39974 -0.601446 
0.596309 -0.601446 -9.81713 
-9.70796 -0.158615 1.09041 
-0.158615 -9.83332 -0.703804 
1.09041 -0.703804 -9.3541 
-9.53275 -0.115514 0.859673 
-0.115514 -9.68227 -0.575442 
0.859673 -0.575442 -9.68036 
-9.51844 -0.0876167 0.880781 
-0.0876167 -9.68666 -0.555596 
0.880781 -0.555596 -9.69028 
-9.81202 -0.0675339 0.986016 
-0.0675339 -10.0171 -0.684854 
0.986016 -0.684854 -8.49007 
-9.71379 -0.109272 0.704103 
-0.109272 -9.71178 -0.876792 
0.704103 -0.876792 -8.89364 
-9.76677 -0.0909274 0.612235 
-0.0909274 -9.57443 -0.812213 
0.612235 -0.812213 -8.97801 
-9.88506 -0.311367 0.678326 
-0.311367 -9.71929 -0.999299 
0.678326 -0.999299 -8.71487 
-9.92316 -0.0533391 0.276149 
-0.0533391 -9.86797 -0.86744 
0.276149 -0.86744 -9.78221 
-9.87412 -0.0339157 0.253051 
-0.0339157 -9.71276 -0.869866 
0.253051 -0.869866 -9.98647 
-9.80881 -0.00172458 0.239136 
-0.00172458 -9.71514 -0.932236 
0.239136 -0.932236 -10.0494 
-9.90147 -0.0194482 0.3734 
-0.0194482 -9.73339 -0.812818 
0.3734 -0.812818 -9.93848 
-9.54965 0.0611663 -0.204433 
0.0611663 -9.53535 -0.856884 
-0.204433 -0.856884 -9.16097 
-9.62822 -0.0880722 -0.499029 
-0.0880722 -9.51599 -0.88923 
-0.499029 -0.88923 -9.10177 
-10.0709 -0.11677 -0.144899 
-0.11677 -9.62139 -0.84634 
-0.144899 -0.84634 -8.55366 
-9.75838 -0.135797 -0.251148 
-0.135797 -9.59338 -0.963841 
-0.251148 -0.963841 -8.89422 
-9.58389 -0.335863 0.412839 
-0.335863 -9.24546 -1.28263 
0.412839 -1.28263 -9.23197 
-9.5711 -0.217145 0.259865 
-0.217145 -9.3948 -1.28186 
0.259865 -1.28186 -9.09542 
-9.92576 -0.147782 0.60871 
-0.147782 -9.2341 -1.28967 
0.60871 -1.28967 -8.90145 
-9.4393 -0.196042 0.537683 
-0.196042 -8.91982 -1.20591 
0.537683 -1.20591 -9.7022 
-8.88891 -0.160568 -1.62009 
-0.160568 -9.36497 -0.101524 
-1.62009 -0.101524 -9.61008 
-8.77677 0.266375 -0.671243 
0.266375 -10.1829 -0.136832 
-0.671243 -0.136832 -8.90428 
-8.47713 0.250955 -1.64417 
0.250955 -10.3866 -0.169394 
-1.64417 -0.169394 -9.00023 
-8.41401 0.228441 -1.6921 
0.228441 -9.35983 -0.122153 
-1.6921 -0.122153 -10.0901 
-9.39038 -0.911196 0.419722 
-0.911196 -8.25316 -1.2295 
0.419722 -1.2295 -9.79244 
-9.23503 -0.457551 0.255916 
-0.457551 -7.99267 -1.33658 
0.255916 -1.33658 -10.2083 
-9.16205 -0.32797 0.559859 
-0.32797 -8.08645 -2.17444 
0.559859 -2.17444 -10.1875 
-9.62427 -0.506295 0.4472 
-0.506295 -8.32192 -1.30414 
0.4472 -1.30414 -9.48979 
-9.84585 -0.0464703 0.788723 
-0.0464703 -9.80821 -0.501161 
0.788723 -0.501161 -9.97265 
-9.85504 -0.0457982 0.784487 
-0.0457982 -9.8959 -0.517995 
0.784487 -0.517995 -9.87577 
-9.80425 -0.0401629 0.832727 
-0.0401629 -9.81439 -0.508278 
0.832727 -0.508278 -10.0081 
-9.81749 -0.0488586 0.749898 
-0.0488586 -9.89569 -0.573345 
0.749898 -0.573345 -9.91354 
-9.9205 -0.0358502 0.280823 
-0.0358502 -9.68895 -0.953904 
0.280823 -0.953904 -9.9738 
-9.95852 -0.0953147 0.262347 
-0.0953147 -9.62041 -0.939234 
0.262347 -0.939234 -10.0043 
-9.85751 0.0581407 0.283202 
0.0581407 -9.65735 -0.815578 
0.283202 -0.815578 -10.0684 
-9.88712 0.0901176 0.236855 
0.0901176 -9.67794 -0.709049 
0.236855 -0.709049 -10.0182 
-9.75009 -0.460485 0.638057 
-0.460485 -8.85883 -1.63466 
0.638057 -1.63466 -8.72112 
-9.25858 0.00407642 0.700489 
0.00407642 -9.38802 -1.33304 
0.700489 -1.33304 -8.68345 
-9.79421 -0.443791 0.31916 
-0.443791 -8.90673 -1.71665 
0.31916 -1.71665 -8.62911 
-9.57854 -0.185297 0.838884 
-0.185297 -9.43051 -1.56868 
0.838884 -1.56868 -8.321 
-9.65231 -0.367961 0.696006 
-0.367961 -9.40661 -1.02231 
0.696006 -1.02231 -9.7886 
-9.80388 -0.263239 0.489422 
-0.263239 -9.1759 -1.11386 
0.489422 -1.11386 -9.86774 
-9.5295 -0.0920746 0.373973 
-0.0920746 -9.4099 -0.692112 
0.373973 -0.692112 -9.90813 
-9.66868 -0.373708 0.475165 
-0.373708 -9.1612 -1.12455 
0.475165 -1.12455 -10.0176 
-8.64075 0.0865782 0.444551 
0.0865782 -9.39083 0.155701 
0.444551 0.155701 -10.2145 
-8.62716 -0.204052 0.156801 
-0.204052 -9.59341 -0.0407512 
0.156801 -0.0407512 -10.0255 
-8.25984 -0.190436 0.69317 
-0.190436 -9.52949 0.0792551 
0.69317 0.0792551 -10.4567 
-8.83901 -0.113449 0.34488 
-0.113449 -9.41238 -0.199535 
0.34488 -0.199535 -9.99464 
-9.33543 -0.798967 0.501817 
-0.798967 -8.46585 -1.25468 
0.501817 -1.25468 -10.1158 
-9.5492 -0.585581 0.451332 
-0.585581 -8.44822 -0.891738 
0.451332 -0.891738 -9.91966 
-9.62649 -0.3999 0.168068 
-0.3999 -8.2945 -0.950348 
0.168068 -0.950348 -9.9961 
-8.6273 0.0683104 0.655964 
0.0683104 -9.22921 -1.11378 
0.655964 -1.11378 -10.0606 
-9.71724 -0.000634232 -0.250469 
-0.000634232 -9.75511 -0.832616 
-0.250469 -0.832616 -9.31402 
-9.89804 0.360516 -0.338951 
0.360516 -9.35477 -0.752372 
-0.338951 -0.752372 -9.53356 
-9.76712 0.0810773 -0.285796 
0.0810773 -9.67512 -0.938533 
-0.285796 -0.938533 -9.34413 
-9.89753 0.0969822 -0.181323 
0.0969822 -9.60382 -1.02689 
-0.181323 -1.02689 -9.28502 
-9.83385 -0.0295423 -0.377159 
-0.0295423 -9.78026 0.622438 
-0.377159 0.622438 -9.17373 
-9.87138 -0.109598 -0.308808 
-0.109598 -9.6914 0.616187 
-0.308808 0.616187 -9.22506 
-10.0436 -0.200994 -0.262631 
-0.200994 -9.69752 0.657384 
-0.262631 0.657384 -9.04674 
-9.79991 -0.0468437 -0.324423 
-0.0468437 -9.7865 0.681397 
-0.324423 0.681397 -9.20144 
-9.10239 -0.29074 0.677995 
-0.29074 -9.30012 -0.40909 
0.677995 -0.40909 -9.69891 
-9.10439 -0.148172 0.714638 
-0.148172 -9.18266 -0.445302 
0.714638 -0.445302 -9.81438 
-9.06662 -0.110684 0.664868 
-0.110684 -9.13255 -0.370728 
0.664868 -0.370728 -9.90225 
-9.19791 -0.193908 0.685377 
-0.193908 -9.19097 -0.413486 
0.685377 -0.413486 -9.71255 
-9.61767 -0.0860691 0.0715572 
-0.0860691 -9.59366 -0.78706 
0.0715572 -0.78706 -8.89249 
-9.63834 -0.0290928 0.0381291 
-0.0290928 -9.60172 -0.676326 
0.0381291 -0.676326 -8.86376 
-9.69541 -0.0173892 0.0348793 
-0.0173892 -9.63874 -0.686004 
0.0348793 -0.686004 -8.76966 
-9.72769 0.0267426 0.0359541 
0.0267426 -9.54698 -0.648093 
0.0359541 -0.648093 -8.82915 
-9.4392 0.0621918 0.137804 
0.0621918 -9.0173 0.842115 
0.137804 0.842115 -9.80533 
-9.52357 0.0633333 0.145923 
0.0633333 -9.0569 0.869023 
0.145923 0.869023 -9.68136 
-9.45946 0.0626543 0.128065 
0.0626543 -9.02179 0.801716 
0.128065 0.801716 -9.78058 
-9.44877 0.104092 0.204339 
0.104092 -9.02386 0.784688 
0.204339 0.784688 -9.78921 
-7.1945 0.368793 -0.587978 
0.368793 -6.23689 -1.36285 
-0.587978 -1.36285 -2.65501 
-6.20737 0.175815 0.0343943 
0.175815 -5.99981 -1.86909 
0.0343943 -1.86909 -3.87922 
-7.12166 -0.101255 -1.36691 
-0.101255 -7.29528 -1.15829 
-1.36691 -1.15829 -1.66946 
-7.19738 0.0550981 -0.572332 
0.0550981 -6.20666 -1.70147 
-0.572332 -1.70147 -2.68236 
-10.0306 0.392432 0.0264285 
0.392432 -9.18897 -0.234513 
0.0264285 -0.234513 -9.44974 
-8.7462 -0.260434 -0.248852 
-0.260434 -9.59541 -0.0619499 
-0.248852 -0.0619499 -10.3277 
-9.6443 -0.0543615 0.357812 
-0.0543615 -9.06152 0.369783 
0.357812 0.369783 -9.96349 
-9.41305 0.0345788 -0.0479233 
0.0345788 -8.7749 0.508292 
-0.0479233 0.508292 -10.4814 
-9.05896 -0.256402 0.243849 
-0.256402 -9.3796 -0.330941 
0.243849 -0.330941 -10.1796 
-9.97924 0.439983 -0.175411 
0.439983 -9.1149 0.244002 
-0.175411 0.244002 -9.52403 
-9.40899 0.211895 -0.026509 
0.211895 -8.86759 -0.693443 
-0.026509 -0.693443 -10.3416 
-9.59583 -0.0350924 -0.628319 
-0.0350924 -9.00909 -0.55695 
-0.628319 -0.55695 -10.0132 
-10.2804 0.191883 -0.125185 
0.191883 -9.57863 -0.0985931 
-0.125185 -0.0985931 -9.59365 
-9.24833 0.173406 -0.127664 
0.173406 -9.47471 0.00072293 
-0.127664 0.00072293 -10.7296 
-9.45853 0.296846 -0.619114 
0.296846 -9.80394 -0.28427 
-0.619114 -0.28427 -10.1902 
-9.365 0.0323187 -0.244064 
0.0323187 -9.82121 -0.218378 
-0.244064 -0.218378 -10.2664 
-9.33792 -0.039057 0.501163 
-0.039057 -9.91188 0.00205976 
0.501163 0.00205976 -9.1774 
-8.60796 0.0691601 0.538322 
0.0691601 -9.26256 0.21819 
0.538322 0.21819 -10.5567 
-9.02446 0.284694 0.801074 
0.284694 -9.31894 0.0352263 
0.801074 0.0352263 -10.0838 
-8.83425 -0.0675583 0.876275 
-0.0675583 -9.84971 0.0139571 
0.876275 0.0139571 -9.74324 
-9.75118 -0.0953534 -0.716429 
-0.0953534 -9.75139 0.564465 
-0.716429 0.564465 -9.83585 
-9.60947 -0.124807 -0.848631 
-0.124807 -9.84518 0.513226 
-0.848631 0.513226 -9.88376 
-9.68285 -0.105391 -0.858875 
-0.105391 -9.83733 0.549754 
-0.858875 0.549754 -9.81824 
-9.93081 -0.14429 -1.00649 
-0.14429 -9.67462 0.604407 
-1.00649 0.604407 -9.73298 
-8.91552 -0.074103 -1.09902 
-0.074103 -9.70419 0.126904 
-1.09902 0.126904 -9.84291 
-8.76948 -0.123892 -1.35295 
-0.123892 -9.77953 -0.0197169 
-1.35295 -0.0197169 -9.9136 
-9.25792 0.0245556 -0.984465 
0.0245556 -9.46138 0.1306 
-0.984465 0.1306 -9.74332 
-8.64998 0.112319 -1.25797 
0.112319 -9.83986 -0.02027 
-1.25797 -0.02027 -9.97277 
-9.55983 -0.904875 0.682433 
-0.904875 -8.76109 -1.54896 
0.682433 -1.54896 -9.68328 
-9.38252 -1.0128 1.01632 
-1.0128 -8.44705 -1.80541 
1.01632 -1.80541 -10.1746 
-9.64153 -0.475809 1.03663 
-0.475809 -8.62087 -1.99685 
1.03663 -1.99685 -9.7418 
-9.45424 -0.716326 0.926056 
-0.716326 -8.53814 -1.88157 
0.926056 -1.88157 -10.0118 
-9.65628 -0.1261 0.730004 
-0.1261 -9.72693 -0.488204 
0.730004 -0.488204 -9.84672 
-9.73712 -0.127936 0.765045 
-0.127936 -9.73767 -0.628879 
0.765045 -0.628879 -9.75515 
-9.62145 -0.111727 0.725914 
-0.111727 -9.76081 -0.628159 
0.725914 -0.628159 -9.84768 
-9.68048 -0.10819 0.691335 
-0.10819 -9.73833 -0.634509 
0.691335 -0.634509 -9.81113 
-9.22676 -0.368516 1.00187 
-0.368516 -9.58543 -0.831255 
1.00187 -0.831255 -8.8782 
-9.1481 -0.284299 1.06203 
-0.284299 -9.49694 -0.84252 
1.06203 -0.84252 -9.04534 
-9.19966 -0.331782 1.11476 
-0.331782 -9.35208 -1.01788 
1.11476 -1.01788 -9.13865 
-9.09396 -0.454697 1.16581 
-0.454697 -9.47414 -0.975518 
1.16581 -0.975518 -9.12228 
-8.06445 -0.438062 -1.39274 
-0.438062 -9.47509 0.444147 
-1.39274 0.444147 -10.0068 
-8.05035 -0.453089 -1.19064 
-0.453089 -9.54857 0.416365 
-1.19064 0.416365 -9.94741 
-8.20563 -0.505502 -1.12208 
-0.505502 -9.25582 0.48318 
-1.12208 0.48318 -10.0849 
-8.92205 -0.0973328 -1.33005 
-0.0973328 -8.93108 0.143259 
-1.33005 0.143259 -9.6932 
-9.82999 -0.0715066 0.435046 
-0.0715066 -9.64745 -0.981878 
0.435046 -0.981878 -8.97604 
-9.99251 -0.0209819 0.460615 
-0.0209819 -9.60406 -1.0561 
0.460615 -1.0561 -8.85691 
-10.1876 0.0466367 0.188656 
0.0466367 -9.67491 -1.36744 
0.188656 -1.36744 -8.591 
-9.96988 -0.313506 0.618362 
-0.313506 -9.69246 -1.03701 
0.618362 -1.03701 -8.79114 
-7.53187 0.493563 -0.322685 
0.493563 -8.82818 -3.19077 
-0.322685 -3.19077 -2.69867 
-7.67163 -1.30072 -1.08186 
-1.30072 -6.88225 -4.09233 
-1.08186 -4.09233 -4.50484 
-5.88447 1.4881 0.471783 
1.4881 -8.73584 -4.76541 
0.471783 -4.76541 -4.43841 
-7.77047 0.24905 0.355668 
0.24905 -7.83342 -4.09332 
0.355668 -4.09332 -3.45484 
-9.31211 0.0449513 1.13318 
0.0449513 -9.8177 -0.153458 
1.13318 -0.153458 -9.06114 
-9.19035 -0.0112768 1.33677 
-0.0112768 -9.55056 -0.0975858 
1.33677 -0.0975858 -9.45004 
-9.41595 -0.0816445 1.28794 
-0.0816445 -9.7336 -0.0393368 
1.28794 -0.0393368 -9.04141 
-9.20495 -0.00391758 1.26339 
-0.00391758 -9.67272 0.00335457 
1.26339 0.00335457 -9.31328 
-9.68593 -1.0395 -0.642854 
-1.0395 -6.85536 -3.0156 
-0.642854 -3.0156 -8.86194 
-8.875 0.240391 -0.208917 
0.240391 -7.42725 -2.93593 
-0.208917 -2.93593 -9.10098 
-8.95192 -0.36417 -0.0475265 
-0.36417 -7.28802 -3.00916 
-0.0475265 -3.00916 -9.1633 
-9.38995 -0.381766 0.76692 
-0.381766 -8.40347 -1.63363 
0.76692 -1.63363 -7.60981 
-9.03135 0.159812 0.486302 
0.159812 -8.75824 2.20845 
0.486302 2.20845 -7.83695 
-10.5777 0.902788 0.625815 
0.902788 -8.54509 1.94703 
0.625815 1.94703 -6.50377 
-9.30119 0.155392 1.3987 
0.155392 -9.0751 1.92758 
1.3987 1.92758 -7.25025 
-9.53964 0.11344 0.64005 
0.11344 -8.64028 1.99747 
0.64005 1.99747 -7.44662 
-9.23235 0.0321749 0.0173891 
0.0321749 -9.09535 0.652499 
0.0173891 0.652499 -9.71796 
-9.49258 0.0680325 0.173768 
0.0680325 -8.27316 0.878264 
0.173768 0.878264 -10.2799 
-9.32362 0.27104 0.119198 
0.27104 -8.954 0.489502 
0.119198 0.489502 -9.76803 
-9.28963 0.10264 0.0555105 
0.10264 -8.72576 0.72174 
0.0555105 0.72174 -10.0303 
-9.31004 -0.135043 0.985623 
-0.135043 -9.49794 -0.248466 
0.985623 -0.248466 -9.62736 
-9.03847 -0.140915 1.19054 
-0.140915 -9.80906 -0.52483 
1.19054 -0.52483 -9.58782 
-9.43722 -0.731833 1.5006 
-0.731833 -9.52575 -0.422808 
1.5006 -0.422808 -9.47238 
-8.77165 -0.119621 1.3656 
-0.119621 -9.83998 -0.370619 
1.3656 -0.370619 -9.82372 
-9.6035 -0.140034 -0.538681 
-0.140034 -9.51355 0.871719 
-0.538681 0.871719 -8.89659 
-9.51104 -0.0947442 -0.429378 
-0.0947442 -9.44519 1.07645 
-0.429378 1.07645 -9.05742 
-9.78332 -0.0673767 -0.379664 
-0.0673767 -9.61357 1.06535 
-0.379664 1.06535 -8.61675 
-9.54816 0.0484819 -0.400681 
0.0484819 -9.54032 1.02355 
-0.400681 1.02355 -8.92517 
-9.49332 0.294604 0.160437 
0.294604 -8.54855 1.36989 
0.160437 1.36989 -9.83618 
-9.59834 0.140852 0.227719 
0.140852 -8.57757 1.3473 
0.227719 1.3473 -9.70213 
-9.56443 0.358523 0.11828 
0.358523 -8.47715 1.46942 
0.11828 1.46942 -9.83647 
-9.52804 0.20429 0.304241 
0.20429 -8.62072 1.38372 
0.304241 1.38372 -9.72929 
-9.63977 0.0349138 -0.352902 
0.0349138 -9.58356 0.276038 
-0.352902 0.276038 -8.49125 
-9.78324 -0.18054 -0.207801 
-0.18054 -9.93702 0.535594 
-0.207801 0.535594 -7.99433 
-9.62723 -0.0567906 -0.26606 
-0.0567906 -9.76014 0.494093 
-0.26606 0.494093 -8.32721 
-9.3954 0.0686166 -0.0652192 
0.0686166 -9.57877 0.475718 
-0.0652192 0.475718 -8.74042 
-9.1489 -0.295835 0.861972 
-0.295835 -9.34317 -0.306795 
0.861972 -0.306795 -9.69195 
-9.20757 -0.246096 0.337353 
-0.246096 -9.23191 -0.561129 
0.337353 -0.561129 -9.74453 
-8.79252 -0.469814 0.797158 
-0.469814 -9.52672 -0.614811 
0.797158 -0.614811 -9.86478 
-9.55661 -0.0566257 0.831527 
-0.0566257 -8.9287 -0.627304 
0.831527 -0.627304 -9.69871 
-8.87925 0.00745339 -0.556669 
0.00745339 -9.3615 0.188382 
-0.556669 0.188382 -10.6926 
-8.15955 -0.775474 -1.50834 
-0.775474 -10.621 0.645182 
-1.50834 0.645182 -10.1528 
-8.87446 -0.692567 -2.25184 
-0.692567 -10.434 0.658569 
-2.25184 0.658569 -9.6249 
-8.11308 -1.94457 -2.44094 
-1.94457 -9.16307 2.05491 
-2.44094 2.05491 -11.6572 
-9.49901 -0.137601 -0.190119 
-0.137601 -8.49691 -0.4877 
-0.190119 -0.4877 -9.86117 
-9.49277 -0.156788 -0.074604 
-0.156788 -8.52589 -0.630763 
-0.074604 -0.630763 -9.83844 
-9.33111 0.196958 -0.060854 
0.196958 -8.53074 -0.71121 
-0.060854 -0.71121 -9.99524 
-9.27709 0.0309267 0.016984 
0.0309267 -8.36593 -0.790823 
0.016984 -0.790823 -10.2141 
-8.48956 -0.677736 -1.20238 
-0.677736 -9.38556 0.265491 
-1.20238 0.265491 -10.1942 
-8.71664 -0.238013 -1.00675 
-0.238013 -9.35234 0.448113 
-1.00675 0.448113 -10.0004 
-8.76411 -0.222961 -0.820701 
-0.222961 -9.37214 0.359602 
-0.820701 0.359602 -9.9331 
-9.31388 -0.607854 -0.601153 
-0.607854 -9.00147 0.277323 
-0.601153 0.277323 -9.754 
-9.65056 -0.160963 0.783732 
-0.160963 -9.33387 -0.0908279 
0.783732 -0.0908279 -9.30808 
-9.04954 -0.248139 0.903813 
-0.248139 -9.49077 -0.35554 
0.903813 -0.35554 -9.7522 
-8.99177 -0.177659 0.458712 
-0.177659 -9.14115 -0.37967 
0.458712 -0.37967 -10.1596 
-8.98972 -0.0294439 0.624155 
-0.0294439 -9.49735 -0.446326 
0.624155 -0.446326 -9.80544 
-9.86843 -0.0515479 -0.572255 
-0.0515479 -9.74637 0.933748 
-0.572255 0.933748 -8.88924 
-9.92848 -0.0769998 -0.62313 
-0.0769998 -9.54264 0.832888 
-0.62313 0.832888 -9.03292 
-9.59726 -0.094961 -0.509942 
-0.094961 -9.67974 0.752895 
-0.509942 0.752895 -9.22704 
-9.70151 -0.0514149 -0.72174 
-0.0514149 -9.52019 0.893469 
-0.72174 0.893469 -9.28234 
-9.50804 0.161602 -0.012532 
0.161602 -9.14512 0.387291 
-0.012532 0.387291 -9.84791 
-9.32996 -0.0406621 0.0985124 
-0.0406621 -9.1814 0.506373 
0.0985124 0.506373 -9.9897 
-9.58778 -0.217637 -0.0527087 
-0.217637 -9.14325 0.39784 
-0.0527087 0.39784 -9.77003 
-9.56098 0.332851 -0.149792 
0.332851 -9.09719 0.34362 
-0.149792 0.34362 -9.8429 
-8.33558 0.467485 2.06787 
0.467485 -8.87736 1.25994 
2.06787 1.25994 -6.82699 
-7.86031 0.300548 2.57513 
0.300548 -8.63713 0.706668 
2.57513 0.706668 -7.5425 
-8.03041 0.640507 3.56931 
0.640507 -10.6247 1.17326 
3.56931 1.17326 -5.38482 
-8.41243 0.324171 1.87119 
0.324171 -9.01129 1.13198 
1.87119 1.13198 -6.61622 
-9.33576 -0.437671 -0.709176 
-0.437671 -8.90765 0.873402 
-0.709176 0.873402 -10.1348 
-9.33795 -0.263389 -0.830041 
-0.263389 -9.6456 0.517955 
-0.830041 0.517955 -9.39462 
-9.22537 -0.715156 -0.810989 
-0.715156 -9.05332 0.86125 
-0.810989 0.86125 -10.0995 
-9.26648 -0.510529 -0.640348 
-0.510529 -8.96747 0.804058 
-0.640348 0.804058 -10.1442 
-8.25919 -0.21552 -1.53851 
-0.21552 -9.39254 0.0924806 
-1.53851 0.0924806 -9.82951 
-7.59777 0.163149 -1.77667 
0.163149 -10.1127 -0.470884 
-1.77667 -0.470884 -9.77077 
-8.14178 0.0272503 -1.55644 
0.0272503 -9.61784 -0.129976 
-1.55644 -0.129976 -9.72163 
-8.57359 0.2839 -1.36697 
0.2839 -9.46693 -0.210649 
-1.36697 -0.210649 -9.44073 
-8.78856 -0.0606467 0.455111 
-0.0606467 -9.54908 0.0611894 
0.455111 0.0611894 -9.94282 
-9.2357 0.174929 0.68368 
0.174929 -9.32072 -0.148412 
0.68368 -0.148412 -9.72403 
-8.90245 -0.176506 0.2189 
-0.176506 -9.48305 0.123372 
0.2189 0.123372 -9.89496 
-8.83838 -0.260747 0.609588 
-0.260747 -9.373 -0.165396 
0.609588 -0.165396 -10.0691 
-9.50693 0.484442 1.04727 
0.484442 -9.4959 0.959552 
1.04727 0.959552 -9.7766 
-9.03091 0.587552 1.31243 
0.587552 -9.80231 1.01294 
1.31243 1.01294 -9.94621 
-9.32269 0.410246 0.866295 
0.410246 -9.3551 0.6852 
0.866295 0.6852 -10.1016 
-9.26047 0.451758 1.31219 
0.451758 -9.32282 1.031 
1.31219 1.031 -10.1961 
-9.61663 0.224015 -0.661602 
0.224015 -9.39668 -1.04533 
-0.661602 -1.04533 -9.66105 
-9.83355 0.145357 -0.447477 
0.145357 -9.48186 -1.04275 
-0.447477 -1.04275 -9.35894 
-9.75943 0.225215 -0.504459 
0.225215 -9.35623 -1.04692 
-0.504459 -1.04692 -9.5587 
-9.60249 0.1862 -0.578932 
0.1862 -9.37327 -0.976251 
-0.578932 -0.976251 -9.6986 
-8.88169 -0.363777 0.780342 
-0.363777 -9.50647 -0.483643 
0.780342 -0.483643 -9.95521 
-9.80209 0.344803 0.255417 
0.344803 -9.26913 -0.0703293 
0.255417 -0.0703293 -9.27215 
-9.45065 -0.174769 0.442604 
-0.174769 -9.48994 -0.145207 
0.442604 -0.145207 -9.40278 
-9.33917 -0.45602 0.259906 
-0.45602 -9.09907 -0.552182 
0.259906 -0.552182 -9.90513 
-9.8571 -0.0130267 0.459956 
-0.0130267 -9.74163 -0.729019 
0.459956 -0.729019 -9.94993 
-9.81581 -0.081755 0.505926 
-0.081755 -9.85251 -0.842897 
0.505926 -0.842897 -9.88034 
-9.88938 -0.0387442 0.442358 
-0.0387442 -9.77973 -0.90032 
0.442358 -0.90032 -9.87955 
-9.90423 -0.0778148 0.423753 
-0.0778148 -9.7344 -0.830204 
0.423753 -0.830204 -9.91003 
-9.64164 -0.443622 0.513919 
-0.443622 -9.5996 -0.716073 
0.513919 -0.716073 -9.95013 
-9.71776 -0.134755 0.716155 
-0.134755 -9.67919 -0.893055 
0.716155 -0.893055 -9.79442 
-9.71943 0.02634 0.435375 
0.02634 -9.61267 -0.695299 
0.435375 -0.695299 -9.85927 
-9.65687 -0.153256 0.410638 
-0.153256 -9.61746 -0.863382 
0.410638 -0.863382 -9.91704 
-8.08361 -0.341539 2.49048 
-0.341539 -8.63402 -0.443393 
2.49048 -0.443393 -5.42312 
-8.00046 -0.171196 2.61816 
-0.171196 -8.12578 -1.08103 
2.61816 -1.08103 -6.0145 
-7.97601 -0.178671 2.51923 
-0.178671 -8.48836 -0.138815 
2.51923 -0.138815 -5.67638 
-8.07651 -0.844408 3.2225 
-0.844408 -9.92012 -1.03181 
3.2225 -1.03181 -4.14412 
-9.32428 -0.205514 0.574831 
-0.205514 -9.2422 -1.38413 
0.574831 -1.38413 -8.84298 
-9.36068 0.0101364 0.400298 
0.0101364 -9.46625 -1.41929 
0.400298 -1.41929 -8.58253 
-9.52013 -0.0815947 0.0684189 
-0.0815947 -8.50308 -1.19261 
0.0684189 -1.19261 -9.38624 
-10.1815 -0.591392 0.527145 
-0.591392 -8.30784 -2.2498 
0.527145 -2.2498 -8.92008 
-9.83877 -0.169416 0.0257668 
-0.169416 -8.38012 1.2777 
0.0257668 1.2777 -10.3738 
-9.83009 0.155541 -0.00347062 
0.155541 -8.68257 0.986384 
-0.00347062 0.986384 -10.0801 
-10.0077 -0.0164417 0.191784 
-0.0164417 -8.72936 1.3768 
0.191784 1.3768 -9.85568 
-9.51678 0.107628 0.178951 
0.107628 -8.9021 0.606703 
0.178951 0.606703 -10.1739 
-8.99054 -0.657677 0.960193 
-0.657677 -8.7584 -1.65499 
0.960193 -1.65499 -9.64001 
-9.92337 -0.593055 0.987923 
-0.593055 -8.15947 -2.42065 
0.987923 -2.42065 -9.30609 
-9.49556 -0.838887 1.49616 
-0.838887 -9.42143 -2.79748 
1.49616 -2.79748 -8.47195 
-9.97717 -0.685874 0.875544 
-0.685874 -8.39281 -2.20315 
0.875544 -2.20315 -9.01896 
-9.10714 0.64281 -1.59993 
0.64281 -9.3713 -1.44609 
-1.59993 -1.44609 -8.8693 
-9.13447 1.30074 -1.52416 
1.30074 -8.81002 -1.72398 
-1.52416 -1.72398 -9.40326 
-9.27333 -0.268772 -2.08654 
-0.268772 -9.02232 -2.43115 
-2.08654 -2.43115 -9.05209 
-9.32093 0.58986 -1.59121 
0.58986 -9.27565 -1.39438 
-1.59121 -1.39438 -8.75116 
-9.5339 0.0734957 0.783086 
0.0734957 -9.90848 -0.349369 
0.783086 -0.349369 -9.92418 
-9.75468 -0.0987375 0.855187 
-0.0987375 -9.79268 -0.489366 
0.855187 -0.489366 -9.8192 
-9.6928 -0.0796659 0.843282 
-0.0796659 -9.81675 -0.47201 
0.843282 -0.47201 -9.85701 
-9.70417 -0.0552232 0.998672 
-0.0552232 -9.90084 -0.573177 
0.998672 -0.573177 -9.76155 
-10.0622 0.182959 0.251387 
0.182959 -9.62129 0.0730728 
0.251387 0.0730728 -9.76912 
-9.35157 0.264416 -0.0376541 
0.264416 -9.49914 0.146175 
-0.0376541 0.146175 -10.6019 
-9.51371 0.341234 0.495207 
0.341234 -9.65117 0.311788 
0.495207 0.311788 -10.2877 
-9.62348 0.218217 0.175251 
0.218217 -9.6312 0.244042 
0.175251 0.244042 -10.1979 
-9.40068 0.641795 1.77651 
0.641795 -8.91559 1.39707 
1.77651 1.39707 -10.6252 
-9.68491 0.482888 0.883627 
0.482888 -9.02597 0.798646 
0.883627 0.798646 -10.2306 
-9.85358 -0.0871009 0.519658 
-0.0871009 -9.6492 0.837389 
0.519658 0.837389 -9.43873 
-8.06442 1.47833 1.17952 
1.47833 -9.5942 0.41348 
1.17952 0.41348 -11.2829 
-9.34135 0.743429 -0.259421 
0.743429 -8.75238 -0.772351 
-0.259421 -0.772351 -10.2918 
-9.34923 0.457167 -0.441769 
0.457167 -8.78571 -0.668027 
-0.441769 -0.668027 -10.2506 
-9.41051 0.5806 -0.519468 
0.5806 -8.74863 -1.11113 
-0.519468 -1.11113 -10.2264 
-8.98328 0.77382 -0.512044 
0.77382 -9.09572 -1.43632 
-0.512044 -1.43632 -10.3065 
-8.70519 0.753625 1.02861 
0.753625 -9.58211 1.44685 
1.02861 1.44685 -10.37 
-9.81136 1.65076 2.21544 
1.65076 -8.82269 0.916065 
2.21544 0.916065 -10.0232 
-9.99392 1.2058 1.32728 
1.2058 -8.14989 -0.0502838 
1.32728 -0.0502838 -10.5135 
-8.28541 1.43051 0.830752 
1.43051 -9.37119 1.56127 
0.830752 1.56127 -11.0007 
-9.37433 -0.553057 -0.982177 
-0.553057 -8.96232 1.01935 
-0.982177 1.01935 -10.0844 
-9.19375 -0.492405 -1.01015 
-0.492405 -9.23003 0.940751 
-1.01015 0.940751 -9.99731 
-8.61123 -1.98008 -1.15375 
-1.98008 -8.93277 1.5553 
-1.15375 1.5553 -10.8771 
-9.14477 0.059541 0.402943 
0.059541 -8.88101 0.229498 
0.402943 0.229498 -10.3953 
-9.83727 -0.0500779 -0.77041 
-0.0500779 -9.93797 0.473072 
-0.77041 0.473072 -9.75175 
-9.71337 -0.05189 -0.78203 
-0.05189 -9.7747 0.480871 
-0.78203 0.480871 -10.0389 
-9.75826 -0.0538478 -0.830814 
-0.0538478 -9.75705 0.505114 
-0.830814 0.505114 -10.0117 
-9.79934 -0.114449 -0.867798 
-0.114449 -9.84287 0.332649 
-0.867798 0.332649 -9.88479 
-9.84216 -0.268917 0.575954 
-0.268917 -9.31377 -1.082 
0.575954 -1.082 -9.75654 
-9.55074 -0.478045 0.711573 
-0.478045 -9.3349 -1.15783 
0.711573 -1.15783 -10.0268 
-9.53531 -0.182109 0.436623 
-0.182109 -9.39366 -0.8297 
0.436623 -0.8297 -9.98351 
-9.87551 -0.179119 0.650328 
-0.179119 -9.53709 -1.13882 
0.650328 -1.13882 -9.49988 
-6.82648 -2.26162 2.11443 
-2.26162 -9.52303 -4.19242 
2.11443 -4.19242 -4.4653 
-7.19446 -1.6172 0.410934 
-1.6172 -7.42749 -3.72834 
0.410934 -3.72834 -6.19285 
-7.5867 1.53399 0.901019 
1.53399 -6.9306 -3.96053 
0.901019 -3.96053 -6.2975 
-8.74034 -1.50014 -2.03183 
-1.50014 -7.02317 -3.56149 
-2.03183 -3.56149 -5.05129 
-9.20966 -0.61838 1.34206 
-0.61838 -8.95088 -1.45304 
1.34206 -1.45304 -9.48275 
-9.25846 -0.631993 1.89422 
-0.631993 -9.41289 -1.69377 
1.89422 -1.69377 -8.97193 
-9.12566 -1.16547 1.4247 
-1.16547 -9.45515 -2.03766 
1.4247 -2.03766 -9.06247 
-9.52556 -0.7154 1.61832 
-0.7154 -8.98454 -1.45597 
1.61832 -1.45597 -9.13318 
-10.0802 0.0271743 -0.0358793 
0.0271743 -10.0031 -0.906681 
-0.0358793 -0.906681 -9.83957 
-10.1155 0.0168099 -0.0618153 
0.0168099 -9.98333 -0.930157 
-0.0618153 -0.930157 -9.82395 
-9.86747 -0.00167503 -0.0670277 
-0.00167503 -9.81567 -0.878042 
-0.0670277 -0.878042 -10.2397 
-10.0891 -0.043278 0.0958495 
-0.043278 -9.9551 -1.05194 
0.0958495 -1.05194 -9.87858 
-9.50699 -0.11224 0.75292 
-0.11224 -9.64269 -0.703307 
0.75292 -0.703307 -9.72061 
-9.60784 -0.193754 0.837876 
-0.193754 -9.72011 -0.575102 
0.837876 -0.575102 -9.54233 
-9.51773 -0.126151 0.675935 
-0.126151 -9.62928 -0.725581 
0.675935 -0.725581 -9.72327 
-9.53716 -0.132693 0.727978 
-0.132693 -9.6655 -0.65127 
0.727978 -0.65127 -9.66763 
-8.62867 -0.465345 -1.26084 
-0.465345 -9.23398 0.54738 
-1.26084 0.54738 -10.2351 
-8.66614 -0.522582 -1.27649 
-0.522582 -9.42708 0.404879 
-1.27649 0.404879 -10.0046 
-8.66716 -0.563849 -1.23454 
-0.563849 -9.37955 0.519319 
-1.23454 0.519319 -10.0511 
-8.61298 -0.317007 -1.22732 
-0.317007 -9.01914 0.616116 
-1.22732 0.616116 -10.4657 
-9.58911 -0.0489026 0.130366 
-0.0489026 -9.44335 -1.04224 
0.130366 -1.04224 -9.34622 
-10.0367 -0.0523341 0.273862 
-0.0523341 -9.70263 -1.25954 
0.273862 -1.25954 -8.63932 
-9.67295 -0.136017 0.574622 
-0.136017 -9.42213 -0.870741 
0.574622 -0.870741 -9.2836 
-9.76096 0.0457467 0.452362 
0.0457467 -9.50886 -0.893856 
0.452362 -0.893856 -9.10885 
-9.67708 0.142421 0.291497 
0.142421 -9.09482 0.725631 
0.291497 0.725631 -9.64097 
-9.53193 -0.103347 -0.0184777 
-0.103347 -9.08305 0.745084 
-0.0184777 0.745084 -9.79789 
-9.38807 0.00437273 -0.0431867 
0.00437273 -9.39422 0.769208 
-0.0431867 0.769208 -9.63057 
-9.47125 0.157318 0.253718 
0.157318 -9.07792 1.00522 
0.253718 1.00522 -9.8637 
-9.72067 -0.00975763 0.839302 
-0.00975763 -9.76453 -0.533677 
0.839302 -0.533677 -9.6647 
-9.81759 -0.20069 0.98028 
-0.20069 -9.80572 -0.635611 
0.98028 -0.635611 -9.52659 
-9.70251 -0.0998139 0.475219 
-0.0998139 -9.50983 -0.615381 
0.475219 -0.615381 -9.93755 
-9.5961 -0.0403556 0.748138 
-0.0403556 -9.84418 -0.464212 
0.748138 -0.464212 -9.70963 
-9.1515 1.17467 1.94799 
1.17467 -8.91455 2.05765 
1.94799 2.05765 -10.6953 
-9.37064 -0.373261 0.292794 
-0.373261 -10.4633 1.40547 
0.292794 1.40547 -8.92748 
-9.08019 0.897597 0.934063 
0.897597 -8.90643 1.04675 
0.934063 1.04675 -10.7748 
-8.76077 1.51762 0.551568 
1.51762 -8.14381 0.514864 
0.551568 0.514864 -11.8568 
-9.59786 0.018439 0.711243 
0.018439 -9.78306 -0.0453382 
0.711243 -0.0453382 -9.73792 
-9.5827 -0.0105733 0.928521 
-0.0105733 -9.6814 0.0415225 
0.928521 0.0415225 -9.85474 
-9.46915 0.00477198 0.838999 
0.00477198 -9.84608 -0.0157012 
0.838999 -0.0157012 -9.80361 
-9.56612 0.0519951 0.861765 
0.0519951 -9.73669 0.0569345 
0.861765 0.0569345 -9.81603 
-9.35939 -0.0635025 0.548443 
-0.0635025 -9.4291 -0.0269029 
0.548443 -0.0269029 -9.74725 
-9.55297 0.0500454 0.541019 
0.0500454 -9.36385 -0.1828 
0.541019 -0.1828 -9.61892 
-8.55136 -0.0370584 0.462169 
-0.0370584 -9.96873 0.0228706 
0.462169 0.0228706 -10.0157 
-9.30322 -0.3877 0.913523 
-0.3877 -9.391 0.0309469 
0.913523 0.0309469 -9.84152 
-9.49643 0.302574 0.292212 
0.302574 -8.87849 -0.581406 
0.292212 -0.581406 -9.86467 
-9.41474 -0.210743 0.134116 
-0.210743 -9.11573 -1.27365 
0.134116 -1.27365 -9.70913 
-9.37842 0.116518 -0.234538 
0.116518 -9.12954 -0.461515 
-0.234538 -0.461515 -9.73164 
-9.53737 0.248857 -0.412757 
0.248857 -8.97167 -0.704362 
-0.412757 -0.704362 -9.73056 
-9.59004 0.0182467 0.955336 
0.0182467 -9.77986 -0.101703 
0.955336 -0.101703 -9.78306 
-9.61951 -0.054233 0.725641 
-0.054233 -9.77888 -0.015117 
0.725641 -0.015117 -9.75457 
-9.67886 -0.0289144 0.771385 
-0.0289144 -9.63611 -0.100749 
0.771385 -0.100749 -9.83799 
-9.55178 -0.0299139 0.837045 
-0.0299139 -9.66985 -0.106078 
0.837045 -0.106078 -9.93133 
-7.4861 -2.00722 0.767955 
-2.00722 -5.96604 -2.26055 
0.767955 -2.26055 -4.9929 
-7.58328 -0.133721 0.586547 
-0.133721 -6.89623 -2.86755 
0.586547 -2.86755 -3.96553 
-7.63925 0.0585885 1.2385 
0.0585885 -7.31522 -2.77725 
1.2385 -2.77725 -3.49058 
-7.13764 -0.292755 -0.366535 
-0.292755 -6.46403 -3.24827 
-0.366535 -3.24827 -4.84337 
-9.16703 0.3901 -0.373525 
0.3901 -8.6357 -0.512184 
-0.373525 -0.512184 -10.1699 
-9.15924 0.607331 -0.290801 
0.607331 -8.88247 -0.485376 
-0.290801 -0.485376 -9.93093 
-9.24035 0.540318 -0.275311 
0.540318 -8.64851 -0.54137 
-0.275311 -0.54137 -10.0838 
-9.17525 0.507994 -0.320383 
0.507994 -8.65283 -0.490535 
-0.320383 -0.490535 -10.1446 
-9.78909 0.490271 -0.550154 
0.490271 -9.80394 -0.783814 
-0.550154 -0.783814 -11.8371 
-10.1418 0.0325174 -0.322338 
0.0325174 -10.4345 -0.0379395 
-0.322338 -0.0379395 -10.8539 
-9.90196 0.407094 0.0174827 
0.407094 -10.5085 -0.602481 
0.0174827 -0.602481 -11.0197 
-9.3309 0.760452 -0.498078 
0.760452 -10.9 0.498005 
-0.498078 0.498005 -11.1992 
-8.64309 0.278306 -1.20289 
0.278306 -9.48509 -0.38093 
-1.20289 -0.38093 -9.25583 
-9.34855 0.0143734 -1.47751 
0.0143734 -9.39609 -0.163433 
-1.47751 -0.163433 -8.63936 
-9.04454 -0.0728 -1.49258 
-0.0728 -9.44534 0.00604208 
-1.49258 0.00604208 -8.89413 
-8.16425 0.1596 -2.16055 
0.1596 -10.3845 -0.28949 
-2.16055 -0.28949 -8.83524 
-9.82329 -0.0672654 0.209022 
-0.0672654 -9.66123 -0.947989 
0.209022 -0.947989 -9.79411 
-9.83902 0.0938012 0.166821 
0.0938012 -9.57782 -0.918094 
0.166821 -0.918094 -9.86179 
-9.80163 -0.0994075 0.176883 
-0.0994075 -9.64462 -0.941285 
0.176883 -0.941285 -9.83237 
-9.88434 0.00344973 0.301664 
0.00344973 -9.6064 -1.07303 
0.301664 -1.07303 -9.78788 
-9.81819 0.134182 -0.563765 
0.134182 -9.80578 0.590893 
-0.563765 0.590893 -9.81075 
-10.009 0.24061 -0.726509 
0.24061 -10.054 0.613435 
-0.726509 0.613435 -9.37171 
-9.89821 -0.20179 -0.580574 
-0.20179 -9.96688 0.633481 
-0.580574 0.633481 -9.56963 
-9.89944 -0.287758 -0.828157 
-0.287758 -9.81713 0.750397 
-0.828157 0.750397 -9.71816 
-9.37528 0.177944 0.95575 
0.177944 -9.69988 0.0407535 
0.95575 0.0407535 -9.951 
-9.17184 0.0268977 1.33801 
0.0268977 -10.0482 0.096129 
1.33801 0.096129 -9.80608 
-9.49574 0.0629484 1.25206 
0.0629484 -9.94848 0.099793 
1.25206 0.099793 -9.58195 
-9.63175 -0.107122 1.32249 
-0.107122 -9.83548 0.095455 
1.32249 0.095455 -9.55893 
-9.26141 0.219863 -0.194688 
0.219863 -9.04798 -0.619866 
-0.194688 -0.619866 -9.94695 
-9.63381 -0.181845 -0.19989 
-0.181845 -8.97442 -0.870719 
-0.19989 -0.870719 -9.64811 
-9.55896 -0.0620663 -0.178108 
-0.0620663 -9.18156 -1.05388 
-0.178108 -1.05388 -9.51583 
-9.44443 0.42542 -0.289214 
0.42542 -8.6508 -0.926843 
-0.289214 -0.926843 -10.1611 
-8.50658 0.405439 -1.97395 
0.405439 -9.14685 -2.02762 
-1.97395 -2.02762 -9.71504 
-10.7608 1.30858 -2.33759 
1.30858 -9.44152 -1.45147 
-2.33759 -1.45147 -7.16614 
-9.61004 0.607045 -1.12396 
0.607045 -8.01942 -0.471935 
-1.12396 -0.471935 -9.739 
-8.08245 1.27942 -2.2895 
1.27942 -10.5025 -1.82771 
-2.2895 -1.82771 -8.78348 
-9.39817 0.636003 0.797865 
0.636003 -9.33054 1.35256 
0.797865 1.35256 -9.75832 
-9.07774 0.455762 0.711121 
0.455762 -9.30636 0.769723 
0.711121 0.769723 -10.1029 
-10.0305 0.568081 0.784658 
0.568081 -8.34945 1.46333 
0.784658 1.46333 -10.1071 
-9.22123 0.297058 1.15158 
0.297058 -9.01133 1.23419 
1.15158 1.23419 -10.2545 
-9.25528 -0.192848 1.23679 
-0.192848 -8.99657 -1.24238 
1.23679 -1.24238 -9.55775 
-8.72005 -0.52066 1.15045 
-0.52066 -9.2149 -1.20029 
1.15045 -1.20029 -9.87466 
-9.06009 -0.560816 0.755582 
-0.560816 -9.58432 0.0159359 
0.755582 0.0159359 -9.1652 
-9.29342 -0.930458 1.6873 
-0.930458 -9.75898 -1.09051 
1.6873 -1.09051 -8.75721 
-9.66553 -0.362028 1.16681 
-0.362028 -10.001 -0.546216 
1.16681 -0.546216 -8.86322 
-9.84422 -0.313182 1.16417 
-0.313182 -9.5769 -0.674261 
1.16417 -0.674261 -9.10859 
-9.16461 0.0501122 0.767809 
0.0501122 -9.53657 -0.608429 
0.767809 -0.608429 -9.82852 
-9.19113 -0.436808 1.5578 
-0.436808 -9.95686 -0.930293 
1.5578 -0.930293 -9.38171 
-8.52788 0.997561 -0.988427 
0.997561 -9.4829 -1.24154 
-0.988427 -1.24154 -9.66118 
-9.19187 0.796997 -1.31615 
0.796997 -8.85164 -1.56616 
-1.31615 -1.56616 -9.62846 
-8.71249 0.656345 -1.28618 
0.656345 -9.41624 -1.46488 
-1.28618 -1.46488 -9.54323 
-8.90675 0.788366 -1.12888 
0.788366 -8.92311 -1.0866 
-1.12888 -1.0866 -9.8421 
-10.0524 0.319216 0.317729 
0.319216 -9.83982 0.159574 
0.317729 0.159574 -9.88306 
-9.72359 -0.256407 -0.300682 
-0.256407 -9.79376 -0.33688 
-0.300682 -0.33688 -10.2579 
-9.81612 0.338689 -0.279177 
0.338689 -9.98386 -0.0805255 
-0.279177 -0.0805255 -9.97531 
-9.80285 0.23672 -0.0205983 
0.23672 -9.563 0.0141967 
-0.0205983 0.0141967 -10.4094 
-8.71277 1.01132 1.70092 
1.01132 -9.9596 1.17585 
1.70092 1.17585 -9.22325 
-9.48395 0.587406 1.51422 
0.587406 -9.07545 0.939488 
1.51422 0.939488 -9.33622 
-9.26522 0.267797 1.82263 
0.267797 -9.74515 0.949251 
1.82263 0.949251 -8.88525 
-9.01178 0.590385 1.37909 
0.590385 -9.29744 0.992261 
1.37909 0.992261 -9.58639 
-9.2053 0.0886066 0.294643 
0.0886066 -9.98219 0.515788 
0.294643 0.515788 -9.38928 
-9.44976 0.0954555 0.220018 
0.0954555 -9.35033 0.360813 
0.220018 0.360813 -9.77669 
-9.5994 0.0388052 0.111787 
0.0388052 -9.02624 0.161863 
0.111787 0.161863 -9.95114 
-9.60009 0.14347 0.0150482 
0.14347 -9.04784 0.511078 
0.0150482 0.511078 -9.92885 
-8.21952 -0.0312955 -1.08948 
-0.0312955 -9.96247 0.0785527 
-1.08948 0.0785527 -9.81375 
-9.10616 0.146047 -1.15724 
0.146047 -9.20346 -0.0450065 
-1.15724 -0.0450065 -9.68613 
-8.26626 -0.0980202 -1.31366 
-0.0980202 -9.83142 -0.0014096 
-1.31366 -0.0014096 -9.89807 
-8.3819 0.0206791 -1.16256 
0.0206791 -9.85569 -0.126469 
-1.16256 -0.126469 -9.75815 
-9.09878 -0.33893 1.23387 
-0.33893 -8.79661 -0.970134 
1.23387 -0.970134 -10.1032 
-9.68116 0.10234 0.560828 
0.10234 -8.62844 -0.955744 
0.560828 -0.955744 -9.68893 
-8.97337 -0.955888 0.506112 
-0.955888 -9.0394 -0.740797 
0.506112 -0.740797 -9.98576 
-9.42342 -0.428843 0.365123 
-0.428843 -8.88544 -1.16587 
0.365123 -1.16587 -9.68968 
-8.9558 0.127194 0.525092 
0.127194 -9.33847 -0.0999375 
0.525092 -0.0999375 -9.96516 
-9.40351 -0.277132 1.20235 
-0.277132 -9.35071 -0.169046 
1.20235 -0.169046 -9.5052 
-9.02085 -0.215936 0.907946 
-0.215936 -9.45358 -0.117909 
0.907946 -0.117909 -9.78499 
-8.34019 0.11525 0.916596 
0.11525 -9.57562 -0.116241 
0.916596 -0.116241 -10.3436 
-9.73169 -0.496736 1.5153 
-0.496736 -9.03659 -1.25719 
1.5153 -1.25719 -7.83315 
-9.35643 -0.586629 0.50781 
-0.586629 -8.52825 -0.998232 
0.50781 -0.998232 -8.71675 
-8.91577 0.0916753 0.684424 
0.0916753 -9.33394 -0.750368 
0.684424 -0.750368 -8.35172 
-9.10533 0.186723 1.17539 
0.186723 -9.17541 -1.03039 
1.17539 -1.03039 -8.3207 
-9.43074 -0.157677 -0.368996 
-0.157677 -9.11407 0.639745 
-0.368996 0.639745 -9.7574 
-9.43013 -0.193979 -0.44531 
-0.193979 -9.2568 0.687957 
-0.44531 0.687957 -9.61528 
-9.39287 -0.100322 -0.430399 
-0.100322 -9.15689 0.685728 
-0.430399 0.685728 -9.75244 
-9.41838 -0.258334 -0.399985 
-0.258334 -9.19314 0.760913 
-0.399985 0.760913 -9.69069 
-9.76683 0.0552549 0.405516 
0.0552549 -9.93011 -0.781513 
0.405516 -0.781513 -9.99457 
-9.94041 -0.0924978 0.46436 
-0.0924978 -9.92449 -0.721451 
0.46436 -0.721451 -9.8266 
-9.77834 -0.0572689 0.421672 
-0.0572689 -9.88837 -0.850848 
0.421672 -0.850848 -10.0248 
-9.92328 -0.106652 0.3708 
-0.106652 -9.80639 -0.778238 
0.3708 -0.778238 -9.96184 
-9.56646 0.0240357 -0.461861 
0.0240357 -9.57084 0.89074 
-0.461861 0.89074 -9.86166 
-9.60749 -0.161104 -0.397711 
-0.161104 -9.49115 0.738548 
-0.397711 0.738548 -9.90033 
-9.74066 -0.0786002 -0.304391 
-0.0786002 -9.56852 0.601188 
-0.304391 0.601188 -9.68979 
-9.65178 -0.0909177 -0.41172 
-0.0909177 -9.45943 0.72602 
-0.41172 0.72602 -9.88776 
-3.32486 -0.130435 -0.261934 
-0.130435 -4.12001 -2.17231 
-0.261934 -2.17231 -3.11186 
-5.91839 0.0311198 -0.328735 
0.0311198 -7.23144 0.170416 
-0.328735 0.170416 2.59311 
-3.89146 -1.00595 -0.410149 
-1.00595 -2.49403 -2.32201 
-0.410149 -2.32201 -4.17124 
-2.32578 0.112507 0.180512 
0.112507 -7.38322 -5.05348 
0.180512 -5.05348 -0.847724 
-8.63838 0.0499048 1.42203 
0.0499048 -9.92859 -0.12061 
1.42203 -0.12061 -9.52852 
-8.93452 -0.295293 1.23765 
-0.295293 -9.64695 -0.201972 
1.23765 -0.201972 -9.51402 
-8.71575 0.488491 0.975199 
0.488491 -9.67637 -0.276275 
0.975199 -0.276275 -9.70337 
-8.7977 -0.165905 1.21272 
-0.165905 -9.64471 -0.139284 
1.21272 -0.139284 -9.65308 
-9.21816 -0.366792 0.112786 
-0.366792 -7.57212 0.974754 
0.112786 0.974754 -8.43646 
-8.99273 0.924588 1.73428 
0.924588 -9.65544 2.72782 
1.73428 2.72782 -6.57857 
-10.9687 -0.773176 0.599131 
-0.773176 -8.69448 2.90825 
0.599131 2.90825 -5.56355 
-9.24769 1.52228 0.643045 
1.52228 -9.23849 1.52627 
0.643045 1.52627 -6.74055 
-9.15607 0.177533 0.0741677 
0.177533 -8.78916 -0.576051 
0.0741677 -0.576051 -10.0043 
-9.16208 0.35872 -0.0771548 
0.35872 -8.77956 -0.625002 
-0.0771548 -0.625002 -10.0079 
-9.42802 0.263534 -0.121396 
0.263534 -8.63506 -0.546594 
-0.121396 -0.546594 -9.88643 
-9.29112 0.2984 -0.104934 
0.2984 -8.83071 -0.497353 
-0.104934 -0.497353 -9.82768 
-8.74891 3.24544 3.79764 
3.24544 -11.3067 2.44139 
3.79764 2.44139 -9.7883 
-11.2504 1.80173 2.32081 
1.80173 -8.65493 2.66296 
2.32081 2.66296 -9.93857 
-11.0688 2.00992 2.34207 
2.00992 -9.65216 3.64784 
2.34207 3.64784 -9.12298 
-10.3274 2.0829 0.747625 
2.0829 -7.84606 1.58176 
0.747625 1.58176 -11.6704 
-9.60858 0.328397 -0.558927 
0.328397 -9.38079 -0.931381 
-0.558927 -0.931381 -7.89911 
-9.56803 0.244826 -0.741058 
0.244826 -9.44329 -0.931056 
-0.741058 -0.931056 -7.87717 
-9.60943 0.305461 -0.598473 
0.305461 -9.50652 -0.944437 
-0.598473 -0.944437 -7.77254 
-9.52321 0.280074 -0.752747 
0.280074 -9.48143 -1.03299 
-0.752747 -1.03299 -7.88384 
-9.58452 -0.0720029 0.662164 
-0.0720029 -9.80308 -0.0252396 
0.662164 -0.0252396 -9.75685 
-9.46308 -0.0801868 0.845155 
-0.0801868 -9.76212 -0.145041 
0.845155 -0.145041 -9.91924 
-9.66007 0.0253909 1.02066 
0.0253909 -9.61364 -0.195534 
1.02066 -0.195534 -9.87073 
-9.55501 -0.0541662 0.839991 
-0.0541662 -9.69963 -0.203279 
0.839991 -0.203279 -9.8898 
-8.731 -0.101715 0.770498 
-0.101715 -9.416 -0.055966 
0.770498 -0.055966 -9.75725 
-8.93408 0.211255 0.984001 
0.211255 -9.36182 0.0593328 
0.984001 0.0593328 -9.60837 
-9.12207 0.166194 1.14542 
0.166194 -9.313 0.0913821 
1.14542 0.0913821 -9.46919 
-8.43784 -0.0340469 0.98923 
-0.0340469 -9.55073 -0.0257058 
0.98923 -0.0257058 -9.91568 
-7.75544 0.289364 2.35448 
0.289364 -9.18495 0.758658 
2.35448 0.758658 -8.76354 
-8.68921 0.235831 2.96845 
0.235831 -8.8722 1.69975 
2.96845 1.69975 -8.14251 
-8.74113 0.887412 3.95626 
0.887412 -10.5202 1.21778 
3.95626 1.21778 -6.44259 
-7.46658 0.375393 2.37984 
0.375393 -9.5815 1.53224 
2.37984 1.53224 -8.65586 
-9.44912 -0.163066 0.926613 
-0.163066 -10.3158 -0.513414 
0.926613 -0.513414 -9.20224 
-9.67211 -0.169616 0.969499 
-0.169616 -9.7297 -0.670227 
0.969499 -0.670227 -9.56539 
-9.67891 -0.103423 0.89609 
-0.103423 -9.75389 -0.405591 
0.89609 -0.405591 -9.53439 
-9.69163 -0.103028 0.838867 
-0.103028 -9.86799 -0.521433 
0.838867 -0.521433 -9.40757 
-9.78557 -0.753973 -1.06559 
-0.753973 -9.10949 1.70639 
-1.06559 1.70639 -9.48774 
-9.48576 -0.474952 -0.685754 
-0.474952 -9.09047 0.90542 
-0.685754 0.90542 -9.80657 
-9.76893 -0.701809 -0.54894 
-0.701809 -8.58694 1.85104 
-0.54894 1.85104 -10.0269 
-9.87771 -0.521705 -0.618327 
-0.521705 -8.80581 1.79486 
-0.618327 1.79486 -9.69929 
-8.88102 0.442713 1.98477 
0.442713 -9.39977 1.28014 
1.98477 1.28014 -7.12743 
-7.63651 -0.426718 1.95781 
-0.426718 -9.23332 1.73822 
1.95781 1.73822 -8.53839 
-8.61838 0.755744 2.32988 
0.755744 -9.19789 0.891748 
2.32988 0.891748 -7.59195 
-9.02833 0.607349 1.95002 
0.607349 -8.94239 1.10158 
1.95002 1.10158 -7.43751 
-9.74154 -0.532728 0.829299 
-0.532728 -9.25431 -1.10056 
0.829299 -1.10056 -9.85606 
-9.55496 -0.349488 0.908144 
-0.349488 -9.63317 -0.92518 
0.908144 -0.92518 -9.66378 
-9.56057 -0.147887 0.626804 
-0.147887 -9.35163 -0.73418 
0.626804 -0.73418 -9.93971 
-9.58622 -0.168563 0.839272 
-0.168563 -9.6893 -1.01123 
0.839272 -1.01123 -9.5764 
-9.47733 -0.0909739 -0.98671 
-0.0909739 -9.70017 0.506494 
-0.98671 0.506494 -9.62492 
-9.48283 -0.0950277 -0.99701 
-0.0950277 -9.67774 0.547449 
-0.99701 0.547449 -9.64184 
-9.45718 -0.143682 -0.913393 
-0.143682 -9.62892 0.499987 
-0.913393 0.499987 -9.71631 
-9.53339 -0.07804 -1.09426 
-0.07804 -9.74191 0.504252 
-1.09426 0.504252 -9.52712 
-7.75131 -0.0807431 1.15877 
-0.0807431 -8.88852 2.52167 
1.15877 2.52167 -6.79355 
-8.90257 -0.0288819 0.0107483 
-0.0288819 -9.63907 1.93206 
0.0107483 1.93206 -4.89174 
-9.78327 0.0724645 0.222562 
0.0724645 -8.46438 0.93194 
0.222562 0.93194 -5.18574 
-9.61055 0.599731 0.856527 
0.599731 -8.49566 1.8075 
0.856527 1.8075 -5.32717 
-9.30031 -0.63993 0.910935 
-0.63993 -8.89415 -1.36089 
0.910935 -1.36089 -9.89495 
-9.28343 -0.728187 0.711018 
-0.728187 -8.74492 -0.847793 
0.711018 -0.847793 -10.061 
-9.15437 -0.0396884 0.507888 
-0.0396884 -9.20438 -0.794823 
0.507888 -0.794823 -9.73066 
-9.08819 -0.57784 0.942656 
-0.57784 -8.85804 -0.720429 
0.942656 -0.720429 -10.1432 
-9.07589 0.432292 1.0365 
0.432292 -9.1878 1.00779 
1.0365 1.00779 -9.72638 
-9.09987 0.864814 1.39763 
0.864814 -9.57482 0.777462 
1.39763 0.777462 -9.31538 
-9.1612 0.607834 1.24069 
0.607834 -9.21433 1.51358 
1.24069 1.51358 -9.61454 
-9.45724 0.403017 1.78543 
0.403017 -9.9233 0.686533 
1.78543 0.686533 -8.60953 
-9.73246 0.247059 -0.662638 
0.247059 -9.50691 -0.97816 
-0.662638 -0.97816 -9.70777 
-9.74115 0.330249 -0.51837 
0.330249 -9.32861 -1.09703 
-0.51837 -1.09703 -9.87738 
-9.71327 0.428219 -0.621871 
0.428219 -9.24131 -1.14541 
-0.621871 -1.14541 -9.99256 
-9.60821 0.158042 -0.478202 
0.158042 -9.38296 -0.794926 
-0.478202 -0.794926 -9.95597 
-9.89173 0.382516 0.271906 
0.382516 -8.51295 1.31153 
0.271906 1.31153 -10.4427 
-9.76442 0.36311 0.242762 
0.36311 -8.53899 1.05377 
0.242762 1.05377 -10.544 
-9.5693 0.49715 0.281552 
0.49715 -8.65679 1.29845 
0.281552 1.29845 -10.6213 
-9.64303 0.718881 0.0939054 
0.718881 -8.27722 1.01607 
0.0939054 1.01607 -10.9271 
-8.61408 0.414038 1.43823 
0.414038 -7.99354 1.63803 
1.43823 1.63803 -4.91705 
-8.90893 0.632955 1.31549 
0.632955 -8.49552 2.28439 
1.31549 2.28439 -4.12023 
-8.62647 0.270452 1.38742 
0.270452 -8.16855 1.60928 
1.38742 1.60928 -4.72966 
-8.09355 0.461253 0.61 
0.461253 -8.74561 1.18439 
0.61 1.18439 -4.68552 
-9.58938 -0.136044 -0.855224 
-0.136044 -9.74486 0.429549 
-0.855224 0.429549 -9.86837 
-9.62451 -0.0212946 -0.834697 
-0.0212946 -9.76916 0.352035 
-0.834697 0.352035 -9.80893 
-9.6479 0.0340219 -0.783333 
0.0340219 -9.77259 0.429098 
-0.783333 0.429098 -9.78212 
-9.62096 -0.0655494 -0.807156 
-0.0655494 -9.78531 0.381848 
-0.807156 0.381848 -9.79633 
-9.05754 0.0292587 -0.506811 
0.0292587 -9.23879 0.697815 
-0.506811 0.697815 -9.76705 
-9.40882 -0.130649 0.238614 
-0.130649 -8.88934 0.81505 
0.238614 0.81505 -9.76523 
-9.55173 0.146123 0.218607 
0.146123 -8.69551 0.456657 
0.218607 0.456657 -9.81615 
-9.45281 0.114834 -0.110259 
0.114834 -8.7938 0.931543 
-0.110259 0.931543 -9.81677 
-9.80515 -0.0949908 -0.697257 
-0.0949908 -9.89679 -0.390421 
-0.697257 -0.390421 -10.1001 
-9.43118 0.329461 -0.097576 
0.329461 -9.54769 -0.098564 
-0.097576 -0.098564 -10.8232 
-9.81793 0.46014 0.691892 
0.46014 -10.0804 0.220053 
0.691892 0.220053 -9.90374 
-9.87676 0.440861 -0.0300188 
0.440861 -9.52189 -0.12915 
-0.0300188 -0.12915 -10.4034 
-15.7846 2.91749 -0.191042 
2.91749 -5.12821 1.50333 
-0.191042 1.50333 -15.1987 
-12.2511 -0.450318 -1.07109 
-0.450318 -11.4582 0.630205 
-1.07109 0.630205 -12.4022 
-11.6885 -0.787917 -1.24899 
-0.787917 -9.45404 -1.5679 
-1.24899 -1.5679 -14.9689 
-13.5022 -0.676798 1.54077 
-0.676798 -7.18381 -1.62206 
1.54077 -1.62206 -15.4255 
-9.4181 -0.255652 0.562801 
-0.255652 -9.53777 -0.566105 
0.562801 -0.566105 -9.71416 
-9.23239 -0.154984 0.785711 
-0.154984 -9.55257 -0.383863 
0.785711 -0.383863 -9.88507 
-9.45934 0.0334641 0.7177 
0.0334641 -9.46831 -0.297417 
0.7177 -0.297417 -9.74239 
-9.51117 -0.178726 0.799177 
-0.178726 -9.38948 -0.788007 
0.799177 -0.788007 -9.76939 
-9.00345 0.496916 1.09119 
0.496916 -9.46521 0.825635 
1.09119 0.825635 -9.59529 
-9.08356 0.364565 1.1023 
0.364565 -9.34852 0.751088 
1.1023 0.751088 -9.63186 
-8.9658 0.617485 1.16775 
0.617485 -9.47443 0.724427 
1.16775 0.724427 -9.6237 
-8.98478 0.450081 1.34682 
0.450081 -9.49224 0.803692 
1.34682 0.803692 -9.58692 
-10.1904 0.494707 0.0550109 
0.494707 -10.073 -0.423651 
0.0550109 -0.423651 -10.05 
-10.3814 0.0366833 0.0790358 
0.0366833 -9.35649 0.154284 
0.0790358 0.154284 -10.5755 
-10.0405 -0.139301 0.206035 
-0.139301 -10.0153 0.285352 
0.206035 0.285352 -10.2575 
-9.92312 -0.15236 -0.0227157 
-0.15236 -9.76472 0.136159 
-0.0227157 0.136159 -10.6255 
-9.97896 -0.658267 -0.469274 
-0.658267 -8.67961 0.372902 
-0.469274 0.372902 -9.97914 
-9.46866 -0.680692 -0.531662 
-0.680692 -8.87056 1.17608 
-0.531662 1.17608 -10.2985 
-8.87661 -1.20139 -0.936643 
-1.20139 -8.48354 1.10909 
-0.936643 1.10909 -11.2776 
-8.96821 -0.364081 -0.195481 
-0.364081 -9.3941 0.0264106 
-0.195481 0.0264106 -10.2754 
-9.77607 0.285523 -0.688176 
0.285523 -9.44057 -1.00217 
-0.688176 -1.00217 -9.63643 
-9.56232 0.396407 -0.813538 
0.396407 -9.35464 -0.985176 
-0.813538 -0.985176 -9.93612 
-9.52777 0.409051 -0.924882 
0.409051 -9.44065 -0.934327 
-0.924882 -0.934327 -9.88465 
-9.55357 0.14658 -0.515815 
0.14658 -9.39874 -0.782736 
-0.515815 -0.782736 -9.90076 
-9.54804 0.0474216 -0.0421966 
0.0474216 -8.92717 0.338776 
-0.0421966 0.338776 -9.84437 
-9.42226 0.0138937 0.0262014 
0.0138937 -9.05978 0.440656 
0.0262014 0.440656 -9.83754 
-9.51359 -0.0391422 0.0400661 
-0.0391422 -9.02072 0.460421 
0.0400661 0.460421 -9.78528 
-9.49925 -0.0389552 -0.0742028 
-0.0389552 -8.96698 0.374139 
-0.0742028 0.374139 -9.85336 
-10.1238 0.1361 0.2985 
0.1361 -9.52582 -0.583785 
0.2985 -0.583785 -10.0184 
-9.44754 -0.12273 0.120287 
-0.12273 -9.22182 -0.100273 
0.120287 -0.100273 -10.9987 
-10.1103 -0.791816 -0.680175 
-0.791816 -9.8078 0.748455 
-0.680175 0.748455 -9.74995 
-9.29787 -0.59023 0.171526 
-0.59023 -10.0389 0.212317 
0.171526 0.212317 -10.3313 
-10.2819 0.00314131 -0.146837 
0.00314131 -10.2254 0.599286 
-0.146837 0.599286 -9.54709 
-9.82447 -0.0176613 -0.134684 
-0.0176613 -9.76045 0.697848 
-0.134684 0.697848 -10.4695 
-10.2195 -0.0101156 -0.0923189 
-0.0101156 -9.99087 0.700384 
-0.0923189 0.700384 -9.844 
-10.1422 -0.0577398 0.1477 
-0.0577398 -10.1999 0.86525 
0.1477 0.86525 -9.7123 
-9.91104 -0.0315834 -0.0432479 
-0.0315834 -9.86395 -0.953916 
-0.0432479 -0.953916 -9.97799 
-10.0214 -0.00462761 0.00763706 
-0.00462761 -9.89399 -0.941956 
0.00763706 -0.941956 -9.83762 
-10.1415 0.0292582 -0.0605392 
0.0292582 -9.76293 -0.977419 
-0.0605392 -0.977419 -9.84855 
-10.0742 0.0297484 -0.0383654 
0.0297484 -9.77835 -1.01425 
-0.0383654 -1.01425 -9.90043 
-9.43889 0.0350914 0.177693 
0.0350914 -9.58205 -0.140381 
0.177693 -0.140381 -9.70752 
-9.15352 -0.0298176 0.344962 
-0.0298176 -9.84193 0.0237874 
0.344962 0.0237874 -9.73301 
-10.0319 -0.0151937 0.0290954 
-0.0151937 -9.26307 -0.000944792 
0.0290954 -0.000944792 -9.43353 
-9.29312 -0.0042098 0.1025 
-0.0042098 -9.56195 0.00969063 
0.1025 0.00969063 -9.87339 
-9.11654 -0.5881 1.05421 
-0.5881 -8.73166 -0.988415 
1.05421 -0.988415 -9.29027 
-8.35161 -0.703883 0.925996 
-0.703883 -8.65828 -0.919432 
0.925996 -0.919432 -10.1286 
-8.84589 -0.566018 1.17261 
-0.566018 -8.80512 -0.956121 
1.17261 -0.956121 -9.48746 
-8.79868 -1.04461 1.94293 
-1.04461 -9.21228 -1.51233 
1.94293 -1.51233 -9.12752 
-10.3371 1.50064 0.0712908 
1.50064 -9.01579 0.359863 
0.0712908 0.359863 -12.3927 
-10.4954 0.925267 0.564756 
0.925267 -8.89879 1.23047 
0.564756 1.23047 -12.3515 
-10.638 0.0315501 0.296371 
0.0315501 -10.3311 0.493496 
0.296371 0.493496 -10.7765 
-10.4555 0.835347 0.610017 
0.835347 -9.2633 0.819809 
0.610017 0.819809 -12.0268 
-9.33755 0.143872 -1.53708 
0.143872 -9.91581 0.297755 
-1.53708 0.297755 -8.88778 
-9.34691 -0.0475234 -1.22125 
-0.0475234 -9.70491 -0.26809 
-1.22125 -0.26809 -9.08931 
-9.00008 -0.127842 -1.30414 
-0.127842 -9.81752 -0.121713 
-1.30414 -0.121713 -9.32354 
-8.82473 0.0886546 -1.01937 
0.0886546 -9.2639 0.235867 
-1.01937 0.235867 -10.0525 
-9.23418 0.284891 -0.469379 
0.284891 -8.97538 -0.441023 
-0.469379 -0.441023 -10.3565 
-9.64902 0.186884 -0.0945042 
0.186884 -9.40471 -0.539088 
-0.0945042 -0.539088 -9.51234 
-9.19845 0.275116 -0.370045 
0.275116 -9.32086 -0.675717 
-0.370045 -0.675717 -10.0468 
-9.77416 0.216981 -0.147122 
0.216981 -9.02795 -0.709558 
-0.147122 -0.709558 -9.76396 
-9.5873 0.0370548 0.715099 
0.0370548 -9.63784 0.474697 
0.715099 0.474697 -9.48435 
-9.63703 0.0793413 0.991724 
0.0793413 -9.82885 0.131736 
0.991724 0.131736 -9.2436 
-10.1953 0.119213 0.848461 
0.119213 -9.99039 0.700115 
0.848461 0.700115 -8.52375 
-9.77018 0.00677887 0.889348 
0.00677887 -9.79136 -0.0210026 
0.889348 -0.0210026 -9.14794 
-9.25663 0.124167 0.163634 
0.124167 -6.24952 -2.34042 
0.163634 -2.34042 -9.20311 
-9.35468 -0.252759 0.0495413 
-0.252759 -6.37281 -2.47383 
0.0495413 -2.47383 -8.98178 
-9.16399 -0.0598487 -0.695386 
-0.0598487 -6.91976 -2.32205 
-0.695386 -2.32205 -8.62551 
-9.0755 0.240784 -0.234464 
0.240784 -6.8922 -2.83278 
-0.234464 -2.83278 -8.74157 
-10.2574 0.411365 -0.21149 
0.411365 -7.44399 -0.943038 
-0.21149 -0.943038 -9.78034 
-9.87206 -0.466258 0.423185 
-0.466258 -7.70689 -2.0898 
0.423185 -2.0898 -9.90275 
-9.42796 -0.392771 0.344227 
-0.392771 -7.88191 -1.41412 
0.344227 -1.41412 -10.1718 
-9.8411 -0.349251 -0.165669 
-0.349251 -8.05399 -1.54833 
-0.165669 -1.54833 -9.58662 
-7.84884 0.388752 1.8966 
0.388752 -9.53623 0.702409 
1.8966 0.702409 -8.72779 
-8.29335 0.877909 1.89349 
0.877909 -8.32661 0.402698 
1.89349 0.402698 -9.4929 
-7.88045 0.586492 1.94335 
0.586492 -9.17078 0.789229 
1.94335 0.789229 -9.06162 
-8.04215 0.89583 2.34668 
0.89583 -9.25919 1.22844 
2.34668 1.22844 -8.81152 
-8.92486 -0.0691076 -1.16344 
-0.0691076 -9.60166 -0.181484 
-1.16344 -0.181484 -9.67518 
-8.87644 -0.110969 -0.801345 
-0.110969 -9.4537 0.0767509 
-0.801345 0.0767509 -9.87156 
-8.96045 -0.025677 -0.946469 
-0.025677 -9.43326 -0.0644232 
-0.946469 -0.0644232 -9.80799 
-8.9403 0.0409838 -0.817195 
0.0409838 -9.41674 -0.0623838 
-0.817195 -0.0623838 -9.84467 
-9.56286 -0.0548589 -0.386529 
-0.0548589 -9.35066 0.626238 
-0.386529 0.626238 -9.7516 
-9.51955 -0.0839127 -0.372432 
-0.0839127 -9.43265 0.672234 
-0.372432 0.672234 -9.71292 
-9.51943 -0.122167 -0.324832 
-0.122167 -9.44042 0.659005 
-0.324832 0.659005 -9.70527 
-9.4961 -0.0758063 -0.383459 
-0.0758063 -9.438 0.681202 
-0.383459 0.681202 -9.73102 
-10.0903 0.505156 0.018014 
0.505156 -9.36184 -0.85669 
0.018014 -0.85669 -11.1277 
-10.9699 -0.102222 -0.0199585 
-0.102222 -7.75624 -0.425018 
-0.0199585 -0.425018 -11.8537 
-10.168 0.629244 -0.0234974 
0.629244 -9.10425 0.0576616 
-0.0234974 0.0576616 -11.3075 
-9.87292 -0.888693 1.18056 
-0.888693 -9.9524 -0.614254 
1.18056 -0.614254 -10.7545 
-9.98402 3.69033 0.849765 
3.69033 -8.60504 -0.634965 
0.849765 -0.634965 -13.6764 
3.44198 -6.11528 -4.62114 
-6.11528 -14.3067 4.45077 
-4.62114 4.45077 -21.4007 
-8.72577 -3.13047 -4.57188 
-3.13047 -15.3766 1.4721 
-4.57188 1.4721 -8.16311 
-11.9218 -1.58324 -4.53287 
-1.58324 -8.85117 -0.289296 
-4.53287 -0.289296 -11.4925 
-9.11333 -0.331532 -0.208767 
-0.331532 -9.88353 -0.587728 
-0.208767 -0.587728 -9.17299 
-9.58034 0.395774 -0.0410038 
0.395774 -8.81436 -0.119076 
-0.0410038 -0.119076 -9.77516 
-9.29162 0.0147446 -0.13108 
0.0147446 -9.25202 -0.454497 
-0.13108 -0.454497 -9.62621 
-9.34147 0.00885625 -0.439676 
0.00885625 -8.81046 -0.62474 
-0.439676 -0.62474 -10.0179 
-9.77084 0.418041 -0.161688 
0.418041 -8.61587 -0.427124 
-0.161688 -0.427124 -10.1078 
-9.41036 0.0712555 -0.0389103 
0.0712555 -9.35244 -0.558744 
-0.0389103 -0.558744 -9.7317 
-9.33408 -0.0730361 -0.136098 
-0.0730361 -9.53264 -0.452944 
-0.136098 -0.452944 -9.62778 
-9.47236 -0.076945 -0.331841 
-0.076945 -9.24392 -0.864658 
-0.331841 -0.864658 -9.77822 
-9.66144 0.37647 -0.67013 
0.37647 -9.31168 -1.15115 
-0.67013 -1.15115 -9.4736 
-9.45978 0.296135 -0.904388 
0.296135 -9.66096 -0.725963 
-0.904388 -0.725963 -9.32597 
-9.52503 0.242437 -0.772384 
0.242437 -9.53601 -0.835934 
-0.772384 -0.835934 -9.38568 
-9.35169 0.0404822 -0.547969 
0.0404822 -9.3662 -1.08331 
-0.547969 -1.08331 -9.72883 
-8.91955 0.723794 1.46636 
0.723794 -7.40935 3.14681 
1.46636 3.14681 -6.66114 
-8.21057 0.940168 1.65013 
0.940168 -7.58469 2.71289 
1.65013 2.71289 -7.19478 
-8.81429 -0.0325379 0.999658 
-0.0325379 -7.35438 2.83155 
0.999658 2.83155 -6.82137 
-8.45338 0.724019 1.51029 
0.724019 -7.24107 2.76511 
1.51029 2.76511 -7.29559 
-9.87648 -0.0831557 -0.145468 
-0.0831557 -9.74919 -0.221605 
-0.145468 -0.221605 -9.91424 
-10.026 -0.0697318 -0.056856 
-0.0697318 -9.74958 -0.289409 
-0.056856 -0.289409 -9.7643 
-9.39026 0.447311 0.0448882 
0.447311 -9.76385 -0.00189117 
0.0448882 -0.00189117 -10.3858 
-9.82955 0.312745 -0.549805 
0.312745 -9.53662 -0.16214 
-0.549805 -0.16214 -10.1738 
-9.63752 -0.0990461 -0.461466 
-0.0990461 -9.46063 0.787096 
-0.461466 0.787096 -9.8798 
-9.59974 -0.109828 -0.433916 
-0.109828 -9.48488 0.803948 
-0.433916 0.803948 -9.89333 
-9.60023 0.0222932 -0.400497 
0.0222932 -9.64305 0.753782 
-0.400497 0.753782 -9.73467 
-9.70607 -0.144109 -0.507756 
-0.144109 -9.53502 1.02717 
-0.507756 1.02717 -9.73686 
-9.62428 -0.145254 -0.941237 
-0.145254 -9.60719 0.358696 
-0.941237 0.358696 -9.73564 
-9.4455 -0.179811 -0.932782 
-0.179811 -9.72466 0.407232 
-0.932782 0.407232 -9.79694 
-9.53702 -0.1472 -0.912514 
-0.1472 -9.63273 0.357372 
-0.912514 0.357372 -9.79735 
-9.49163 -0.0515022 -0.778153 
-0.0515022 -9.74868 0.343991 
-0.778153 0.343991 -9.72679 
-9.59174 -0.498547 0.993486 
-0.498547 -9.14783 -1.15811 
0.993486 -1.15811 -9.78861 
-9.51305 0.00621414 0.48708 
0.00621414 -9.27298 -0.622743 
0.48708 -0.622743 -9.74215 
-9.28982 -0.485999 0.905497 
-0.485999 -9.40787 -0.886622 
0.905497 -0.886622 -9.83049 
-9.06878 -0.674519 0.973174 
-0.674519 -9.39308 -0.778395 
0.973174 -0.778395 -10.0663 
-9.78748 0.19092 -0.416077 
0.19092 -9.46613 -0.0683418 
-0.416077 -0.0683418 -6.34677 
-9.62833 0.176248 -0.852947 
0.176248 -9.47972 -0.284678 
-0.852947 -0.284678 -6.49233 
-9.55742 0.134416 -0.821854 
0.134416 -9.4305 0.122116 
-0.821854 0.122116 -6.61246 
-9.80901 0.12211 -0.466403 
0.12211 -9.35742 -0.0543992 
-0.466403 -0.0543992 -6.43394 
-9.62142 0.191351 0.401836 
0.191351 -8.98035 1.12213 
0.401836 1.12213 -9.63903 
-9.49089 0.293541 0.406021 
0.293541 -9.13096 1.09332 
0.406021 1.09332 -9.61895 
-9.65947 0.20911 0.598118 
0.20911 -9.11953 1.29069 
0.598118 1.29069 -9.4618 
-9.51672 -0.0298665 0.456608 
-0.0298665 -9.23419 0.918008 
0.456608 0.918008 -9.4899 
-9.35475 -0.172482 -0.56756 
-0.172482 -9.21714 0.179677 
-0.56756 0.179677 -7.19392 
-9.2755 0.182658 -0.621664 
0.182658 -9.55662 -0.0959387 
-0.621664 -0.0959387 -6.93369 
-9.49494 0.0981021 -1.31014 
0.0981021 -10.104 0.598742 
-1.31014 0.598742 -6.16683 
-9.24157 0.266094 -0.888096 
0.266094 -9.59083 0.108557 
-0.888096 0.108557 -6.9334 
-9.55525 0.432596 0.00461855 
0.432596 -9.22359 0.0551011 
0.00461855 0.0551011 -9.8522 
-9.58894 -0.18658 0.156613 
-0.18658 -9.17882 0.971873 
0.156613 0.971873 -9.86328 
-9.49182 0.535664 0.340792 
0.535664 -8.28931 0.126709 
0.340792 0.126709 -10.8499 
-9.57964 0.292412 0.120826 
0.292412 -8.88114 0.36319 
0.120826 0.36319 -10.1703 
-9.25173 -0.124253 -0.951979 
-0.124253 -9.95763 0.461721 
-0.951979 0.461721 -8.80887 
-9.06684 -0.0843216 -1.09066 
-0.0843216 -9.19208 0.539013 
-1.09066 0.539013 -9.75931 
-9.59625 -0.00501094 -1.55443 
-0.00501094 -9.76088 0.364957 
-1.55443 0.364957 -8.66111 
-9.16043 -0.551024 -1.08091 
-0.551024 -9.72673 0.553504 
-1.08091 0.553504 -9.13108 
-9.39337 0.150118 -0.246176 
0.150118 -8.84891 -0.651148 
-0.246176 -0.651148 -9.93454 
-9.33902 0.176658 -0.466287 
0.176658 -9.3477 -1.02884 
-0.466287 -1.02884 -9.49011 
-9.21484 0.356818 -0.433741 
0.356818 -9.32487 -0.904696 
-0.433741 -0.904696 -9.63711 
-9.53529 0.325742 -0.354909 
0.325742 -8.58348 -0.907782 
-0.354909 -0.907782 -10.0581 
-8.88096 -0.291333 0.669699 
-0.291333 -9.37606 -0.155577 
0.669699 -0.155577 -9.9583 
-8.85655 -0.306815 0.577148 
-0.306815 -9.33022 -0.0988099 
0.577148 -0.0988099 -10.0286 
-8.81457 -0.130995 0.752167 
-0.130995 -9.49639 -0.13034 
0.752167 -0.13034 -9.90436 
-8.71203 -0.211425 0.691671 
-0.211425 -9.43434 -0.182518 
0.691671 -0.182518 -10.069 
-9.68618 -0.0329196 0.0484415 
-0.0329196 -9.66349 -1.05989 
0.0484415 -1.05989 -9.60215 
-9.78214 -0.115875 0.338504 
-0.115875 -9.52992 -1.13923 
0.338504 -1.13923 -9.63975 
-10.371 0.0592301 0.17039 
0.0592301 -9.24294 -1.0703 
0.17039 -1.0703 -9.33792 
-9.84181 0.0296748 0.174095 
0.0296748 -9.67717 -0.859127 
0.174095 -0.859127 -9.43284 
-9.89433 0.386512 0.506448 
0.386512 -9.23304 1.31323 
0.506448 1.31323 -9.48844 
-9.71522 0.295265 0.519996 
0.295265 -9.13378 1.09673 
0.519996 1.09673 -9.76682 
-9.90541 0.342314 0.512408 
0.342314 -9.39053 1.31886 
0.512408 1.31886 -9.31988 
-10.21 0.0757207 0.34281 
0.0757207 -8.89759 1.80063 
0.34281 1.80063 -9.50821 
-10.0245 -0.186513 -0.112528 
-0.186513 -9.85926 0.523671 
-0.112528 0.523671 -9.16624 
-9.93924 -0.0424826 0.0692614 
-0.0424826 -9.7985 0.471606 
0.0692614 0.471606 -9.31225 
-9.51945 0.275922 -0.202586 
0.275922 -9.95885 0.695806 
-0.202586 0.695806 -9.57169 
-9.83892 0.121996 0.142576 
0.121996 -10.0649 0.644534 
0.142576 0.644534 -9.14617 
-9.32167 0.508872 0.388098 
0.508872 -8.12905 1.20047 
0.388098 1.20047 -9.86311 
-9.37577 0.548488 0.35436 
0.548488 -8.06984 1.41661 
0.35436 1.41661 -9.86822 
-9.34675 0.410146 0.483777 
0.410146 -8.12976 1.26723 
0.483777 1.26723 -9.83733 
-9.32817 0.343018 0.228744 
0.343018 -8.43984 1.42649 
0.228744 1.42649 -9.54582 
-8.93026 -0.657327 -0.784777 
-0.657327 -9.05291 0.627941 
-0.784777 0.627941 -10.1156 
-8.90003 -0.870317 -0.935555 
-0.870317 -9.03563 0.810671 
-0.935555 0.810671 -10.1631 
-9.45163 0.0575627 -1.23624 
0.0575627 -9.03505 0.500933 
-1.23624 0.500933 -9.61204 
-8.95285 -0.788401 -0.682134 
-0.788401 -8.95329 0.664456 
-0.682134 0.664456 -10.1926 
-9.12912 0.474098 0.909329 
0.474098 -9.15132 0.777611 
0.909329 0.777611 -9.62763 
-9.58151 0.826558 1.35667 
0.826558 -9.11137 1.62851 
1.35667 1.62851 -9.21519 
-9.58712 0.67107 0.708859 
0.67107 -8.52106 1.68869 
0.708859 1.68869 -9.79989 
-9.86292 0.424399 0.619082 
0.424399 -8.52758 1.83238 
0.619082 1.83238 -9.51757 
-3.23846 0.5035 -0.421471 
0.5035 -5.59576 -0.850007 
-0.421471 -0.850007 -1.83647 
-4.51848 0.483955 -0.967091 
0.483955 -5.67913 -1.0695 
-0.967091 -1.0695 -0.473078 
-6.09303 -0.483544 0.786861 
-0.483544 -4.14019 -1.2271 
0.786861 -1.2271 -0.437465 
-5.34091 -0.371474 0.00589662 
-0.371474 -3.41537 -2.04322 
0.00589662 -2.04322 -1.91441 
-9.10283 -0.0968522 -0.352236 
-0.0968522 -9.67571 -0.0947101 
-0.352236 -0.0947101 -10.3331 
-9.46079 0.00755831 -0.105039 
0.00755831 -9.98316 0.204699 
-0.105039 0.204699 -9.66764 
-9.01327 -0.0831506 -0.0648313 
-0.0831506 -10.1099 0.114326 
-0.0648313 0.114326 -9.98847 
-9.32335 -0.128879 -0.0727557 
-0.128879 -9.52474 -0.0648357 
-0.0727557 -0.0648357 -10.2635 
-9.53834 0.120223 0.479734 
0.120223 -9.20686 1.09102 
0.479734 1.09102 -9.78315 
-9.44692 0.195099 0.44886 
0.195099 -9.22877 1.06945 
0.44886 1.06945 -9.85266 
-9.6341 0.129822 0.4145 
0.129822 -9.21481 1.15223 
0.4145 1.15223 -9.67944 
-9.43277 0.22755 0.522234 
0.22755 -9.18756 0.935518 
0.522234 0.935518 -9.90802 
-8.42586 1.32431 -1.2948 
1.32431 -8.8598 -1.44569 
-1.2948 -1.44569 -9.27023 
-9.27469 0.882386 -1.42311 
0.882386 -8.85993 -2.35391 
-1.42311 -2.35391 -8.42127 
-8.98269 0.57902 -1.76004 
0.57902 -8.5453 -2.29446 
-1.76004 -2.29446 -9.02789 
-9.95021 0.185186 -1.4158 
0.185186 -8.1598 -2.16557 
-1.4158 -2.16557 -8.44588 
-9.11161 -0.105026 -0.45926 
-0.105026 -9.10335 -0.294972 
-0.45926 -0.294972 -9.94448 
-8.94302 0.325403 -0.315882 
0.325403 -9.57728 -0.0984646 
-0.315882 -0.0984646 -9.63913 
-9.12664 0.283554 -0.39078 
0.283554 -9.27421 -0.229239 
-0.39078 -0.229239 -9.75858 
-9.24075 0.365756 -0.464599 
0.365756 -9.15933 -0.0814534 
-0.464599 -0.0814534 -9.75935 
1.20492 -1.12858 -4.79916 
-1.12858 -5.0419 -1.27841 
-4.79916 -1.27841 -13.2685 
-9.00228 2.89795 1.03456 
2.89795 -8.15624 3.78139 
1.03456 3.78139 0.0530767 
-12.6708 0.116962 2.9033 
0.116962 -14.3629 3.35466 
2.9033 3.35466 9.92821 
-11.0164 -0.00209865 -3.15922 
-0.00209865 -2.58947 9.54948 
-3.15922 9.54948 -3.49962 
-9.98274 0.133264 -0.185045 
0.133264 -9.52537 -1.04061 
-0.185045 -1.04061 -8.89406 
-10.0133 0.0566082 -0.274873 
0.0566082 -9.59257 -1.04965 
-0.274873 -1.04965 -8.79628 
-10.067 0.0133502 -0.21287 
0.0133502 -9.7932 -1.12195 
-0.21287 -1.12195 -8.54193 
-9.90076 0.126001 -0.346195 
0.126001 -9.72758 -1.25196 
-0.346195 -1.25196 -8.77383 
-9.93561 -0.44735 0.0885715 
-0.44735 -10.0238 0.33223 
0.0885715 0.33223 -9.74935 
-10.0191 0.00611737 0.0490731 
0.00611737 -9.77563 0.190368 
0.0490731 0.190368 -9.91398 
-9.66616 0.672301 -0.086389 
0.672301 -9.62102 -0.101734 
-0.086389 -0.101734 -10.4216 
-10.0952 0.302228 0.654086 
0.302228 -9.15318 0.207403 
0.654086 0.207403 -10.4604 
-9.67339 0.0275464 0.748343 
0.0275464 -9.7674 0.494422 
0.748343 0.494422 -9.51303 
-10.0277 0.196777 0.806237 
0.196777 -10.024 0.54634 
0.806237 0.54634 -8.9022 
-9.65312 0.100981 1.10006 
0.100981 -9.84755 0.460337 
1.10006 0.460337 -9.45314 
-9.71381 0.17196 0.984089 
0.17196 -9.88726 0.550254 
0.984089 0.550254 -9.35274 
-9.80764 -0.13698 -0.0648381 
-0.13698 -9.6043 -0.886516 
-0.0648381 -0.886516 -9.56914 
-9.79547 0.0985788 0.0783457 
0.0985788 -9.85241 -0.862835 
0.0783457 -0.862835 -9.33321 
-9.95479 -0.299061 0.221803 
-0.299061 -9.75574 -1.02834 
0.221803 -1.02834 -9.27056 
-9.80827 0.131924 0.360102 
0.131924 -9.76845 -0.759407 
0.360102 -0.759407 -9.40436 
-9.57026 0.358188 0.194602 
0.358188 -9.1589 0.185939 
0.194602 0.185939 -10.1561 
-9.4234 0.45465 0.192676 
0.45465 -9.2299 0.138084 
0.192676 0.138084 -10.2319 
-9.27264 0.268814 0.365416 
0.268814 -9.37225 0.116608 
0.365416 0.116608 -10.2403 
-9.32819 0.252593 0.218528 
0.252593 -9.45651 0.144387 
0.218528 0.144387 -10.1005 
-9.70127 -0.0330298 0.567497 
-0.0330298 -9.71599 -0.642131 
0.567497 -0.642131 -9.88855 
-9.72951 -0.0748571 0.521299 
-0.0748571 -9.68796 -0.73176 
0.521299 -0.73176 -9.88834 
-9.76204 0.00197567 0.498223 
0.00197567 -9.68167 -0.70754 
0.498223 -0.70754 -9.86211 
-9.78513 -0.0997554 0.51042 
-0.0997554 -9.70265 -0.768819 
0.51042 -0.768819 -9.81803 
-9.24238 -0.28212 0.037848 
-0.28212 -9.07539 -0.0783513 
0.037848 -0.0783513 -10.8429 
-9.33811 -0.58709 -0.440975 
-0.58709 -9.58485 0.539293 
-0.440975 0.539293 -10.2377 
-9.96227 -0.182989 -0.220535 
-0.182989 -10.1774 0.391519 
-0.220535 0.391519 -9.02103 
-9.47848 -0.225919 -0.41456 
-0.225919 -9.43306 0.208411 
-0.41456 0.208411 -10.2492 
-9.21443 -0.283006 -0.356669 
-0.283006 -9.11192 0.459622 
-0.356669 0.459622 -9.70384 
-9.22294 -0.387861 -0.486484 
-0.387861 -8.913 0.66992 
-0.486484 0.66992 -9.89426 
-9.1771 -0.036981 -0.555402 
-0.036981 -9.18414 0.681613 
-0.555402 0.681613 -9.66896 
-9.15502 -0.232356 -0.42234 
-0.232356 -9.04222 0.654248 
-0.42234 0.654248 -9.83297 
-11.3153 1.09396 0.233368 
1.09396 -7.90756 -1.1032 
0.233368 -1.1032 -14.4162 
-11.9623 0.850999 -0.399256 
0.850999 -8.76593 -1.56671 
-0.399256 -1.56671 -12.9109 
-11.674 -0.955406 0.396089 
-0.955406 -9.03864 -1.25094 
0.396089 -1.25094 -12.9265 
-11.0514 -0.145489 -0.103426 
-0.145489 -8.90584 -1.84864 
-0.103426 -1.84864 -13.6819 
-9.17906 -0.104361 -0.814157 
-0.104361 -9.00814 2.3343 
-0.814157 2.3343 -8.98254 
-10.0665 -0.887367 0.276795 
-0.887367 -7.82438 0.952369 
0.276795 0.952369 -9.27882 
-9.33783 -0.353363 -0.926915 
-0.353363 -8.09202 2.29029 
-0.926915 2.29029 -9.73989 
-10.7698 -1.06192 -1.04429 
-1.06192 -8.9594 2.54326 
-1.04429 2.54326 -7.44052 
-8.629 -0.504282 -1.55415 
-0.504282 -10.2104 0.309275 
-1.55415 0.309275 -10.4355 
-8.78015 -0.297134 -0.963593 
-0.297134 -9.63624 0.296166 
-0.963593 0.296166 -10.8586 
-8.72275 -0.593215 -0.680273 
-0.593215 -9.20179 0.0169008 
-0.680273 0.0169008 -11.3504 
-9.29902 -0.631554 -0.493227 
-0.631554 -9.47048 0.351935 
-0.493227 0.351935 -10.5055 
-9.73152 0.212242 0.545175 
0.212242 -9.19741 1.14725 
0.545175 1.14725 -9.82159 
-9.95445 0.513808 0.11904 
0.513808 -8.99502 1.31042 
0.11904 1.31042 -9.80106 
-9.70346 0.31545 0.573863 
0.31545 -9.38105 1.25407 
0.573863 1.25407 -9.66602 
-9.81392 0.164095 0.524947 
0.164095 -9.15074 1.03628 
0.524947 1.03628 -9.78587 
-8.80342 -0.0351656 0.494159 
-0.0351656 -9.12036 0.0011383 
0.494159 0.0011383 -10.3001 
-9.15357 -0.17746 1.11967 
-0.17746 -9.48108 -0.234119 
1.11967 -0.234119 -9.58928 
-9.1672 -0.347398 1.05987 
-0.347398 -9.48771 -0.370492 
1.05987 -0.370492 -9.56901 
-8.78008 -0.0561286 1.44496 
-0.0561286 -10.0065 -0.160625 
1.44496 -0.160625 -9.43737 
-9.0826 -0.109583 4.07634 
-0.109583 -9.13452 -0.744835 
4.07634 -0.744835 -7.4529 
-9.02874 -0.681302 4.11054 
-0.681302 -10.905 -1.28793 
4.11054 -1.28793 -5.73626 
-8.18341 -0.743036 3.19456 
-0.743036 -9.23721 -0.964011 
3.19456 -0.964011 -8.24939 
-8.04936 -1.44721 3.98724 
-1.44721 -8.71143 -0.197752 
3.98724 -0.197752 -8.90922 
-9.4433 -0.0263497 -0.953406 
-0.0263497 -9.77165 0.0218605 
-0.953406 0.0218605 -9.75136 
-9.44164 -0.0129137 -0.981008 
-0.0129137 -9.79196 -0.0530964 
-0.981008 -0.0530964 -9.73271 
-9.42089 -0.0147952 -0.945392 
-0.0147952 -9.73855 0.0320769 
-0.945392 0.0320769 -9.80687 
-9.38791 0.0255748 -0.939423 
0.0255748 -9.77022 0.00410161 
-0.939423 0.00410161 -9.80818 
-9.6309 0.0318839 -0.924954 
0.0318839 -9.70195 -0.465023 
-0.924954 -0.465023 -9.56234 
-9.66152 0.118682 -0.875805 
0.118682 -9.68679 -0.729487 
-0.875805 -0.729487 -9.54688 
-9.58343 0.417756 -0.926457 
0.417756 -10.177 -0.495982 
-0.926457 -0.495982 -9.13477 
-9.66722 0.126211 -0.802524 
0.126211 -9.84381 -0.518016 
-0.802524 -0.518016 -9.38416 
-8.84604 0.168001 -0.516559 
0.168001 -9.6094 -0.209694 
-0.516559 -0.209694 -10.3579 
-9.26919 0.568223 -0.54202 
0.568223 -9.35287 -0.332038 
-0.54202 -0.332038 -10.1913 
-9.15341 0.0157243 -0.434901 
0.0157243 -9.53938 -0.330903 
-0.434901 -0.330903 -10.1206 
-9.3536 0.611094 -0.668662 
0.611094 -9.34077 -0.372714 
-0.668662 -0.372714 -10.119 
-7.22849 -0.581803 -1.48905 
-0.581803 -9.66536 -0.0619579 
-1.48905 -0.0619579 -11.2757 
-6.21206 -0.388351 -2.52702 
-0.388351 -10.9668 0.174361 
-2.52702 0.174361 -10.9908 
-10.0036 0.908058 -1.23944 
0.908058 -11.2677 -0.574829 
-1.23944 -0.574829 -6.89834 
-7.82651 -0.538648 -1.40517 
-0.538648 -9.30911 0.336298 
-1.40517 0.336298 -11.034 
-8.65592 0.72407 1.64672 
0.72407 -9.31778 0.885717 
1.64672 0.885717 -9.16647 
-8.2731 0.540221 1.18279 
0.540221 -8.97074 0.795003 
1.18279 0.795003 -9.89632 
-8.79822 0.468041 1.27643 
0.468041 -9.54248 0.297519 
1.27643 0.297519 -8.79947 
-8.69062 0.309431 1.54994 
0.309431 -8.94535 0.877593 
1.54994 0.877593 -9.5042 
-10.146 0.0467884 -0.266096 
0.0467884 -9.28593 -1.09883 
-0.266096 -1.09883 -9.44554 
-9.75346 0.11025 -0.280514 
0.11025 -9.58547 -1.07592 
-0.280514 -1.07592 -9.53858 
-9.81449 0.0433412 -0.183799 
0.0433412 -9.56543 -1.058 
-0.183799 -1.058 -9.49758 
-9.81524 -0.0739693 -0.176614 
-0.0739693 -9.64186 -0.901332 
-0.176614 -0.901332 -9.4204 
-9.29585 -0.247007 -0.754617 
-0.247007 -9.3256 0.348139 
-0.754617 0.348139 -9.72494 
-9.02897 -0.300981 -0.884314 
-0.300981 -9.4082 0.277115 
-0.884314 0.277115 -9.90922 
-9.08578 -0.00752568 -0.626582 
-0.00752568 -9.51496 0.323399 
-0.626582 0.323399 -9.74565 
-9.10251 -0.0809259 -0.754085 
-0.0809259 -9.49454 0.350936 
-0.754085 0.350936 -9.74934 
-9.43102 -0.261204 -0.376535 
-0.261204 -9.18274 0.343894 
-0.376535 0.343894 -9.59528 
-9.38033 -0.0529943 -0.546962 
-0.0529943 -9.10922 0.663955 
-0.546962 0.663955 -9.71949 
-9.24262 0.0114626 -0.226858 
0.0114626 -9.30719 0.707572 
-0.226858 0.707572 -9.65923 
-9.30349 -0.133556 -0.395737 
-0.133556 -9.24188 0.643504 
-0.395737 0.643504 -9.66367 
-9.95317 -0.195257 -0.228003 
-0.195257 -9.85991 0.390708 
-0.228003 0.390708 -10.0634 
-9.72806 -0.201393 0.353993 
-0.201393 -10.2311 -0.268617 
0.353993 -0.268617 -9.91733 
-10.0008 0.114986 -0.366732 
0.114986 -9.65732 0.0973229 
-0.366732 0.0973229 -10.2184 
-9.57178 -0.174879 -0.0212677 
-0.174879 -9.71496 -0.0980234 
-0.0212677 -0.0980234 -10.5898 
-9.76564 -0.0433794 0.115838 
-0.0433794 -9.64249 -0.734829 
0.115838 -0.734829 -9.80119 
-9.69765 0.00223752 0.212884 
0.00223752 -9.56068 -0.826597 
0.212884 -0.826597 -9.95098 
-9.62314 0.0521461 0.10844 
0.0521461 -9.69925 -0.920656 
0.10844 -0.920656 -9.88693 
-9.79809 -0.0827787 0.161975 
-0.0827787 -9.57271 -0.835844 
0.161975 -0.835844 -9.83853 
-2.4211 -0.532076 -0.564929 
-0.532076 -3.54482 -1.13182 
-0.564929 -1.13182 -1.75234 
-4.05176 0.662947 0.352729 
0.662947 -4.16184 -1.46955 
0.352729 -1.46955 0.495341 
-4.13823 0.13583 -0.402092 
0.13583 -3.07582 -1.37082 
-0.402092 -1.37082 -0.5042 
-4.09569 0.546084 -1.43099 
0.546084 -2.98295 -0.692626 
-1.43099 -0.692626 -0.639611 
-9.65396 0.0492805 0.893679 
0.0492805 -9.64746 -0.483702 
0.893679 -0.483702 -9.94248 
-9.7067 -0.0645053 0.631462 
-0.0645053 -9.77296 -0.355313 
0.631462 -0.355313 -9.76424 
-9.62314 -0.128678 0.714968 
-0.128678 -9.6777 -0.386196 
0.714968 -0.386196 -9.94306 
-9.55041 -0.080318 0.67567 
-0.080318 -9.72447 -0.435373 
0.67567 -0.435373 -9.96902 
-9.1428 0.00749396 0.453758 
0.00749396 -9.49901 0.0261398 
0.453758 0.0261398 -9.72509 
-9.31361 -0.335684 1.21486 
-0.335684 -9.25379 -0.611281 
1.21486 -0.611281 -9.79951 
-8.80098 -0.00783788 0.485201 
-0.00783788 -9.61829 -0.571209 
0.485201 -0.571209 -9.94763 
-8.898 0.0194954 0.846951 
0.0194954 -9.77686 0.195236 
0.846951 0.195236 -9.69203 
-10.1818 -0.0614371 -0.270407 
-0.0614371 -9.81139 -0.0804024 
-0.270407 -0.0804024 -10.2729 
-9.86346 -0.0989703 -0.0902077 
-0.0989703 -10.2228 0.175076 
-0.0902077 0.175076 -10.1799 
-9.95112 0.100376 0.190085 
0.100376 -10.2106 0.0482284 
0.190085 0.0482284 -10.1044 
-9.79384 0.161331 -0.0102995 
0.161331 -10.0541 0.00732236 
-0.0102995 0.00732236 -10.4182 
-9.7173 0.225985 -0.551769 
0.225985 -9.62573 0.033971 
-0.551769 0.033971 -9.04706 
-9.89826 -0.0582952 -0.638853 
-0.0582952 -10.3317 0.236557 
-0.638853 0.236557 -8.16013 
-9.41725 -0.114961 0.0255936 
-0.114961 -9.58076 0.239837 
0.0255936 0.239837 -9.39208 
-9.5848 0.0739002 -0.54032 
0.0739002 -9.7111 0.0834709 
-0.54032 0.0834709 -9.09419 
-8.53922 -0.987275 -0.22615 
-0.987275 -9.70346 0.524429 
-0.22615 0.524429 -9.88406 
-9.02207 -1.27209 -1.35516 
-1.27209 -7.93 1.61038 
-1.35516 1.61038 -11.1747 
-8.9307 -0.738633 -1.0294 
-0.738633 -9.18224 0.745278 
-1.0294 0.745278 -10.0138 
-8.96419 -0.426428 -0.299714 
-0.426428 -8.70916 0.332828 
-0.299714 0.332828 -10.4534 
-9.09044 0.0827289 -1.7925 
0.0827289 -9.88476 0.286593 
-1.7925 0.286593 -7.8757 
-8.79018 0.367844 -1.42604 
0.367844 -9.58896 0.48942 
-1.42604 0.48942 -8.47177 
-9.25882 -0.60767 -1.01313 
-0.60767 -9.23955 0.946711 
-1.01313 0.946711 -8.35254 
-8.79749 -0.569128 -1.66989 
-0.569128 -9.90698 0.0939245 
-1.66989 0.0939245 -8.14643 
-10.2148 -0.000872929 -0.503587 
-0.000872929 -10.1779 0.462725 
-0.503587 0.462725 -9.8015 
-10.2713 -0.0574031 -0.501765 
-0.0574031 -10.2323 0.561962 
-0.501765 0.561962 -9.69064 
-9.89187 0.0465802 -0.425524 
0.0465802 -9.86413 0.43754 
-0.425524 0.43754 -10.4382 
-10.0562 -0.0182614 -0.790743 
-0.0182614 -10.2804 0.366045 
-0.790743 0.366045 -9.85762 
-10.4059 0.103749 -0.0792519 
0.103749 -9.51084 0.571876 
-0.0792519 0.571876 -10.0866 
-9.8551 0.0950389 0.00814204 
0.0950389 -9.34702 -0.147033 
0.00814204 -0.147033 -10.8013 
-9.95131 -0.074118 0.0417355 
-0.074118 -9.91312 -0.608247 
0.0417355 -0.608247 -10.139 
-10.066 0.382906 -0.127946 
0.382906 -9.45969 -0.038965 
-0.127946 -0.038965 -10.4777 
-9.7503 0.694024 -0.828364 
0.694024 -8.4568 -1.85351 
-0.828364 -1.85351 -7.47814 
-9.75474 0.478375 -0.364111 
0.478375 -8.08463 -1.95017 
-0.364111 -1.95017 -7.84587 
-9.08591 0.331802 -0.236373 
0.331802 -7.89636 -2.16209 
-0.236373 -2.16209 -8.70297 
-9.61534 0.661753 -0.448785 
0.661753 -8.36896 -1.88739 
-0.448785 -1.88739 -7.70095 
-9.57063 0.391234 -0.142541 
0.391234 -9.12506 -0.143878 
-0.142541 -0.143878 -9.95539 
-9.18305 0.30729 -0.281218 
0.30729 -9.48185 -0.144715 
-0.281218 -0.144715 -9.98618 
-9.06015 0.666064 -0.157239 
0.666064 -9.29069 -0.223594 
-0.157239 -0.223594 -10.3002 
-8.99634 -0.115381 -0.778911 
-0.115381 -9.73692 -0.225722 
-0.778911 -0.225722 -9.91781 
-8.66444 -0.571051 2.34853 
-0.571051 -9.31008 -1.93788 
2.34853 -1.93788 -6.21414 
-8.62831 -0.198345 1.49986 
-0.198345 -8.96141 -1.58422 
1.49986 -1.58422 -6.59893 
-9.1879 -0.390273 1.91708 
-0.390273 -8.4971 -1.6019 
1.91708 -1.6019 -6.50366 
-9.13739 -0.452214 1.73061 
-0.452214 -8.76563 -1.45366 
1.73061 -1.45366 -6.28563 
-9.37215 -0.838798 0.181754 
-0.838798 -9.6337 -0.108331 
0.181754 -0.108331 -10.3926 
-9.87017 0.240572 -0.373608 
0.240572 -9.73511 0.0805455 
-0.373608 0.0805455 -9.79316 
-9.73959 0.217368 -0.237158 
0.217368 -9.93554 0.103176 
-0.237158 0.103176 -9.72331 
-8.88737 -0.314023 -0.352141 
-0.314023 -9.86937 0.774592 
-0.352141 0.774592 -10.6417 
-9.25937 -0.253164 0.493285 
-0.253164 -9.27094 -0.791458 
0.493285 -0.791458 -9.77238 
-9.14082 -0.57789 0.702872 
-0.57789 -9.19664 -0.672389 
0.702872 -0.672389 -9.96523 
-9.20462 -0.195634 0.458558 
-0.195634 -9.29901 -0.295697 
0.458558 -0.295697 -9.79906 
-9.27237 0.0629952 0.73375 
0.0629952 -9.31618 -0.682344 
0.73375 -0.682344 -9.71414 
-8.55154 -0.485435 -1.52335 
-0.485435 -9.49354 0.295803 
-1.52335 0.295803 -8.73831 
-9.89907 0.0739715 -1.24518 
0.0739715 -9.12424 0.954742 
-1.24518 0.954742 -7.76007 
-9.30928 -0.0889612 -1.67712 
-0.0889612 -9.16259 1.20452 
-1.67712 1.20452 -8.31151 
-9.76272 0.0607036 -1.16136 
0.0607036 -9.63305 1.15313 
-1.16136 1.15313 -7.38761 
-10.1026 0.0411527 -0.0780291 
0.0411527 -10.1344 0.0487189 
-0.0780291 0.0487189 -10.0908 
-10.0409 -0.0134949 -0.0522668 
-0.0134949 -10.1307 0.0571964 
-0.0522668 0.0571964 -10.1562 
-9.98724 -0.0262862 -0.0738529 
-0.0262862 -10.2008 0.00531333 
-0.0738529 0.00531333 -10.1398 
-10.1469 0.00322766 -0.0326113 
0.00322766 -10.2815 0.0643737 
-0.0326113 0.0643737 -9.89936 
-9.4229 -0.251077 0.505001 
-0.251077 -9.28689 -1.06382 
0.505001 -1.06382 -9.68268 
-9.45508 -0.152585 0.485045 
-0.152585 -9.17199 -0.906226 
0.485045 -0.906226 -9.76538 
-9.46175 -0.25811 0.411366 
-0.25811 -9.13196 -0.784057 
0.411366 -0.784057 -9.79875 
-9.47958 -0.119593 0.224822 
-0.119593 -9.18829 -0.970743 
0.224822 -0.970743 -9.72459 
-9.83089 -0.205518 -0.554445 
-0.205518 -9.26211 -0.344848 
-0.554445 -0.344848 -9.51398 
-9.5793 0.134154 -0.169946 
0.134154 -9.15374 -0.540106 
-0.169946 -0.540106 -9.87395 
-9.43366 0.0491934 0.220402 
0.0491934 -8.97888 -0.455497 
0.220402 -0.455497 -10.1945 
-9.3767 0.213232 -0.123458 
0.213232 -9.16578 -0.607745 
-0.123458 -0.607745 -10.0645 
-9.12254 -0.577096 -1.32694 
-0.577096 -9.25746 0.836605 
-1.32694 0.836605 -8.47277 
-9.23579 -0.105977 -0.961852 
-0.105977 -9.08375 0.692384 
-0.961852 0.692384 -8.53324 
-8.89636 -0.246673 -1.02892 
-0.246673 -9.18383 0.719803 
-1.02892 0.719803 -8.77259 
-9.12197 -0.362507 -1.11958 
-0.362507 -9.33832 0.77733 
-1.11958 0.77733 -8.39249 
-9.7675 0.155751 0.0612895 
0.155751 -8.98777 2.20035 
0.0612895 2.20035 -7.83339 
-9.79149 0.368612 0.326176 
0.368612 -9.01213 2.32222 
0.326176 2.32222 -7.78503 
-9.39055 -0.116629 0.17628 
-0.116629 -9.36677 2.12695 
0.17628 2.12695 -7.83133 
-10.1213 -0.359773 -0.220143 
-0.359773 -9.03853 2.38566 
-0.220143 2.38566 -7.42887 
-9.27294 0.132073 1.14113 
0.132073 -9.85838 0.15766 
1.14113 0.15766 -9.79189 
-9.24623 0.0747328 0.997114 
0.0747328 -9.77576 0.248012 
0.997114 0.248012 -9.90123 
-9.16583 -0.0220279 1.33505 
-0.0220279 -9.75408 0.155027 
1.33505 0.155027 -10.0033 
-9.57654 0.169477 1.27034 
0.169477 -10.0043 0.185915 
1.27034 0.185915 -9.34235 
-8.87361 -0.292335 -1.44088 
-0.292335 -10.0824 0.600387 
-1.44088 0.600387 -10.9591 
-9.07286 -0.598275 -1.0937 
-0.598275 -9.98767 0.517765 
-1.0937 0.517765 -10.8547 
-9.06484 -0.427039 -0.814568 
-0.427039 -10.0843 0.418789 
-0.814568 0.418789 -10.7661 
-9.14383 -0.68051 -1.53441 
-0.68051 -9.54432 -0.48706 
-1.53441 -0.48706 -11.227 
-9.38363 -0.705367 1.19923 
-0.705367 -9.0377 -1.50561 
1.19923 -1.50561 -10.1511 
-9.54208 -0.724703 1.19909 
-0.724703 -8.65075 -1.64 
1.19909 -1.64 -10.3796 
-9.48119 -0.693275 1.22181 
-0.693275 -9.15441 -1.40425 
1.22181 -1.40425 -9.93682 
-9.2485 -0.866892 1.33676 
-0.866892 -9.32879 -1.57991 
1.33676 -1.57991 -9.99512 
-9.68582 0.141076 -0.969334 
0.141076 -9.66855 -0.141498 
-0.969334 -0.141498 -9.72595 
-9.41853 -0.101944 -0.91599 
-0.101944 -9.81103 -0.0482995 
-0.91599 -0.0482995 -9.85077 
-9.56286 0.0414663 -0.98574 
0.0414663 -9.77078 -0.058509 
-0.98574 -0.058509 -9.74668 
-9.47767 0.0701861 -1.07947 
0.0701861 -9.85988 -0.0635264 
-1.07947 -0.0635264 -9.74277 
-9.12684 -0.256299 1.29575 
-0.256299 -9.56484 -1.2029 
1.29575 -1.2029 -7.91658 
-9.01513 -0.353157 1.34774 
-0.353157 -9.60877 -1.24523 
1.34774 -1.24523 -7.98435 
-9.19235 -0.331296 1.15554 
-0.331296 -9.39494 -1.20942 
1.15554 -1.20942 -8.02096 
-9.21528 -0.285541 1.4667 
-0.285541 -9.70324 -1.12643 
1.4667 -1.12643 -7.68973 
-9.47318 0.445187 -1.12747 
0.445187 -8.68053 -0.391283 
-1.12747 -0.391283 -9.67097 
-8.85401 0.642007 -0.900336 
0.642007 -9.08244 -1.16469 
-0.900336 -1.16469 -9.88823 
-9.10351 0.32187 -1.09152 
0.32187 -9.3164 -1.00022 
-1.09152 -1.00022 -9.40477 
-9.6042 0.456842 -1.22727 
0.456842 -9.18267 -1.01708 
-1.22727 -1.01708 -9.03781 
-9.95564 -0.138062 -0.126862 
-0.138062 -9.46013 -0.805112 
-0.126862 -0.805112 -9.48254 
-9.09408 0.0698926 -0.29969 
0.0698926 -9.87658 -1.1529 
-0.29969 -1.1529 -9.92765 
-9.75199 0.263305 -0.518958 
0.263305 -10.246 -0.973467 
-0.518958 -0.973467 -8.90029 
-10.0921 0.0677001 -0.311279 
0.0677001 -9.52485 -0.705772 
-0.311279 -0.705772 -9.28134 
-8.50445 0.112674 0.554755 
0.112674 -9.39309 0.147601 
0.554755 0.147601 -10.1263 
-8.04482 -0.201427 0.993193 
-0.201427 -9.69017 0.00256746 
0.993193 0.00256746 -10.2888 
-8.79889 0.442271 0.834508 
0.442271 -9.38513 -0.0103592 
0.834508 -0.0103592 -9.83982 
-8.61344 0.120215 0.737009 
0.120215 -9.51525 -0.0522633 
0.737009 -0.0522633 -9.89514 
-9.80087 -0.0902062 0.143473 
-0.0902062 -9.78767 -0.773406 
0.143473 -0.773406 -9.99031 
-9.79399 -0.0176757 0.169575 
-0.0176757 -9.78283 -0.811261 
0.169575 -0.811261 -10.002 
-9.80856 0.0202736 0.185914 
0.0202736 -9.835 -0.894648 
0.185914 -0.894648 -9.9353 
-9.89016 -0.00878433 0.183322 
-0.00878433 -9.7905 -0.876831 
0.183322 -0.876831 -9.8982 
-8.13514 -0.303891 -3.01512 
-0.303891 -9.39355 0.162811 
-3.01512 0.162811 -9.00462 
-7.95061 -0.388887 -2.73925 
-0.388887 -10.1522 0.595753 
-2.73925 0.595753 -8.43049 
-7.16938 -0.12913 -2.02404 
-0.12913 -10.163 0.592403 
-2.02404 0.592403 -9.20094 
-8.60724 -0.642777 -2.68525 
-0.642777 -9.54362 0.259068 
-2.68525 0.259068 -8.38245 
-8.39643 -0.187432 1.31504 
-0.187432 -8.22423 -1.40957 
1.31504 -1.40957 -8.96313 
-9.26262 -0.500195 1.53897 
-0.500195 -9.09718 -1.99933 
1.53897 -1.99933 -7.22398 
-8.76903 -0.707182 1.39206 
-0.707182 -9.40999 -1.31025 
1.39206 -1.31025 -7.40476 
-9.07495 -0.548794 1.17523 
-0.548794 -9.22059 -1.32728 
1.17523 -1.32728 -7.28824 
-8.51779 -0.423895 2.14682 
-0.423895 -9.41519 -1.18761 
2.14682 -1.18761 -8.87068 
-8.65169 -0.630013 2.28626 
-0.630013 -9.33335 -1.24931 
2.28626 -1.24931 -8.81862 
-9.15493 -0.523621 2.08886 
-0.523621 -8.89049 -1.66863 
2.08886 -1.66863 -8.75824 
-7.77975 -1.90087 2.59928 
-1.90087 -10.4689 -1.28836 
2.59928 -1.28836 -8.55504 
-10.6682 -1.45771 -0.287702 
-1.45771 -8.44761 -3.65738 
-0.287702 -3.65738 -6.77189 
-9.17586 0.0961327 -0.316649 
0.0961327 -8.81062 -1.79053 
-0.316649 -1.79053 -7.90123 
-9.70423 0.564074 -0.771955 
0.564074 -8.47382 -2.61013 
-0.771955 -2.61013 -7.70966 
-9.92343 0.881598 -0.542775 
0.881598 -8.9693 -2.259 
-0.542775 -2.259 -6.99498 
-9.13304 0.691721 -0.860051 
0.691721 -9.51676 -0.731123 
-0.860051 -0.731123 -9.15191 
-9.1873 0.456563 -1.05852 
0.456563 -9.35727 -1.03639 
-1.05852 -1.03639 -9.25715 
-9.29848 0.0537478 -1.07004 
0.0537478 -9.47777 -0.998402 
-1.07004 -0.998402 -9.02547 
-9.30538 0.636117 -1.11002 
0.636117 -9.17427 -1.26402 
-1.11002 -1.26402 -9.32206 
-9.85583 0.215642 0.762823 
0.215642 -9.78348 0.361981 
0.762823 0.361981 -9.57329 
-9.54691 -0.349022 1.08646 
-0.349022 -9.56405 0.397261 
1.08646 0.397261 -10.1016 
-9.92945 -0.223051 1.05669 
-0.223051 -10.129 0.262536 
1.05669 0.262536 -9.15413 
-9.73767 0.197108 0.771544 
0.197108 -9.97058 0.200437 
0.771544 0.200437 -9.50435 
-9.81939 -0.208077 0.226919 
-0.208077 -10.113 0.339637 
0.226919 0.339637 -10.2329 
-9.9994 0.173711 0.247174 
0.173711 -10.0179 0.0387882 
0.247174 0.0387882 -10.148 
-10.2084 0.228671 -0.24873 
0.228671 -9.92707 -0.365636 
-0.24873 -0.365636 -10.0299 
-9.92682 0.106218 0.033184 
0.106218 -9.68546 -0.0408129 
0.033184 -0.0408129 -10.553 
-9.07095 0.321977 0.783773 
0.321977 -9.34057 0.66936 
0.783773 0.66936 -9.82863 
-9.1437 0.547149 0.968961 
0.547149 -9.26612 0.635619 
0.968961 0.635619 -9.83033 
-8.92516 0.272906 0.847579 
0.272906 -9.44156 0.663716 
0.847579 0.663716 -9.87343 
-8.93191 0.315451 0.712734 
0.315451 -9.32716 0.316967 
0.712734 0.316967 -9.98108 
-8.9539 0.186096 -0.990153 
0.186096 -8.51654 -1.72855 
-0.990153 -1.72855 -4.06659 
-8.30327 -0.11758 -0.600794 
-0.11758 -8.37435 -1.66569 
-0.600794 -1.66569 -4.85941 
-8.24408 -0.104515 -0.367407 
-0.104515 -8.46297 -1.27245 
-0.367407 -1.27245 -4.82998 
-8.74575 0.415123 -0.454603 
0.415123 -7.46241 -1.94999 
-0.454603 -1.94999 -5.32887 
-9.62783 0.0278954 -1.09359 
0.0278954 -9.84621 0.389138 
-1.09359 0.389138 -8.88692 
-9.50196 -0.15605 -1.02659 
-0.15605 -9.74081 0.212574 
-1.02659 0.212574 -9.11819 
-9.75721 -0.0522988 -0.931175 
-0.0522988 -9.86473 0.782788 
-0.931175 0.782788 -8.73901 
-9.53164 -0.362991 -1.19964 
-0.362991 -10.0292 0.103067 
-1.19964 0.103067 -8.80015 
-10.2382 0.0176907 -0.22286 
0.0176907 -9.63982 0.803021 
-0.22286 0.803021 -9.46519 
-9.53859 0.14092 -0.240167 
0.14092 -9.98283 0.609546 
-0.240167 0.609546 -9.82179 
-10.1474 -0.0770353 -0.099089 
-0.0770353 -9.57897 1.10503 
-0.099089 1.10503 -9.61685 
-9.6862 0.219119 0.0882268 
0.219119 -10.3677 0.964237 
0.0882268 0.964237 -9.28932 
-9.17893 -0.348152 -1.12385 
-0.348152 -9.33405 0.82687 
-1.12385 0.82687 -8.58499 
-9.29579 -0.388641 -1.18586 
-0.388641 -9.29994 0.806847 
-1.18586 0.806847 -8.50224 
-9.19129 -0.321206 -0.986455 
-0.321206 -9.36691 0.865945 
-0.986455 0.865945 -8.53977 
-9.15721 -0.312126 -1.11492 
-0.312126 -9.3464 0.781206 
-1.11492 0.781206 -8.59437 
-9.47758 -0.197727 -0.748451 
-0.197727 -9.76635 0.643929 
-0.748451 0.643929 -9.84793 
-9.75304 -0.179021 -0.946862 
-0.179021 -9.73506 0.642257 
-0.946862 0.642257 -9.60376 
-9.64919 -0.108391 -0.666258 
-0.108391 -9.62021 0.586429 
-0.666258 0.586429 -9.82246 
-9.56388 -0.156911 -0.742839 
-0.156911 -9.67545 0.689291 
-0.742839 0.689291 -9.85253 
-9.22192 -0.42514 0.631452 
-0.42514 -9.09633 -0.764158 
0.631452 -0.764158 -9.93131 
-9.24408 -0.444164 0.312882 
-0.444164 -9.11878 -0.61811 
0.312882 -0.61811 -9.88671 
-9.32229 -0.521627 0.607677 
-0.521627 -8.92306 -0.829597 
0.607677 -0.829597 -10.0042 
-9.27218 -0.349599 0.264812 
-0.349599 -9.0158 -0.420919 
0.264812 -0.420919 -9.96158 
-9.26873 0.168889 1.99392 
0.168889 -9.22236 -0.296753 
1.99392 -0.296753 -6.46906 
-8.67489 -0.264921 2.02618 
-0.264921 -9.58305 -0.340659 
2.02618 -0.340659 -6.7022 
-8.60168 -0.672753 2.4202 
-0.672753 -10.2318 -0.172991 
2.4202 -0.172991 -6.12663 
-9.08553 0.335793 2.17992 
0.335793 -9.4456 0.0579417 
2.17992 0.0579417 -6.42901 
-8.89132 0.0562208 -0.668771 
0.0562208 -9.18339 0.100063 
-0.668771 0.100063 -9.92563 
-8.89915 -0.0354671 -0.810413 
-0.0354671 -9.3199 0.0222233 
-0.810413 0.0222233 -9.78129 
-9.00025 -0.137369 -0.82751 
-0.137369 -9.37728 -0.06859 
-0.82751 -0.06859 -9.62281 
-8.83109 -0.0211317 -0.885165 
-0.0211317 -9.49577 -0.0433368 
-0.885165 -0.0433368 -9.67348 
-6.5052 0.597591 -0.385493 
0.597591 -7.53942 3.71457 
-0.385493 3.71457 -4.35253 
-7.3003 -0.570332 -0.656255 
-0.570332 -6.79293 2.67736 
-0.656255 2.67736 -4.30391 
-8.23105 -2.14952 -0.519207 
-2.14952 -5.88108 2.89239 
-0.519207 2.89239 -4.28501 
-6.12018 -0.904261 -3.55551 
-0.904261 -6.82884 2.3778 
-3.55551 2.3778 -5.44813 
-9.40152 -0.331125 -1.3577 
-0.331125 -9.18753 -0.179862 
-1.3577 -0.179862 -9.1072 
-9.34389 -0.591507 -1.807 
-0.591507 -9.97156 1.02629 
-1.807 1.02629 -8.3808 
-9.37254 -0.440335 -1.74447 
-0.440335 -9.9905 0.855932 
-1.74447 0.855932 -8.33321 
-10.5146 -0.586036 -1.29869 
-0.586036 -10.1186 1.0541 
-1.29869 1.0541 -7.06312 
-9.56418 0.353674 0.471525 
0.353674 -9.15242 1.05598 
0.471525 1.05598 -9.71432 
-9.5386 0.15057 0.399911 
0.15057 -9.05988 0.909415 
0.399911 0.909415 -9.83245 
-9.37035 0.294077 0.532529 
0.294077 -9.28378 0.70177 
0.532529 0.70177 -9.7768 
-9.54557 0.144864 0.444411 
0.144864 -9.14045 0.923213 
0.444411 0.923213 -9.7449 
-9.86736 -0.122601 0.318981 
-0.122601 -9.85192 -0.839633 
0.318981 -0.839633 -9.5561 
-9.89293 -0.107775 0.419934 
-0.107775 -9.79976 -0.794749 
0.419934 -0.794749 -9.58269 
-9.751 0.244554 0.367693 
0.244554 -9.72414 -0.787159 
0.367693 -0.787159 -9.80024 
-9.89156 0.0584964 0.467635 
0.0584964 -9.86861 -0.886683 
0.467635 -0.886683 -9.51521 
-9.6513 -0.00582364 0.143448 
-0.00582364 -9.54368 -0.778567 
0.143448 -0.778567 -9.76715 
-9.6361 -0.0338165 0.169882 
-0.0338165 -9.55544 -0.729803 
0.169882 -0.729803 -9.77059 
-9.63225 0.0429928 0.131894 
0.0429928 -9.5189 -0.782452 
0.131894 -0.782452 -9.81099 
-9.69272 -0.0582722 0.12261 
-0.0582722 -9.52687 -0.772202 
0.12261 -0.772202 -9.74254 
-10.1701 0.000929718 -0.217215 
0.000929718 -10.1329 -0.735387 
-0.217215 -0.735387 -9.61988 
-9.84294 0.00424798 -0.149068 
0.00424798 -9.52087 -0.424193 
-0.149068 -0.424193 -10.5591 
-10.0625 0.103227 -0.259162 
0.103227 -10.1378 -0.747039 
-0.259162 -0.747039 -9.72251 
-10.1188 0.0169994 -0.419178 
0.0169994 -10.1605 -0.616971 
-0.419178 -0.616971 -9.64353 
-9.81278 -0.184356 -0.485953 
-0.184356 -9.87061 0.139986 
-0.485953 0.139986 -9.38495 
-9.66178 0.491424 -0.552997 
0.491424 -9.58219 -0.00936591 
-0.552997 -0.00936591 -9.82439 
-9.79961 -0.056227 -0.650577 
-0.056227 -9.94903 0.0293718 
-0.650577 0.0293718 -9.3197 
-9.89021 -0.0020827 -0.512771 
-0.0020827 -9.85047 -0.0478739 
-0.512771 -0.0478739 -9.32767 
-9.34003 0.0718501 -0.802441 
0.0718501 -9.6241 -0.0341535 
-0.802441 -0.0341535 -9.82556 
-9.35893 -0.032044 -1.0323 
-0.032044 -9.56801 -0.0115018 
-1.0323 -0.0115018 -9.86275 
-9.27747 0.0673941 -0.829236 
0.0673941 -9.68299 -0.125427 
-0.829236 -0.125427 -9.82923 
-9.36104 0.0351299 -0.739319 
0.0351299 -9.56704 -0.0646077 
-0.739319 -0.0646077 -9.86161 
-9.0353 0.366836 -1.1884 
0.366836 -8.71888 -1.49147 
-1.1884 -1.49147 -7.92589 
-9.14456 0.386502 -1.121 
0.386502 -8.97807 -1.42011 
-1.121 -1.42011 -7.55743 
-8.98463 0.175255 -1.18483 
0.175255 -8.91735 -1.47062 
-1.18483 -1.47062 -7.77808 
-9.11145 0.531103 -1.13762 
0.531103 -9.01318 -1.51194 
-1.13762 -1.51194 -7.55544 
-9.67062 0.0383147 0.860586 
0.0383147 -9.84148 0.44835 
0.860586 0.44835 -9.63382 
-9.636 0.0581238 0.894858 
0.0581238 -10.0542 0.522632 
0.894858 0.522632 -9.45573 
-9.50862 0.0472079 0.813253 
0.0472079 -9.87114 0.241414 
0.813253 0.241414 -9.76615 
-9.76201 0.0577897 0.800527 
0.0577897 -9.67921 0.516115 
0.800527 0.516115 -9.7047 
-8.3461 0.421689 0.962333 
0.421689 -9.52362 0.361132 
0.962333 0.361132 -10.0758 
-8.21746 0.351868 0.970887 
0.351868 -9.64485 0.250753 
0.970887 0.250753 -10.0832 
-8.10062 0.361433 1.32888 
0.361433 -9.63518 0.288462 
1.32888 0.288462 -10.2097 
-9.03559 -0.125864 1.16123 
-0.125864 -9.36943 0.355915 
1.16123 0.355915 -9.54052 
-9.23961 -0.0970519 -0.618034 
-0.0970519 -9.42274 0.304788 
-0.618034 0.304788 -9.68112 
-9.22703 -0.100924 -0.681139 
-0.100924 -9.46547 0.33403 
-0.681139 0.33403 -9.65097 
-9.27185 -0.137318 -0.589081 
-0.137318 -9.43263 0.296878 
-0.589081 0.296878 -9.63899 
-9.24754 -0.106808 -0.705583 
-0.106808 -9.43539 0.292492 
-0.705583 0.292492 -9.66054 
-9.87785 0.088636 -0.408397 
0.088636 -9.35444 -0.513049 
-0.408397 -0.513049 -10.0513 
-9.88461 0.137733 -0.884431 
0.137733 -9.82294 -0.739946 
-0.884431 -0.739946 -9.57607 
-9.6896 0.0430143 -0.821034 
0.0430143 -9.90885 -0.553758 
-0.821034 -0.553758 -9.68518 
-9.71476 0.127049 -0.741694 
0.127049 -9.79612 -0.514762 
-0.741694 -0.514762 -9.77275 
-9.52652 -0.121322 0.820282 
-0.121322 -9.50774 -0.468035 
0.820282 -0.468035 -9.28265 
-9.50065 -0.160357 0.657722 
-0.160357 -9.60166 -0.839484 
0.657722 -0.839484 -9.21459 
-9.90125 -0.136136 0.929567 
-0.136136 -9.95147 -0.706297 
0.929567 -0.706297 -8.46418 
-9.5251 0.0403369 0.646886 
0.0403369 -9.74742 -0.788024 
0.646886 -0.788024 -9.04439 
-9.2945 -0.833613 1.38701 
-0.833613 -7.17998 -1.93042 
1.38701 -1.93042 -6.72422 
-9.05261 -0.76762 1.38252 
-0.76762 -8.23549 -3.84847 
1.38252 -3.84847 -5.9106 
-9.01343 0.217341 0.6654 
0.217341 -7.47293 -1.9331 
0.6654 -1.9331 -6.71234 
-8.59981 -0.647132 2.0935 
-0.647132 -8.57135 -3.28342 
2.0935 -3.28342 -6.02754 
-9.45981 0.137991 0.842105 
0.137991 -9.70797 0.442383 
0.842105 0.442383 -9.65068 
-9.49082 0.101507 0.999685 
0.101507 -9.6657 0.51448 
0.999685 0.51448 -9.66194 
-9.39012 0.148811 0.939698 
0.148811 -9.58673 0.4476 
0.939698 0.4476 -9.8416 
-9.49728 0.135427 1.08902 
0.135427 -9.77776 0.456521 
1.08902 0.456521 -9.54341 
-9.43813 -0.735719 2.12301 
-0.735719 -9.35277 -0.575047 
2.12301 -0.575047 -9.88851 
-8.86925 -1.17831 2.83308 
-1.17831 -9.73144 -0.801813 
2.83308 -0.801813 -10.0787 
-8.12984 -1.14197 2.13021 
-1.14197 -9.68779 -1.17977 
2.13021 -1.17977 -10.8618 
-7.15694 -0.991175 1.95869 
-0.991175 -10.1699 -0.938868 
1.95869 -0.938868 -11.3525 
-9.77531 -0.247886 -0.38928 
-0.247886 -10.0406 0.409162 
-0.38928 0.409162 -8.51658 
-9.70541 0.364124 -0.347114 
0.364124 -9.71254 0.308596 
-0.347114 0.308596 -8.91455 
-9.89439 -0.0560218 -0.599337 
-0.0560218 -9.90086 0.428269 
-0.599337 0.428269 -8.53724 
-9.67972 -0.147886 -0.616064 
-0.147886 -9.77145 -0.113416 
-0.616064 -0.113416 -8.88133 
-9.10542 0.587233 1.38004 
0.587233 -9.72047 0.502844 
1.38004 0.502844 -8.96795 
-8.98666 0.289095 1.25047 
0.289095 -9.61182 0.363889 
1.25047 0.363889 -9.19536 
-9.11489 -0.00036737 1.42054 
-0.00036737 -9.58692 0.461817 
1.42054 0.461817 -9.09203 
-9.06251 0.153542 1.27663 
0.153542 -9.54152 0.57656 
1.27663 0.57656 -9.18981 
-10.6721 0.530926 -1.13515 
0.530926 -7.79501 -2.84194 
-1.13515 -2.84194 -8.62365 
-9.01798 0.397167 -0.391791 
0.397167 -7.96523 -1.12526 
-0.391791 -1.12526 -10.1076 
-8.98443 0.352217 -0.495872 
0.352217 -9.39161 -1.88901 
-0.495872 -1.88901 -8.71472 
-9.83211 0.237781 -0.170027 
0.237781 -8.74753 -1.94352 
-0.170027 -1.94352 -8.51112 
-8.98338 0.239321 -0.421275 
0.239321 -9.24171 -0.241165 
-0.421275 -0.241165 -9.90292 
-8.93013 0.295125 -0.407315 
0.295125 -9.32459 -0.339696 
-0.407315 -0.339696 -9.87329 
-9.05739 0.319419 -0.511595 
0.319419 -9.23513 -0.330713 
-0.511595 -0.330713 -9.83548 
-8.99493 0.148565 -0.471019 
0.148565 -9.18674 -0.232407 
-0.471019 -0.232407 -9.94634 
-9.53871 0.092646 0.576259 
0.092646 -9.73571 0.333026 
0.576259 0.333026 -9.74135 
-9.6197 0.0105186 0.885682 
0.0105186 -9.54623 0.484129 
0.885682 0.484129 -9.84985 
-9.45042 0.195923 0.739349 
0.195923 -9.7146 0.438659 
0.739349 0.438659 -9.85077 
-9.55525 0.0878358 0.725005 
0.0878358 -9.56361 0.475582 
0.725005 0.475582 -9.89692 
-9.69897 -0.00890415 0.037665 
-0.00890415 -9.71064 0.784289 
0.037665 0.784289 -9.83355 
-9.79533 0.0559408 0.083118 
0.0559408 -9.50642 0.887006 
0.083118 0.887006 -9.9414 
-9.81422 0.0164796 0.0655539 
0.0164796 -9.48935 0.901168 
0.0655539 0.901168 -9.93959 
-9.87812 0.00863255 0.155583 
0.00863255 -9.59391 1.01819 
0.155583 1.01819 -9.77113 
-7.64573 -0.450613 1.41909 
-0.450613 -10.0421 -0.449357 
1.41909 -0.449357 -9.46391 
-8.18966 -0.150667 1.76817 
-0.150667 -9.83284 -0.74738 
1.76817 -0.74738 -9.12921 
-8.19987 -0.304074 2.29513 
-0.304074 -9.82246 -0.271923 
2.29513 -0.271923 -9.12938 
-7.64493 -0.198221 1.3857 
-0.198221 -9.60833 -0.282318 
1.3857 -0.282318 -9.89844 
-9.68519 -0.0150213 0.509338 
-0.0150213 -9.67719 -0.632842 
0.509338 -0.632842 -9.84485 
-9.73407 -0.135593 0.640161 
-0.135593 -9.6892 -0.964451 
0.640161 -0.964451 -9.78396 
-9.73224 -0.373404 0.552793 
-0.373404 -9.45515 -0.697074 
0.552793 -0.697074 -10.0198 
-9.68876 -0.148229 0.725347 
-0.148229 -9.54745 -0.589559 
0.725347 -0.589559 -9.97103 
-9.66935 0.209998 0.0678181 
0.209998 -9.55247 -0.943009 
0.0678181 -0.943009 -7.7795 
-9.66393 0.0280808 -0.057504 
0.0280808 -9.45225 -1.05095 
-0.057504 -1.05095 -7.88514 
-9.67132 0.150478 -0.398366 
0.150478 -9.30792 -0.91959 
-0.398366 -0.91959 -8.02208 
-9.78416 -0.364244 -0.0278814 
-0.364244 -9.64772 -1.26248 
-0.0278814 -1.26248 -7.56944 
-9.52775 -0.148063 0.716377 
-0.148063 -9.64842 -0.387975 
0.716377 -0.387975 -9.82418 
-9.48663 -0.185587 0.716123 
-0.185587 -9.66378 -0.454316 
0.716123 -0.454316 -9.84993 
-9.50625 -0.0756908 0.832195 
-0.0756908 -9.69517 -0.486414 
0.832195 -0.486414 -9.79893 
-9.55719 -0.122169 0.819387 
-0.122169 -9.62119 -0.436099 
0.819387 -0.436099 -9.82197 
-9.17053 0.233427 -0.356754 
0.233427 -9.38701 -0.202255 
-0.356754 -0.202255 -9.88188 
-8.97723 -0.0560657 -0.895521 
-0.0560657 -9.55929 -0.273774 
-0.895521 -0.273774 -9.9029 
-8.41973 0.532466 -0.477877 
0.532466 -9.51367 -0.10737 
-0.477877 -0.10737 -10.506 
-9.15552 0.0384422 -1.16599 
0.0384422 -9.56222 -0.293264 
-1.16599 -0.293264 -9.72168 
-8.89936 1.20611 -0.79154 
1.20611 -7.31537 -2.2517 
-0.79154 -2.2517 -9.57837 
-7.86128 1.62162 -2.1299 
1.62162 -8.21328 -2.88894 
-2.1299 -2.88894 -9.71855 
-8.53422 1.0285 -1.77103 
1.0285 -6.96338 -0.931992 
-1.77103 -0.931992 -10.2955 
-8.41457 1.33537 -1.48058 
1.33537 -7.22912 -1.36013 
-1.48058 -1.36013 -10.1494 
-9.85573 -0.266901 -0.242726 
-0.266901 -9.64144 -0.660628 
-0.242726 -0.660628 -9.62102 
-9.83887 -0.0256504 -0.375769 
-0.0256504 -9.78778 -0.717459 
-0.375769 -0.717459 -9.49154 
-9.85555 0.075559 -0.424888 
0.075559 -9.79468 -0.732393 
-0.424888 -0.732393 -9.46797 
-9.87839 -0.0983643 -0.603618 
-0.0983643 -9.86961 -0.716617 
-0.603618 -0.716617 -9.3702 
-9.32816 0.14928 -0.194726 
0.14928 -8.92881 -0.347866 
-0.194726 -0.347866 -9.64009 
-9.26463 0.127379 -0.22406 
0.127379 -9.02575 -0.506766 
-0.22406 -0.506766 -9.60669 
-8.93371 -0.252881 -0.404003 
-0.252881 -9.88103 -0.579659 
-0.404003 -0.579659 -9.08232 
-9.12336 0.34422 -0.165815 
0.34422 -9.18766 -0.518817 
-0.165815 -0.518817 -9.58604 
-5.59954 -0.815559 1.40167 
-0.815559 -8.02604 -1.35723 
1.40167 -1.35723 -1.77506 
-6.51733 1.48152 1.40528 
1.48152 -5.64089 -2.17156 
1.40528 -2.17156 -3.24242 
-6.81455 0.671195 0.426322 
0.671195 -6.95578 -2.59665 
0.426322 -2.59665 -1.6303 
-4.04245 -1.33484 3.34862 
-1.33484 -8.61696 -3.294 
3.34862 -3.294 -2.74124 
-9.66721 -0.0504735 0.86685 
-0.0504735 -9.70191 -0.403378 
0.86685 -0.403378 -9.58361 
-9.56921 0.231557 0.977488 
0.231557 -10.274 -0.57134 
0.977488 -0.57134 -9.10951 
-9.71689 -0.061437 0.904776 
-0.061437 -9.87941 -0.21454 
0.904776 -0.21454 -9.35643 
-9.73794 -0.0154964 0.950128 
-0.0154964 -9.85409 0.0592219 
0.950128 0.0592219 -9.3607 
-9.09951 0.2154 -1.22226 
0.2154 -9.48214 -0.545264 
-1.22226 -0.545264 -9.4456 
-9.06852 0.232065 -1.21758 
0.232065 -9.46526 -0.313749 
-1.21758 -0.313749 -9.49346 
-9.08817 -0.184726 -0.86648 
-0.184726 -9.43701 -0.650549 
-0.86648 -0.650549 -9.50207 
-9.17387 0.298891 -1.15502 
0.298891 -9.5181 -0.434327 
-1.15502 -0.434327 -9.33527 
-9.3851 -0.0549347 0.128846 
-0.0549347 -8.97955 -0.625079 
0.128846 -0.625079 -9.9496 
-9.58713 -0.051549 -0.00504188 
-0.051549 -9.01289 -0.876694 
-0.00504188 -0.876694 -9.71423 
-9.45185 -0.141729 -0.0587735 
-0.141729 -9.35921 -0.734617 
-0.0587735 -0.734617 -9.50319 
-9.44258 0.0580738 0.107103 
0.0580738 -9.1067 -0.706195 
0.107103 -0.706195 -9.76497 
-9.86304 -0.0155744 0.48819 
-0.0155744 -9.877 -0.69156 
0.48819 -0.69156 -9.92972 
-9.86625 -0.060513 0.45329 
-0.060513 -9.82209 -0.692329 
0.45329 -0.692329 -9.98141 
-9.83887 -0.0436728 0.468168 
-0.0436728 -9.85805 -0.711659 
0.468168 -0.711659 -9.97283 
-9.85189 -0.017319 0.507186 
-0.017319 -9.88197 -0.693761 
0.507186 -0.693761 -9.93589 
-9.51351 -0.246854 -0.811879 
-0.246854 -9.67764 0.601477 
-0.811879 0.601477 -9.8774 
-9.62169 -0.144233 -0.688885 
-0.144233 -9.56654 0.587301 
-0.688885 0.587301 -9.88033 
-9.64806 -0.0957988 -0.749228 
-0.0957988 -9.60697 0.589163 
-0.749228 0.589163 -9.81353 
-9.44811 -0.0868731 -0.472147 
-0.0868731 -9.7116 0.263555 
-0.472147 0.263555 -9.90885 
-8.06321 0.0142495 -0.639624 
0.0142495 -8.59836 -1.8959 
-0.639624 -1.8959 -3.35191 
-8.07107 0.556587 -1.65495 
0.556587 -8.50309 -2.0908 
-1.65495 -2.0908 -3.43933 
-10.0528 -0.393841 -0.92972 
-0.393841 -9.0407 -0.793293 
-0.92972 -0.793293 -0.920004 
-7.04633 0.218832 0.181768 
0.218832 -7.67214 -1.08033 
0.181768 -1.08033 -5.29501 
-8.91332 -0.0543927 1.45743 
-0.0543927 -9.81087 -0.0112847 
1.45743 -0.0112847 -8.60765 
-9.28783 0.0827298 1.39196 
0.0827298 -9.40098 0.0240792 
1.39196 0.0240792 -8.64303 
-8.91321 -0.0912457 1.41536 
-0.0912457 -9.84858 -0.225831 
1.41536 -0.225831 -8.57005 
-9.34968 0.0552365 1.68643 
0.0552365 -9.51249 0.0170647 
1.68643 0.0170647 -8.46967 
-9.8003 0.0524185 -0.816515 
0.0524185 -9.85827 -0.641465 
-0.816515 -0.641465 -8.7795 
-9.82527 0.0826169 -0.797837 
0.0826169 -9.8836 -0.657166 
-0.797837 -0.657166 -8.7292 
-9.79702 0.0621909 -0.866592 
0.0621909 -9.9521 -0.663528 
-0.866592 -0.663528 -8.68895 
-9.77637 0.095113 -0.832255 
0.095113 -9.80422 -0.626479 
-0.832255 -0.626479 -8.85748 
-8.94409 0.05441 -0.989802 
0.05441 -9.4375 -0.430901 
-0.989802 -0.430901 -9.83827 
-8.98029 0.274727 -0.743176 
0.274727 -9.57123 -0.0901688 
-0.743176 -0.0901688 -9.66833 
-9.10391 0.027889 -0.847694 
0.027889 -9.41628 -0.161454 
-0.847694 -0.161454 -9.69967 
-9.06583 0.00157462 -0.810202 
0.00157462 -9.45084 -0.136306 
-0.810202 -0.136306 -9.70318 
-9.64783 -0.210979 0.53137 
-0.210979 -9.30993 -0.431835 
0.53137 -0.431835 -7.55185 
-8.79077 0.368354 0.447855 
0.368354 -9.60187 -0.858659 
0.447855 -0.858659 -8.11697 
-9.45061 -0.371667 0.895081 
-0.371667 -9.47729 -0.375423 
0.895081 -0.375423 -7.58172 
-9.43105 0.0479983 0.585021 
0.0479983 -9.75287 -0.850792 
0.585021 -0.850792 -7.32569 
-10.1143 -0.0281425 0.323444 
-0.0281425 -8.90035 -0.0444872 
0.323444 -0.0444872 -10.8205 
-10.3658 -0.0240862 -0.0975223 
-0.0240862 -9.13392 -0.68773 
-0.0975223 -0.68773 -10.3354 
-10.2123 -0.00711126 0.15296 
-0.00711126 -8.91877 -0.132264 
0.15296 -0.132264 -10.704 
-9.91743 0.202196 0.203535 
0.202196 -9.22015 -0.438606 
0.203535 -0.438606 -10.6975 
-9.65295 0.0669519 0.948847 
0.0669519 -9.93305 0.293195 
0.948847 0.293195 -9.93251 
-9.77245 -0.0558618 0.755088 
-0.0558618 -9.78858 0.264974 
0.755088 0.264974 -9.95748 
-9.5916 0.11177 0.89541 
0.11177 -9.94682 0.31702 
0.89541 0.31702 -9.98009 
-9.70727 -0.138349 1.13484 
-0.138349 -9.93271 0.306535 
1.13484 0.306535 -9.87853 
-9.98312 0.0470661 0.0590715 
0.0470661 -9.92591 -0.0600024 
0.0590715 -0.0600024 -10.213 
-9.91686 -0.0598988 -0.0428444 
-0.0598988 -10.1518 -0.0120994 
-0.0428444 -0.0120994 -10.0534 
-9.89228 0.0958737 0.114048 
0.0958737 -10.1119 0.0895281 
0.114048 0.0895281 -10.1178 
-9.86554 0.00596737 0.0385783 
0.00596737 -10.0288 -0.024165 
0.0385783 -0.024165 -10.2277 
-3.73867 0.15959 -1.1529 
0.15959 -7.19579 0.465783 
-1.1529 0.465783 -1.87753 
-6.01784 0.041872 -1.3284 
0.041872 -3.69648 3.93318 
-1.3284 3.93318 -3.09766 
-6.65794 -0.222893 -1.14007 
-0.222893 -5.69447 2.15159 
-1.14007 2.15159 -0.459578 
-4.63275 -0.486866 -1.91156 
-0.486866 -6.39519 2.01599 
-1.91156 2.01599 -1.78404 
-10.7904 -0.394248 -0.468148 
-0.394248 -9.55195 -0.222085 
-0.468148 -0.222085 -10.2179 
-9.5191 -0.918447 0.988152 
-0.918447 -10.1705 0.496818 
0.988152 0.496818 -10.8706 
-9.59887 -0.246096 -1.1958 
-0.246096 -9.4164 0.346521 
-1.1958 0.346521 -11.545 
-9.94357 -0.310568 -0.0307394 
-0.310568 -9.77951 0.132611 
-0.0307394 0.132611 -10.8371 
-9.30697 0.122226 1.2096 
0.122226 -9.78759 0.236584 
1.2096 0.236584 -9.85947 
-9.21211 0.187683 1.04339 
0.187683 -9.81872 0.195594 
1.04339 0.195594 -9.92321 
-9.21954 0.0765012 1.00648 
0.0765012 -9.79591 0.15715 
1.00648 0.15715 -9.93859 
-8.78949 0.26617 1.25 
0.26617 -10.0355 0.303943 
1.25 0.303943 -10.129 
-9.65996 0.0466431 0.119145 
0.0466431 -9.21387 0.718096 
0.119145 0.718096 -9.8775 
-9.56862 0.0940251 0.047182 
0.0940251 -9.3576 1.08704 
0.047182 1.08704 -9.8251 
-9.60266 0.0727463 0.072163 
0.0727463 -9.41071 0.748222 
0.072163 0.748222 -9.73794 
-9.60068 0.0737008 0.037444 
0.0737008 -9.34116 0.835562 
0.037444 0.835562 -9.80948 
-9.86437 -0.0119721 0.22092 
-0.0119721 -9.82653 -0.839836 
0.22092 -0.839836 -10.0063 
-9.94448 -0.0305667 0.158751 
-0.0305667 -9.8079 -0.813152 
0.158751 -0.813152 -9.94486 
-9.84821 0.0204883 0.187343 
0.0204883 -9.9001 -0.817509 
0.187343 -0.817509 -9.94893 
-9.90496 -0.0383159 0.159247 
-0.0383159 -9.88055 -0.815278 
0.159247 -0.815278 -9.91172 
-8.95611 -0.344115 0.618187 
-0.344115 -9.35407 -0.380916 
0.618187 -0.380916 -9.79061 
-8.82813 -0.322507 0.533747 
-0.322507 -9.27323 -0.301498 
0.533747 -0.301498 -9.99942 
-8.7784 -0.347434 0.614804 
-0.347434 -9.21399 -0.229227 
0.614804 -0.229227 -10.1084 
-8.87567 -0.203712 0.35259 
-0.203712 -9.27049 -0.250443 
0.35259 -0.250443 -9.95462 
-9.46299 0.348403 -1.36771 
0.348403 -9.70028 -0.653492 
-1.36771 -0.653492 -9.13302 
-8.5006 0.184744 -2.12712 
0.184744 -10.2724 -0.456737 
-2.12712 -0.456737 -9.52328 
-9.00285 0.0832483 -1.12728 
0.0832483 -9.57141 -0.369731 
-1.12728 -0.369731 -9.72203 
-9.35029 0.549274 -1.26462 
0.549274 -9.61479 -0.72771 
-1.26462 -0.72771 -9.33121 
-9.8644 0.0216156 0.0945553 
0.0216156 -9.62562 0.951874 
0.0945553 0.951874 -9.14513 
-9.8775 0.0912915 -0.00753124 
0.0912915 -9.86049 0.793826 
-0.00753124 0.793826 -8.89715 
-9.76631 0.0467363 -0.0453274 
0.0467363 -9.65441 0.761559 
-0.0453274 0.761559 -9.21443 
-9.82797 0.00315379 0.243184 
0.00315379 -9.58974 1.05854 
0.243184 1.05854 -9.21745 
-9.04089 -1.52803 2.21717 
-1.52803 -9.15244 -2.01362 
2.21717 -2.01362 -10.1915 
-9.06683 -0.269007 0.723761 
-0.269007 -9.63086 -1.96356 
0.723761 -1.96356 -9.68714 
-9.16301 -0.89878 2.10449 
-0.89878 -9.58732 -1.77625 
2.10449 -1.77625 -9.63451 
-9.50433 0.222577 1.11132 
0.222577 -9.28336 -1.66209 
1.11132 -1.66209 -9.59714 
-8.85257 0.0933412 -0.583415 
0.0933412 -9.54061 -0.123891 
-0.583415 -0.123891 -9.57101 
-9.11894 -0.0159261 -1.01015 
-0.0159261 -9.20546 0.0128809 
-1.01015 0.0128809 -9.6398 
-8.77885 0.000888916 -0.809416 
0.000888916 -9.39133 0.00514462 
-0.809416 0.00514462 -9.79401 
-8.72423 -0.0746828 -0.849947 
-0.0746828 -9.37463 -0.0296113 
-0.849947 -0.0296113 -9.86533 
-9.6948 -0.0965918 0.105907 
-0.0965918 -9.38835 -0.74458 
0.105907 -0.74458 -9.80741 
-9.76554 -0.101635 0.255294 
-0.101635 -9.28484 -0.781649 
0.255294 -0.781649 -9.84017 
-9.68628 -0.0845394 0.126138 
-0.0845394 -9.39923 -0.873452 
0.126138 -0.873452 -9.80505 
-9.69499 0.0387675 0.174479 
0.0387675 -9.45347 -0.978078 
0.174479 -0.978078 -9.74209 
-9.77721 -0.0629458 -0.760968 
-0.0629458 -9.77647 0.518046 
-0.760968 0.518046 -9.93974 
-9.72455 -0.0478102 -0.771216 
-0.0478102 -9.81808 0.525855 
-0.771216 0.525855 -9.95078 
-9.75473 -0.163314 -0.793505 
-0.163314 -9.7192 0.540858 
-0.793505 0.540858 -10.0195 
-9.63748 0.0598987 -0.565435 
0.0598987 -9.78458 0.218295 
-0.565435 0.218295 -10.0714 
-9.30596 -0.0317899 0.446131 
-0.0317899 -9.78995 0.354831 
0.446131 0.354831 -6.79831 
-9.88112 0.0473057 0.629549 
0.0473057 -9.74932 1.02968 
0.629549 1.02968 -6.26378 
-9.14656 -0.0307319 0.721726 
-0.0307319 -9.64957 0.0575417 
0.721726 0.0575417 -7.09809 
-9.26527 -0.163957 0.404953 
-0.163957 -9.73882 0.332652 
0.404953 0.332652 -6.89013 
-9.6738 0.0764004 0.862572 
0.0764004 -9.84729 -0.0092533 
0.862572 -0.0092533 -9.92557 
-9.61796 -0.159029 0.960195 
-0.159029 -9.88726 0.031315 
0.960195 0.031315 -9.94144 
-9.74009 -0.0843669 0.700981 
-0.0843669 -9.76384 0.0238442 
0.700981 0.0238442 -9.94273 
-9.61853 0.142609 0.936586 
0.142609 -9.83683 0.0363209 
0.936586 0.0363209 -9.9913 
-8.70034 0.32854 -0.578788 
0.32854 -9.67563 -0.0907826 
-0.578788 -0.0907826 -10.1479 
-8.60368 0.156355 -0.228426 
0.156355 -9.64712 -0.0351684 
-0.228426 -0.0351684 -10.2731 
-8.6125 0.206369 -0.471523 
0.206369 -9.46649 -0.0997726 
-0.471523 -0.0997726 -10.4449 
-8.6464 0.287404 -0.466974 
0.287404 -9.65542 -0.0503998 
-0.466974 -0.0503998 -10.2221 
-9.60565 -0.164018 -1.10882 
-0.164018 -9.99032 0.473168 
-1.10882 0.473168 -9.1511 
-9.56281 0.0617351 -0.84949 
0.0617351 -9.88907 0.561292 
-0.84949 0.561292 -9.29519 
-9.77011 -0.173547 -1.16543 
-0.173547 -9.83229 0.579288 
-1.16543 0.579288 -9.14467 
-9.58218 -0.101704 -0.832937 
-0.101704 -9.78543 0.618441 
-0.832937 0.618441 -9.37946 
-9.74147 0.0476812 0.875684 
0.0476812 -9.85768 0.337155 
0.875684 0.337155 -9.95214 
-9.69506 -0.00361611 0.842247 
-0.00361611 -9.8381 0.320529 
0.842247 0.320529 -10.0181 
-9.83979 0.0382067 0.861063 
0.0382067 -9.86083 0.305105 
0.861063 0.305105 -9.85067 
-9.79235 0.0368899 0.97585 
0.0368899 -9.89094 0.270812 
0.97585 0.270812 -9.868 
-9.52447 -0.236232 0.946012 
-0.236232 -9.79975 -0.758594 
0.946012 -0.758594 -9.51125 
-9.59218 -0.292578 0.916188 
-0.292578 -9.79393 -0.744324 
0.916188 -0.744324 -9.44936 
-9.48643 -0.311108 1.29299 
-0.311108 -10.0375 -0.462586 
1.29299 -0.462586 -9.31159 
-9.70539 -0.133232 0.59238 
-0.133232 -9.63014 -0.463593 
0.59238 -0.463593 -9.49994 
-9.84936 0.0634829 0.241709 
0.0634829 -9.69727 -1.00114 
0.241709 -1.00114 -9.72018 
-9.55168 -0.199485 0.349809 
-0.199485 -9.77034 -0.562196 
0.349809 -0.562196 -9.94479 
-9.91458 -0.162034 0.357093 
-0.162034 -9.66693 -1.18623 
0.357093 -1.18623 -9.6853 
-9.88781 0.0103617 0.224255 
0.0103617 -9.62717 -0.861264 
0.224255 -0.861264 -9.75182 
-9.43048 -0.106483 0.1282 
-0.106483 -9.18723 -0.851469 
0.1282 -0.851469 -9.74468 
-9.48234 0.0562535 0.103721 
0.0562535 -9.14899 -0.826452 
0.103721 -0.826452 -9.73105 
-9.54321 -0.120875 0.119565 
-0.120875 -8.95986 -0.872398 
0.119565 -0.872398 -9.85931 
-9.44066 0.156752 0.102398 
0.156752 -9.15697 -0.927208 
0.102398 -0.927208 -9.76475 
-9.27624 -0.152369 0.389475 
-0.152369 -9.02985 -0.820264 
0.389475 -0.820264 -9.66571 
-9.28501 -0.240867 0.312505 
-0.240867 -8.88123 -0.80382 
0.312505 -0.80382 -9.80555 
-9.36391 -0.240255 0.212588 
-0.240255 -8.99607 -0.550302 
0.212588 -0.550302 -9.61182 
-9.25816 -0.203911 0.331118 
-0.203911 -8.97223 -0.723812 
0.331118 -0.723812 -9.7414 
-8.1165 0.36295 -1.20405 
0.36295 -9.77269 -0.58636 
-1.20405 -0.58636 -9.6395 
-8.16552 0.389193 -1.35318 
0.389193 -9.47123 -0.425538 
-1.35318 -0.425538 -9.89195 
-8.11492 0.925037 -0.977041 
0.925037 -9.53529 -0.392308 
-0.977041 -0.392308 -9.87847 
-7.99445 0.31058 -1.82447 
0.31058 -9.56334 -0.483924 
-1.82447 -0.483924 -9.97089 
-9.63786 0.0986443 0.771632 
0.0986443 -9.65936 0.474503 
0.771632 0.474503 -9.81033 
-9.65273 0.113342 0.785957 
0.113342 -9.69787 0.497792 
0.785957 0.497792 -9.75694 
-9.5856 0.10588 0.761693 
0.10588 -9.67328 0.421569 
0.761693 0.421569 -9.84867 
-9.66495 0.0850323 0.752613 
0.0850323 -9.66626 0.482105 
0.752613 0.482105 -9.77634 
-8.45634 -0.830275 1.15905 
-0.830275 -8.38873 -3.1495 
1.15905 -3.1495 -7.68022 
-8.77459 -0.707282 1.1643 
-0.707282 -7.41458 -3.12376 
1.1643 -3.12376 -8.33612 
-10.8485 -0.963037 1.92292 
-0.963037 -8.19652 -4.34846 
1.92292 -4.34846 -5.48022 
-9.66518 0.581835 -0.524176 
0.581835 -7.42815 -0.759697 
-0.524176 -0.759697 -7.43196 
-9.30752 0.19375 -2.41334 
0.19375 -10.1731 -0.308272 
-2.41334 -0.308272 -9.52725 
-8.28353 0.277504 -2.20247 
0.277504 -10.7157 -0.065686 
-2.20247 -0.065686 -10.0086 
-9.10311 0.313273 -2.0972 
0.313273 -10.2815 -0.253482 
-2.0972 -0.253482 -9.62323 
-9.03451 0.277656 -2.16561 
0.277656 -10.2308 -0.192397 
-2.16561 -0.192397 -9.74251 
-10.2379 -0.0715842 -1.26127 
-0.0715842 -10.0674 -0.224629 
-1.26127 -0.224629 -8.06489 
-10.0517 -0.0735161 -0.429762 
-0.0735161 -9.98916 -0.135032 
-0.429762 -0.135032 -8.32936 
-10.1076 0.0249713 -0.417667 
0.0249713 -9.84414 -0.108715 
-0.417667 -0.108715 -8.41854 
-9.88107 -0.200845 -0.312219 
-0.200845 -9.45253 0.487444 
-0.312219 0.487444 -9.03665 
-10.1869 0.174104 -0.123047 
0.174104 -9.96014 -0.350408 
-0.123047 -0.350408 -9.97205 
-10.1243 0.0859517 -0.0304274 
0.0859517 -9.82654 0.21251 
-0.0304274 0.21251 -10.1682 
-9.91188 -0.12503 0.18178 
-0.12503 -9.95525 0.273581 
0.18178 0.273581 -10.2519 
-9.85348 0.138467 -0.0385563 
0.138467 -9.75003 -0.0196729 
-0.0385563 -0.0196729 -10.5156 
-8.66577 0.118818 -1.00785 
0.118818 -8.71253 -1.30239 
-1.00785 -1.30239 -6.19193 
-8.90472 0.201907 -1.09902 
0.201907 -8.866 -1.30597 
-1.09902 -1.30597 -5.79952 
-8.934 0.286473 -0.802167 
0.286473 -9.06695 -1.0369 
-0.802167 -1.0369 -5.56929 
-8.90429 0.490513 -0.874254 
0.490513 -8.91025 -1.18058 
-0.874254 -1.18058 -5.7557 
-10.194 -0.153868 0.0152716 
-0.153868 -9.33599 -1.41915 
0.0152716 -1.41915 -9.25377 
-9.91209 -0.245782 0.513082 
-0.245782 -9.44758 -1.11777 
0.513082 -1.11777 -9.42413 
-9.89101 -0.0838207 0.430768 
-0.0838207 -9.34568 -1.17114 
0.430768 -1.17114 -9.54711 
-9.55349 -0.028575 0.176458 
-0.028575 -9.54631 -0.616789 
0.176458 -0.616789 -9.68401 
-10.0215 1.2378 0.925944 
1.2378 -7.72278 -6.21404 
0.925944 -6.21404 -5.65771 
-7.1976 -4.21489 2.35035 
-4.21489 -8.50285 -3.57989 
2.35035 -3.57989 -7.70152 
-7.1175 -0.784645 3.36458 
-0.784645 -5.78715 -2.55222 
3.36458 -2.55222 -10.4973 
-10.2129 -1.92129 -0.177889 
-1.92129 -7.40004 -2.32187 
-0.177889 -2.32187 -5.78903 
-15.5702 1.07639 -1.41862 
1.07639 -13.8427 3.21363 
-1.41862 3.21363 12.7197 
0.558152 3.20258 -1.50781 
3.20258 -0.474882 -4.8461 
-1.50781 -4.8461 -16.7764 
-13.5471 -0.479198 -2.05243 
-0.479198 -6.44153 4.40683 
-2.05243 4.40683 3.29547 
-6.83201 -6.15123 -13.9812 
-6.15123 -7.14377 5.53154 
-13.9812 5.53154 -2.71739 
-9.18947 0.395235 0.299919 
0.395235 -7.60411 2.99233 
0.299919 2.99233 -4.78092 
-8.62999 -0.106915 -0.209727 
-0.106915 -7.46931 2.6018 
-0.209727 2.6018 -5.4752 
-8.3089 1.03505 0.350153 
1.03505 -6.73995 3.06888 
0.350153 3.06888 -6.52564 
-9.05233 -0.0632268 0.466577 
-0.0632268 -6.95419 2.33937 
0.466577 2.33937 -5.56797 
-9.64336 0.249993 0.731676 
0.249993 -8.7584 2.74281 
0.731676 2.74281 -7.73131 
-9.17984 0.135218 0.777886 
0.135218 -9.35009 1.78048 
0.777886 1.78048 -7.60314 
-8.47936 0.601208 1.31425 
0.601208 -9.16776 1.26112 
1.31425 1.26112 -8.48594 
-9.2502 0.222603 0.717861 
0.222603 -9.35347 1.81324 
0.717861 1.81324 -7.5294 
-7.56437 -0.156539 -1.31446 
-0.156539 -9.77569 0.00939716 
-1.31446 0.00939716 -9.8064 
-8.15346 0.139432 -1.6577 
0.139432 -9.02866 -0.619104 
-1.6577 -0.619104 -9.96434 
-7.7735 0.258909 -1.45546 
0.258909 -9.75496 -0.105926 
-1.45546 -0.105926 -9.618 
-7.69595 0.109197 -1.81338 
0.109197 -9.53583 -0.400539 
-1.81338 -0.400539 -9.91468 
-5.11949 1.59175 -4.70308 
1.59175 -9.23078 1.017 
-4.70308 1.017 -4.99717 
-8.60018 -0.857032 -6.51687 
-0.857032 -4.50452 1.41237 
-6.51687 1.41237 -6.24274 
-8.19682 -0.18328 -3.91304 
-0.18328 -8.23932 0.61449 
-3.91304 0.61449 -2.9113 
-6.30382 0.398982 -5.90497 
0.398982 -9.06483 1.46967 
-5.90497 1.46967 -3.97879 
-9.68313 -0.0254898 0.335186 
-0.0254898 -9.61445 0.764451 
0.335186 0.764451 -9.94839 
-9.57517 0.202694 0.543612 
0.202694 -9.6609 0.744532 
0.543612 0.744532 -10.0099 
-9.72027 0.193513 0.525247 
0.193513 -9.65946 0.763065 
0.525247 0.763065 -9.86624 
-9.80283 0.196775 0.69935 
0.196775 -9.75218 0.847138 
0.69935 0.847138 -9.69096 
-9.80247 0.00125847 0.137061 
0.00125847 -9.5888 -0.883124 
0.137061 -0.883124 -9.91371 
-9.71366 0.00284111 0.0933453 
0.00284111 -9.72058 -0.844042 
0.0933453 -0.844042 -9.87074 
-9.74678 -0.0493994 0.141192 
-0.0493994 -9.69062 -0.79714 
0.141192 -0.79714 -9.86758 
-9.84702 -0.00123567 0.176244 
-0.00123567 -9.64298 -0.842246 
0.176244 -0.842246 -9.81498 
-9.45801 -0.00603268 0.173583 
-0.00603268 -9.54219 -0.696063 
0.173583 -0.696063 -9.486 
-9.68211 -0.172334 0.135387 
-0.172334 -8.96617 -0.598067 
0.135387 -0.598067 -9.8379 
-9.48563 0.0175381 0.197604 
0.0175381 -9.42685 -0.708453 
0.197604 -0.708453 -9.5737 
-9.42995 -0.0574258 0.201778 
-0.0574258 -9.30838 -0.930013 
0.201778 -0.930013 -9.74787 
-9.15983 0.0858367 1.50042 
0.0858367 -9.70764 0.261727 
1.50042 0.261727 -7.93017 
-9.10202 0.446692 1.2577 
0.446692 -9.45949 0.689673 
1.2577 0.689673 -8.23613 
-8.92611 -0.173243 1.52563 
-0.173243 -9.4451 0.437325 
1.52563 0.437325 -8.42643 
-8.96119 0.153176 1.50817 
0.153176 -9.73867 0.32992 
1.50817 0.32992 -8.09778 
-9.18388 -0.366233 0.270189 
-0.366233 -9.2648 -0.485653 
0.270189 -0.485653 -9.69055 
-9.18514 -0.154881 0.472494 
-0.154881 -9.19225 -0.362387 
0.472494 -0.362387 -9.76184 
-9.27274 -0.13105 0.45274 
-0.13105 -9.25558 -0.666921 
0.45274 -0.666921 -9.6109 
-9.17345 -0.307757 0.809035 
-0.307757 -9.05553 -0.367362 
0.809035 -0.367362 -9.91025 
-9.95114 -0.0634111 -0.122269 
-0.0634111 -9.52474 0.787631 
-0.122269 0.787631 -9.67272 
-9.94238 0.00816453 0.134691 
0.00816453 -9.71936 0.994151 
0.134691 0.994151 -9.48687 
-9.84576 -0.080371 0.0857729 
-0.080371 -9.76305 0.867717 
0.0857729 0.867717 -9.5398 
-9.82921 -0.0377727 0.00750206 
-0.0377727 -9.77505 0.810121 
0.00750206 0.810121 -9.54434 
-3.42282 0.217747 0.0814879 
0.217747 -6.02936 -1.17277 
0.0814879 -1.17277 -0.865126 
-5.19466 -0.186591 0.865003 
-0.186591 -3.6361 -0.836005 
0.865003 -0.836005 -1.48656 
-4.10444 -0.187384 0.10821 
-0.187384 -4.85662 -1.49873 
0.10821 -1.49873 -1.35625 
-3.69963 0.139784 -1.43218 
0.139784 -5.45942 -1.35487 
-1.43218 -1.35487 -1.15826 
-9.6405 0.183464 0.449717 
0.183464 -9.60905 0.758658 
0.449717 0.758658 -9.85094 
-9.6863 0.0213327 0.649228 
0.0213327 -9.61835 0.831153 
0.649228 0.831153 -9.79583 
-9.61758 0.140352 0.633408 
0.140352 -9.53113 0.770411 
0.633408 0.770411 -9.95177 
-9.70342 0.154466 0.713448 
0.154466 -9.72498 0.786906 
0.713448 0.786906 -9.67207 
-8.94407 -0.372589 -0.837987 
-0.372589 -8.78625 1.36597 
-0.837987 1.36597 -9.43025 
-9.41996 -0.664332 -1.16965 
-0.664332 -8.85373 1.88855 
-1.16965 1.88855 -8.88689 
-9.81176 -0.172268 -0.592478 
-0.172268 -9.29042 1.40897 
-0.592478 1.40897 -8.05839 
-9.90412 -0.225304 -0.581751 
-0.225304 -8.77087 1.61536 
-0.581751 1.61536 -8.48559 
-9.70672 -0.0564797 0.743451 
-0.0564797 -9.7715 -0.444858 
0.743451 -0.444858 -10.1199 
-9.8369 -0.00705877 0.799159 
-0.00705877 -9.83443 -0.459347 
0.799159 -0.459347 -9.92681 
-9.87099 -0.03995 0.792999 
-0.03995 -9.90447 -0.466226 
0.792999 -0.466226 -9.82267 
-9.76244 -0.0422767 0.94051 
-0.0422767 -9.92206 -0.401021 
0.94051 -0.401021 -9.91363 
-9.46577 -0.125804 0.360305 
-0.125804 -9.12295 -0.593192 
0.360305 -0.593192 -9.78135 
-9.12198 -0.212241 0.365686 
-0.212241 -9.49557 -0.953091 
0.365686 -0.953091 -9.75253 
-9.46062 -0.140488 0.24068 
-0.140488 -9.06972 -0.789212 
0.24068 -0.789212 -9.83974 
-9.43921 -0.08662 0.265806 
-0.08662 -9.05618 -0.834956 
0.265806 -0.834956 -9.87469 
-9.34714 -0.163507 0.764467 
-0.163507 -9.34741 -0.394783 
0.764467 -0.394783 -9.71386 
-9.10821 -0.356267 0.795911 
-0.356267 -9.42058 -0.392601 
0.795911 -0.392601 -9.87962 
-9.12735 -0.0463842 0.74337 
-0.0463842 -9.58345 -0.338357 
0.74337 -0.338357 -9.69761 
-9.04769 0.0357993 0.862468 
0.0357993 -9.59223 -0.383988 
0.862468 -0.383988 -9.76848 
-9.74378 0.0853024 0.977597 
0.0853024 -10.0583 0.0951933 
0.977597 0.0951933 -8.84728 
-9.82341 -0.0134543 0.961947 
-0.0134543 -10.1119 0.0326664 
0.961947 0.0326664 -8.71404 
-9.99942 -0.00881442 0.972491 
-0.00881442 -10.1466 0.0986702 
0.972491 0.0986702 -8.50334 
-9.81689 0.114652 1.10208 
0.114652 -10.0974 -0.135492 
1.10208 -0.135492 -8.73511 
-6.50369 0.031203 -2.32937 
0.031203 -6.77572 1.27139 
-2.32937 1.27139 -6.53806 
-6.26405 0.588638 -2.33156 
0.588638 -9.67803 1.32924 
-2.33156 1.32924 -3.87539 
-7.83877 0.59572 -2.68223 
0.59572 -8.57048 -0.17522 
-2.68223 -0.17522 -3.40822 
-6.81644 0.501934 -2.90945 
0.501934 -8.32605 0.496438 
-2.90945 0.496438 -4.67498 
-9.85396 -0.246621 0.170827 
-0.246621 -10.0036 -0.0160006 
0.170827 -0.0160006 -9.75087 
-9.7084 -0.0355151 0.0279848 
-0.0355151 -9.82914 0.00338482 
0.0279848 0.00338482 -10.0709 
-9.79638 0.0293537 -0.352786 
0.0293537 -9.51563 0.285481 
-0.352786 0.285481 -10.2964 
-9.67027 -0.205487 0.126883 
-0.205487 -9.7486 0.11947 
0.126883 0.11947 -10.1896 
-9.24034 0.0983869 0.762693 
0.0983869 -9.2845 -0.347217 
0.762693 -0.347217 -9.65908 
-8.90143 -0.0289395 0.636779 
-0.0289395 -9.52993 0.0331472 
0.636779 0.0331472 -9.75256 
-9.08301 -0.116313 0.879168 
-0.116313 -9.36874 -0.0855382 
0.879168 -0.0855382 -9.73217 
-9.07818 -0.037437 0.754681 
-0.037437 -9.40613 -0.0852808 
0.754681 -0.0852808 -9.69961 
-9.38594 0.0168296 0.769745 
0.0168296 -9.57235 0.0442262 
0.769745 0.0442262 -9.7223 
-9.58214 -0.0350185 0.735756 
-0.0350185 -9.46534 0.0138621 
0.735756 0.0138621 -9.63312 
-9.29391 0.0117728 0.745199 
0.0117728 -9.63095 0.0165712 
0.745199 0.0165712 -9.75574 
-9.43182 -0.0212727 0.856204 
-0.0212727 -9.56372 0.0199981 
0.856204 0.0199981 -9.68506 
-9.59387 0.277306 1.02117 
0.277306 -9.7202 0.546626 
1.02117 0.546626 -9.59266 
-9.38357 0.164325 0.876904 
0.164325 -9.53854 0.492527 
0.876904 0.492527 -9.98462 
-9.65009 0.104265 1.18825 
0.104265 -9.91973 0.515767 
1.18825 0.515767 -9.33691 
-9.46246 0.258019 1.03566 
0.258019 -9.94791 0.764929 
1.03566 0.764929 -9.49636 
-10.2976 0.0836569 -0.258198 
0.0836569 -9.70188 -0.117673 
-0.258198 -0.117673 -9.87433 
-10.0581 0.130339 -0.146287 
0.130339 -9.85878 0.0426139 
-0.146287 0.0426139 -9.95696 
-9.07486 -0.240453 0.171301 
-0.240453 -10.3989 0.0906735 
0.171301 0.0906735 -10.4001 
-9.30171 0.318923 -0.631373 
0.318923 -10.0036 0.452851 
-0.631373 0.452851 -10.5686 
-9.41521 0.149764 0.797454 
0.149764 -9.89201 0.553222 
0.797454 0.553222 -9.79434 
-9.54554 0.106743 0.796837 
0.106743 -9.72491 0.586666 
0.796837 0.586666 -9.83112 
-9.60669 0.132801 0.708863 
0.132801 -9.66038 0.534519 
0.708863 0.534519 -9.8345 
-9.6485 0.177174 1.0009 
0.177174 -9.81566 0.522195 
1.0009 0.522195 -9.63741 
-9.59903 0.440761 -1.30598 
0.440761 -9.81521 -0.629844 
-1.30598 -0.629844 -9.26735 
-9.71628 0.215154 -0.828833 
0.215154 -9.49181 -0.896588 
-0.828833 -0.896588 -9.4735 
-9.45346 0.24309 -0.788886 
0.24309 -9.63779 -0.857273 
-0.788886 -0.857273 -9.59033 
-9.5967 0.0775034 -0.428954 
0.0775034 -9.50233 -0.109217 
-0.428954 -0.109217 -9.58256 
-9.60814 -0.35552 -0.58574 
-0.35552 -9.75492 0.653088 
-0.58574 0.653088 -9.74403 
-9.79668 0.0971258 -0.575146 
0.0971258 -9.77348 0.681494 
-0.575146 0.681494 -9.53692 
-9.71857 -0.0145189 -0.604589 
-0.0145189 -9.83476 0.852444 
-0.604589 0.852444 -9.55375 
-9.81571 -0.231487 -0.585529 
-0.231487 -9.8691 0.952 
-0.585529 0.952 -9.42227 
-10.4252 -0.250297 0.108487 
-0.250297 -10.2404 0.218207 
0.108487 0.218207 -10.7936 
-10.088 0.0308961 0.0327305 
0.0308961 -10.2462 0.0327605 
0.0327305 0.0327605 -11.125 
-10.0278 0.296913 0.578754 
0.296913 -10.4534 -0.728145 
0.578754 -0.728145 -10.978 
-10.3267 -0.908486 -0.191923 
-0.908486 -9.85582 0.180158 
-0.191923 0.180158 -11.2767 
-9.32288 0.362945 0.310859 
0.362945 -9.25022 0.173126 
0.310859 0.173126 -9.83205 
-9.13165 0.0194315 0.990197 
0.0194315 -9.41916 0.322504 
0.990197 0.322504 -9.85434 
-8.5917 0.517144 0.349978 
0.517144 -9.74995 0.515709 
0.349978 0.515709 -10.0635 
-9.11723 0.296308 0.73031 
0.296308 -9.31105 0.246815 
0.73031 0.246815 -9.97688 
-9.02392 0.4143 -1.09332 
0.4143 -9.98108 -0.483645 
-1.09332 -0.483645 -10.5534 
-9.085 0.516961 -0.772365 
0.516961 -9.80193 -0.555876 
-0.772365 -0.555876 -10.6715 
-9.00286 0.534885 -0.741105 
0.534885 -9.82948 -0.461295 
-0.741105 -0.461295 -10.7261 
-9.14734 0.334555 -0.575481 
0.334555 -9.75298 -0.398575 
-0.575481 -0.398575 -10.6581 
-8.12144 -1.04976 0.824738 
-1.04976 -9.28901 -0.266818 
0.824738 -0.266818 -10.0052 
-8.60584 -0.966846 1.21698 
-0.966846 -8.88904 -0.641138 
1.21698 -0.641138 -9.92073 
-8.80487 -0.544053 1.46451 
-0.544053 -8.95302 -0.857477 
1.46451 -0.857477 -9.65771 
-8.67641 -0.899977 1.54633 
-0.899977 -8.93961 -0.967102 
1.54633 -0.967102 -9.79959 
-9.67301 0.448349 1.00245 
0.448349 -9.41781 0.921961 
1.00245 0.921961 -9.65337 
-9.37648 0.282298 0.927349 
0.282298 -9.63059 0.751606 
0.927349 0.751606 -9.73711 
-9.55019 0.220027 0.98016 
0.220027 -9.50398 0.731022 
0.98016 0.731022 -9.69002 
-9.24002 0.251676 1.02159 
0.251676 -9.94888 0.780208 
1.02159 0.780208 -9.55529 
-9.49551 0.0838425 0.836101 
0.0838425 -9.24858 -0.543078 
0.836101 -0.543078 -7.02845 
-9.23931 -0.0406941 0.935472 
-0.0406941 -9.37279 -0.496037 
0.935472 -0.496037 -7.16044 
-9.4737 -0.210505 1.23775 
-0.210505 -9.49829 -0.93366 
1.23775 -0.93366 -6.80054 
-9.43455 0.00836055 1.06904 
0.00836055 -9.35895 -0.56861 
1.06904 -0.56861 -6.97903 
-9.55719 -0.259442 0.432071 
-0.259442 -9.33669 0.0120072 
0.432071 0.0120072 -7.36849 
-9.5762 -0.0467242 0.695874 
-0.0467242 -9.26254 0.282634 
0.695874 0.282634 -7.42362 
-8.64175 0.53079 -0.329324 
0.53079 -9.67183 0.264452 
-0.329324 0.264452 -7.94878 
-9.61279 0.168175 0.241318 
0.168175 -9.87422 0.233207 
0.241318 0.233207 -6.77536 
-10.7745 -0.103324 -0.0991468 
-0.103324 -8.20473 -0.944293 
-0.0991468 -0.944293 -11.1395 
-10.3005 0.505286 -0.689623 
0.505286 -9.70019 -1.05198 
-0.689623 -1.05198 -10.118 
-10.624 0.033976 -0.00409222 
0.033976 -8.08199 -0.526186 
-0.00409222 -0.526186 -11.4127 
-10.8111 0.775407 -0.209158 
0.775407 -7.74818 -1.01256 
-0.209158 -1.01256 -11.5594 
-9.26797 -0.150728 -0.54266 
-0.150728 -9.47664 0.341513 
-0.54266 0.341513 -9.57492 
-9.37511 -0.0426287 -0.697921 
-0.0426287 -9.4633 0.368749 
-0.697921 0.368749 -9.48112 
-9.57226 0.146711 -0.779149 
0.146711 -9.42871 0.441639 
-0.779149 0.441639 -9.31856 
-9.30033 -0.0944441 -0.718516 
-0.0944441 -9.37333 0.391592 
-0.718516 0.391592 -9.64588 
-9.07316 -0.00161582 0.728496 
-0.00161582 -9.40519 0.13106 
0.728496 0.13106 -9.70464 
-9.12566 0.00992403 0.819436 
0.00992403 -9.43463 0.00753138 
0.819436 0.00753138 -9.6227 
-8.98262 0.0488292 0.7012 
0.0488292 -9.51741 0.0319104 
0.7012 0.0319104 -9.68297 
-9.00699 -0.039043 0.848851 
-0.039043 -9.46896 0.179158 
0.848851 0.179158 -9.70704 
-9.69703 -0.00139931 -0.906266 
-0.00139931 -9.85289 -0.211212 
-0.906266 -0.211212 -9.92556 
-9.65771 0.114139 -0.940705 
0.114139 -9.84527 -0.147604 
-0.940705 -0.147604 -9.9725 
-9.66031 0.0119478 -0.882403 
0.0119478 -9.83838 -0.171517 
-0.882403 -0.171517 -9.97679 
-9.69309 -0.057961 -0.780542 
-0.057961 -9.79462 -0.0438536 
-0.780542 -0.0438536 -9.98777 
-9.54783 -0.024256 0.0695103 
-0.024256 -9.49571 0.0939659 
0.0695103 0.0939659 -9.70875 
-9.74531 0.0813744 0.0572783 
0.0813744 -9.18102 0.352838 
0.0572783 0.352838 -9.82596 
-9.65208 -0.102077 0.190914 
-0.102077 -9.64509 0.00887817 
0.190914 0.00887817 -9.45512 
-9.61462 -0.0306373 -0.0475129 
-0.0306373 -9.23229 0.136314 
-0.0475129 0.136314 -9.90539 
-9.80993 0.114241 0.754698 
0.114241 -9.71258 0.031044 
0.754698 0.031044 -9.96456 
-9.75541 0.0348508 0.845504 
0.0348508 -9.73764 0.0364853 
0.845504 0.0364853 -9.99402 
-9.7832 -0.0289069 0.923224 
-0.0289069 -9.7831 0.0535585 
0.923224 0.0535585 -9.92076 
-9.69447 -0.0142044 0.897293 
-0.0142044 -9.88811 0.0324299 
0.897293 0.0324299 -9.90448 
-9.54334 -0.0534135 0.701481 
-0.0534135 -9.63054 -0.404729 
0.701481 -0.404729 -9.77373 
-9.56088 -0.0707157 0.691994 
-0.0707157 -9.62802 -0.381106 
0.691994 -0.381106 -9.7587 
-9.52338 -0.0527287 0.709971 
-0.0527287 -9.61121 -0.407626 
0.709971 -0.407626 -9.81302 
-9.55518 -0.0640329 0.672359 
-0.0640329 -9.63341 -0.401331 
0.672359 -0.401331 -9.75902 
-8.7219 -0.00866252 0.0844147 
-0.00866252 -9.79033 0.0479825 
0.0844147 0.0479825 -9.86881 
-9.2254 0.139994 0.785002 
0.139994 -9.27924 0.164616 
0.785002 0.164616 -9.87641 
-7.99417 0.428583 0.461245 
0.428583 -9.64661 -0.0725716 
0.461245 -0.0725716 -10.7403 
-8.52974 0.195574 0.413351 
0.195574 -9.58987 0.099159 
0.413351 0.099159 -10.2614 
-9.20086 0.0200725 -0.400434 
0.0200725 -9.26383 -0.702673 
-0.400434 -0.702673 -6.73177 
-9.33525 0.248794 -0.433091 
0.248794 -9.68018 -0.867567 
-0.433091 -0.867567 -6.18102 
-9.1792 0.102436 -0.658822 
0.102436 -9.16389 -0.575066 
-0.658822 -0.575066 -6.85337 
-9.1066 -0.180889 -0.317441 
-0.180889 -9.05444 -0.765259 
-0.317441 -0.765259 -7.03542 
-9.51823 -0.169154 -0.883417 
-0.169154 -10.321 -0.0458042 
-0.883417 -0.0458042 -9.74952 
-9.24764 -0.165219 0.0974842 
-0.165219 -9.69495 0.122006 
0.0974842 0.122006 -10.6461 
-9.61262 -0.0135153 0.550072 
-0.0135153 -9.77177 -0.150849 
0.550072 -0.150849 -10.2043 
-9.51264 -0.484074 -0.17207 
-0.484074 -9.72568 -0.12097 
-0.17207 -0.12097 -10.3504 
-9.97666 -0.178681 -0.0680268 
-0.178681 -9.48213 0.0461166 
-0.0680268 0.0461166 -9.57205 
-9.48434 0.118922 -0.20171 
0.118922 -9.7162 -0.126139 
-0.20171 -0.126139 -9.8303 
-9.35683 0.0742961 -0.248203 
0.0742961 -9.78577 -0.144151 
-0.248203 -0.144151 -9.88824 
-9.4166 0.13022 -0.0568877 
0.13022 -9.70251 -0.0926116 
-0.0568877 -0.0926116 -9.91172 
-8.8209 0.170268 1.01628 
0.170268 -9.56452 0.309492 
1.01628 0.309492 -9.89045 
-8.791 0.489848 1.06736 
0.489848 -9.47783 0.333193 
1.06736 0.333193 -10.007 
-8.71235 0.276591 1.19948 
0.276591 -9.68986 0.595117 
1.19948 0.595117 -9.87365 
-8.79023 0.274942 1.21021 
0.274942 -9.44895 0.179974 
1.21021 0.179974 -10.0367 
-9.50231 0.0619042 0.900702 
0.0619042 -9.71114 0.0825816 
0.900702 0.0825816 -9.82929 
-9.42175 0.0133073 1.0449 
0.0133073 -9.76984 -0.0342996 
1.0449 -0.0342996 -9.85115 
-9.53809 0.0906389 1.34297 
0.0906389 -10.0482 0.133317 
1.34297 0.133317 -9.45643 
-9.50513 -0.0634246 1.08877 
-0.0634246 -9.71148 -0.0545606 
1.08877 -0.0545606 -9.82613 
-9.53946 0.645284 -0.387618 
0.645284 -8.57318 0.920002 
-0.387618 0.920002 -11.4086 
-7.46283 -0.310159 0.831526 
-0.310159 -10.1344 0.136891 
0.831526 0.136891 -11.924 
-8.33626 -0.659847 1.6346 
-0.659847 -11.1464 -2.40258 
1.6346 -2.40258 -10.0386 
-8.74873 -1.06251 0.118345 
-1.06251 -10.4204 0.0414819 
0.118345 0.0414819 -10.3521 
-9.441 -0.00367875 -0.993234 
-0.00367875 -9.74354 -0.15713 
-0.993234 -0.15713 -9.82542 
-9.45942 0.0743722 -0.943171 
0.0743722 -9.73041 -0.180912 
-0.943171 -0.180912 -9.82012 
-9.54185 -0.0304109 -1.08017 
-0.0304109 -9.73159 -0.202261 
-1.08017 -0.202261 -9.73652 
-9.56751 0.00162032 -1.17378 
0.00162032 -9.79613 -0.0689104 
-1.17378 -0.0689104 -9.64632 
-7.97872 0.230636 -2.19579 
0.230636 -7.7649 -1.132 
-2.19579 -1.132 -3.581 
-8.09976 0.175412 -1.19836 
0.175412 -8.08387 -0.576242 
-1.19836 -0.576242 -3.14099 
-8.93099 -0.853773 -0.856754 
-0.853773 -8.87148 -0.72511 
-0.856754 -0.72511 -1.52215 
-7.25412 0.593707 -0.190225 
0.593707 -7.22832 -0.582932 
-0.190225 -0.582932 -4.84218 
-9.38287 0.217878 -0.494797 
0.217878 -9.10497 -0.325225 
-0.494797 -0.325225 -9.53574 
-9.18922 0.219771 -0.515171 
0.219771 -9.11028 -0.587788 
-0.515171 -0.587788 -9.7241 
-9.1463 0.371559 -0.517311 
0.371559 -9.06759 -0.584757 
-0.517311 -0.584757 -9.8097 
-9.13523 0.112588 -0.597554 
0.112588 -9.22768 -0.730018 
-0.597554 -0.730018 -9.66068 
-8.91478 0.205055 -0.620538 
0.205055 -9.28355 -0.657481 
-0.620538 -0.657481 -9.94146 
-9.6277 0.313772 -0.926755 
0.313772 -9.44267 -0.795236 
-0.926755 -0.795236 -9.06942 
-9.49351 0.271455 -0.989745 
0.271455 -9.46072 -0.696037 
-0.989745 -0.696037 -9.18556 
-9.22305 0.595364 -1.58416 
0.595364 -9.90799 -1.3026 
-1.58416 -1.3026 -9.00875 
-9.82791 0.0386216 0.20964 
0.0386216 -9.69724 0.944465 
0.20964 0.944465 -9.92438 
-9.86099 0.0994892 0.225362 
0.0994892 -9.66583 0.860623 
0.225362 0.860623 -9.92271 
-9.82449 0.0584997 0.0397268 
0.0584997 -9.75714 0.844074 
0.0397268 0.844074 -9.8679 
-9.91057 -0.0562019 0.227756 
-0.0562019 -9.67399 1.00502 
0.227756 1.00502 -9.86497 
-9.44594 -0.284226 -0.461808 
-0.284226 -9.20575 0.770142 
-0.461808 0.770142 -10.0175 
-9.33962 -0.422259 -0.534997 
-0.422259 -9.23105 0.786588 
-0.534997 0.786588 -10.0985 
-9.5531 -0.366156 -0.752746 
-0.366156 -9.1727 0.851983 
-0.752746 0.851983 -9.94339 
-9.39872 -0.33159 -0.529055 
-0.33159 -9.16601 0.807313 
-0.529055 0.807313 -10.1045 
-8.91921 -0.783322 0.659776 
-0.783322 -9.31013 -1.28448 
0.659776 -1.28448 -9.75533 
-9.20698 -1.12158 0.420577 
-1.12158 -8.78082 -0.945589 
0.420577 -0.945589 -9.99687 
-8.95339 -0.460311 0.881189 
-0.460311 -8.84005 -0.811961 
0.881189 -0.811961 -10.1912 
-9.08501 -0.816837 1.4343 
-0.816837 -9.08998 -1.38882 
1.4343 -1.38882 -9.80968 
-9.72861 0.0638743 0.856163 
0.0638743 -9.70175 -0.314073 
0.856163 -0.314073 -10.2593 
-9.9226 -0.01684 0.803167 
-0.01684 -9.91123 -0.455543 
0.803167 -0.455543 -9.85579 
-9.92422 -0.0556102 0.795524 
-0.0556102 -9.92659 -0.496861 
0.795524 -0.496861 -9.8388 
-9.9128 -0.0504968 0.8833 
-0.0504968 -9.98601 -0.476893 
0.8833 -0.476893 -9.7908 
-9.19037 -0.261903 1.01841 
-0.261903 -8.96378 2.29877 
1.01841 2.29877 -4.27113 
-9.18459 -0.062365 1.15067 
-0.062365 -9.26797 2.15539 
1.15067 2.15539 -3.97273 
-8.89198 -0.0404727 1.08252 
-0.0404727 -8.83493 1.82599 
1.08252 1.82599 -4.69837 
-9.43693 0.961451 2.31841 
0.961451 -9.22881 2.72739 
2.31841 2.72739 -3.75954 
-9.97129 0.108548 -1.08239 
0.108548 -9.91024 -0.459097 
-1.08239 -0.459097 -8.61945 
-9.55807 0.0928962 -0.713948 
0.0928962 -9.84643 -0.182474 
-0.713948 -0.182474 -9.09648 
-9.57362 0.0908797 -0.945645 
0.0908797 -9.60796 -0.384826 
-0.945645 -0.384826 -9.3194 
-9.48613 -0.0291211 -0.755856 
-0.0291211 -9.83481 0.0294041 
-0.755856 0.0294041 -9.18004 
-9.80462 -0.132164 0.789332 
-0.132164 -9.78214 -0.564096 
0.789332 -0.564096 -9.88024 
-9.63277 -0.0538072 0.681978 
-0.0538072 -9.82186 -0.437201 
0.681978 -0.437201 -10.0124 
-9.70401 -0.111633 0.871845 
-0.111633 -9.81566 -0.498141 
0.871845 -0.498141 -9.94732 
-9.75023 -0.132805 0.731749 
-0.132805 -9.79461 -0.508843 
0.731749 -0.508843 -9.92215 
-9.33782 0.0811596 1.24343 
0.0811596 -8.4361 0.554851 
1.24343 0.554851 -8.08831 
-8.99326 0.0852545 1.87134 
0.0852545 -9.63396 -0.0992853 
1.87134 -0.0992853 -7.23501 
-9.12274 -0.251664 1.8804 
-0.251664 -9.65933 -0.494879 
1.8804 -0.494879 -7.08015 
-8.37716 0.245062 2.95824 
0.245062 -10.2608 0.2025 
2.95824 0.2025 -7.22423 
-9.83237 0.0508286 0.414704 
0.0508286 -9.77204 -0.671945 
0.414704 -0.671945 -9.90067 
-9.79857 -0.0524266 0.462034 
-0.0524266 -9.80234 -0.760616 
0.462034 -0.760616 -9.90417 
-9.78994 0.00647003 0.431489 
0.00647003 -9.76161 -0.733487 
0.431489 -0.733487 -9.95354 
-9.82787 -0.103885 0.442575 
-0.103885 -9.75152 -0.734154 
0.442575 -0.734154 -9.92569 
-8.63184 0.0898342 -1.14154 
0.0898342 -8.46675 -0.627649 
-1.14154 -0.627649 -3.93327 
-7.70274 0.0598227 -1.32982 
0.0598227 -8.44398 -1.31194 
-1.32982 -1.31194 -4.88514 
-8.21747 0.071921 -1.02533 
0.071921 -8.42128 -0.786826 
-1.02533 -0.786826 -4.39312 
-8.40617 0.245158 -0.960983 
0.245158 -8.32101 -0.632976 
-0.960983 -0.632976 -4.30468 
-7.17098 -0.385739 -0.488307 
-0.385739 -7.63411 2.41461 
-0.488307 2.41461 -2.62726 
-6.07126 -0.0258148 -0.993081 
-0.0258148 -6.73174 1.91053 
-0.993081 1.91053 -4.62935 
-6.42427 0.311986 -0.33094 
0.311986 -7.50384 2.15158 
-0.33094 2.15158 -3.50424 
-7.01361 0.374314 -0.949734 
0.374314 -7.62206 1.87149 
-0.949734 1.87149 -2.79668 
-11.135 2.66811 -0.833805 
2.66811 -0.257434 0.408129 
-0.833805 0.408129 -0.12368 
-3.87604 -1.44557 3.22794 
-1.44557 -7.07444 -2.47259 
3.22794 -2.47259 -0.565619 
-1.83018 -1.9926 -0.399252 
-1.9926 -4.88498 2.34708 
-0.399252 2.34708 -4.80093 
-8.09526 2.65351 0.454925 
2.65351 -3.81265 -7.76119 
0.454925 -7.76119 0.391809 
-10.5607 0.156061 0.00977377 
0.156061 -9.52838 -0.756259 
0.00977377 -0.756259 -9.77689 
-9.55827 0.0900383 -0.114682 
0.0900383 -9.41765 0.0483669 
-0.114682 0.0483669 -10.8901 
-9.7816 0.0430722 0.0511784 
0.0430722 -9.78987 0.582512 
0.0511784 0.582512 -10.2945 
-9.92086 0.676477 0.133544 
0.676477 -9.45859 -0.133402 
0.133544 -0.133402 -10.4866 
-9.23541 0.154477 -0.690229 
0.154477 -9.44407 -0.351195 
-0.690229 -0.351195 -9.77155 
-9.21699 0.174171 -0.692077 
0.174171 -9.41602 -0.456244 
-0.692077 -0.456244 -9.81801 
-9.15975 -0.00146161 -0.801615 
-0.00146161 -9.5049 -0.507698 
-0.801615 -0.507698 -9.78638 
-9.22741 0.364142 -0.75427 
0.364142 -9.35376 -0.394029 
-0.75427 -0.394029 -9.86986 
-9.65844 0.187784 1.00116 
0.187784 -10.0748 0.179961 
1.00116 0.179961 -9.13545 
-9.83949 0.0120535 0.823166 
0.0120535 -9.65078 -0.218377 
0.823166 -0.218377 -9.37843 
-9.66425 -0.090544 1.70349 
-0.090544 -10.0892 -0.281411 
1.70349 -0.281411 -9.11529 
-9.75099 0.0738415 1.10058 
0.0738415 -9.94795 -0.0590696 
1.10058 -0.0590696 -9.16977 
-9.73939 -0.0273531 0.631763 
-0.0273531 -9.85055 0.598021 
0.631763 0.598021 -10.0546 
-9.82556 0.154466 0.664776 
0.154466 -9.80447 0.647964 
0.664776 0.647964 -10.0145 
-9.85274 0.149774 0.635732 
0.149774 -9.8245 0.662365 
0.635732 0.662365 -9.96734 
-9.81397 0.0570628 0.727207 
0.0570628 -9.90355 0.690696 
0.727207 0.690696 -9.92706 
-9.28926 -0.121893 0.103201 
-0.121893 -8.71042 -0.603658 
0.103201 -0.603658 -9.85381 
-9.54486 -0.177332 0.110956 
-0.177332 -8.23794 -1.02428 
0.110956 -1.02428 -10.0707 
-9.28545 0.0106106 0.112141 
0.0106106 -8.88128 -0.714708 
0.112141 -0.714708 -9.68677 
-9.35587 0.0719944 0.0812085 
0.0719944 -8.76562 -0.668605 
0.0812085 -0.668605 -9.732 
-9.73795 -0.0718085 -0.50658 
-0.0718085 -9.63517 -0.705467 
-0.50658 -0.705467 -10.3513 
-9.92675 0.0235423 -0.645865 
0.0235423 -9.95702 -0.659158 
-0.645865 -0.659158 -9.8406 
-9.93607 0.036993 -0.69819 
0.036993 -10.1158 -0.541688 
-0.69819 -0.541688 -9.67251 
-9.99342 0.119155 -0.660358 
0.119155 -10.0586 -0.751912 
-0.660358 -0.751912 -9.67232 
-9.64466 0.0972215 -0.321916 
0.0972215 -9.60627 -0.777957 
-0.321916 -0.777957 -9.78333 
-9.94238 0.190101 -0.452071 
0.190101 -9.58916 -1.24977 
-0.452071 -1.24977 -9.50272 
-9.71648 0.109032 -0.254013 
0.109032 -9.44944 -1.01293 
-0.254013 -1.01293 -9.86834 
-9.78455 0.00729211 -0.327233 
0.00729211 -9.44976 -1.06368 
-0.327233 -1.06368 -9.79995 
-8.9086 0.202118 0.826413 
0.202118 -9.17211 0.765122 
0.826413 0.765122 -6.83566 
-9.10952 0.112242 0.595484 
0.112242 -9.03069 0.666227 
0.595484 0.666227 -6.77616 
-9.38284 0.13779 0.825579 
0.13779 -8.97146 0.692187 
0.825579 0.692187 -6.56206 
-9.5483 0.0650775 0.978931 
0.0650775 -9.36277 0.653531 
0.978931 0.653531 -6.00529 
-9.79003 -0.0497112 -0.844272 
-0.0497112 -9.70223 -0.515587 
-0.844272 -0.515587 -9.82063 
-9.73906 0.259761 -0.813145 
0.259761 -9.82378 -0.626826 
-0.813145 -0.626826 -9.75005 
-9.6785 0.112193 -0.769997 
0.112193 -9.7443 -0.500895 
-0.769997 -0.500895 -9.89009 
-9.65796 0.0109911 -0.7913 
0.0109911 -9.75629 -0.690754 
-0.7913 -0.690754 -9.89865 
-9.42509 -0.108746 -0.0108168 
-0.108746 -9.13359 0.728081 
-0.0108168 0.728081 -9.80774 
-9.5363 -0.0882725 -0.13953 
-0.0882725 -9.09111 0.87146 
-0.13953 0.87146 -9.73901 
-9.53117 -0.0703099 -0.130253 
-0.0703099 -9.12983 0.844308 
-0.130253 0.844308 -9.70542 
-9.46042 0.0390737 -0.130018 
0.0390737 -9.2168 0.880771 
-0.130018 0.880771 -9.6892 
-8.03026 2.60523 1.9841 
2.60523 -7.84528 2.98758 
1.9841 2.98758 -6.65655 
-8.22774 2.03097 1.08241 
2.03097 -8.27474 3.72235 
1.08241 3.72235 -6.02962 
-8.63504 0.438952 1.62144 
0.438952 -7.12453 2.51676 
1.62144 2.51676 -6.77254 
-8.52841 1.57247 3.11078 
1.57247 -7.55855 3.77932 
3.11078 3.77932 -6.44514 
-9.20506 -0.218138 -0.319736 
-0.218138 -8.97801 0.504558 
-0.319736 0.504558 -9.89945 
-9.28976 -0.368624 -0.324274 
-0.368624 -8.91292 0.507659 
-0.324274 0.507659 -9.87983 
-9.40619 -0.199714 -0.351614 
-0.199714 -8.90806 0.520104 
-0.351614 0.520104 -9.76827 
-9.32549 -0.227631 -0.361079 
-0.227631 -8.98379 0.422351 
-0.361079 0.422351 -9.77323 
-9.10321 -0.253974 0.246443 
-0.253974 -7.96003 3.37979 
0.246443 3.37979 -7.77691 
-9.63292 0.291408 0.683028 
0.291408 -8.28293 2.86163 
0.683028 2.86163 -6.9243 
-8.91577 0.0559276 0.491574 
0.0559276 -8.10578 3.21168 
0.491574 3.21168 -7.8186 
-9.40909 0.493989 0.133078 
0.493989 -8.08613 2.85074 
0.133078 2.85074 -7.34493 
-9.27666 0.248162 -0.540377 
0.248162 -9.24657 -0.588954 
-0.540377 -0.588954 -9.8317 
-9.30559 0.340403 -0.568276 
0.340403 -9.26323 -0.537329 
-0.568276 -0.537329 -9.7861 
-9.32237 0.423119 -0.836589 
0.423119 -9.16954 -0.809357 
-0.836589 -0.809357 -9.86301 
-9.25174 0.21836 -0.605767 
0.21836 -9.32466 -0.576126 
-0.605767 -0.576126 -9.77852 
-9.52998 0.261739 -0.885833 
0.261739 -9.54708 -1.15472 
-0.885833 -1.15472 -8.15938 
-9.22977 -0.124459 -1.09274 
-0.124459 -9.3978 -1.17248 
-1.09274 -1.17248 -8.60888 
-9.54605 0.403431 -1.1628 
0.403431 -9.38483 -0.917076 
-1.1628 -0.917076 -8.30557 
-9.4467 0.154855 -1.08442 
0.154855 -9.48125 -1.16805 
-1.08442 -1.16805 -8.30849 
-10.0344 -0.118779 -0.162027 
-0.118779 -10.0587 0.892141 
-0.162027 0.892141 -9.84188 
-10.1592 -0.0195813 -0.0998715 
-0.0195813 -9.9936 0.884564 
-0.0998715 0.884564 -9.78217 
-9.88395 -0.0156828 -0.253955 
-0.0156828 -9.79977 0.869888 
-0.253955 0.869888 -10.2513 
-10.1191 0.0386775 -0.0877051 
0.0386775 -10.0268 1.03768 
-0.0877051 1.03768 -9.789 
-9.74542 0.109203 0.696993 
0.109203 -9.80978 0.568731 
0.696993 0.568731 -9.40958 
-9.87968 0.0289022 0.75475 
0.0289022 -9.92606 0.615409 
0.75475 0.615409 -9.15905 
-9.75493 0.0860268 0.722554 
0.0860268 -9.80881 0.77895 
0.722554 0.77895 -9.40104 
-9.83206 0.0794388 0.613879 
0.0794388 -9.72064 0.942632 
0.613879 0.942632 -9.41209 
-9.89022 -0.13702 0.589733 
-0.13702 -9.83161 -0.649239 
0.589733 -0.649239 -9.54557 
-9.75418 0.228831 0.513946 
0.228831 -9.73812 -0.636046 
0.513946 -0.636046 -9.77511 
-9.86366 -0.0595484 0.539495 
-0.0595484 -9.83896 -0.710185 
0.539495 -0.710185 -9.56478 
-9.91995 0.0176228 0.594027 
0.0176228 -9.83762 -0.787081 
0.594027 -0.787081 -9.50984 
-3.05848 0.0489107 0.925959 
0.0489107 -7.21981 0.222582 
0.925959 0.222582 0.716437 
-3.7917 0.661857 -1.21701 
0.661857 -4.96164 2.272 
-1.21701 2.272 -0.808504 
-6.20995 0.0617431 0.339105 
0.0617431 -2.15986 1.11763 
0.339105 1.11763 -1.19204 
-5.06416 0.0711152 -0.704783 
0.0711152 -4.21611 1.67576 
-0.704783 1.67576 -0.281576 
-9.96721 0.250768 -0.584958 
0.250768 -9.97398 -0.103152 
-0.584958 -0.103152 -7.71003 
-9.73287 -0.324489 -0.0889732 
-0.324489 -9.57808 -0.134385 
-0.0889732 -0.134385 -8.34027 
-9.75682 -0.29238 -0.541931 
-0.29238 -9.84066 0.121155 
-0.541931 0.121155 -8.05374 
-9.50956 -0.182828 -0.224364 
-0.182828 -9.76844 -0.336128 
-0.224364 -0.336128 -8.37322 
-9.47898 -0.112333 1.03783 
-0.112333 -8.86677 -0.340084 
1.03783 -0.340084 -9.49981 
-8.60326 -0.582433 1.17546 
-0.582433 -9.2938 -1.05927 
1.17546 -1.05927 -9.94849 
-8.12543 -0.766272 1.14634 
-0.766272 -9.84766 -0.730642 
1.14634 -0.730642 -9.87246 
-8.96629 -0.730362 2.25121 
-0.730362 -9.54199 -0.750295 
2.25121 -0.750295 -9.33727 
-9.54624 0.776528 1.92753 
0.776528 -9.56153 -4.6213 
1.92753 -4.6213 -8.41383 
-5.79533 -2.11733 -0.251511 
-2.11733 -10.8296 -3.6974 
-0.251511 -3.6974 -10.8967 
-8.45244 -0.638485 1.17951 
-0.638485 -8.4953 1.31048 
1.17951 1.31048 -10.5739 
-9.22271 -2.12368 6.04501 
-2.12368 -10.6067 -0.163016 
6.04501 -0.163016 -7.69222 
-9.22996 0.200133 0.168698 
0.200133 -9.16033 -0.182064 
0.168698 -0.182064 -10.9196 
-9.79329 0.338513 -0.108781 
0.338513 -10.1129 -0.110538 
-0.108781 -0.110538 -9.40378 
-10.2185 0.56145 -0.260289 
0.56145 -9.21018 -0.658741 
-0.260289 -0.658741 -9.88125 
-9.70051 -0.191745 -0.240707 
-0.191745 -9.20524 -0.442951 
-0.240707 -0.442951 -10.4042 
-8.19432 -0.606126 1.59142 
-0.606126 -8.03745 -1.87169 
1.59142 -1.87169 -5.99163 
-7.93096 -0.286926 2.59036 
-0.286926 -8.11739 -1.31159 
2.59036 -1.31159 -6.17505 
-8.03507 -0.567071 1.98116 
-0.567071 -8.64099 -1.68426 
1.98116 -1.68426 -5.54734 
-8.44972 -0.771204 2.87874 
-0.771204 -9.05571 -1.76716 
2.87874 -1.76716 -4.71797 
-8.91319 0.832281 -2.76349 
0.832281 -8.7488 -1.68918 
-2.76349 -1.68918 -7.97878 
-7.86754 0.933987 -2.21417 
0.933987 -9.32078 -1.40504 
-2.21417 -1.40504 -8.45246 
-7.98118 0.883581 -2.27648 
0.883581 -9.70127 -0.877449 
-2.27648 -0.877449 -7.95833 
-8.9607 0.662708 -1.99173 
0.662708 -8.29449 -1.46656 
-1.99173 -1.46656 -8.3856 
-9.38763 -0.0582426 0.0249676 
-0.0582426 -9.72854 -0.0927156 
0.0249676 -0.0927156 -10.6771 
-9.44166 -0.177936 -0.356164 
-0.177936 -10.1414 0.238453 
-0.356164 0.238453 -10.2102 
-9.85844 0.0847007 -0.128906 
0.0847007 -10.1478 0.227436 
-0.128906 0.227436 -9.78702 
-9.70374 -0.132344 -0.219229 
-0.132344 -9.83202 -0.0086375 
-0.219229 -0.0086375 -10.2575 
-9.42888 0.0233905 -0.994942 
0.0233905 -9.74818 -0.15834 
-0.994942 -0.15834 -9.64768 
-9.55601 0.021814 -1.05503 
0.021814 -9.73156 -0.101531 
-1.05503 -0.101531 -9.53717 
-9.59166 0.0110733 -1.00875 
0.0110733 -9.66652 -0.0811078 
-1.00875 -0.0811078 -9.56656 
-9.54504 0.0738323 -1.08984 
0.0738323 -9.70135 -0.149775 
-1.08984 -0.149775 -9.57835 
-9.51809 0.0108018 -0.110456 
0.0108018 -9.0252 0.765048 
-0.110456 0.765048 -9.69219 
-9.48838 0.0211905 -0.00903242 
0.0211905 -8.95155 0.832546 
-0.00903242 0.832546 -9.79555 
-9.45181 0.0322863 0.0033134 
0.0322863 -8.95715 0.852043 
0.0033134 0.852043 -9.82651 
-9.36034 -0.197139 0.0312564 
-0.197139 -9.11118 1.01431 
0.0312564 1.01431 -9.76396 
-9.95874 -0.117297 -0.162101 
-0.117297 -10.0207 0.23893 
-0.162101 0.23893 -10.177 
-9.9797 -0.072041 0.0381663 
-0.072041 -9.96628 0.0381932 
0.0381663 0.0381932 -10.2105 
-10.1797 -0.0401699 0.0864426 
-0.0401699 -9.95095 -0.156872 
0.0864426 -0.156872 -10.0258 
-9.89921 -0.16523 0.123627 
-0.16523 -9.93531 -0.00947902 
0.123627 -0.00947902 -10.3219 
-9.76431 -0.110755 0.38204 
-0.110755 -9.87503 -0.605145 
0.38204 -0.605145 -9.59911 
-9.71726 -0.097233 0.610155 
-0.097233 -9.6999 -0.726778 
0.610155 -0.726778 -9.8213 
-9.68085 0.132194 0.350621 
0.132194 -9.75194 -0.602555 
0.350621 -0.602555 -9.80566 
-9.66423 -0.0130713 0.429702 
-0.0130713 -9.65492 -0.686018 
0.429702 -0.686018 -9.91931 
-5.69358 -0.221021 0.384866 
-0.221021 -6.78917 -0.990708 
0.384866 -0.990708 -0.568994 
-5.84043 0.782777 -1.27924 
0.782777 -4.65253 -2.51533 
-1.27924 -2.51533 -2.55878 
-5.53106 -0.271131 0.462378 
-0.271131 -6.38779 -0.501325 
0.462378 -0.501325 -1.13288 
-5.9943 -0.245772 -0.9508 
-0.245772 -5.37435 -0.771266 
-0.9508 -0.771266 -1.68308 
-9.54028 0.059839 0.808829 
0.059839 -9.68688 0.118047 
0.808829 0.118047 -9.86593 
-9.57837 0.119003 1.04595 
0.119003 -9.90765 0.00930404 
1.04595 0.00930404 -9.60707 
-9.37367 -0.186438 0.975148 
-0.186438 -9.89402 0.0801427 
0.975148 0.0801427 -9.82541 
-9.53577 -0.0178761 0.963315 
-0.0178761 -9.67788 0.161868 
0.963315 0.161868 -9.87945 
-9.68706 -0.0749239 0.867864 
-0.0749239 -9.61559 0.00757309 
0.867864 0.00757309 -9.43582 
-9.49399 -0.0239735 0.977341 
-0.0239735 -9.6729 -0.150305 
0.977341 -0.150305 -9.57158 
-9.46518 -0.00649678 0.981514 
-0.00649678 -9.78805 -0.132648 
0.981514 -0.132648 -9.48525 
-9.49728 -0.0140792 1.03152 
-0.0140792 -9.75347 -0.117903 
1.03152 -0.117903 -9.48772 
-9.44192 -0.253273 0.128214 
-0.253273 -8.8974 -0.680702 
0.128214 -0.680702 -9.61957 
-9.38622 -0.0453902 0.276981 
-0.0453902 -8.90847 -0.65298 
0.276981 -0.65298 -9.66421 
-9.19949 -0.0902587 0.430511 
-0.0902587 -9.05221 -0.564855 
0.430511 -0.564855 -9.70719 
-9.3907 0.00220943 0.276927 
0.00220943 -8.85831 -0.686011 
0.276927 -0.686011 -9.70988 
-8.17441 0.027451 -0.0167101 
0.027451 -10.9264 0.0751575 
-0.0167101 0.0751575 -11.9901 
-8.28725 -0.73517 -0.841263 
-0.73517 -10.6372 -0.0493646 
-0.841263 -0.0493646 -12.1664 
-9.09648 -0.708429 -0.634555 
-0.708429 -10.4637 0.00537123 
-0.634555 0.00537123 -11.5308 
-10.3732 -0.608313 -1.1307 
-0.608313 -10.2996 0.679156 
-1.1307 0.679156 -10.4181 
-9.69432 -0.21255 0.126508 
-0.21255 -9.33148 -0.157499 
0.126508 -0.157499 -10.0335 
-9.60328 -0.293712 0.140585 
-0.293712 -9.37317 -0.120451 
0.140585 -0.120451 -10.0829 
-9.62049 0.0532603 0.119115 
0.0532603 -9.67255 -0.149621 
0.119115 -0.149621 -9.76629 
-9.68744 -0.147111 0.370793 
-0.147111 -9.55862 -0.455446 
0.370793 -0.455446 -9.81326 
-9.31377 -0.169857 -0.367967 
-0.169857 -9.22373 0.346907 
-0.367967 0.346907 -9.62825 
-9.05207 -0.319588 0.100152 
-0.319588 -9.18726 0.441188 
0.100152 0.441188 -9.92641 
-9.40867 -0.235735 -0.42862 
-0.235735 -9.11388 0.459175 
-0.42862 0.459175 -9.6432 
-9.28227 0.0400458 -0.322893 
0.0400458 -9.1177 0.793566 
-0.322893 0.793566 -9.76578 
-9.40342 0.071954 0.668471 
0.071954 -9.55124 0.41914 
0.668471 0.41914 -9.7844 
-9.44104 0.194556 0.707954 
0.194556 -9.61513 0.370511 
0.707954 0.370511 -9.68289 
-9.43778 0.0985578 0.660788 
0.0985578 -9.55512 0.422794 
0.660788 0.422794 -9.74617 
-9.5196 0.105357 0.651381 
0.105357 -9.44996 0.456673 
0.651381 0.456673 -9.76951 
-9.18701 0.29777 -1.10469 
0.29777 -9.47735 -0.592242 
-1.10469 -0.592242 -9.54024 
-9.15629 0.261704 -1.11786 
0.261704 -9.54747 -0.620297 
-1.11786 -0.620297 -9.50085 
-9.41291 0.210963 -1.09639 
0.210963 -9.33248 -0.681806 
-1.09639 -0.681806 -9.45922 
-9.39357 0.222758 -1.10861 
0.222758 -9.36717 -0.737264 
-1.10861 -0.737264 -9.44387 
-8.36556 0.421692 -1.03781 
0.421692 -9.90166 -0.310271 
-1.03781 -0.310271 -10.2069 
-9.20295 0.341539 -1.23484 
0.341539 -9.48367 -0.512694 
-1.23484 -0.512694 -9.78752 
-8.83979 0.0605282 -1.61215 
0.0605282 -9.35086 -0.402104 
-1.61215 -0.402104 -10.2835 
-8.9335 0.299942 -1.29329 
0.299942 -9.61329 -0.538776 
-1.29329 -0.538776 -9.92735 
-9.14122 -0.465608 1.28374 
-0.465608 -10.2807 -0.579041 
1.28374 -0.579041 -8.92134 
-9.06352 -0.33238 1.46928 
-0.33238 -9.20059 -0.144875 
1.46928 -0.144875 -10.0791 
-8.99969 -0.44254 0.373197 
-0.44254 -9.35842 -0.231748 
0.373197 -0.231748 -9.9851 
-8.80208 0.249812 1.72873 
0.249812 -9.93687 -0.20426 
1.72873 -0.20426 -9.60426 
-8.57387 0.258584 -2.06433 
0.258584 -9.88578 -0.135943 
-2.06433 -0.135943 -9.94055 
-8.2087 0.60756 -2.31521 
0.60756 -10.2282 -0.464817 
-2.31521 -0.464817 -9.96327 
-7.3478 0.00623186 -2.53008 
0.00623186 -10.3574 0.144493 
-2.53008 0.144493 -10.695 
-8.11616 1.20681 -1.92387 
1.20681 -10.507 -0.66561 
-1.92387 -0.66561 -9.77708 
-9.80754 -0.206219 0.354346 
-0.206219 -9.30284 -0.556245 
0.354346 -0.556245 -9.54923 
-9.41204 -0.0258286 0.0740811 
-0.0258286 -9.49187 -0.681252 
0.0740811 -0.681252 -9.7557 
-9.57169 -0.0330589 0.147448 
-0.0330589 -9.27095 -0.807754 
0.147448 -0.807754 -9.81697 
-9.58524 -0.135583 0.514725 
-0.135583 -9.38848 -1.06132 
0.514725 -1.06132 -9.6859 
-9.68334 0.274721 -0.426672 
0.274721 -9.08811 -1.11402 
-0.426672 -1.11402 -9.4262 
-9.5616 0.14859 -0.450722 
0.14859 -9.22271 -1.27892 
-0.450722 -1.27892 -9.41335 
-9.86115 0.327286 -0.431886 
0.327286 -9.06139 -1.27831 
-0.431886 -1.27831 -9.27511 
-9.64313 0.155908 -0.290324 
0.155908 -9.19039 -1.3471 
-0.290324 -1.3471 -9.36414 
-9.62973 0.108094 -1.3118 
0.108094 -9.78075 -0.32052 
-1.3118 -0.32052 -8.9042 
-9.42767 -0.00155929 -1.00887 
-0.00155929 -9.69355 0.125636 
-1.00887 0.125636 -9.19346 
-9.61692 0.00750968 -1.17447 
0.00750968 -9.7283 0.00738069 
-1.17447 0.00738069 -8.96946 
-9.38944 -0.149864 -1.11726 
-0.149864 -10.1494 0.166695 
-1.11726 0.166695 -8.77583 
-10.1559 0.0266347 0.787664 
0.0266347 -10.0665 0.38277 
0.787664 0.38277 -9.60686 
-9.58396 0.0948438 0.497094 
0.0948438 -9.67116 0.166369 
0.497094 0.166369 -10.5741 
-9.93695 -0.0817885 0.779869 
-0.0817885 -10.0672 0.284027 
0.779869 0.284027 -9.82499 
-10.0251 0.019873 0.781157 
0.019873 -10.0872 0.138391 
0.781157 0.138391 -9.7169 
-9.43204 0.0791796 -0.132955 
0.0791796 -9.20014 0.0731805 
-0.132955 0.0731805 -10.9093 
-9.85612 0.317597 0.0188542 
0.317597 -10.1203 0.114362 
0.0188542 0.114362 -9.56503 
-10.2343 0.275859 0.0716182 
0.275859 -9.23316 0.647078 
0.0716182 0.647078 -10.074 
-9.7361 -0.275657 0.140716 
-0.275657 -9.36991 0.3223 
0.140716 0.3223 -10.4355 
-9.09195 0.99906 0.653772 
0.99906 -12.5295 -0.454749 
0.653772 -0.454749 -14.0541 
-13.9784 5.5718 -0.565573 
5.5718 -2.56919 -1.52642 
-0.565573 -1.52642 -19.128 
-12.1759 0.503379 -1.8237 
0.503379 -9.80133 -3.75818 
-1.8237 -3.75818 -13.6983 
-11.5231 2.5609 -2.73702 
2.5609 -10.486 -2.01488 
-2.73702 -2.01488 -13.6665 
-9.62971 -0.107276 -0.613117 
-0.107276 -9.67009 0.891586 
-0.613117 0.891586 -9.64102 
-9.91734 -0.103264 -0.522235 
-0.103264 -9.70146 0.915637 
-0.522235 0.915637 -9.32202 
-9.64422 -0.0533699 -0.56185 
-0.0533699 -9.70265 0.930668 
-0.56185 0.930668 -9.59394 
-9.58197 -0.169606 -0.600637 
-0.169606 -9.72365 0.925521 
-0.600637 0.925521 -9.63519 
-9.24742 -0.0724241 0.903165 
-0.0724241 -9.69864 -0.0898321 
0.903165 -0.0898321 -9.86744 
-9.55525 0.00794188 0.778798 
0.00794188 -9.63035 -0.0845993 
0.778798 -0.0845993 -9.62789 
-9.68159 0.00277936 0.74321 
0.00277936 -9.51542 -0.0873459 
0.74321 -0.0873459 -9.61649 
-9.32181 0.133085 0.635839 
0.133085 -9.63329 0.080678 
0.635839 0.080678 -9.8584 
-9.40265 -0.011217 0.805065 
-0.011217 -9.59673 -0.160822 
0.805065 -0.160822 -9.83408 
-9.46403 -0.0275451 0.788945 
-0.0275451 -9.64954 -0.130907 
0.788945 -0.130907 -9.71988 
-9.41092 -0.0928907 0.786275 
-0.0928907 -9.69094 -0.102041 
0.786275 -0.102041 -9.73159 
-9.48326 -0.0927518 0.789822 
-0.0927518 -9.57277 -0.175377 
0.789822 -0.175377 -9.77743 
-9.83666 0.103296 -0.386334 
0.103296 -9.79955 0.870455 
-0.386334 0.870455 -10.1022 
-10.1111 -0.0578922 -0.475332 
-0.0578922 -9.75528 0.973019 
-0.475332 0.973019 -9.87204 
-10.0179 -0.00444908 -0.349649 
-0.00444908 -9.99207 0.979596 
-0.349649 0.979596 -9.72847 
-10.0109 0.0195743 -0.418124 
0.0195743 -9.83714 0.929938 
-0.418124 0.929938 -9.89035 
-9.6315 0.20692 -0.292005 
0.20692 -9.40953 -1.37909 
-0.292005 -1.37909 -8.90584 
-9.88239 0.299794 -0.569133 
0.299794 -9.68232 -1.40329 
-0.569133 -1.40329 -8.38215 
-9.26002 0.260869 -0.563553 
0.260869 -8.93658 -1.08713 
-0.563553 -1.08713 -9.75027 
-9.7066 0.253895 -0.175342 
0.253895 -9.2197 -1.44187 
-0.175342 -1.44187 -9.02057 
-9.70546 -0.104846 -1.08305 
-0.104846 -10.0055 -0.1439 
-1.08305 -0.1439 -8.57095 
-9.38896 -0.311169 -0.872355 
-0.311169 -10.1666 0.0807609 
-0.872355 0.0807609 -8.72638 
-10.2374 -0.0942658 -1.05221 
-0.0942658 -9.95765 0.0446328 
-1.05221 0.0446328 -8.08688 
-9.94302 0.022033 -1.15236 
0.022033 -10.1393 0.0171475 
-1.15236 0.0171475 -8.19964 
-9.82701 -0.055884 0.184456 
-0.055884 -9.54591 -0.995992 
0.184456 -0.995992 -9.89564 
-9.79874 -0.0438638 0.064912 
-0.0438638 -9.55957 -0.747302 
0.064912 -0.747302 -9.91024 
-9.74952 -0.167089 0.223311 
-0.167089 -9.51668 -0.977344 
0.223311 -0.977344 -10.0023 
-9.84914 -0.0567037 0.205007 
-0.0567037 -9.52314 -0.810178 
0.205007 -0.810178 -9.89627 
-9.73352 0.0501559 0.696337 
0.0501559 -9.79767 0.516309 
0.696337 0.516309 -9.88647 
-9.84068 -0.0210569 0.591995 
-0.0210569 -9.73068 0.46354 
0.591995 0.46354 -9.8463 
-9.76949 -0.00146462 0.703381 
-0.00146462 -9.71113 0.528514 
0.703381 0.528514 -9.93704 
-9.69965 0.0993427 0.66126 
0.0993427 -9.79875 0.511785 
0.66126 0.511785 -9.91926 
-9.55915 -0.0143221 -0.480885 
-0.0143221 -9.50806 -0.519054 
-0.480885 -0.519054 -9.62589 
-9.37107 0.211014 -0.72396 
0.211014 -9.60598 -0.177732 
-0.72396 -0.177732 -9.71606 
-9.45184 0.272663 -0.59845 
0.272663 -9.43127 -0.615935 
-0.59845 -0.615935 -9.81 
-9.25709 0.0527466 -0.946114 
0.0527466 -9.61128 -0.43451 
-0.946114 -0.43451 -9.82473 
-9.58533 0.0686262 -0.725269 
0.0686262 -9.76544 -0.497843 
-0.725269 -0.497843 -9.70798 
-9.62406 0.206402 -0.891442 
0.206402 -9.7322 -0.701213 
-0.891442 -0.701213 -9.70249 
-9.63328 0.14994 -0.721712 
0.14994 -9.63833 -0.548354 
-0.721712 -0.548354 -9.78714 
-9.66475 0.134605 -0.758894 
0.134605 -9.61766 -0.573336 
-0.758894 -0.573336 -9.77634 
-9.29788 0.13984 -1.50798 
0.13984 -9.87968 -0.492071 
-1.50798 -0.492071 -6.39222 
-9.20493 0.0573345 -1.77037 
0.0573345 -9.91276 -0.560356 
-1.77037 -0.560356 -6.45209 
-9.46138 -0.114939 -1.7837 
-0.114939 -10.0299 0.0567722 
-1.7837 0.0567722 -6.07845 
-8.49204 0.260391 -0.440136 
0.260391 -9.04294 0.238413 
-0.440136 0.238413 -8.0348 
-9.7072 0.0913938 -0.464888 
0.0913938 -9.56999 -0.817633 
-0.464888 -0.817633 -9.7152 
-9.79861 0.186912 -0.490792 
0.186912 -9.4121 -0.901683 
-0.490792 -0.901683 -9.78169 
-9.71922 0.207445 -0.447982 
0.207445 -9.70537 -1.08835 
-0.447982 -1.08835 -9.5678 
-9.72215 0.107169 -0.595846 
0.107169 -9.46765 -0.852524 
-0.595846 -0.852524 -9.80259 
-9.24332 -0.154097 -1.7783 
-0.154097 -9.78403 0.371375 
-1.7783 0.371375 -8.04181 
-8.48487 0.347087 -1.33849 
0.347087 -9.87496 -0.53298 
-1.33849 -0.53298 -8.70934 
-9.17454 -0.211364 -1.662 
-0.211364 -8.88983 0.120486 
-1.662 0.120486 -9.00479 
-8.64035 -0.228898 -1.51477 
-0.228898 -10.0098 0.236246 
-1.51477 0.236246 -8.41899 
-9.59175 -0.53494 0.653181 
-0.53494 -9.68285 -0.289314 
0.653181 -0.289314 -9.8816 
-9.82936 0.179885 0.871524 
0.179885 -9.78882 -0.172345 
0.871524 -0.172345 -9.53803 
-9.67048 0.151833 0.872526 
0.151833 -9.85051 0.122492 
0.872526 0.122492 -9.63522 
-9.89553 -0.287627 0.9325 
-0.287627 -9.94987 0.420788 
0.9325 0.420788 -9.31081 
-9.82235 -0.017459 0.0739628 
-0.017459 -8.74651 -1.44277 
0.0739628 -1.44277 -10.1779 
-9.90182 -0.154975 0.295105 
-0.154975 -9.05713 -1.36092 
0.295105 -1.36092 -9.78776 
-10.0054 -0.0720704 0.125644 
-0.0720704 -9.06941 -0.929607 
0.125644 -0.929607 -9.67192 
-9.89587 0.0634676 0.0560571 
0.0634676 -8.87811 -1.36483 
0.0560571 -1.36483 -9.97274 
-9.48177 0.0156061 -0.942573 
0.0156061 -9.79009 -0.10818 
-0.942573 -0.10818 -9.90425 
-9.38099 0.119524 -0.934972 
0.119524 -9.82184 -0.149256 
-0.934972 -0.149256 -9.97328 
-9.4516 -0.0267223 -0.866163 
-0.0267223 -9.8353 -0.103812 
-0.866163 -0.103812 -9.88921 
-9.65 0.0681762 -0.599787 
0.0681762 -9.69532 -0.0868472 
-0.599787 -0.0868472 -9.83079 
-9.32045 0.015837 0.670622 
0.015837 -9.73939 0.208407 
0.670622 0.208407 -9.71887 
-9.51717 -0.0118277 0.710284 
-0.0118277 -9.56703 -0.0881454 
0.710284 -0.0881454 -9.69451 
-9.35692 0.0232184 0.868119 
0.0232184 -9.67397 -0.00899923 
0.868119 -0.00899923 -9.74783 
-9.48978 0.118947 1.02545 
0.118947 -9.52943 0.249863 
1.02545 0.249863 -9.75951 
-9.62907 -0.0944711 0.43704 
-0.0944711 -9.48795 -0.784111 
0.43704 -0.784111 -9.70569 
-9.61232 -0.0121555 0.52381 
-0.0121555 -9.44661 -0.589077 
0.52381 -0.589077 -9.76378 
-9.65208 -0.0671201 0.425739 
-0.0671201 -9.35826 -0.66954 
0.425739 -0.66954 -9.81237 
-9.62535 -0.0593912 0.488717 
-0.0593912 -9.43924 -0.667552 
0.488717 -0.667552 -9.75811 
-8.98616 -0.269898 -1.21475 
-0.269898 -9.6566 0.445959 
-1.21475 0.445959 -9.98984 
-9.26483 -0.390953 -1.37192 
-0.390953 -9.68857 0.617846 
-1.37192 0.617846 -9.6792 
-9.6012 -0.0994886 -0.316961 
-0.0994886 -9.03605 0.33752 
-0.316961 0.33752 -9.99535 
-8.8997 -0.373698 -1.2709 
-0.373698 -9.50576 0.438592 
-1.2709 0.438592 -10.2271 
-9.26471 -0.18503 -0.668215 
-0.18503 -9.3146 0.331631 
-0.668215 0.331631 -9.65717 
-9.08966 -0.162294 -0.773048 
-0.162294 -9.35893 0.193346 
-0.773048 0.193346 -9.78789 
-9.13889 -0.160419 -0.616397 
-0.160419 -9.38149 0.25593 
-0.616397 0.25593 -9.7161 
-9.12866 -0.104477 -0.436623 
-0.104477 -9.4442 0.343475 
-0.436623 0.343475 -9.66362 
-9.5862 0.0334031 0.433002 
0.0334031 -10.24 -0.0604269 
0.433002 -0.0604269 -9.99687 
-9.72247 -0.0176507 -0.267474 
-0.0176507 -9.83607 0.000621544 
-0.267474 0.000621544 -10.2645 
-9.23131 0.00876939 0.0177633 
0.00876939 -10.0387 -0.0290239 
0.0177633 -0.0290239 -10.553 
-9.40148 0.0291878 0.0102192 
0.0291878 -9.95021 0.060135 
0.0102192 0.060135 -10.4714 
-9.61821 -0.0156843 0.906079 
-0.0156843 -9.67019 0.400044 
0.906079 0.400044 -9.8659 
-9.59786 0.0665039 0.611175 
0.0665039 -9.76568 0.291675 
0.611175 0.291675 -9.79075 
-9.54955 0.155186 0.768779 
0.155186 -9.7205 0.350855 
0.768779 0.350855 -9.88425 
-9.54846 0.023664 0.833571 
0.023664 -9.7469 0.309417 
0.833571 0.309417 -9.85894 
-9.20188 0.114739 -0.531094 
0.114739 -9.3463 -0.387047 
-0.531094 -0.387047 -9.62516 
-9.16989 0.135096 -0.41157 
0.135096 -9.33343 -0.383987 
-0.41157 -0.383987 -9.67001 
-9.20012 0.16773 -0.654676 
0.16773 -9.25811 -0.504338 
-0.654676 -0.504338 -9.7151 
-9.37918 0.134729 -0.58787 
0.134729 -9.30194 -0.635469 
-0.58787 -0.635469 -9.49221 
-4.10611 1.3466 -1.89763 
1.3466 -8.8589 -2.79548 
-1.89763 -2.79548 -4.50048 
-8.29693 -1.16124 -1.31521 
-1.16124 -7.08536 -2.88967 
-1.31521 -2.88967 -2.0832 
-7.41928 -1.56375 -2.04097 
-1.56375 -4.96309 -3.74197 
-2.04097 -3.74197 -5.08311 
-7.05578 0.442867 -3.29838 
0.442867 -7.23528 -3.45668 
-3.29838 -3.45668 -3.17443 
-9.66632 -0.162228 0.893699 
-0.162228 -10.0417 -0.765837 
0.893699 -0.765837 -8.99827 
-9.71506 -0.284706 1.47276 
-0.284706 -9.39833 -0.665083 
1.47276 -0.665083 -9.59295 
-9.29857 -0.135349 1.13228 
-0.135349 -9.7325 -0.338398 
1.13228 -0.338398 -9.67527 
-9.31796 -0.121569 1.17744 
-0.121569 -9.82295 -0.569464 
1.17744 -0.569464 -9.56542 
-9.77031 0.0314723 0.82164 
0.0314723 -9.83289 0.402044 
0.82164 0.402044 -9.93264 
-9.81783 0.0457398 0.820547 
0.0457398 -9.91475 0.395492 
0.820547 0.395492 -9.80326 
-9.69871 0.0594123 0.772251 
0.0594123 -9.75135 0.350052 
0.772251 0.350052 -10.0858 
-9.80118 0.102601 0.80288 
0.102601 -9.83141 0.525945 
0.80288 0.525945 -9.90326 
-9.05399 -0.156546 -0.760095 
-0.156546 -9.65956 -0.293987 
-0.760095 -0.293987 -9.66968 
-8.7281 0.987988 -1.39875 
0.987988 -9.45089 -0.410327 
-1.39875 -0.410327 -10.2042 
-8.84395 0.360643 -1.66037 
0.360643 -10.3145 -0.771552 
-1.66037 -0.771552 -9.22476 
-8.64161 0.388625 -1.51479 
0.388625 -9.4348 -0.279672 
-1.51479 -0.279672 -10.3068 
-9.11196 -0.453252 0.351106 
-0.453252 -8.91136 -0.575673 
0.351106 -0.575673 -10.1611 
-9.20276 -0.297679 0.338047 
-0.297679 -8.99113 -0.424795 
0.338047 -0.424795 -9.9905 
-9.2111 -0.273388 0.453111 
-0.273388 -9.33534 -0.482262 
0.453111 -0.482262 -9.63794 
-9.29706 -0.201493 0.219179 
-0.201493 -8.90609 -0.190958 
0.219179 -0.190958 -9.98122 
-8.7208 0.0273583 -2.60771 
0.0273583 -9.16444 0.541121 
-2.60771 0.541121 -5.70239 
-8.20011 0.128109 -2.20499 
0.128109 -9.35062 0.0107472 
-2.20499 0.0107472 -6.0369 
-8.60411 0.151077 -2.03999 
0.151077 -8.94089 -0.238422 
-2.03999 -0.238422 -6.04263 
-9.09722 0.653139 -1.49483 
0.653139 -8.18256 -0.257799 
-1.49483 -0.257799 -6.30786 
-8.73718 0.300564 0.579989 
0.300564 -9.39129 0.195989 
0.579989 0.195989 -10.0149 
-8.63406 0.269301 0.535344 
0.269301 -9.53764 0.315102 
0.535344 0.315102 -9.9717 
-8.73995 -0.093189 0.61405 
-0.093189 -9.43557 0.25928 
0.61405 0.25928 -9.96787 
-8.67037 0.233122 0.582371 
0.233122 -9.45037 0.204416 
0.582371 0.204416 -10.0227 
-9.48732 0.405064 -0.523265 
0.405064 -8.85333 -1.32687 
-0.523265 -1.32687 -9.76598 
-9.52865 0.365931 -0.757915 
0.365931 -8.76546 -1.15432 
-0.757915 -1.15432 -9.81252 
-9.28467 0.409704 -0.50748 
0.409704 -9.02866 -1.11611 
-0.50748 -1.11611 -9.7933 
-9.81996 0.298735 -0.499868 
0.298735 -8.44577 -1.07611 
-0.499868 -1.07611 -9.84091 
-9.59232 -0.0942719 -1.00267 
-0.0942719 -9.67633 -0.247219 
-1.00267 -0.247219 -9.76922 
-9.3671 0.0208174 -0.962172 
0.0208174 -9.76782 -0.35864 
-0.962172 -0.35864 -9.90294 
-9.2924 0.236145 -1.10245 
0.236145 -9.86482 -0.267251 
-1.10245 -0.267251 -9.88065 
-9.46018 0.05778 -0.739342 
0.05778 -9.75191 0.0296533 
-0.739342 0.0296533 -9.82577 
-9.66295 -0.304158 -0.533979 
-0.304158 -9.32139 0.910232 
-0.533979 0.910232 -10.0774 
-9.66186 -0.199627 -0.389984 
-0.199627 -9.34951 0.719564 
-0.389984 0.719564 -10.0504 
-9.46038 -0.361 -0.747154 
-0.361 -9.61792 1.01479 
-0.747154 1.01479 -9.98345 
-9.73265 -0.383371 -0.401733 
-0.383371 -9.22 0.876667 
-0.401733 0.876667 -10.1091 
-9.64559 -0.0384143 -0.244724 
-0.0384143 -9.61345 -0.960603 
-0.244724 -0.960603 -9.85984 
-9.78064 0.137712 -0.206618 
0.137712 -9.45511 -0.844379 
-0.206618 -0.844379 -9.88314 
-9.73122 0.067029 -0.161918 
0.067029 -9.57778 -0.681669 
-0.161918 -0.681669 -9.80989 
-9.71767 -0.0393145 -0.153795 
-0.0393145 -9.53285 -0.887005 
-0.153795 -0.887005 -9.86836 
-9.74062 -0.0251838 -0.235981 
-0.0251838 -9.50723 0.921918 
-0.235981 0.921918 -9.95473 
-9.68355 -0.0672975 -0.234722 
-0.0672975 -9.62511 0.952229 
-0.234722 0.952229 -9.89392 
-9.75159 0.0479149 -0.0767666 
0.0479149 -9.51883 0.818371 
-0.0767666 0.818371 -9.93216 
-9.9649 -0.122806 -0.326239 
-0.122806 -9.63348 1.10646 
-0.326239 1.10646 -9.6042 
-9.33083 0.139115 -1.20773 
0.139115 -9.89074 -0.148638 
-1.20773 -0.148638 -9.53447 
-9.27665 0.0653026 -1.23394 
0.0653026 -9.99904 0.0571804 
-1.23394 0.0571804 -9.48035 
-9.37356 0.25025 -1.27083 
0.25025 -10.0238 -0.404164 
-1.27083 -0.404164 -9.35864 
-9.63249 0.00166377 -0.695308 
0.00166377 -9.5014 0.00726873 
-0.695308 0.00726873 -9.62215 
-9.13746 -0.13858 -0.467766 
-0.13858 -9.88589 0.0600284 
-0.467766 0.0600284 -10.1645 
-9.31215 -0.0511201 -0.229633 
-0.0511201 -9.90733 0.122987 
-0.229633 0.122987 -9.96835 
-9.99409 0.0788317 -0.150935 
0.0788317 -9.47392 0.052569 
-0.150935 0.052569 -9.71982 
-9.37773 0.345613 -0.313682 
0.345613 -9.77293 -0.0844513 
-0.313682 -0.0844513 -10.0372 
-9.00346 0.316908 1.74682 
0.316908 -9.96814 0.408342 
1.74682 0.408342 -10.3561 
-8.58178 0.59927 1.61674 
0.59927 -10.0735 0.19079 
1.61674 0.19079 -10.6724 
-8.96224 0.492522 1.76457 
0.492522 -10.2004 0.463864 
1.76457 0.463864 -10.165 
-9.01609 0.159486 1.90229 
0.159486 -10.0674 0.62253 
1.90229 0.62253 -10.2442 
-10.0595 0.164643 -0.0340121 
0.164643 -9.45804 -0.140782 
-0.0340121 -0.140782 -9.93876 
-9.84733 0.090966 0.177926 
0.090966 -9.67643 -0.128659 
0.177926 -0.128659 -9.93258 
-9.54233 -0.160423 -0.0685262 
-0.160423 -10.0163 -0.034854 
-0.0685262 -0.034854 -9.89774 
-9.8671 0.0382022 0.0537706 
0.0382022 -9.63744 0.0310258 
0.0537706 0.0310258 -9.9518 
-9.63212 -0.223644 -0.835648 
-0.223644 -9.70266 0.490592 
-0.835648 0.490592 -9.97359 
-9.71217 -0.108634 -0.458724 
-0.108634 -9.7215 0.254022 
-0.458724 0.254022 -9.8747 
-9.60349 -0.0467697 -0.829593 
-0.0467697 -9.78824 0.476608 
-0.829593 0.476608 -9.91664 
-9.57016 -0.0838087 -0.93034 
-0.0838087 -9.75684 0.397679 
-0.93034 0.397679 -9.98137 
-8.92988 -0.260511 1.77527 
-0.260511 -9.48713 0.00266677 
1.77527 0.00266677 -8.17837 
-8.97541 0.310667 1.25466 
0.310667 -9.3282 -0.305132 
1.25466 -0.305132 -8.29178 
-9.15975 -0.435946 1.61447 
-0.435946 -9.8127 -0.192307 
1.61447 -0.192307 -7.62293 
-9.31915 -0.375083 1.84989 
-0.375083 -9.72944 -0.438043 
1.84989 -0.438043 -7.5468 
-9.76973 2.05909 -3.56583 
2.05909 -8.9463 -2.32292 
-3.56583 -2.32292 -8.15219 
-10.4679 2.30448 -2.06421 
2.30448 -8.56787 -1.69198 
-2.06421 -1.69198 -7.8324 
-10.8466 2.47304 -1.96375 
2.47304 -7.53548 -2.06878 
-1.96375 -2.06878 -8.48616 
-9.33447 2.27863 -0.61771 
2.27863 -6.46642 -2.17657 
-0.61771 -2.17657 -11.0673 
-8.65994 0.225115 -1.29098 
0.225115 -9.77098 -0.314075 
-1.29098 -0.314075 -9.97375 
-8.96864 0.217215 -0.922986 
0.217215 -9.50315 -0.163805 
-0.922986 -0.163805 -9.93289 
-8.94943 0.109373 -0.762859 
0.109373 -9.47652 -0.233698 
-0.762859 -0.233698 -9.97873 
-9.10883 0.0386404 -0.816288 
0.0386404 -9.50095 -0.223378 
-0.816288 -0.223378 -9.7949 
-9.73076 -0.0813175 -0.00565262 
-0.0813175 -9.53093 1.0046 
-0.00565262 1.0046 -9.51328 
-9.73876 -0.0147653 0.106565 
-0.0147653 -9.5718 0.994738 
0.106565 0.994738 -9.4644 
-9.84587 0.116374 0.109162 
0.116374 -9.58278 1.01173 
0.109162 1.01173 -9.34631 
-9.70151 -0.00746024 0.121657 
-0.00746024 -9.60473 1.00965 
0.121657 1.00965 -9.46872 
-9.43639 -0.17519 -0.636439 
-0.17519 -9.56012 0.47238 
-0.636439 0.47238 -9.7452 
-9.36963 -0.0786796 -0.698835 
-0.0786796 -9.56329 0.300258 
-0.698835 0.300258 -9.8088 
-9.50685 -0.0690809 -0.719565 
-0.0690809 -9.49054 0.290998 
-0.719565 0.290998 -9.74432 
-9.50231 -0.180646 -0.760904 
-0.180646 -9.48155 0.519019 
-0.760904 0.519019 -9.75786 
-8.58765 -0.14443 1.54585 
-0.14443 -8.97135 -0.666602 
1.54585 -0.666602 -7.70588 
-9.00294 -0.337361 1.54699 
-0.337361 -9.3337 -0.939541 
1.54699 -0.939541 -6.92825 
-8.78734 -0.271412 0.891185 
-0.271412 -9.46503 -0.386967 
0.891185 -0.386967 -7.01252 
-9.02945 -0.160378 1.52635 
-0.160378 -8.98325 -0.644348 
1.52635 -0.644348 -7.25219 
-8.97173 0.934838 0.606385 
0.934838 -12.8372 0.487267 
0.606385 0.487267 -10.5105 
-10.383 0.554453 0.504035 
0.554453 -10.08 -0.353269 
0.504035 -0.353269 -11.8565 
-10.0909 -0.00794635 -0.139349 
-0.00794635 -10.3776 0.673906 
-0.139349 0.673906 -11.8509 
-9.6677 0.55293 -0.265494 
0.55293 -10.777 0.349729 
-0.265494 0.349729 -11.8747 
-8.67604 0.403642 -0.70948 
0.403642 -9.62263 1.98513 
-0.70948 1.98513 -8.25175 
-9.6995 -0.144811 -0.263364 
-0.144811 -7.16391 1.81098 
-0.263364 1.81098 -9.68701 
-9.64834 -2.41469 -2.20302 
-2.41469 -6.77076 3.83549 
-2.20302 3.83549 -10.1313 
-9.85817 -0.300715 -1.01753 
-0.300715 -8.3884 2.21995 
-1.01753 2.21995 -8.30385 
-8.51228 -0.648146 -1.14477 
-0.648146 -9.16443 0.473393 
-1.14477 0.473393 -9.84514 
-8.30485 -0.541145 -1.4074 
-0.541145 -9.535 0.530085 
-1.4074 0.530085 -9.682 
-9.06263 -0.597871 -0.964211 
-0.597871 -8.63644 0.593111 
-0.964211 0.593111 -9.82278 
-8.37334 -0.389741 -1.10783 
-0.389741 -9.44842 0.452099 
-1.10783 0.452099 -9.70009 
-10.0604 0.0742359 -0.0684132 
0.0742359 -10.2675 0.266833 
-0.0684132 0.266833 -10.2981 
-10.2932 0.00717949 -0.0911002 
0.00717949 -10.0468 0.0295518 
-0.0911002 0.0295518 -10.2859 
-10.1232 0.0556112 0.0361217 
0.0556112 -10.202 -0.211852 
0.0361217 -0.211852 -10.3008 
-10.2054 -0.0100135 -0.069647 
-0.0100135 -9.97551 -0.013499 
-0.069647 -0.013499 -10.4451 
-8.83061 0.26271 -0.631382 
0.26271 -9.34875 -0.363308 
-0.631382 -0.363308 -9.77092 
-8.9029 0.306422 -0.716873 
0.306422 -9.27396 -0.394099 
-0.716873 -0.394099 -9.77342 
-9.08225 0.125738 -0.664693 
0.125738 -9.18986 -0.428681 
-0.664693 -0.428681 -9.67817 
-8.86127 0.443714 -0.822261 
0.443714 -9.21082 -0.3966 
-0.822261 -0.3966 -9.87819 
-8.85775 0.588717 -1.6954 
0.588717 -9.40904 -0.663428 
-1.6954 -0.663428 -9.60827 
-8.31371 0.641339 -1.8734 
0.641339 -9.7856 -0.832686 
-1.8734 -0.832686 -9.77575 
-8.65362 0.88553 -0.706246 
0.88553 -9.04148 -1.01423 
-0.706246 -1.01423 -10.18 
-8.70301 0.813217 -1.61652 
0.813217 -9.33757 -0.725997 
-1.61652 -0.725997 -9.83449 
-9.92641 -0.301918 -0.41171 
-0.301918 -9.60027 -0.037429 
-0.41171 -0.037429 -9.53215 
-9.89234 0.169852 -0.237096 
0.169852 -9.89046 0.0415858 
-0.237096 0.0415858 -9.27602 
-9.88866 0.0186719 -0.10711 
0.0186719 -9.93993 -0.0711039 
-0.10711 -0.0711039 -9.23023 
-9.96106 -0.124212 -0.334209 
-0.124212 -9.83932 -0.0599542 
-0.334209 -0.0599542 -9.25845 
-9.04719 0.0252348 0.653027 
0.0252348 -9.49467 0.195419 
0.653027 0.195419 -9.73429 
-9.09165 0.080598 0.883136 
0.080598 -9.50844 0.0374752 
0.883136 0.0374752 -9.67606 
-8.937 0.0470861 0.933833 
0.0470861 -9.60439 0.12811 
0.933833 0.12811 -9.73476 
-9.38168 0.188652 0.980248 
0.188652 -9.23781 0.111544 
0.980248 0.111544 -9.65666 
-8.56341 0.466884 1.19407 
0.466884 -9.00721 1.36006 
1.19407 1.36006 -9.15319 
-9.31855 0.936387 1.48844 
0.936387 -8.71273 1.49803 
1.48844 1.49803 -8.69253 
-9.62988 0.183148 0.623395 
0.183148 -8.98266 1.61331 
0.623395 1.61331 -8.11127 
-9.21747 0.226126 0.996824 
0.226126 -9.1411 1.41343 
0.996824 1.41343 -8.36525 
-8.95644 -0.228224 -1.18142 
-0.228224 -9.3828 0.6386 
-1.18142 0.6386 -9.59196 
-8.69847 -0.170584 -0.874933 
-0.170584 -9.56807 0.889704 
-0.874933 0.889704 -9.66467 
-8.7441 -0.355427 -1.26846 
-0.355427 -9.31226 0.42959 
-1.26846 0.42959 -9.87484 
-9.02725 -0.179236 -1.29884 
-0.179236 -9.62184 0.742411 
-1.29884 0.742411 -9.28212 
-9.10153 0.416511 -0.758497 
0.416511 -10.6103 -0.43632 
-0.758497 -0.43632 -7.18604 
-9.39061 0.0248609 -1.00664 
0.0248609 -9.50083 -0.525918 
-1.00664 -0.525918 -8.00647 
-9.63358 0.136203 -1.09316 
0.136203 -9.33906 -0.509312 
-1.09316 -0.509312 -7.92526 
-9.58332 -0.205779 -1.12042 
-0.205779 -9.39675 -0.0253118 
-1.12042 -0.0253118 -7.91783 
-9.77004 0.0183137 -0.487481 
0.0183137 -10.2609 -0.102298 
-0.487481 -0.102298 -10.1372 
-9.42183 0.0638417 -0.0154023 
0.0638417 -10.0555 0.0105575 
-0.0154023 0.0105575 -10.6909 
-9.90181 0.160551 0.349165 
0.160551 -9.91381 0.0421707 
0.349165 0.0421707 -10.3526 
-9.63333 0.0714779 -0.0145928 
0.0714779 -10.0621 0.00969101 
-0.0145928 0.00969101 -10.4728 
-9.62756 0.0455233 -0.161912 
0.0455233 -9.43999 -0.745844 
-0.161912 -0.745844 -9.743 
-9.70828 0.0689422 -0.247855 
0.0689422 -9.36937 -0.782073 
-0.247855 -0.782073 -9.73289 
-9.65578 0.0813704 -0.0549961 
0.0813704 -9.38959 -0.75034 
-0.0549961 -0.75034 -9.76518 
-9.62764 -0.0691747 -0.0980268 
-0.0691747 -9.42706 -0.928592 
-0.0980268 -0.928592 -9.75585 
-9.95717 0.0341205 0.0127015 
0.0341205 -9.86592 -0.384609 
0.0127015 -0.384609 -10.2029 
-9.95132 -0.129478 -0.0159746 
-0.129478 -9.49556 -0.0757382 
-0.0159746 -0.0757382 -10.5791 
-10.2899 -0.114028 0.100227 
-0.114028 -9.66747 0.496141 
0.100227 0.496141 -10.0686 
-10.0433 -0.338424 0.086964 
-0.338424 -9.54815 0.0152978 
0.086964 0.0152978 -10.4345 
-9.76161 -0.0200045 -0.428933 
-0.0200045 -9.75261 0.652964 
-0.428933 0.652964 -9.97949 
-9.79494 -0.00205855 -0.507034 
-0.00205855 -9.77893 0.816037 
-0.507034 0.816037 -9.91983 
-9.76665 -0.0772753 -0.404165 
-0.0772753 -9.82567 0.650473 
-0.404165 0.650473 -9.90138 
-9.83003 -0.0786644 -0.541051 
-0.0786644 -9.76551 0.740026 
-0.541051 0.740026 -9.89816 
-9.78842 -0.0308314 0.91725 
-0.0308314 -9.69375 0.403385 
0.91725 0.403385 -9.58641 
-9.67463 0.12315 0.897677 
0.12315 -9.76063 0.448954 
0.897677 0.448954 -9.63333 
-9.61687 0.212737 0.798381 
0.212737 -9.72937 0.42424 
0.798381 0.42424 -9.72234 
-9.58189 0.12331 1.00973 
0.12331 -9.80973 0.446798 
1.00973 0.446798 -9.67696 
-9.48511 -0.134105 0.0209137 
-0.134105 -10.276 -0.56925 
0.0209137 -0.56925 -10.1035 
-10.5584 -0.132791 -0.233521 
-0.132791 -9.38008 0.852653 
-0.233521 0.852653 -9.92612 
-10.1098 -0.504162 0.0582543 
-0.504162 -9.33342 -0.151902 
0.0582543 -0.151902 -10.4214 
-9.36254 -0.211861 0.101576 
-0.211861 -9.76915 -0.111255 
0.101576 -0.111255 -10.7329 
-9.56295 0.0241269 0.154156 
0.0241269 -9.70102 -0.0930663 
0.154156 -0.0930663 -9.27128 
-10.1335 -0.0166068 0.0141953 
-0.0166068 -9.91036 -0.484537 
0.0141953 -0.484537 -8.49138 
-9.91996 -0.228429 0.117212 
-0.228429 -9.74957 -0.220283 
0.117212 -0.220283 -8.86572 
-9.78322 -0.109922 0.468906 
-0.109922 -9.56135 -0.152147 
0.468906 -0.152147 -9.19068 
-9.48471 0.138742 0.4192 
0.138742 -9.3854 0.705497 
0.4192 0.705497 -9.67041 
-9.50652 0.0512835 0.501515 
0.0512835 -9.37684 0.600888 
0.501515 0.600888 -9.65716 
-9.52356 0.14804 0.574978 
0.14804 -9.2783 0.566386 
0.574978 0.566386 -9.73865 
-9.47344 0.0907677 0.342492 
0.0907677 -9.40848 0.642301 
0.342492 0.642301 -9.65859 
-7.54145 0.521424 -0.304222 
0.521424 -11.3736 -0.215585 
-0.304222 -0.215585 -12.181 
-10.3707 0.36328 1.0879 
0.36328 -10.0956 -0.037801 
1.0879 -0.037801 -10.6297 
-8.27837 0.544162 1.25361 
0.544162 -10.1961 -0.00603077 
1.25361 -0.00603077 -12.6216 
-9.82659 0.0474116 1.10549 
0.0474116 -10.78 0.820532 
1.10549 0.820532 -10.4894 
-9.00445 0.23518 0.2007 
0.23518 -9.67096 -0.0275923 
0.2007 -0.0275923 -9.78942 
-9.18805 -0.0214521 0.280039 
-0.0214521 -9.29756 0.304376 
0.280039 0.304376 -9.97923 
-9.26652 0.183261 0.63864 
0.183261 -9.46675 -0.0638257 
0.63864 -0.0638257 -9.73156 
-8.92859 0.15741 0.447368 
0.15741 -9.41433 0.345091 
0.447368 0.345091 -10.1219 
-8.91138 0.0163153 0.829685 
0.0163153 -9.49347 -0.212471 
0.829685 -0.212471 -10.2035 
-9.18407 -0.216322 1.17189 
-0.216322 -9.5907 -0.448359 
1.17189 -0.448359 -9.83356 
-8.81136 0.0167239 0.917084 
0.0167239 -9.77695 -0.394847 
0.917084 -0.394847 -10.02 
-9.09872 -0.269692 1.36355 
-0.269692 -9.84933 -0.0887374 
1.36355 -0.0887374 -9.66028 
-9.71755 -0.049564 -0.758012 
-0.049564 -9.6416 0.485021 
-0.758012 0.485021 -9.19371 
-9.82692 -0.0382449 -0.866057 
-0.0382449 -9.78106 0.496155 
-0.866057 0.496155 -8.94487 
-9.63528 -0.116484 -0.949358 
-0.116484 -9.70847 0.454344 
-0.949358 0.454344 -9.2091 
-9.58052 -0.0866061 -1.03321 
-0.0866061 -9.70976 0.356516 
-1.03321 0.356516 -9.26257 
-9.95744 -0.00917466 -0.114115 
-0.00917466 -10.0745 0.263915 
-0.114115 0.263915 -10.3154 
-10.1789 -0.105416 0.0617069 
-0.105416 -10.0988 -0.18195 
0.0617069 -0.18195 -10.0697 
-9.98897 -0.100092 0.0233899 
-0.100092 -10.1279 -0.0942847 
0.0233899 -0.0942847 -10.2305 
-10.0902 -0.214181 0.0564202 
-0.214181 -9.92241 -0.0187882 
0.0564202 -0.0187882 -10.3347 
-6.59184 -0.543353 -1.37192 
-0.543353 -6.89391 0.713727 
-1.37192 0.713727 -2.55087 
-6.26958 -0.441898 -2.53749 
-0.441898 -6.37977 0.248457 
-2.53749 0.248457 -3.38728 
-6.57484 -0.826761 -1.83328 
-0.826761 -7.15594 0.26199 
-1.83328 0.26199 -2.30585 
-6.92538 -0.249236 -1.54864 
-0.249236 -6.01498 1.12218 
-1.54864 1.12218 -3.09627 
-8.86126 -0.156727 1.82689 
-0.156727 -8.65897 -2.06058 
1.82689 -2.06058 -4.88489 
-8.56569 -0.382623 1.44836 
-0.382623 -8.46609 -1.73387 
1.44836 -1.73387 -5.37334 
-8.47795 -0.48383 2.95796 
-0.48383 -8.67288 -2.19709 
2.95796 -2.19709 -5.2543 
-9.34201 0.274341 1.54713 
0.274341 -8.97856 -1.91722 
1.54713 -1.91722 -4.08454 
-9.44136 -0.0313683 0.818392 
-0.0313683 -9.71009 0.12075 
0.818392 0.12075 -9.83502 
-9.57855 0.243813 0.970752 
0.243813 -9.61163 0.265769 
0.970752 0.265769 -9.79629 
-9.52878 0.0488488 0.962829 
0.0488488 -9.95761 0.363691 
0.962829 0.363691 -9.50009 
-9.51063 0.0477949 0.953325 
0.0477949 -9.68307 0.209101 
0.953325 0.209101 -9.79277 
-8.95769 -0.0921749 -0.311861 
-0.0921749 -9.21467 0.154463 
-0.311861 0.154463 -10.0592 
-8.68905 -0.225671 -0.283347 
-0.225671 -9.7936 -0.000804222 
-0.283347 -0.000804222 -9.74886 
-8.56827 0.121722 -0.699295 
0.121722 -9.15966 0.0723692 
-0.699295 0.0723692 -10.5036 
-9.15139 0.182611 -0.936202 
0.182611 -9.98453 0.210511 
-0.936202 0.210511 -9.09559 
-9.66467 -0.0685061 0.763765 
-0.0685061 -9.72228 -0.432676 
0.763765 -0.432676 -9.89656 
-9.69038 -0.0873862 0.803363 
-0.0873862 -9.74147 -0.479519 
0.803363 -0.479519 -9.85166 
-9.71478 0.0138206 0.817063 
0.0138206 -9.71308 -0.413609 
0.817063 -0.413609 -9.85566 
-9.62874 -0.0334135 0.829571 
-0.0334135 -9.76085 -0.47469 
0.829571 -0.47469 -9.89393 
-9.20791 -0.0449317 -0.0277609 
-0.0449317 -9.2046 0.362332 
-0.0277609 0.362332 -9.88937 
-9.32024 -0.305893 -0.361728 
-0.305893 -9.37584 0.330516 
-0.361728 0.330516 -9.60582 
-9.36839 -0.221612 -0.269016 
-0.221612 -9.09036 0.305402 
-0.269016 0.305402 -9.84314 
-9.0677 -0.362078 -0.164712 
-0.362078 -9.14721 0.577846 
-0.164712 0.577846 -10.087 
-9.72781 0.202278 -0.71011 
0.202278 -9.7078 -0.207852 
-0.71011 -0.207852 -9.64495 
-9.8041 -0.0924201 -0.764329 
-0.0924201 -9.82043 -0.205115 
-0.764329 -0.205115 -9.45604 
-9.81312 -0.00398602 -0.740571 
-0.00398602 -9.81254 -0.139875 
-0.740571 -0.139875 -9.4549 
-9.82321 0.0750607 -0.669636 
0.0750607 -9.82946 -0.212598 
-0.669636 -0.212598 -9.42789 
-8.17383 0.54835 -0.267528 
0.54835 -10.3581 4.24018 
-0.267528 4.24018 -2.43497 
-7.25802 0.238301 -1.15127 
0.238301 -8.06692 5.44844 
-1.15127 5.44844 -5.64198 
-11.8309 -2.09519 1.47675 
-2.09519 -3.47811 4.35151 
1.47675 4.35151 -5.65792 
-7.10195 -1.80349 1.83232 
-1.80349 -7.88998 7.78381 
1.83232 7.78381 -5.97499 
-8.98124 -0.177973 -0.538343 
-0.177973 -9.46673 0.22573 
-0.538343 0.22573 -9.56099 
-8.91341 -0.193322 -0.796606 
-0.193322 -9.32941 0.241853 
-0.796606 0.241853 -9.76614 
-8.84571 -0.285284 -0.810972 
-0.285284 -9.32371 0.194935 
-0.810972 0.194935 -9.83953 
-9.1804 -0.133449 -0.863763 
-0.133449 -9.20962 0.287198 
-0.863763 0.287198 -9.61893 
1.14857 0.330008 -2.09131 
0.330008 -4.547 1.13361 
-2.09131 1.13361 -12.3584 
-11.1559 -1.70461 -1.80791 
-1.70461 -13.9975 -4.16435 
-1.80791 -4.16435 9.39651 
-9.79142 -3.90014 -0.632967 
-3.90014 -8.72473 -4.93197 
-0.632967 -4.93197 2.75927 
-8.78926 1.72706 -4.86948 
1.72706 -2.41832 -8.29832 
-4.86948 -8.29832 -4.5493 
-9.69226 0.0727652 0.867757 
0.0727652 -9.74572 0.241208 
0.867757 0.241208 -9.87735 
-9.67945 0.0596445 0.832568 
0.0596445 -9.76171 0.23123 
0.832568 0.23123 -9.87417 
-9.64715 -0.0143627 0.887673 
-0.0143627 -9.79348 0.209103 
0.887673 0.209103 -9.8747 
-9.71647 0.117152 0.784025 
0.117152 -9.76692 0.24817 
0.784025 0.24817 -9.83194 
-10.4583 -0.103841 -0.0324005 
-0.103841 -10.2331 0.208478 
-0.0324005 0.208478 -10.9362 
-10.5959 -0.101562 -0.126024 
-0.101562 -10.0593 -0.0285582 
-0.126024 -0.0285582 -10.9723 
-10.7619 -0.488051 0.145915 
-0.488051 -9.64453 0.515529 
0.145915 0.515529 -11.2212 
-10.529 -0.200989 -0.0817647 
-0.200989 -10.0983 0.106301 
-0.0817647 0.106301 -11.0003 
-9.16901 0.167571 -0.597748 
0.167571 -9.41031 -0.556693 
-0.597748 -0.556693 -9.78098 
-9.16443 0.2049 -0.557416 
0.2049 -9.32438 -0.649722 
-0.557416 -0.649722 -9.8715 
-9.39334 0.204498 -0.599977 
0.204498 -9.22138 -0.453806 
-0.599977 -0.453806 -9.74558 
-9.37965 0.208356 -0.626011 
0.208356 -9.21601 -0.522676 
-0.626011 -0.522676 -9.76465 
-10.0982 0.283861 0.565743 
0.283861 -9.311 0.355641 
0.565743 0.355641 -9.80683 
-9.6362 -0.0054506 0.876283 
-0.0054506 -9.91713 0.0961002 
0.876283 0.0961002 -9.66265 
-9.67761 -0.0855618 0.754278 
-0.0855618 -9.99353 0.297922 
0.754278 0.297922 -9.54484 
-10.1049 0.102194 1.0979 
0.102194 -9.67339 -0.145744 
1.0979 -0.145744 -9.43774 
-9.91191 0.098532 -0.0612433 
0.098532 -9.0252 1.15638 
-0.0612433 1.15638 -9.53494 
-9.51832 -0.112044 -0.110891 
-0.112044 -9.0694 1.02741 
-0.110891 1.02741 -9.88433 
-9.82964 0.0262247 -0.0895336 
0.0262247 -9.29877 1.15179 
-0.0895336 1.15179 -9.34365 
-9.67038 -0.340656 -0.350256 
-0.340656 -8.98238 1.59215 
-0.350256 1.59215 -9.81929 
-9.39153 0.159815 0.363897 
0.159815 -9.1162 0.820373 
0.363897 0.820373 -9.72186 
-9.41112 0.166154 0.341723 
0.166154 -9.05939 0.801936 
0.341723 0.801936 -9.75908 
-9.48724 0.24097 0.420627 
0.24097 -9.11198 0.867329 
0.420627 0.867329 -9.63038 
-9.41327 0.202517 0.343904 
0.202517 -9.10173 0.844051 
0.343904 0.844051 -9.71458 
-11.0793 0.923057 0.883818 
0.923057 -6.96607 -1.30535 
0.883818 -1.30535 -9.59087 
-8.94549 0.39796 -0.548112 
0.39796 -8.07996 -0.603319 
-0.548112 -0.603319 -10.6108 
-10.5283 0.625604 -1.2232 
0.625604 -8.3151 -2.91701 
-1.2232 -2.91701 -8.79287 
-9.90379 0.446277 0.175226 
0.446277 -8.62514 -2.3584 
0.175226 -2.3584 -9.10731 
-8.59137 -2.70823 0.950868 
-2.70823 -13.9558 -0.428749 
0.950868 -0.428749 -20.8231 
-0.891048 0.0950047 -1.10671 
0.0950047 -12.5145 -1.47936 
-1.10671 -1.47936 -29.9647 
-6.13249 -1.64788 -0.00331714 
-1.64788 -15.8462 -0.607735 
-0.00331714 -0.607735 -21.3915 
-8.02498 -0.317242 0.158012 
-0.317242 -16.6133 -1.41214 
0.158012 -1.41214 -18.732 
-10.3434 -0.74791 0.222245 
-0.74791 -10.3126 -0.0919502 
0.222245 -0.0919502 -11.1855 
-9.77622 -0.135783 -0.263668 
-0.135783 -10.3151 -0.242861 
-0.263668 -0.242861 -11.7502 
-10.0528 0.0334843 -0.104102 
0.0334843 -10.8349 -0.0935087 
-0.104102 -0.0935087 -10.9539 
-10.0317 -0.662205 0.277714 
-0.662205 -10.9308 -0.40491 
0.277714 -0.40491 -10.8791 
-9.32768 -0.550032 -0.238251 
-0.550032 -10.273 0.569513 
-0.238251 0.569513 -11.6253 
-8.86187 -0.101479 0.0776871 
-0.101479 -10.5688 -0.367897 
0.0776871 -0.367897 -11.7953 
-10.1908 0.500392 0.348047 
0.500392 -10.2089 -0.311348 
0.348047 -0.311348 -10.8262 
-9.92643 -0.613248 0.505344 
-0.613248 -10.9973 0.16046 
0.505344 0.16046 -10.3022 
-9.89284 -0.0778311 -0.314379 
-0.0778311 -9.73566 -0.929702 
-0.314379 -0.929702 -9.69114 
-9.95864 0.237512 -0.36464 
0.237512 -9.69688 -1.08296 
-0.36464 -1.08296 -9.66412 
-9.72284 0.0632721 -0.379131 
0.0632721 -9.72563 -0.77955 
-0.379131 -0.77955 -9.87117 
-9.85751 -0.0366575 -0.260878 
-0.0366575 -9.69332 -0.987936 
-0.260878 -0.987936 -9.76881 
-9.56807 0.00541641 0.860097 
0.00541641 -9.78232 -0.109765 
0.860097 -0.109765 -9.87783 
-9.59888 -0.0156797 0.921283 
-0.0156797 -9.8215 -0.152473 
0.921283 -0.152473 -9.80783 
-9.59291 -0.0162353 0.896737 
-0.0162353 -9.7822 -0.133795 
0.896737 -0.133795 -9.8531 
-9.6848 -0.0431563 0.888902 
-0.0431563 -9.71376 -0.229495 
0.888902 -0.229495 -9.82965 
-9.53259 0.431714 -1.80143 
0.431714 -10.0276 -0.7013 
-1.80143 -0.7013 -9.32907 
-9.69378 -0.188245 -0.834433 
-0.188245 -9.56135 -0.282437 
-0.834433 -0.282437 -9.63414 
-9.45579 -0.083728 -1.23136 
-0.083728 -10.1472 0.0864932 
-1.23136 0.0864932 -9.28625 
-9.7468 0.132791 -1.31864 
0.132791 -9.92523 -0.0488538 
-1.31864 -0.0488538 -9.21724 
-9.32477 -0.555628 -0.507694 
-0.555628 -9.05316 0.73087 
-0.507694 0.73087 -10.2226 
-9.44211 -0.456825 -0.40981 
-0.456825 -9.28385 0.805526 
-0.40981 0.805526 -9.87461 
-9.65316 -0.320397 -0.502234 
-0.320397 -9.1227 0.756166 
-0.502234 0.756166 -9.82472 
-9.33946 -0.607489 -0.406794 
-0.607489 -9.10978 0.654362 
-0.406794 0.654362 -10.1513 
-10.0258 0.0767202 -4.28615 
0.0767202 -7.40223 -3.18647 
-4.28615 -3.18647 -3.15665 
-6.55064 -1.44476 -5.89341 
-1.44476 -8.67921 -1.13191 
-5.89341 -1.13191 -5.35482 
-3.52864 -0.735921 -3.31701 
-0.735921 -10.6108 -3.16378 
-3.31701 -3.16378 -6.44521 
-7.99925 0.799934 -5.09252 
0.799934 -5.98904 0.843639 
-5.09252 0.843639 -6.59638 
-9.81666 -0.0126631 -0.164558 
-0.0126631 -9.73579 0.845408 
-0.164558 0.845408 -9.94813 
-9.80987 0.0116921 -0.17259 
0.0116921 -9.76991 0.908096 
-0.17259 0.908096 -9.9208 
-9.75587 -0.0496242 -0.168383 
-0.0496242 -9.80509 0.699415 
-0.168383 0.699415 -9.93962 
-9.86686 -0.00354734 -0.196569 
-0.00354734 -9.66403 0.851282 
-0.196569 0.851282 -9.96969 
-4.03586 0.206761 0.174012 
0.206761 -3.92229 1.09472 
0.174012 1.09472 0.279489 
-4.43197 0.53749 0.0914548 
0.53749 -4.28522 0.208893 
0.0914548 0.208893 1.03852 
-2.41865 0.0635855 -0.390105 
0.0635855 -2.341 0.156448 
-0.390105 0.156448 -2.919 
-3.30832 -0.274962 -1.68409 
-0.274962 -3.38122 1.14043 
-1.68409 1.14043 -0.989121 
-11.2271 -0.105144 0.116165 
-0.105144 -9.83349 0.790552 
0.116165 0.790552 -12.5688 
-11.5544 0.258506 0.20583 
0.258506 -9.59318 0.143938 
0.20583 0.143938 -12.4818 
-11.9603 0.133226 0.0181193 
0.133226 -8.5145 -0.650996 
0.0181193 -0.650996 -13.1545 
-10.0904 -0.798534 0.21885 
-0.798534 -11.6035 -0.951321 
0.21885 -0.951321 -11.9354 
-12.1741 0.718037 -0.580713 
0.718037 -10.2907 1.08357 
-0.580713 1.08357 -16.352 
-16.5481 -0.680824 1.87518 
-0.680824 -12.8737 2.16165 
1.87518 2.16165 -9.39502 
-12.6243 0.145321 -0.862454 
0.145321 -10.6477 0.377835 
-0.862454 0.377835 -15.5448 
-12.8591 0.326128 1.00208 
0.326128 -11.4652 0.604991 
1.00208 0.604991 -14.4924 
-10.0113 0.0145423 -0.47888 
0.0145423 -9.71179 -0.250939 
-0.47888 -0.250939 -10.2438 
-10.1514 0.0606762 -0.387304 
0.0606762 -10.2208 0.0430584 
-0.387304 0.0430584 -9.59474 
-10.0148 0.0695269 -0.332443 
0.0695269 -9.96597 -0.201715 
-0.332443 -0.201715 -9.98611 
-10.0511 -0.0286906 -0.392124 
-0.0286906 -10.299 -0.174702 
-0.392124 -0.174702 -9.61672 
-9.62378 0.051517 -0.320703 
0.051517 -9.61553 -0.921811 
-0.320703 -0.921811 -9.82243 
-9.72383 0.0377216 -0.20215 
0.0377216 -9.53777 -0.697117 
-0.20215 -0.697117 -9.80013 
-9.74087 0.0759411 -0.274895 
0.0759411 -9.45628 -0.829327 
-0.274895 -0.829327 -9.86459 
-9.61865 0.103912 -0.326084 
0.103912 -9.62564 -0.843475 
-0.326084 -0.843475 -9.81744 
-10.0721 0.0227739 -0.559586 
0.0227739 -10.1247 -0.359226 
-0.559586 -0.359226 -9.83076 
-10.1762 0.0383524 -0.677679 
0.0383524 -10.1437 -0.373425 
-0.677679 -0.373425 -9.7078 
-9.69058 -0.0068013 -0.415053 
-0.0068013 -9.95978 -0.261379 
-0.415053 -0.261379 -10.3773 
-10.2264 -0.0254527 -0.501928 
-0.0254527 -10.0927 -0.442873 
-0.501928 -0.442873 -9.70851 
-9.47305 0.127961 -0.61046 
0.127961 -9.62077 -0.472512 
-0.61046 -0.472512 -9.78155 
-9.45076 0.143921 -0.763287 
0.143921 -9.63632 -0.43971 
-0.763287 -0.43971 -9.78829 
-9.47646 0.206103 -0.625275 
0.206103 -9.57583 -0.500119 
-0.625275 -0.500119 -9.82308 
-9.52505 0.0277063 -0.812518 
0.0277063 -9.49296 -0.531803 
-0.812518 -0.531803 -9.85736 
-7.0348 0.713488 -1.65171 
0.713488 -3.77961 0.755378 
-1.65171 0.755378 0.165911 
-4.51597 0.24913 -1.57228 
0.24913 -2.32507 -0.72699 
-1.57228 -0.72699 -3.80746 
-3.95166 0.0545506 -1.82565 
0.0545506 -4.59362 0.287636 
-1.82565 0.287636 -2.10323 
-5.3712 -0.126104 -2.74695 
-0.126104 -3.08528 -1.4047 
-2.74695 -1.4047 -2.19203 
-7.96174 1.66117 0.0297667 
1.66117 -9.54349 0.0389618 
0.0297667 0.0389618 -11.6301 
-7.4236 1.79642 1.23969 
1.79642 -9.72721 0.568 
1.23969 0.568 -11.9845 
-7.73677 1.47991 0.784452 
1.47991 -10.1721 0.614833 
0.784452 0.614833 -11.2265 
-9.59283 0.966342 1.57894 
0.966342 -11.4327 2.49851 
1.57894 2.49851 -8.10978 
-9.78226 0.134286 -0.065362 
0.134286 -9.12324 -0.458679 
-0.065362 -0.458679 -10.114 
-9.46039 -0.176308 0.0573488 
-0.176308 -9.95913 -0.000968218 
0.0573488 -0.000968218 -9.60002 
-9.94968 0.116247 0.0745243 
0.116247 -9.48009 -0.121658 
0.0745243 -0.121658 -9.58977 
-9.50316 0.27888 -0.141938 
0.27888 -9.42276 -0.104787 
-0.141938 -0.104787 -10.0936 
-8.03684 -0.398597 -2.62492 
-0.398597 -8.47552 -1.56312 
-2.62492 -1.56312 -5.36342 
-7.23328 -0.0414156 -2.71339 
-0.0414156 -7.95857 -1.10239 
-2.71339 -1.10239 -6.68393 
-7.90132 0.285232 -3.00375 
0.285232 -8.82311 -1.96896 
-3.00375 -1.96896 -5.15136 
-7.90297 -0.320962 -2.24243 
-0.320962 -8.30491 -1.09489 
-2.24243 -1.09489 -5.6679 
-9.64343 -0.113438 -0.147457 
-0.113438 -10.4473 0.0588208 
-0.147457 0.0588208 -11.0146 
-9.87848 -0.118748 0.051319 
-0.118748 -10.3533 0.0602779 
0.051319 0.0602779 -10.8735 
-10.1502 -0.143428 -0.0450727 
-0.143428 -10.1407 0.267164 
-0.0450727 0.267164 -10.8144 
-9.91381 -0.149655 0.0486575 
-0.149655 -10.3116 0.0378492 
0.0486575 0.0378492 -10.8799 
-9.38707 0.0815388 -0.0799309 
0.0815388 -9.63527 -0.325844 
-0.0799309 -0.325844 -10.2443 
-9.75711 -0.4117 0.149412 
-0.4117 -9.44932 0.157942 
0.149412 0.157942 -10.0602 
-9.82152 -0.0308564 0.139398 
-0.0308564 -9.22143 -0.278635 
0.139398 -0.278635 -10.2237 
-9.74266 -0.125832 0.0480998 
-0.125832 -9.45618 -0.0159253 
0.0480998 -0.0159253 -10.0678 
-9.05901 0.0368307 0.307453 
0.0368307 -9.507 0.00190598 
0.307453 0.00190598 -10.0083 
-8.59026 0.194655 0.531643 
0.194655 -9.35028 -0.401659 
0.531643 -0.401659 -10.6338 
-9.0511 -0.0491721 0.174017 
-0.0491721 -9.67283 0.0252111 
0.174017 0.0252111 -9.85037 
-9.27867 0.141722 0.73141 
0.141722 -9.72794 0.387821 
0.73141 0.387821 -9.56769 
-8.75426 1.39321 -0.301428 
1.39321 -8.52171 -0.638479 
-0.301428 -0.638479 -12.3886 
-8.94917 1.7217 -1.42174 
1.7217 -8.84805 -1.48688 
-1.42174 -1.48688 -11.8674 
-11.7298 0.768152 -1.09473 
0.768152 -9.82957 -0.243047 
-1.09473 -0.243047 -8.10523 
-9.03984 1.43286 -1.02633 
1.43286 -8.82544 -1.52618 
-1.02633 -1.52618 -11.7993 
-10.0699 0.281091 -0.174367 
0.281091 -8.66284 -1.26942 
-0.174367 -1.26942 -10.5462 
-9.65732 0.0582752 0.030509 
0.0582752 -9.09677 -0.632934 
0.030509 -0.632934 -10.5249 
-10.0365 -0.105433 0.111533 
-0.105433 -8.67535 -0.945148 
0.111533 -0.945148 -10.5672 
-10.0051 -0.018115 0.11713 
-0.018115 -8.66594 -0.810526 
0.11713 -0.810526 -10.6079 
-4.59084 0.102544 -1.13039 
0.102544 -2.10875 1.56972 
-1.13039 1.56972 0.1549 
-3.24312 -0.715374 -0.738576 
-0.715374 -3.59296 1.92052 
-0.738576 1.92052 0.29139 
-1.30104 0.783496 0.182334 
0.783496 -2.79721 2.48455 
0.182334 2.48455 -2.44643 
-2.94068 -0.763481 0.277227 
-0.763481 -2.77926 2.21059 
0.277227 2.21059 -0.824741 
-9.62324 -0.120769 0.291912 
-0.120769 -8.48537 -1.52064 
0.291912 -1.52064 -10.0266 
-9.68944 -0.197151 0.161644 
-0.197151 -8.46367 -1.57994 
0.161644 -1.57994 -9.98214 
-9.724 -0.0480255 0.0903073 
-0.0480255 -8.51784 -1.45319 
0.0903073 -1.45319 -9.89342 
-9.73058 -0.184106 0.296302 
-0.184106 -8.5987 -1.38212 
0.296302 -1.38212 -9.80597 
-8.97586 0.318591 -1.08867 
0.318591 -9.67688 -0.296193 
-1.08867 -0.296193 -10.1255 
-8.92689 0.397512 -1.10703 
0.397512 -9.70698 -0.483623 
-1.10703 -0.483623 -10.1444 
-8.83368 0.360191 -0.93015 
0.360191 -9.82213 -0.169019 
-0.93015 -0.169019 -10.1225 
-9.07788 0.296987 -0.546055 
0.296987 -9.41877 -0.176001 
-0.546055 -0.176001 -10.2816 
-9.37312 -0.0689764 0.491496 
-0.0689764 -9.35926 -0.515953 
0.491496 -0.515953 -9.59472 
-9.53585 0.243642 0.456539 
0.243642 -9.42419 -0.504967 
0.456539 -0.504967 -9.36706 
-9.25708 -0.338113 0.372366 
-0.338113 -9.31259 -0.445107 
0.372366 -0.445107 -9.75743 
-9.31445 -0.0799746 0.625094 
-0.0799746 -9.32429 -0.698505 
0.625094 -0.698505 -9.68836 
-11.5598 0.278706 0.0192961 
0.278706 -9.52767 -0.155224 
0.0192961 -0.155224 -10.7943 
-10.5679 0.450003 0.596752 
0.450003 -9.58748 -0.199077 
0.596752 -0.199077 -11.7264 
-8.93799 0.470511 -0.378349 
0.470511 -10.7406 -0.110189 
-0.378349 -0.110189 -12.2032 
-10.3923 0.884896 0.464152 
0.884896 -9.98539 -0.0139063 
0.464152 -0.0139063 -11.5041 
-9.72792 -0.126863 0.515843 
-0.126863 -9.59126 -0.734188 
0.515843 -0.734188 -9.82315 
-9.673 -0.133187 0.458568 
-0.133187 -9.63823 -0.599293 
0.458568 -0.599293 -9.8311 
-9.68006 -0.1287 0.529396 
-0.1287 -9.62177 -0.738086 
0.529396 -0.738086 -9.8405 
-9.70043 -0.131351 0.437535 
-0.131351 -9.60797 -0.680003 
0.437535 -0.680003 -9.83393 
-10.3599 3.29807 -2.45928 
3.29807 -5.36261 -6.29851 
-2.45928 -6.29851 -2.08681 
-7.46959 -0.188291 3.76507 
-0.188291 -5.38015 -2.2186 
3.76507 -2.2186 -4.95954 
-6.49391 0.617141 1.87819 
0.617141 -6.82942 -1.47551 
1.87819 -1.47551 -4.48595 
-8.21264 -0.0370961 -1.56178 
-0.0370961 -5.22589 -4.06056 
-1.56178 -4.06056 -4.37075 
-9.58822 0.512322 0.430803 
0.512322 -9.27997 -0.249792 
0.430803 -0.249792 -10.0783 
-9.74168 0.373217 0.00131987 
0.373217 -9.11442 0.654056 
0.00131987 0.654056 -10.0904 
-9.63742 -0.0380534 -0.314479 
-0.0380534 -9.38134 0.298565 
-0.314479 0.298565 -9.92773 
-9.18883 0.0243883 1.08107 
0.0243883 -9.70322 0.434369 
1.08107 0.434369 -10.0544 
-9.77976 0.111111 0.688188 
0.111111 -9.89922 0.545151 
0.688188 0.545151 -9.99013 
-9.70672 0.156073 0.719905 
0.156073 -9.92244 0.575552 
0.719905 0.575552 -10.04 
-9.77637 0.0312913 0.723902 
0.0312913 -9.846 0.56214 
0.723902 0.56214 -10.0467 
-9.82889 -0.0177584 0.800175 
-0.0177584 -9.87731 0.60711 
0.800175 0.60711 -9.96291 
-9.09853 0.866142 -0.71114 
0.866142 -9.67635 -0.676987 
-0.71114 -0.676987 -10.845 
-8.97305 0.995608 -1.6631 
0.995608 -9.61617 -1.04031 
-1.6631 -1.04031 -11.0306 
-9.15478 1.11034 -1.18789 
1.11034 -9.8375 -0.712685 
-1.18789 -0.712685 -10.6276 
-9.08383 0.960919 -1.50109 
0.960919 -10.0199 -1.07321 
-1.50109 -1.07321 -10.5161 
-8.83622 -0.0981422 -0.354641 
-0.0981422 -9.47556 0.0390481 
-0.354641 0.0390481 -10.1823 
-9.0125 0.0131487 -0.886844 
0.0131487 -9.62158 0.02792 
-0.886844 0.02792 -9.85998 
-7.98708 0.0217519 -0.770035 
0.0217519 -9.93651 -0.0395518 
-0.770035 -0.0395518 -10.5705 
-9.14472 0.343278 -0.864573 
0.343278 -9.48505 -0.0124976 
-0.864573 -0.0124976 -9.8643 
-9.35164 -0.00540532 0.0141578 
-0.00540532 -8.87965 -0.454927 
0.0141578 -0.454927 -9.973 
-9.42106 -0.0660361 0.114228 
-0.0660361 -9.02402 -0.565484 
0.114228 -0.565484 -9.7592 
-9.31861 -0.00636178 0.00865569 
-0.00636178 -8.96058 -0.540755 
0.00865569 -0.540755 -9.92509 
-9.48122 0.00566186 -0.0347724 
0.00566186 -8.72269 -0.581333 
-0.0347724 -0.581333 -10.0004 
-9.8119 -0.0187628 -0.285808 
-0.0187628 -9.73019 0.837207 
-0.285808 0.837207 -10.0116 
-9.76361 0.0250079 -0.277194 
0.0250079 -9.78923 0.800877 
-0.277194 0.800877 -10.0008 
-9.88284 -0.0447502 -0.302565 
-0.0447502 -9.81193 0.820146 
-0.302565 0.820146 -9.8589 
-9.92118 -0.0188884 -0.253039 
-0.0188884 -9.77688 0.83834 
-0.253039 0.83834 -9.85561 
-8.03246 -0.227543 2.54128 
-0.227543 -9.644 -0.723382 
2.54128 -0.723382 -9.0392 
-7.87997 -0.953817 2.45074 
-0.953817 -9.71577 -0.904551 
2.45074 -0.904551 -9.11992 
-8.10221 -0.546366 2.00659 
-0.546366 -9.3989 -0.711857 
2.00659 -0.711857 -9.21455 
-7.67481 0.0607988 2.46579 
0.0607988 -9.86771 -0.468554 
2.46579 -0.468554 -9.17314 
-8.77889 -0.466562 -2.06074 
-0.466562 -10.0676 -0.181152 
-2.06074 -0.181152 -9.59189 
-9.13818 -0.324938 -1.52493 
-0.324938 -9.4922 1.03426 
-1.52493 1.03426 -9.80803 
-9.11766 -0.209407 -0.666718 
-0.209407 -9.60658 -0.25842 
-0.666718 -0.25842 -9.71417 
-8.75265 -0.262129 -1.06392 
-0.262129 -9.7527 0.929849 
-1.06392 0.929849 -9.93306 
-9.17358 -0.0676391 -1.25255 
-0.0676391 -9.93284 0.0936285 
-1.25255 0.0936285 -9.83745 
-9.26179 -0.10051 -1.15258 
-0.10051 -9.81756 0.104308 
-1.15258 0.104308 -9.86453 
-9.14065 -0.164558 -1.1901 
-0.164558 -9.95608 0.155204 
-1.1901 0.155204 -9.84714 
-9.27913 -0.0228597 -1.19527 
-0.0228597 -9.72648 0.174092 
-1.19527 0.174092 -9.93825 
-9.94819 0.118704 0.222162 
0.118704 -9.72843 -0.24109 
0.222162 -0.24109 -9.32758 
-9.7807 -0.0848886 0.413604 
-0.0848886 -10.0389 -0.215117 
0.413604 -0.215117 -9.18456 
-9.30291 -0.282016 0.288363 
-0.282016 -9.95194 -0.381716 
0.288363 -0.381716 -9.74935 
-9.90443 0.0480188 0.362227 
0.0480188 -9.71044 -0.247375 
0.362227 -0.247375 -9.38933 
-9.26558 0.0981496 0.0221916 
0.0981496 -9.30641 -0.777335 
0.0221916 -0.777335 -9.66864 
-9.4214 0.0337076 -0.173959 
0.0337076 -9.09337 -0.820738 
-0.173959 -0.820738 -9.72586 
-9.4702 0.157791 -0.247336 
0.157791 -9.03172 -0.589209 
-0.247336 -0.589209 -9.7387 
-9.42412 0.057428 -0.208054 
0.057428 -9.13713 -0.681395 
-0.208054 -0.681395 -9.67938 
-9.79371 -0.0472415 0.534963 
-0.0472415 -9.75448 -0.698783 
0.534963 -0.698783 -9.91556 
-9.75948 -0.0749421 0.720726 
-0.0749421 -9.87362 -0.685782 
0.720726 -0.685782 -9.83065 
-9.87287 -0.100171 0.643128 
-0.100171 -9.74653 -0.774902 
0.643128 -0.774902 -9.84435 
-9.75721 -0.104699 0.666145 
-0.104699 -9.83228 -0.682913 
0.666145 -0.682913 -9.87426 
-9.29599 -0.28428 0.871489 
-0.28428 -9.31504 -0.784848 
0.871489 -0.784848 -9.83943 
-9.29388 -0.26591 0.671665 
-0.26591 -9.33239 -0.605977 
0.671665 -0.605977 -9.82419 
-9.29977 -0.267437 0.920226 
-0.267437 -9.31096 -0.662697 
0.920226 -0.662697 -9.83973 
-9.24348 -0.215899 0.734267 
-0.215899 -9.41562 -0.610154 
0.734267 -0.610154 -9.79136 
-9.7173 -0.022458 -0.378886 
-0.022458 -9.48153 -0.0413978 
-0.378886 -0.0413978 -7.45395 
-9.28689 0.0154872 -0.267121 
0.0154872 -9.72265 0.4482 
-0.267121 0.4482 -7.64324 
-9.67353 -0.0677568 -0.422451 
-0.0677568 -9.559 0.289082 
-0.422451 0.289082 -7.42025 
-9.18334 0.0446135 -0.209102 
0.0446135 -10.3612 0.472469 
-0.209102 0.472469 -7.10821 
-9.07562 0.0316177 0.0285802 
0.0316177 -9.86938 0.810291 
0.0285802 0.810291 -9.11218 
-9.49999 0.0248701 0.0735126 
0.0248701 -8.9598 0.489675 
0.0735126 0.489675 -9.5974 
-9.36422 -0.0230943 0.0889002 
-0.0230943 -9.15745 0.684817 
0.0889002 0.684817 -9.53552 
-9.33813 0.0179639 0.0846979 
0.0179639 -9.12957 0.767382 
0.0846979 0.767382 -9.58949 
-9.50047 -0.341056 -0.63223 
-0.341056 -9.44838 0.965626 
-0.63223 0.965626 -9.92537 
-9.55373 -0.17134 -0.451059 
-0.17134 -9.30837 0.859572 
-0.451059 0.859572 -10.0121 
-9.65969 -0.252916 -0.50879 
-0.252916 -9.33311 0.90868 
-0.50879 0.90868 -9.88143 
-9.69084 -0.245628 -0.494053 
-0.245628 -9.46357 0.976971 
-0.494053 0.976971 -9.71982 
-9.7612 0.00501805 0.123503 
0.00501805 -10.0928 0.167849 
0.123503 0.167849 -9.77852 
-9.5066 0.175962 0.279885 
0.175962 -10.0506 0.172646 
0.279885 0.172646 -10.0753 
-9.27942 0.0361792 0.0258443 
0.0361792 -9.65345 -0.0845878 
0.0258443 -0.0845878 -10.6997 
-9.56414 0.107731 0.29125 
0.107731 -9.96884 0.0676509 
0.29125 0.0676509 -10.0996 
-9.82908 -0.0267528 0.885506 
-0.0267528 -9.93051 -0.0445714 
0.885506 -0.0445714 -9.86563 
-9.85451 0.000442023 0.877866 
0.000442023 -9.86224 -0.054752 
0.877866 -0.054752 -9.90847 
-9.6516 -0.00964256 0.774769 
-0.00964256 -9.82068 -0.0344811 
0.774769 -0.0344811 -10.1529 
-9.70869 -0.0945663 1.00147 
-0.0945663 -9.93164 -0.161098 
1.00147 -0.161098 -9.98489 
-6.76029 -0.337468 0.683967 
-0.337468 -10.7703 -0.177887 
0.683967 -0.177887 -11.9082 
-6.82214 -0.347717 1.41687 
-0.347717 -10.6174 -0.106061 
1.41687 -0.106061 -11.9992 
-9.29035 0.232129 1.85169 
0.232129 -11.3276 -1.57507 
1.85169 -1.57507 -8.8209 
-7.09282 -0.196833 1.07506 
-0.196833 -10.7728 -0.472867 
1.07506 -0.472867 -11.5731 
-9.53801 -0.230915 -0.242829 
-0.230915 -8.92302 -2.61031 
-0.242829 -2.61031 -9.1779 
-10.2461 0.0967657 0.814891 
0.0967657 -8.62554 -2.66221 
0.814891 -2.66221 -8.76732 
-9.93743 -0.984188 0.568767 
-0.984188 -8.27342 -2.4849 
0.568767 -2.4849 -9.42806 
-9.69016 0.879613 -0.339471 
0.879613 -8.44365 -1.32849 
-0.339471 -1.32849 -9.50511 
-9.89429 -0.0405483 -0.810699 
-0.0405483 -9.71558 0.483969 
-0.810699 0.483969 -9.60089 
-9.74457 -0.0447195 -0.912868 
-0.0447195 -9.86677 0.399372 
-0.912868 0.399372 -9.59942 
-9.64054 -0.0947525 -0.759305 
-0.0947525 -9.84396 0.462065 
-0.759305 0.462065 -9.72626 
-9.77116 -0.0873872 -0.859129 
-0.0873872 -9.80789 0.447441 
-0.859129 0.447441 -9.63171 
-8.9737 0.858759 -1.01868 
0.858759 -8.74405 -1.13405 
-1.01868 -1.13405 -9.72579 
-9.17269 0.59292 -0.906212 
0.59292 -8.94385 -1.06623 
-0.906212 -1.06623 -9.32701 
-8.83812 0.790439 -0.9464 
0.790439 -8.84545 -0.994336 
-0.9464 -0.994336 -9.75997 
-8.65542 0.750433 -0.976702 
0.750433 -8.96407 -1.01707 
-0.976702 -1.01707 -9.82404 
-9.47013 -0.102838 -0.711452 
-0.102838 -9.58986 0.367847 
-0.711452 0.367847 -9.83957 
-9.5148 -0.0914187 -0.815088 
-0.0914187 -9.53659 0.374977 
-0.815088 0.374977 -9.84816 
-9.41432 -0.132265 -0.727654 
-0.132265 -9.62903 0.416051 
-0.727654 0.416051 -9.8562 
-9.4768 -0.0554639 -0.838996 
-0.0554639 -9.62972 0.378545 
-0.838996 0.378545 -9.79304 
-9.35113 -0.247061 0.544152 
-0.247061 -9.46293 -0.361684 
0.544152 -0.361684 -9.61063 
-9.43411 0.0952548 0.261289 
0.0952548 -9.34102 -0.720632 
0.261289 -0.720632 -9.64956 
-9.36474 -0.233492 0.484851 
-0.233492 -9.26925 -0.697892 
0.484851 -0.697892 -9.79069 
-9.35697 -0.0960281 0.828006 
-0.0960281 -9.38287 -0.52319 
0.828006 -0.52319 -9.68484 
-9.16183 0.119875 -0.621467 
0.119875 -9.30148 -0.50255 
-0.621467 -0.50255 -9.6774 
-9.14424 0.186771 -0.60775 
0.186771 -9.20316 -0.540438 
-0.60775 -0.540438 -9.7933 
-9.15071 0.19275 -0.591438 
0.19275 -9.30103 -0.452758 
-0.591438 -0.452758 -9.68896 
-9.26038 0.221216 -0.521353 
0.221216 -9.29562 -0.353129 
-0.521353 -0.353129 -9.5847 
-9.31966 -0.437989 1.44714 
-0.437989 -9.00302 -2.26127 
1.44714 -2.26127 -7.07657 
-9.39745 -0.497576 0.607756 
-0.497576 -9.00485 -1.6618 
0.607756 -1.6618 -6.99695 
-8.23298 -0.282909 1.10052 
-0.282909 -8.10426 -1.67681 
1.10052 -1.67681 -9.06201 
-9.58229 -0.446694 0.705185 
-0.446694 -8.35887 -1.88443 
0.705185 -1.88443 -7.4581 
-9.73957 -0.0300306 -0.113172 
-0.0300306 -9.22795 1.09792 
-0.113172 1.09792 -9.68889 
-9.6997 0.0389221 -0.349994 
0.0389221 -9.26635 1.13825 
-0.349994 1.13825 -9.69036 
-9.83413 0.109196 -0.101729 
0.109196 -9.25465 1.02675 
-0.101729 1.02675 -9.56764 
-9.57522 -0.192465 -0.0799635 
-0.192465 -9.21709 1.05099 
-0.0799635 1.05099 -9.8641 
-9.8972 0.106114 -0.636399 
0.106114 -9.93105 0.358772 
-0.636399 0.358772 -9.50348 
-9.85163 -0.267036 -0.561757 
-0.267036 -10.1511 0.424395 
-0.561757 0.424395 -9.32896 
-9.7553 -0.14483 -0.596186 
-0.14483 -9.96123 0.325944 
-0.596186 0.325944 -9.61519 
-10.0007 0.1948 -0.837027 
0.1948 -9.90617 -0.023346 
-0.837027 -0.023346 -9.42491 
-9.54309 -0.104583 0.914174 
-0.104583 -9.72042 -0.327136 
0.914174 -0.327136 -9.77818 
-9.50488 -0.13364 0.896 
-0.13364 -9.83082 -0.518074 
0.896 -0.518074 -9.70599 
-9.62795 -0.14199 0.898213 
-0.14199 -9.66774 -0.356014 
0.898213 -0.356014 -9.746 
-9.57138 -0.0875231 0.94004 
-0.0875231 -9.70404 -0.340385 
0.94004 -0.340385 -9.76627 
-7.24644 -0.135585 2.24492 
-0.135585 -9.72373 0.292704 
2.24492 0.292704 -10.6084 
-7.39894 -0.458263 1.90209 
-0.458263 -9.61485 0.0683815 
1.90209 0.0683815 -10.5648 
-7.76048 -0.102703 2.23556 
-0.102703 -9.99384 -0.317594 
2.23556 -0.317594 -9.82427 
-7.79529 0.501115 1.63774 
0.501115 -9.9384 -0.0558186 
1.63774 -0.0558186 -9.8449 
-9.44349 -0.0793471 0.562936 
-0.0793471 -9.39053 -0.0969957 
0.562936 -0.0969957 -9.55121 
-9.21507 -0.0578693 0.614533 
-0.0578693 -9.42591 -0.0989964 
0.614533 -0.0989964 -9.74425 
-9.31628 -0.0538387 0.648995 
-0.0538387 -9.41921 -0.204829 
0.648995 -0.204829 -9.64974 
-9.32546 -0.0758423 0.691279 
-0.0758423 -9.43622 -0.127547 
0.691279 -0.127547 -9.62355 
-9.84142 0.0498434 -0.957889 
0.0498434 -9.91571 -0.209364 
-0.957889 -0.209364 -10.0503 
-9.90629 0.0253509 -0.862082 
0.0253509 -9.94131 -0.201649 
-0.862082 -0.201649 -9.95986 
-9.91381 -0.00444772 -0.845163 
-0.00444772 -9.9862 -0.177671 
-0.845163 -0.177671 -9.90745 
-9.76985 0.031023 -0.849309 
0.031023 -10.005 -0.182504 
-0.849309 -0.182504 -10.0326 
-8.88942 -0.0331122 -1.8459 
-0.0331122 -10.1926 0.645142 
-1.8459 0.645142 -9.00687 
-9.41548 -0.520126 -1.16407 
-0.520126 -9.5119 0.582462 
-1.16407 0.582462 -9.16148 
-8.80553 0.149812 -0.769247 
0.149812 -9.72505 0.341334 
-0.769247 0.341334 -9.55828 
-9.36551 -0.464113 -1.53632 
-0.464113 -9.31049 0.666444 
-1.53632 0.666444 -9.41286 
-8.53066 -1.04466 0.661471 
-1.04466 -9.98814 -0.345311 
0.661471 -0.345311 -10.7362 
-9.19839 -0.467145 0.582843 
-0.467145 -9.305 -0.452179 
0.582843 -0.452179 -10.7516 
-8.81748 -0.778213 0.885701 
-0.778213 -9.49021 0.0422068 
0.885701 0.0422068 -10.9473 
-8.72495 -0.771066 0.759821 
-0.771066 -9.7477 -0.198906 
0.759821 -0.198906 -10.7823 
-9.55362 -0.0370935 0.816958 
-0.0370935 -9.64899 -0.37219 
0.816958 -0.37219 -9.17707 
-9.63581 -0.0120311 0.517277 
-0.0120311 -9.73165 -0.359525 
0.517277 -0.359525 -9.01222 
-9.95494 -0.138158 0.878563 
-0.138158 -9.9022 -0.510317 
0.878563 -0.510317 -8.52254 
-9.65698 -0.0206015 0.569468 
-0.0206015 -9.73024 -0.269786 
0.569468 -0.269786 -8.99246 
-9.30625 0.0167414 0.52147 
0.0167414 -9.62591 0.18206 
0.52147 0.18206 -9.47359 
-9.15988 0.215999 0.72048 
0.215999 -9.47934 0.343345 
0.72048 0.343345 -9.76653 
-9.0643 0.162488 0.50022 
0.162488 -9.23869 0.228965 
0.50022 0.228965 -10.1028 
-9.18658 0.128869 0.682889 
0.128869 -9.38171 0.236784 
0.682889 0.236784 -9.83747 
-9.28474 0.230143 0.822464 
0.230143 -8.99872 1.09164 
0.822464 1.09164 -8.17417 
-9.21567 0.581368 1.00918 
0.581368 -8.86793 1.5227 
1.00918 1.5227 -8.37403 
-9.39752 0.485739 0.965183 
0.485739 -8.6949 1.48492 
0.965183 1.48492 -8.3652 
-9.79612 0.302723 0.877999 
0.302723 -8.80743 1.78389 
0.877999 1.78389 -7.85408 
-9.15856 0.208399 -0.370302 
0.208399 -9.34812 -0.195005 
-0.370302 -0.195005 -9.74245 
-9.89538 -0.354024 -0.545584 
-0.354024 -9.12906 -0.314911 
-0.545584 -0.314911 -9.22469 
-8.83759 0.240162 -0.252599 
0.240162 -9.56372 -0.141333 
-0.252599 -0.141333 -9.84782 
-8.99867 0.264567 -0.844544 
0.264567 -9.34268 -0.264108 
-0.844544 -0.264108 -9.90778 
-9.83306 -0.0230539 -0.376365 
-0.0230539 -9.65917 0.838333 
-0.376365 0.838333 -9.87119 
-9.83588 0.0281388 -0.385251 
0.0281388 -9.57236 0.804716 
-0.385251 0.804716 -9.95517 
-9.72767 -0.0796973 -0.360819 
-0.0796973 -9.72713 0.783074 
-0.360819 0.783074 -9.90861 
-9.73574 -0.181875 -0.371071 
-0.181875 -9.76253 0.941884 
-0.371071 0.941884 -9.86515 
-9.41967 -0.0642321 -0.0430814 
-0.0642321 -9.1539 0.652005 
-0.0430814 0.652005 -9.71052 
-9.44026 -0.0922396 -0.113236 
-0.0922396 -9.19351 0.577335 
-0.113236 0.577335 -9.65032 
-9.41362 0.0245436 -0.1454 
0.0245436 -9.08748 0.792524 
-0.1454 0.792524 -9.783 
-9.48952 0.0166297 -0.0061415 
0.0166297 -9.22346 0.857171 
-0.0061415 0.857171 -9.57112 
-9.20819 -1.02316 -0.141603 
-1.02316 -11.0599 0.0657907 
-0.141603 0.0657907 -13.3998 
-11.8886 -1.32334 0.332571 
-1.32334 -10.3387 1.17391 
0.332571 1.17391 -11.4406 
-8.02468 -1.05819 -2.04749 
-1.05819 -10.5022 -1.01074 
-2.04749 -1.01074 -15.141 
-9.04657 0.260015 -0.210781 
0.260015 -10.8564 -1.34336 
-0.210781 -1.34336 -13.765 
-9.46914 0.680403 -0.253875 
0.680403 -6.78606 3.58828 
-0.253875 3.58828 -8.90074 
-9.03571 -0.793783 -0.0150186 
-0.793783 -7.25125 2.91592 
-0.0150186 2.91592 -8.86897 
-9.2081 0.64012 0.488121 
0.64012 -7.53088 2.40032 
0.488121 2.40032 -8.41695 
-9.45478 0.506012 0.103825 
0.506012 -6.83657 3.1225 
0.103825 3.1225 -8.86459 
-9.57556 -0.0995737 -0.0913992 
-0.0995737 -9.63808 -0.180877 
-0.0913992 -0.180877 -8.81296 
-9.71233 0.0854794 -0.0333003 
0.0854794 -9.72444 -0.370836 
-0.0333003 -0.370836 -8.58982 
-9.73103 0.0621498 0.0175716 
0.0621498 -9.62971 -0.285486 
0.0175716 -0.285486 -8.66585 
-9.59809 0.0198343 0.0319004 
0.0198343 -9.60103 -0.327585 
0.0319004 -0.327585 -8.82747 
-3.65124 0.529422 -0.190169 
0.529422 -3.89592 -0.617699 
-0.190169 -0.617699 1.00191 
-3.37336 0.405313 -1.4079 
0.405313 -3.65674 -0.0364237 
-1.4079 -0.0364237 0.484855 
-0.731334 -0.0113449 -2.62504 
-0.0113449 -0.64835 1.00781 
-2.62504 1.00781 -5.16556 
-3.22026 1.27682 -1.20725 
1.27682 -3.36217 1.53065 
-1.20725 1.53065 0.0371815 
-10.4087 -2.13742 0.748992 
-2.13742 -8.05229 -1.22664 
0.748992 -1.22664 -12.1615 
-10.279 -1.85462 0.526238 
-1.85462 -9.17348 -1.45967 
0.526238 -1.45967 -11.17 
-9.66215 -2.66773 1.27602 
-2.66773 -9.08605 -1.41368 
1.27602 -1.41368 -11.8743 
-11.5806 -0.350149 0.763425 
-0.350149 -9.69251 -0.880207 
0.763425 -0.880207 -9.3494 
-9.20977 -0.222546 0.0877165 
-0.222546 -9.27201 -0.255338 
0.0877165 -0.255338 -9.85931 
-9.55654 -0.00607969 0.214606 
-0.00607969 -9.36885 -0.486734 
0.214606 -0.486734 -9.4157 
-9.48917 0.265844 0.29001 
0.265844 -9.44139 -0.540321 
0.29001 -0.540321 -9.41052 
-9.41646 -0.168472 0.368099 
-0.168472 -9.19028 -0.310951 
0.368099 -0.310951 -9.73435 
-9.75644 -0.0569001 0.152113 
-0.0569001 -10.1366 0.128738 
0.152113 0.128738 -9.86865 
-9.81151 0.0391773 0.0800402 
0.0391773 -9.84839 0.142502 
0.0800402 0.142502 -10.1018 
-10.1436 0.21343 -0.0245745 
0.21343 -9.26294 -0.045365 
-0.0245745 -0.045365 -10.3552 
-9.83084 0.231504 -0.0111588 
0.231504 -9.69877 0.578914 
-0.0111588 0.578914 -10.2321 
-9.29205 -0.429067 0.0842035 
-0.429067 -9.12987 0.134454 
0.0842035 0.134454 -10.4533 
-8.66411 0.14487 -0.390748 
0.14487 -9.295 -0.255681 
-0.390748 -0.255681 -10.9161 
-9.80895 0.50277 0.0702529 
0.50277 -9.54133 0.131703 
0.0702529 0.131703 -9.52492 
-9.33126 0.302815 -0.262988 
0.302815 -9.90832 -0.613292 
-0.262988 -0.613292 -9.63562 
-9.17784 -0.0830317 -0.614491 
-0.0830317 -9.61081 0.167045 
-0.614491 0.167045 -9.65417 
-9.09811 -0.10919 -0.845239 
-0.10919 -9.43756 0.0347542 
-0.845239 0.0347542 -9.90716 
-9.25385 -0.0253351 -0.67604 
-0.0253351 -9.426 0.102134 
-0.67604 0.102134 -9.76297 
-9.3136 -0.0746923 -0.854584 
-0.0746923 -9.52417 0.347878 
-0.854584 0.347878 -9.60506 
-9.04168 -0.0619198 -0.337831 
-0.0619198 -9.50378 0.134285 
-0.337831 0.134285 -9.79989 
-9.22027 0.147717 -0.252838 
0.147717 -9.32572 -0.217737 
-0.252838 -0.217737 -9.79936 
-8.97245 -0.248394 -0.431946 
-0.248394 -9.3756 -0.0236673 
-0.431946 -0.0236673 -9.9973 
-9.21279 -0.183202 -0.378195 
-0.183202 -9.4951 0.25056 
-0.378195 0.25056 -9.63745 
-8.8827 -0.722909 -0.333216 
-0.722909 -9.31041 0.303872 
-0.333216 0.303872 -10.4095 
-8.99256 -0.221228 -0.419288 
-0.221228 -9.55191 0.200647 
-0.419288 0.200647 -10.0582 
-9.38408 -0.368758 -0.304434 
-0.368758 -9.18178 0.13312 
-0.304434 0.13312 -10.0368 
-8.76136 0.215551 -0.840721 
0.215551 -9.85222 0.301269 
-0.840721 0.301269 -9.98905 
-10.0634 0.0321896 0.23988 
0.0321896 -9.9525 0.0277136 
0.23988 0.0277136 -10.2531 
-9.99002 0.0480402 -0.109182 
0.0480402 -10.1378 0.02017 
-0.109182 0.02017 -10.1412 
-10.0131 0.100589 -0.110155 
0.100589 -10.0755 0.00152889 
-0.110155 0.00152889 -10.1804 
-9.85338 0.0742395 -0.0310611 
0.0742395 -10.1427 0.0541726 
-0.0310611 0.0541726 -10.2729 
-9.26197 0.0239242 -0.222246 
0.0239242 -9.33044 -0.131087 
-0.222246 -0.131087 -10.0249 
-8.86049 0.346572 -0.630558 
0.346572 -8.84372 -0.078422 
-0.630558 -0.078422 -10.9131 
-9.54829 0.39454 -0.145895 
0.39454 -9.30015 -0.238333 
-0.145895 -0.238333 -9.76883 
-9.80707 0.284376 -0.375553 
0.284376 -9.44852 -1.07207 
-0.375553 -1.07207 -9.36168 
-9.89986 0.0446479 0.730216 
0.0446479 -9.9067 0.466014 
0.730216 0.466014 -9.83707 
-9.73146 0.0936254 0.754362 
0.0936254 -9.83876 0.559396 
0.754362 0.559396 -10.0734 
-9.82566 0.0276732 0.703933 
0.0276732 -9.83948 0.50062 
0.703933 0.50062 -9.9785 
-9.87203 0.0627517 0.745481 
0.0627517 -9.7839 0.414692 
0.745481 0.414692 -9.9877 
-9.3536 -0.0441621 0.258464 
-0.0441621 -9.39249 -0.172894 
0.258464 -0.172894 -9.73753 
-9.50565 -0.201885 0.235238 
-0.201885 -9.23245 -0.234861 
0.235238 -0.234861 -9.74551 
-9.31586 -0.0249225 0.301008 
-0.0249225 -9.36701 -0.212325 
0.301008 -0.212325 -9.80075 
-9.45159 -0.202147 0.231879 
-0.202147 -9.21202 -0.230628 
0.231879 -0.230628 -9.82 
-9.05466 -0.272558 0.39419 
-0.272558 -9.22544 -0.372395 
0.39419 -0.372395 -9.79977 
-9.12189 -0.5102 0.567107 
-0.5102 -8.85054 -0.615173 
0.567107 -0.615173 -10.1074 
-9.36644 -0.128477 0.349974 
-0.128477 -9.04359 -0.78602 
0.349974 -0.78602 -9.66984 
-9.36057 -0.22874 0.438748 
-0.22874 -9.00868 -0.468027 
0.438748 -0.468027 -9.71062 
-9.86469 0.127981 -0.966524 
0.127981 -9.78371 -0.29961 
-0.966524 -0.29961 -9.7837 
-9.72343 -0.0260498 -0.885344 
-0.0260498 -9.87629 -0.175871 
-0.885344 -0.175871 -9.83237 
-9.77676 -0.0219068 -0.964964 
-0.0219068 -9.93072 -0.150601 
-0.964964 -0.150601 -9.72462 
-9.73084 0.0901204 -0.999853 
0.0901204 -9.89915 -0.181794 
-0.999853 -0.181794 -9.80211 
-9.35276 -1.0455 1.74304 
-1.0455 -7.23092 -1.38566 
1.74304 -1.38566 -10.5775 
-8.7276 -1.32213 1.31312 
-1.32213 -8.01944 -2.13288 
1.31312 -2.13288 -10.4141 
-8.58415 -0.829755 0.142249 
-0.829755 -8.00416 -2.40274 
0.142249 -2.40274 -10.5728 
-8.35908 -1.77991 0.977804 
-1.77991 -7.49377 -0.61484 
0.977804 -0.61484 -11.3083 
-9.1942 0.196635 0.692158 
0.196635 -9.44272 0.432349 
0.692158 0.432349 -9.708 
-9.27544 0.209746 0.675766 
0.209746 -9.33191 0.41034 
0.675766 0.41034 -9.73757 
-9.21875 0.226598 0.676459 
0.226598 -9.38498 0.431124 
0.676459 0.431124 -9.74119 
-9.30217 0.195835 0.610106 
0.195835 -9.33503 0.393138 
0.610106 0.393138 -9.70772 
-8.9694 -0.162619 -0.634007 
-0.162619 -9.09316 0.334618 
-0.634007 0.334618 -9.69498 
-8.80001 -0.311414 -0.612638 
-0.311414 -9.1273 0.491712 
-0.612638 0.491712 -9.83023 
-8.82793 -0.339224 -0.552755 
-0.339224 -9.14572 0.380438 
-0.552755 0.380438 -9.78389 
-8.84177 -0.377063 -0.617949 
-0.377063 -9.1463 0.458473 
-0.617949 0.458473 -9.76947 
-9.878 -0.00475423 -0.239493 
-0.00475423 -9.66926 0.882078 
-0.239493 0.882078 -9.90524 
-9.87177 -0.00192951 -0.236906 
-0.00192951 -9.61973 0.864131 
-0.236906 0.864131 -9.961 
-9.68485 -0.13567 -0.278432 
-0.13567 -9.80531 0.767661 
-0.278432 0.767661 -9.96233 
-9.86569 -0.0864465 -0.260366 
-0.0864465 -9.73065 0.994597 
-0.260366 0.994597 -9.85616 
-6.19911 -0.869854 -0.873241 
-0.869854 -7.34819 0.177441 
-0.873241 0.177441 -1.59135 
-6.6394 0.213169 -1.65726 
0.213169 -5.79321 0.765843 
-1.65726 0.765843 -2.70604 
-8.06596 1.20372 -2.26524 
1.20372 -5.02201 0.804416 
-2.26524 0.804416 -2.05068 
-2.08748 -2.63007 -4.09879 
-2.63007 -7.15371 2.28822 
-4.09879 2.28822 -5.89745 
-9.7217 -0.214045 0.0345827 
-0.214045 -9.22399 -1.14556 
0.0345827 -1.14556 -7.68998 
-9.53815 0.412714 0.46978 
0.412714 -9.20229 -0.876688 
0.46978 -0.876688 -7.89523 
-9.57827 -0.159447 0.178 
-0.159447 -9.45248 -0.944701 
0.178 -0.944701 -7.60492 
-9.72792 0.284715 0.415506 
0.284715 -9.43778 -1.0997 
0.415506 -1.0997 -7.46996 
-9.57321 -0.389814 -0.708559 
-0.389814 -8.61244 0.782029 
-0.708559 0.782029 -10.171 
-9.00241 -0.429034 -0.515091 
-0.429034 -8.99668 0.888503 
-0.515091 0.888503 -10.3575 
-8.98381 -0.3676 -0.426369 
-0.3676 -9.33004 0.988249 
-0.426369 0.988249 -10.0428 
-9.47265 -0.59531 -0.409294 
-0.59531 -8.7624 0.542973 
-0.409294 0.542973 -10.1216 
-8.02969 0.923224 4.70481 
0.923224 -7.36083 1.53116 
4.70481 1.53116 -4.75918 
-6.87799 -0.270116 2.23455 
-0.270116 -8.03223 1.10259 
2.23455 1.10259 -5.23948 
-7.37201 0.104198 2.57852 
0.104198 -7.35558 1.65005 
2.57852 1.65005 -5.42211 
-7.58471 -0.053921 2.64109 
-0.053921 -8.28218 1.49277 
2.64109 1.49277 -4.28281 
-10.1266 0.0599413 -0.0033078 
0.0599413 -9.65137 -0.996395 
-0.0033078 -0.996395 -8.39003 
-10.0957 -0.0595594 0.102396 
-0.0595594 -9.57538 -0.600046 
0.102396 -0.600046 -8.4969 
-9.86743 -0.0706435 -0.0133744 
-0.0706435 -10.1549 -0.888329 
-0.0133744 -0.888329 -8.14565 
-9.70642 0.0710747 -0.0527013 
0.0710747 -9.7315 -0.373363 
-0.0527013 -0.373363 -8.73007 
-9.27063 0.0496064 0.473396 
0.0496064 -9.7381 0.252628 
0.473396 0.252628 -7.4553 
-9.2552 0.201293 0.466254 
0.201293 -9.71167 0.671345 
0.466254 0.671345 -7.49717 
-10.0422 -0.0665672 0.900384 
-0.0665672 -9.38298 0.0889387 
0.900384 0.0889387 -7.03888 
-9.64303 -0.0344519 0.865239 
-0.0344519 -9.1168 -0.0187963 
0.865239 -0.0187963 -7.7042 
-9.48808 0.34565 1.55217 
0.34565 -9.33655 1.80704 
1.55217 1.80704 -7.58489 
-9.64354 0.933655 0.949029 
0.933655 -8.91298 1.75078 
0.949029 1.75078 -7.853 
-9.04985 0.23175 1.04164 
0.23175 -8.53193 1.67769 
1.04164 1.67769 -8.82774 
-9.39602 0.581608 1.02784 
0.581608 -9.40356 1.59901 
1.02784 1.59901 -7.60993 
-8.1562 0.49327 -3.4863 
0.49327 -9.49351 -1.98428 
-3.4863 -1.98428 -6.12496 
-7.5048 0.81742 -2.61509 
0.81742 -9.06906 -0.178442 
-2.61509 -0.178442 -7.20082 
-8.1261 -0.143501 -3.70987 
-0.143501 -8.95744 -1.56733 
-3.70987 -1.56733 -6.69114 
-7.24216 0.44487 -3.14326 
0.44487 -8.84785 -1.5852 
-3.14326 -1.5852 -7.68466 
-9.60599 -0.103585 0.863493 
-0.103585 -9.76468 -0.406284 
0.863493 -0.406284 -9.83555 
-9.62848 -0.0786773 0.878482 
-0.0786773 -9.81357 -0.434371 
0.878482 -0.434371 -9.76417 
-9.61571 -0.0448685 0.788635 
-0.0448685 -9.75166 -0.463543 
0.788635 -0.463543 -9.83885 
-9.59632 -0.0319548 0.870204 
-0.0319548 -9.81269 -0.328677 
0.870204 -0.328677 -9.79722 
-9.7769 -0.0524733 -0.208191 
-0.0524733 -9.65451 0.883903 
-0.208191 0.883903 -9.80272 
-9.74719 -0.0170237 -0.208807 
-0.0170237 -9.67192 0.743479 
-0.208807 0.743479 -9.81502 
-9.73564 0.00317235 -0.152024 
0.00317235 -9.71227 0.694623 
-0.152024 0.694623 -9.78622 
-9.70606 -0.0800852 -0.193118 
-0.0800852 -9.61527 0.80614 
-0.193118 0.80614 -9.91279 
-8.91051 0.283827 -0.337188 
0.283827 -9.50404 -0.00958847 
-0.337188 -0.00958847 -10.1584 
-8.95603 0.220004 -0.351687 
0.220004 -9.4696 0.00302817 
-0.351687 0.00302817 -10.1474 
-8.95997 0.0937211 -0.523674 
0.0937211 -9.45866 -0.143597 
-0.523674 -0.143597 -10.1544 
-9.04814 0.193221 -0.186767 
0.193221 -9.52364 0.0521111 
-0.186767 0.0521111 -10.0012 
-9.25832 -0.384967 -0.141948 
-0.384967 -9.63156 0.299389 
-0.141948 0.299389 -9.88305 
-8.75949 -0.41866 -0.636823 
-0.41866 -9.57023 -0.340886 
-0.636823 -0.340886 -10.4432 
-9.27665 -0.0467113 -0.262163 
-0.0467113 -9.55449 0.0349649 
-0.262163 0.0349649 -9.9418 
-9.70786 -0.328873 -0.526879 
-0.328873 -9.30913 1.06257 
-0.526879 1.06257 -9.75594 
-8.75656 1.3865 2.73012 
1.3865 -8.49133 2.32657 
2.73012 2.32657 -7.34389 
-7.73692 -0.69655 2.01631 
-0.69655 -9.12336 1.69725 
2.01631 1.69725 -7.7315 
-8.89499 1.13569 3.14346 
1.13569 -8.30597 1.45064 
3.14346 1.45064 -7.39082 
-8.8282 1.33374 2.92658 
1.33374 -8.43991 2.73386 
2.92658 2.73386 -7.32367 
-9.44166 0.566096 -1.7111 
0.566096 -9.78246 -0.995326 
-1.7111 -0.995326 -10.7193 
-9.64427 0.937213 -0.323119 
0.937213 -9.61828 -0.0357126 
-0.323119 -0.0357126 -10.6809 
-9.29624 0.86925 -0.693214 
0.86925 -9.57143 -0.469798 
-0.693214 -0.469798 -11.0758 
-8.51005 1.31869 -0.239816 
1.31869 -9.5644 -0.628617 
-0.239816 -0.628617 -11.869 
-9.23732 -0.0275869 0.170226 
-0.0275869 -9.12661 -0.29687 
0.170226 -0.29687 -9.92643 
-9.17627 -0.12833 0.116885 
-0.12833 -9.3487 -0.379071 
0.116885 -0.379071 -9.76539 
-9.451 -0.305716 -0.00221955 
-0.305716 -9.15445 -0.106215 
-0.00221955 -0.106215 -9.6849 
-9.2643 -0.150224 0.12093 
-0.150224 -9.16403 -0.27558 
0.12093 -0.27558 -9.86204 
-9.50954 0.0738904 -0.778497 
0.0738904 -9.75006 -0.423005 
-0.778497 -0.423005 -9.8192 
-9.47611 0.160723 -0.887037 
0.160723 -9.66735 -0.378203 
-0.887037 -0.378203 -9.93535 
-9.57598 0.160068 -0.82354 
0.160068 -9.66395 -0.433287 
-0.82354 -0.433287 -9.83888 
-9.57593 0.162553 -0.845643 
0.162553 -9.7711 -0.665439 
-0.845643 -0.665439 -9.73177 
-8.4031 -0.500567 -0.623274 
-0.500567 -10.2795 0.840907 
-0.623274 0.840907 -12.2274 
-7.83317 0.330699 -1.74667 
0.330699 -8.18698 3.46195 
-1.74667 3.46195 -14.8899 
-10.2939 1.3222 -0.670681 
1.3222 -11.3459 -1.39657 
-0.670681 -1.39657 -9.27017 
-8.79452 -1.26302 -0.520256 
-1.26302 -9.47928 2.15063 
-0.520256 2.15063 -12.6362 
-9.13705 -0.318099 -0.997971 
-0.318099 -8.78975 1.32722 
-0.997971 1.32722 -9.36722 
-9.55489 -0.482237 -1.09923 
-0.482237 -9.42864 1.16741 
-1.09923 1.16741 -8.31049 
-9.39857 -0.574162 -1.22765 
-0.574162 -8.83837 1.7302 
-1.22765 1.7302 -9.05708 
-9.0976 -0.724214 -1.23215 
-0.724214 -9.56812 1.18693 
-1.23215 1.18693 -8.6283 
-10.7901 0.52204 3.12866 
0.52204 -11.9455 0.729393 
3.12866 0.729393 8.32766 
1.24321 0.801882 -0.481522 
0.801882 4.37727 -1.98629 
-0.481522 -1.98629 -20.0284 
-11.0001 -0.772026 -1.18076 
-0.772026 -11.9704 -2.28784 
-1.18076 -2.28784 8.56259 
-8.14195 -2.19008 11.1617 
-2.19008 -9.96346 -16.5958 
11.1617 -16.5958 3.6975 
-9.71822 -0.117546 0.757341 
-0.117546 -9.98754 0.651205 
0.757341 0.651205 -8.84803 
-9.74155 0.112649 0.711261 
0.112649 -9.65088 0.546718 
0.711261 0.546718 -9.16136 
-9.79544 0.0441561 0.308907 
0.0441561 -9.77895 0.347295 
0.308907 0.347295 -8.97939 
-9.81477 0.0287737 0.375848 
0.0287737 -9.7389 0.463485 
0.375848 0.463485 -9.00011 
-3.62744 2.51766 -0.198981 
2.51766 -7.85986 1.86448 
-0.198981 1.86448 -3.096 
-8.35938 -0.618291 -0.801468 
-0.618291 -6.03268 1.55697 
-0.801468 1.55697 -0.191236 
-7.34138 -3.38703 1.31224 
-3.38703 -2.4028 4.2864 
1.31224 4.2864 -4.83912 
-5.94598 2.20869 -0.284337 
2.20869 -7.47351 5.06505 
-0.284337 5.06505 -1.1638 
-9.93987 -0.258255 -0.27654 
-0.258255 -9.5461 -0.0691948 
-0.27654 -0.0691948 -9.73314 
-9.32825 -0.574011 -0.713115 
-0.574011 -10.0146 0.0410503 
-0.713115 0.0410503 -9.87629 
-9.18817 -0.198829 -0.129154 
-0.198829 -9.27259 0.0211529 
-0.129154 0.0211529 -10.7583 
-8.99273 0.219923 -0.250029 
0.219923 -9.81054 0.253518 
-0.250029 0.253518 -10.4158 
-9.35106 0.180717 -0.302344 
0.180717 -9.44765 -0.0761767 
-0.302344 -0.0761767 -9.82887 
-9.43633 0.409218 -0.504824 
0.409218 -9.27746 0.128604 
-0.504824 0.128604 -9.91378 
-9.11208 0.0436505 -0.133339 
0.0436505 -9.72025 -0.0999942 
-0.133339 -0.0999942 -9.79525 
-9.24139 -0.0074183 -0.340674 
-0.0074183 -9.46109 -0.334809 
-0.340674 -0.334809 -9.9251 
-10.2303 0.0949892 0.126285 
0.0949892 -10.1308 0.154091 
0.126285 0.154091 -10.1237 
-10.1208 -0.0676668 -0.107861 
-0.0676668 -10.0952 -0.154901 
-0.107861 -0.154901 -10.2688 
-10.0674 0.0382391 0.0335736 
0.0382391 -10.1379 0.0842957 
0.0335736 0.0842957 -10.2794 
-10.1663 0.133822 0.030432 
0.133822 -9.98409 -0.0174169 
0.030432 -0.0174169 -10.3344 
-9.96335 -0.172657 1.30329 
-0.172657 -8.04994 -2.86551 
1.30329 -2.86551 -6.23567 
-8.84125 -0.41541 0.669059 
-0.41541 -9.10963 -2.08901 
0.669059 -2.08901 -6.29809 
-8.78632 -0.275581 0.959572 
-0.275581 -8.72808 -2.38285 
0.959572 -2.38285 -6.73457 
-9.15566 0.055059 0.611026 
0.055059 -8.3046 -2.02934 
0.611026 -2.02934 -6.78871 
-9.12001 0.0619798 0.98555 
0.0619798 -9.51304 0.186061 
0.98555 0.186061 -9.75508 
-9.11736 0.0793919 0.999988 
0.0793919 -9.51686 0.17265 
0.999988 0.17265 -9.75392 
-9.1289 0.036696 1.05949 
0.036696 -9.54838 0.17579 
1.05949 0.17579 -9.71085 
-9.17653 0.0616881 0.987205 
0.0616881 -9.47889 0.294489 
0.987205 0.294489 -9.73271 
-9.5114 -0.0296536 -0.892134 
-0.0296536 -9.65226 0.357049 
-0.892134 0.357049 -9.47146 
-9.50748 -0.0748 -0.947361 
-0.0748 -9.67312 0.376555 
-0.947361 0.376555 -9.45452 
-9.44665 -0.169113 -0.88755 
-0.169113 -9.67572 0.391053 
-0.88755 0.391053 -9.51276 
-9.54759 -0.113421 -1.00556 
-0.113421 -9.66178 0.477084 
-1.00556 0.477084 -9.42575 
-11.9898 -0.243055 -0.276723 
-0.243055 -8.88137 -1.04045 
-0.276723 -1.04045 -13.488 
-6.76523 -4.35569 -0.328887 
-4.35569 -10.673 -3.04448 
-0.328887 -3.04448 -16.9209 
-10.7952 -1.29017 1.60937 
-1.29017 -10.36 -1.4957 
1.60937 -1.4957 -13.2041 
-11.2349 -1.47639 1.09162 
-1.47639 -9.25079 -1.92463 
1.09162 -1.92463 -13.8735 
-9.59697 -0.381714 -0.261788 
-0.381714 -8.7567 0.974647 
-0.261788 0.974647 -10.8424 
-9.94687 -0.210665 -0.179868 
-0.210665 -8.67085 0.579516 
-0.179868 0.579516 -10.5783 
-9.91897 -0.196071 -0.188481 
-0.196071 -8.55883 0.557919 
-0.188481 0.557919 -10.7182 
-9.73375 -0.453039 0.0377112 
-0.453039 -8.8784 0.598113 
0.0377112 0.598113 -10.5839 
-8.66727 0.346378 -2.49042 
0.346378 -9.37676 -0.58878 
-2.49042 -0.58878 -3.10422 
-8.99829 0.479336 -2.22516 
0.479336 -9.07323 -0.993616 
-2.22516 -0.993616 -3.07673 
-8.79065 0.279845 -2.25047 
0.279845 -8.70783 -0.73453 
-2.25047 -0.73453 -3.64976 
-8.78586 0.329396 -1.88252 
0.329396 -9.46299 -0.23089 
-1.88252 -0.23089 -2.89939 
-9.21281 -0.0764874 -0.0664487 
-0.0764874 -8.9291 0.317017 
-0.0664487 0.317017 -10.1187 
-8.75947 0.198881 0.266741 
0.198881 -8.90598 0.623844 
0.266741 0.623844 -10.5951 
-9.74752 0.425085 0.0864233 
0.425085 -8.83458 0.20069 
0.0864233 0.20069 -9.67846 
-9.63441 0.367821 0.459036 
0.367821 -9.70994 0.980812 
0.459036 0.980812 -8.91621 
-9.79043 -0.303799 -0.554226 
-0.303799 -8.28084 2.15281 
-0.554226 2.15281 -10.0195 
-9.18771 -0.500556 -0.0157504 
-0.500556 -8.97156 1.19361 
-0.0157504 1.19361 -9.93146 
-10.3714 -0.0321369 -0.395814 
-0.0321369 -7.94037 2.13995 
-0.395814 2.13995 -9.77891 
-10.1678 -0.611531 -0.285586 
-0.611531 -8.84061 2.59175 
-0.285586 2.59175 -9.08233 
-9.77341 0.021871 0.105879 
0.021871 -9.61432 0.834445 
0.105879 0.834445 -9.83938 
-9.79511 0.0157277 0.112026 
0.0157277 -9.63945 0.843965 
0.112026 0.843965 -9.79254 
-9.76881 0.0203767 0.081862 
0.0203767 -9.61988 0.859814 
0.081862 0.859814 -9.83842 
-9.7311 0.00731882 0.0845325 
0.00731882 -9.67119 0.863115 
0.0845325 0.863115 -9.82481 
-9.35512 -0.414907 0.45554 
-0.414907 -9.00803 -0.0606885 
0.45554 -0.0606885 -10.2478 
-9.81037 0.175221 0.212652 
0.175221 -8.86433 -0.549193 
0.212652 -0.549193 -9.93623 
-9.481 -0.415366 0.0464121 
-0.415366 -9.25468 -0.25021 
0.0464121 -0.25021 -9.87525 
-9.62967 -0.125903 0.19821 
-0.125903 -8.97065 -0.283746 
0.19821 -0.283746 -10.0106 
-8.83955 -1.08009 0.318236 
-1.08009 -9.99608 -0.100833 
0.318236 -0.100833 -11.3554 
-8.5015 -0.862228 0.565903 
-0.862228 -10.0619 -0.393044 
0.565903 -0.393044 -11.6276 
-8.58465 -1.17447 0.641922 
-1.17447 -9.58427 -0.350794 
0.641922 -0.350794 -12.0221 
-8.57386 -0.826518 0.561342 
-0.826518 -9.85121 -0.126701 
0.561342 -0.126701 -11.7659 
-9.77675 -0.00210208 -0.942186 
-0.00210208 -9.88489 -0.19791 
-0.942186 -0.19791 -9.89983 
-9.76639 0.0224051 -0.764603 
0.0224051 -9.84498 -0.325567 
-0.764603 -0.325567 -9.95011 
-9.77268 0.0784331 -0.948287 
0.0784331 -9.91786 -0.296974 
-0.948287 -0.296974 -9.87094 
-9.72915 0.0340313 -0.887024 
0.0340313 -9.90541 -0.208491 
-0.887024 -0.208491 -9.92692 
-9.62902 0.0150105 -0.638793 
0.0150105 -9.68761 -0.791697 
-0.638793 -0.791697 -9.77112 
-9.82537 0.355385 -0.794641 
0.355385 -9.67287 -0.70605 
-0.794641 -0.70605 -9.58952 
-9.54023 0.110849 -0.820987 
0.110849 -9.77296 -0.690077 
-0.820987 -0.690077 -9.77457 
-9.74006 0.0384785 -0.669359 
0.0384785 -9.67724 -0.645263 
-0.669359 -0.645263 -9.67046 
-9.23043 -0.0947968 -1.19428 
-0.0947968 -9.9461 0.410834 
-1.19428 0.410834 -9.79536 
-9.22709 -0.0530403 -1.14461 
-0.0530403 -9.95627 0.310674 
-1.14461 0.310674 -9.78852 
-9.24614 -0.100752 -1.12669 
-0.100752 -9.95424 0.310994 
-1.12669 0.310994 -9.7715 
-9.37905 -0.100748 -1.11018 
-0.100748 -9.62286 0.27512 
-1.11018 0.27512 -9.96998 
-3.67649 -0.600304 0.0755405 
-0.600304 -2.92183 -1.10286 
0.0755405 -1.10286 -0.652844 
-3.92629 -0.263749 0.451297 
-0.263749 -3.17401 -0.895043 
0.451297 -0.895043 -0.150855 
-2.53626 1.61059 -0.548876 
1.61059 -4.33804 -0.0549813 
-0.548876 -0.0549813 -0.376858 
-4.5554 1.16902 1.75677 
1.16902 -3.05272 -0.300721 
1.75677 -0.300721 0.356959 
-9.81197 -0.0358466 0.0647805 
-0.0358466 -9.73355 0.215388 
0.0647805 0.215388 -9.94196 
-9.80467 0.310057 0.0242357 
0.310057 -9.53249 0.102354 
0.0242357 0.102354 -10.1503 
-9.79144 0.173031 0.134878 
0.173031 -9.65242 0.201644 
0.134878 0.201644 -10.0436 
-9.59745 -0.0224762 0.103943 
-0.0224762 -9.86356 0.244667 
0.103943 0.244667 -10.0265 
-6.39349 -0.367459 1.23272 
-0.367459 -7.6031 -0.13883 
1.23272 -0.13883 -2.86887 
-6.97736 -0.0618117 2.28283 
-0.0618117 -6.80955 -1.04495 
2.28283 -1.04495 -3.07854 
-7.30358 -0.208064 2.06677 
-0.208064 -7.16688 -1.28893 
2.06677 -1.28893 -2.39499 
-7.18042 -0.0718297 2.07292 
-0.0718297 -6.90231 -0.968259 
2.07292 -0.968259 -2.78272 
-11.9669 4.27194 2.41943 
4.27194 -19.9702 -11.6556 
2.41943 -11.6556 13.5311 
-6.6078 -0.411573 3.7831 
-0.411573 -16.3703 -8.30265 
3.7831 -8.30265 4.57217 
-2.29148 2.90468 -0.874802 
2.90468 -2.83732 3.16237 
-0.874802 3.16237 -13.2772 
-8.86118 -3.23162 3.00937 
-3.23162 0.257425 -8.76519 
3.00937 -8.76519 -9.80221 
-9.99721 -0.0345295 -0.769266 
-0.0345295 -9.92431 -0.539631 
-0.769266 -0.539631 -9.82186 
-9.87104 0.168328 -0.658933 
0.168328 -9.81223 -0.559307 
-0.658933 -0.559307 -10.0601 
-9.79256 0.00738554 -0.65949 
0.00738554 -9.87715 -0.577926 
-0.65949 -0.577926 -10.0737 
-9.7961 0.0134433 -0.751717 
0.0134433 -9.99296 -0.626466 
-0.751717 -0.626466 -9.95432 
-9.22071 0.0462491 -0.672152 
0.0462491 -9.47627 -0.131074 
-0.672152 -0.131074 -9.48587 
-9.32037 0.0310894 -0.748259 
0.0310894 -9.41402 -0.209683 
-0.748259 -0.209683 -9.44846 
-9.53141 -0.0490237 -0.829868 
-0.0490237 -9.31931 -0.212832 
-0.829868 -0.212832 -9.33213 
-9.25328 0.01486 -0.764666 
0.01486 -9.39218 -0.191643 
-0.764666 -0.191643 -9.53739 
-9.67849 0.0203522 0.840313 
0.0203522 -9.83415 0.318475 
0.840313 0.318475 -9.88251 
-9.70232 0.0631957 0.761412 
0.0631957 -9.7349 0.296018 
0.761412 0.296018 -9.95792 
-9.70528 0.0690489 0.852862 
0.0690489 -9.78871 0.368438 
0.852862 0.368438 -9.90115 
-9.67567 0.0363646 0.80364 
0.0363646 -9.83235 0.306606 
0.80364 0.306606 -9.88713 
-9.12586 -0.274463 0.281573 
-0.274463 -9.39629 -0.0744805 
0.281573 -0.0744805 -9.74413 
-9.22098 -0.169689 0.474975 
-0.169689 -9.26772 -0.193353 
0.474975 -0.193353 -9.77759 
-9.09253 -0.0526486 0.446187 
-0.0526486 -9.49744 -0.28361 
0.446187 -0.28361 -9.67632 
-9.0764 -0.124674 0.378937 
-0.124674 -9.39775 -0.174824 
0.378937 -0.174824 -9.79214 
-9.81829 -0.03651 0.109248 
-0.03651 -9.83851 0.0461824 
0.109248 0.0461824 -10.0209 
-10.2542 -0.00354662 0.200177 
-0.00354662 -9.58886 -0.105432 
0.200177 -0.105432 -9.83457 
-9.0956 0.222853 -0.116001 
0.222853 -10.3232 0.103821 
-0.116001 0.103821 -10.2589 
-9.49955 -0.368524 0.478651 
-0.368524 -9.87872 0.311931 
0.478651 0.311931 -10.2994 
-9.92877 0.0293925 -0.167016 
0.0293925 -9.36211 -1.4775 
-0.167016 -1.4775 -8.87465 
-9.57279 -0.0902649 0.205006 
-0.0902649 -8.97553 -1.28863 
0.205006 -1.28863 -9.61722 
-9.47137 -0.167949 0.472306 
-0.167949 -8.89774 -2.05618 
0.472306 -2.05618 -9.79642 
-10.1951 0.302754 -0.0327419 
0.302754 -8.7178 -1.2082 
-0.0327419 -1.2082 -9.25268 
-9.06326 0.126348 0.633856 
0.126348 -9.22054 0.446558 
0.633856 0.446558 -9.66182 
-8.8842 0.251251 0.76888 
0.251251 -9.2659 0.355068 
0.76888 0.355068 -9.79553 
-8.88132 0.0967777 0.662398 
0.0967777 -9.28937 0.208021 
0.662398 0.208021 -9.77492 
-9.04663 0.209444 0.623626 
0.209444 -9.21325 0.266552 
0.623626 0.266552 -9.68574 
-8.89917 -0.494747 -0.502842 
-0.494747 -8.86486 1.04083 
-0.502842 1.04083 -9.82868 
-9.35738 -0.430362 -0.531117 
-0.430362 -8.53236 1.18932 
-0.531117 1.18932 -9.70297 
-9.29177 -0.539408 -0.4861 
-0.539408 -8.50565 1.1 
-0.4861 1.1 -9.7953 
-9.42058 -0.236491 -0.512559 
-0.236491 -8.37649 0.995412 
-0.512559 0.995412 -9.79564 
-9.37831 0.157587 -0.534452 
0.157587 -8.84806 -1.78671 
-0.534452 -1.78671 -9.19717 
-10.1986 0.507253 -0.366491 
0.507253 -8.75397 -2.41104 
-0.366491 -2.41104 -8.471 
-9.61672 0.0970081 -0.554174 
0.0970081 -8.34829 -1.69727 
-0.554174 -1.69727 -9.45853 
-9.68267 -0.0888653 1.08525 
-0.0888653 -8.56964 -0.755914 
1.08525 -0.755914 -9.17124 
-9.99691 0.386052 0.0137793 
0.386052 -9.27397 -0.0108785 
0.0137793 -0.0108785 -10.3092 
-9.70062 -0.123583 -0.157159 
-0.123583 -10.0275 -0.137226 
-0.157159 -0.137226 -9.85189 
-9.7182 0.0489541 -0.109168 
0.0489541 -9.77255 -0.156834 
-0.109168 -0.156834 -10.0893 
-9.66892 0.275589 -0.101399 
0.275589 -9.73261 -0.62702 
-0.101399 -0.62702 -10.1785 
-8.73339 -0.96963 0.967745 
-0.96963 -9.31566 -0.550312 
0.967745 -0.550312 -9.92313 
-8.67895 0.162933 1.22155 
0.162933 -9.60407 -0.5054 
1.22155 -0.5054 -9.68915 
-8.81941 -0.32004 1.47767 
-0.32004 -9.16835 -1.27967 
1.47767 -1.27967 -9.98442 
-8.76803 -0.415165 1.44977 
-0.415165 -9.55713 -0.33134 
1.44977 -0.33134 -9.64702 
-3.89713 0.133601 -0.426619 
0.133601 -4.45552 0.831035 
-0.426619 0.831035 -0.819215 
-4.69045 -0.0111833 0.0529374 
-0.0111833 -4.0384 0.652253 
0.0529374 0.652253 -0.443014 
-3.46592 0.0514929 -0.5231 
0.0514929 -5.16905 0.881412 
-0.5231 0.881412 -0.536892 
-4.81818 0.318725 -0.547151 
0.318725 -2.77327 1.83454 
-0.547151 1.83454 -1.58041 
-9.6488 0.0357335 0.946043 
0.0357335 -9.95427 -0.0440845 
0.946043 -0.0440845 -9.86036 
-9.81546 -0.157053 0.846733 
-0.157053 -9.67493 -0.0738728 
0.846733 -0.0738728 -9.97303 
-9.59123 0.036024 0.938932 
0.036024 -9.92902 -0.0799338 
0.938932 -0.0799338 -9.94317 
-9.70855 -0.126718 1.17722 
-0.126718 -9.8921 -0.0496203 
1.17722 -0.0496203 -9.86277 
-9.35382 -0.148653 -0.621079 
-0.148653 -9.38461 0.550123 
-0.621079 0.550123 -9.72564 
-9.3244 -0.252375 -0.630986 
-0.252375 -9.35561 0.586651 
-0.630986 0.586651 -9.78406 
-9.35155 -0.0991998 -0.534471 
-0.0991998 -9.28142 0.348679 
-0.534471 0.348679 -9.8311 
-9.28802 -0.0920222 -0.64076 
-0.0920222 -9.47153 0.59422 
-0.64076 0.59422 -9.70452 
-9.20952 -0.126277 -0.388477 
-0.126277 -9.68451 -0.0251212 
-0.388477 -0.0251212 -9.98906 
-9.90259 0.118713 -0.0031561 
0.118713 -9.41297 -0.0681672 
-0.0031561 -0.0681672 -9.56752 
-9.59378 -0.094907 -0.0783876 
-0.094907 -9.72257 -0.042265 
-0.0783876 -0.042265 -9.56674 
-9.39217 -0.193988 -0.0856073 
-0.193988 -9.50333 0.0361966 
-0.0856073 0.0361966 -9.98759 
-8.88245 0.275234 -0.872024 
0.275234 -9.66154 -0.118825 
-0.872024 -0.118825 -9.99171 
-9.20045 0.576851 -1.62818 
0.576851 -10.2543 0.113325 
-1.62818 0.113325 -9.08091 
-8.74636 0.141161 -1.21449 
0.141161 -9.8699 -0.847217 
-1.21449 -0.847217 -9.91944 
-9.80988 0.237759 -1.47561 
0.237759 -9.31732 -1.29421 
-1.47561 -1.29421 -9.4085 
-9.24275 0.811812 0.446715 
0.811812 -8.48413 0.394288 
0.446715 0.394288 -10.727 
-9.52393 0.0629154 0.633852 
0.0629154 -9.24627 0.87381 
0.633852 0.87381 -9.68372 
-9.35692 0.360847 -0.0405405 
0.360847 -8.94471 0.20433 
-0.0405405 0.20433 -10.1523 
-9.1736 0.358537 0.40229 
0.358537 -9.27257 0.568397 
0.40229 0.568397 -10.0077 
-6.68793 0.722207 -1.96254 
0.722207 -7.22139 -1.17715 
-1.96254 -1.17715 -2.69358 
-5.60195 -0.0163598 -3.05174 
-0.0163598 -6.39281 -1.00031 
-3.05174 -1.00031 -4.60814 
-6.36486 0.916283 -2.32963 
0.916283 -7.33558 -0.744457 
-2.32963 -0.744457 -2.90246 
-7.36774 0.886778 -1.79509 
0.886778 -6.50101 -1.20398 
-1.79509 -1.20398 -2.73416 
-9.38948 0.619879 -0.377013 
0.619879 -9.40935 0.236029 
-0.377013 0.236029 -9.77883 
-9.35676 0.500771 -0.00061014 
0.500771 -8.96084 -0.757152 
-0.00061014 -0.757152 -10.2601 
-9.37004 -0.0728562 0.185374 
-0.0728562 -9.27359 -0.379217 
0.185374 -0.379217 -9.93404 
-9.22522 0.101962 -1.31292 
0.101962 -9.63055 -0.310642 
-1.31292 -0.310642 -9.7219 
-9.17436 -0.0120144 0.722517 
-0.0120144 -9.71661 -0.0504156 
0.722517 -0.0504156 -9.73689 
-9.49825 -0.0232769 0.760636 
-0.0232769 -9.48322 -0.0655668 
0.760636 -0.0655668 -9.64639 
-9.50449 0.00684654 0.766396 
0.00684654 -9.50061 -0.129462 
0.766396 -0.129462 -9.62276 
-9.4506 -0.103119 0.868646 
-0.103119 -9.50181 -0.0549318 
0.868646 -0.0549318 -9.67546 
-10.299 0.283864 -0.298527 
0.283864 -7.96163 -1.93047 
-0.298527 -1.93047 -10.0131 
-9.64154 -0.113404 0.129693 
-0.113404 -8.44879 -0.716551 
0.129693 -0.716551 -10.1833 
-9.6988 0.251044 -0.363374 
0.251044 -8.27852 -1.00083 
-0.363374 -1.00083 -10.2963 
-9.47296 0.267717 -0.504864 
0.267717 -8.50145 -1.22171 
-0.504864 -1.22171 -10.2992 
-9.41109 0.0846431 -0.373217 
0.0846431 -9.27877 0.759083 
-0.373217 0.759083 -9.44572 
-9.59817 -0.148007 -0.315007 
-0.148007 -8.93108 0.823537 
-0.315007 0.823537 -9.60632 
-9.36445 -0.0408082 -0.113712 
-0.0408082 -9.06764 0.660465 
-0.113712 0.660465 -9.70349 
-9.39294 -0.0867235 -0.151809 
-0.0867235 -9.11061 0.704542 
-0.151809 0.704542 -9.63203 
-9.48058 0.243559 -0.91693 
0.243559 -9.76948 -0.091769 
-0.91693 -0.091769 -8.62304 
-9.57793 0.275437 -0.572491 
0.275437 -9.61618 -0.29731 
-0.572491 -0.29731 -8.67899 
-9.5748 0.112088 -0.811067 
0.112088 -9.67689 0.023036 
-0.811067 0.023036 -8.62141 
-9.2418 -0.20763 -0.589802 
-0.20763 -9.64656 -0.0526997 
-0.589802 -0.0526997 -8.98474 
-9.66646 -0.0356017 -0.686048 
-0.0356017 -9.55851 0.628799 
-0.686048 0.628799 -10.4659 
-9.94903 0.0296793 -0.624454 
0.0296793 -9.98953 0.641587 
-0.624454 0.641587 -9.7523 
-10.0216 -0.0548374 -0.550548 
-0.0548374 -10.0067 0.692604 
-0.550548 0.692604 -9.66261 
-10.067 -0.0425499 -0.749912 
-0.0425499 -9.94406 0.800057 
-0.749912 0.800057 -9.67979 
-9.71577 0.136511 -0.232741 
0.136511 -9.71382 0.160884 
-0.232741 0.160884 -9.81147 
-9.32812 -0.413827 -0.104591 
-0.413827 -9.77327 -0.00077487 
-0.104591 -0.00077487 -10.1397 
-9.48327 -0.287791 -0.251684 
-0.287791 -9.71002 0.165733 
-0.251684 0.165733 -10.0478 
-9.86042 -0.119924 -0.309524 
-0.119924 -9.3428 0.0739034 
-0.309524 0.0739034 -10.0378 
-9.17679 -0.0169428 0.355731 
-0.0169428 -9.62413 0.102465 
0.355731 0.102465 -9.70861 
-9.12793 -0.172397 0.340648 
-0.172397 -9.44635 -0.256421 
0.340648 -0.256421 -9.93526 
-9.25887 -0.136969 0.351985 
-0.136969 -9.3993 -0.197258 
0.351985 -0.197258 -9.85136 
-9.29725 -0.45198 0.395519 
-0.45198 -9.33334 -0.012066 
0.395519 -0.012066 -9.87895 
-8.2012 -0.75506 -2.24937 
-0.75506 -8.65959 1.70376 
-2.24937 1.70376 -7.32902 
-8.31684 -0.735764 -2.185 
-0.735764 -8.66925 1.87483 
-2.185 1.87483 -7.20372 
-8.12162 -0.778165 -2.09851 
-0.778165 -8.49363 1.70536 
-2.09851 1.70536 -7.57457 
-8.16634 -0.413618 -1.59956 
-0.413618 -8.67092 1.42485 
-1.59956 1.42485 -7.35256 
-8.33448 -0.214887 -0.173975 
-0.214887 -8.93426 -3.42131 
-0.173975 -3.42131 -9.53693 
-9.59308 1.48258 -0.661543 
1.48258 -8.97147 -3.3282 
-0.661543 -3.3282 -8.24112 
-13.137 -0.583917 -0.10288 
-0.583917 -8.60699 -2.67923 
-0.10288 -2.67923 -5.06167 
-9.75618 -1.54615 0.185763 
-1.54615 -7.41989 0.548507 
0.185763 0.548507 -9.6296 
-9.65636 0.0149427 0.116899 
0.0149427 -9.68968 0.717612 
0.116899 0.717612 -8.91827 
-9.73083 0.0196872 0.154604 
0.0196872 -9.80884 0.744767 
0.154604 0.744767 -8.72464 
-9.73529 -0.0346798 0.242652 
-0.0346798 -9.64829 0.654915 
0.242652 0.654915 -8.88073 
-9.70959 0.0153924 0.403654 
0.0153924 -9.5903 0.639021 
0.403654 0.639021 -8.96442 
-9.04424 -0.143047 1.2305 
-0.143047 -8.48781 -2.523 
1.2305 -2.523 -5.12992 
-9.1886 -0.590908 0.947503 
-0.590908 -8.39564 -2.29154 
0.947503 -2.29154 -5.07773 
-9.26335 -0.0307105 1.60474 
-0.0307105 -8.50805 -1.63252 
1.60474 -1.63252 -4.89058 
-9.22074 0.12482 1.09962 
0.12482 -8.5291 -2.32477 
1.09962 -2.32477 -4.91212 
-9.70096 0.104306 -0.111846 
0.104306 -9.52062 -0.987585 
-0.111846 -0.987585 -9.882 
-9.81444 0.0760955 -0.172806 
0.0760955 -9.52302 -0.964563 
-0.172806 -0.964563 -9.76612 
-9.75416 0.033078 -0.0516791 
0.033078 -9.51486 -0.948804 
-0.0516791 -0.948804 -9.83455 
-9.95648 0.0155508 -0.33573 
0.0155508 -9.50912 -1.03045 
-0.33573 -1.03045 -9.63798 
-9.38918 0.397212 -1.2697 
0.397212 -9.55321 -0.821779 
-1.2697 -0.821779 -8.82771 
-9.4811 0.279415 -0.897794 
0.279415 -8.87894 -0.972424 
-0.897794 -0.972424 -9.41006 
-10.2671 0.238805 -1.17645 
0.238805 -9.47664 -1.34141 
-1.17645 -1.34141 -8.02634 
-9.17966 0.278997 -1.41907 
0.278997 -9.73339 -1.03572 
-1.41907 -1.03572 -8.85706 
-9.49138 -0.00827848 0.90918 
-0.00827848 -9.81457 0.0589303 
0.90918 0.0589303 -9.83932 
-9.62296 0.0471906 0.855145 
0.0471906 -9.74208 0.122836 
0.855145 0.122836 -9.78023 
-9.652 0.0406011 0.857417 
0.0406011 -9.73743 0.057073 
0.857417 0.057073 -9.75584 
-9.57584 0.0315884 0.829878 
0.0315884 -9.8046 0.0962995 
0.829878 0.0962995 -9.76483 
-9.51444 -0.341876 -0.325987 
-0.341876 -9.08974 0.313086 
-0.325987 0.313086 -9.76287 
-9.2527 0.110494 -0.307736 
0.110494 -9.54061 0.367261 
-0.307736 0.367261 -9.57374 
-9.29311 -0.0347783 -0.228633 
-0.0347783 -9.43726 0.463533 
-0.228633 0.463533 -9.63668 
-9.33463 -0.00899295 -0.403511 
-0.00899295 -9.31428 0.546412 
-0.403511 0.546412 -9.71814 
-9.20933 0.737502 -0.72559 
0.737502 -8.46377 -1.28399 
-0.72559 -1.28399 -9.92383 
-9.20086 0.684807 -0.58875 
0.684807 -8.46364 -1.1481 
-0.58875 -1.1481 -9.93243 
-9.19332 0.393988 -0.545504 
0.393988 -9.16857 -1.33431 
-0.545504 -1.33431 -9.23504 
-9.41913 0.641145 -0.60537 
0.641145 -8.14293 -1.03744 
-0.60537 -1.03744 -10.0349 
-9.30168 -0.206085 -0.160941 
-0.206085 -9.30269 0.0714934 
-0.160941 0.0714934 -9.99145 
-9.38231 -0.233347 -0.664268 
-0.233347 -9.43056 0.544303 
-0.664268 0.544303 -9.78295 
-8.63513 -0.836671 -0.353103 
-0.836671 -9.48132 0.133296 
-0.353103 0.133296 -10.4794 
-9.18317 0.196788 -0.949724 
0.196788 -9.71048 0.669273 
-0.949724 0.669273 -9.70218 
-9.82066 -0.16893 0.502032 
-0.16893 -8.95462 0.397049 
0.502032 0.397049 -9.12731 
-8.96518 0.103043 0.489961 
0.103043 -9.27097 0.0457647 
0.489961 0.0457647 -9.66645 
-9.11256 0.0951282 0.395039 
0.0951282 -9.35849 0.139956 
0.395039 0.139956 -9.43154 
-9.2352 0.195948 0.464804 
0.195948 -9.23588 0.13682 
0.464804 0.13682 -9.43152 
-4.89686 0.122325 -1.49477 
0.122325 -6.20589 0.108132 
-1.49477 0.108132 -0.729446 
-7.08428 0.225267 -1.19524 
0.225267 -5.23997 -1.41904 
-1.19524 -1.41904 0.492046 
-6.05964 -0.0659696 -0.564478 
-0.0659696 -3.43629 -0.869271 
-0.564478 -0.869271 -2.33627 
-2.65543 -0.414656 -3.83347 
-0.414656 -7.36989 -0.819271 
-3.83347 -0.819271 -1.80688 
-9.2249 0.218981 -1.20463 
0.218981 -9.68586 -0.447042 
-1.20463 -0.447042 -9.80967 
-9.39854 0.225034 -1.06594 
0.225034 -9.45878 -0.469899 
-1.06594 -0.469899 -9.86312 
-9.32444 0.17687 -0.911569 
0.17687 -9.41288 -0.589829 
-0.911569 -0.589829 -9.98312 
-9.19783 0.337512 -1.16529 
0.337512 -9.74677 -0.514931 
-1.16529 -0.514931 -9.77584 
-9.84803 0.302155 -0.778138 
0.302155 -9.54945 0.00350555 
-0.778138 0.00350555 -9.97669 
-9.65783 -0.137164 -0.92258 
-0.137164 -10.0198 0.120687 
-0.92258 0.120687 -9.69654 
-9.79098 -0.136666 -0.915422 
-0.136666 -9.90894 -0.0856784 
-0.915422 -0.0856784 -9.67426 
-9.97398 0.14541 -1.09846 
0.14541 -9.87398 0.184887 
-1.09846 0.184887 -9.52622 
-9.99022 0.0742535 0.0732215 
0.0742535 -9.88385 0.0609545 
0.0732215 0.0609545 -10.2298 
-9.98022 -0.0397885 -0.132642 
-0.0397885 -9.92324 -0.0760629 
-0.132642 -0.0760629 -10.2004 
-9.96454 0.0962162 -0.0280192 
0.0962162 -9.8647 -0.00424521 
-0.0280192 -0.00424521 -10.2746 
-9.94733 0.0965924 0.0609324 
0.0965924 -9.9131 -0.0155992 
0.0609324 -0.0155992 -10.2435 
-10.0598 0.247539 0.213077 
0.247539 -9.84905 0.297147 
0.213077 0.297147 -10.0178 
-9.94348 0.0942789 -0.0169804 
0.0942789 -9.85008 -0.251261 
-0.0169804 -0.251261 -10.1331 
-9.92767 -0.154485 -0.276845 
-0.154485 -9.90581 -0.3455 
-0.276845 -0.3455 -10.0932 
-9.71447 0.191781 0.0248484 
0.191781 -9.70557 -0.0695077 
0.0248484 -0.0695077 -10.5067 
-9.49492 0.17763 0.648544 
0.17763 -9.62212 -0.497676 
0.648544 -0.497676 -7.81453 
-9.94544 -0.507894 0.95152 
-0.507894 -9.67229 -0.112499 
0.95152 -0.112499 -7.31383 
-9.29462 0.114859 0.991893 
0.114859 -9.80752 -0.6666 
0.991893 -0.6666 -7.82942 
-9.43497 -0.265614 0.852414 
-0.265614 -9.41387 -0.0419455 
0.852414 -0.0419455 -8.08272 
-9.83027 0.0529623 0.799941 
0.0529623 -9.81555 -0.570491 
0.799941 -0.570491 -9.96897 
-9.79583 -0.0214562 0.680306 
-0.0214562 -9.82126 -0.430854 
0.680306 -0.430854 -9.9977 
-9.87386 -0.072907 0.656839 
-0.072907 -9.79078 -0.381163 
0.656839 -0.381163 -9.95015 
-9.82888 -0.0892471 0.736335 
-0.0892471 -9.85873 -0.565722 
0.736335 -0.565722 -9.92718 
-9.68839 -0.117184 -0.613756 
-0.117184 -9.72313 0.647946 
-0.613756 0.647946 -9.8762 
-9.72586 -0.158137 -0.643804 
-0.158137 -9.72698 0.784267 
-0.643804 0.784267 -9.83488 
-9.84796 -0.256522 -0.798386 
-0.256522 -9.90977 0.735235 
-0.798386 0.735235 -9.52999 
-9.86241 -0.0887311 -0.64783 
-0.0887311 -9.59525 0.862637 
-0.64783 0.862637 -9.83006 
-8.66928 -2.28484 -3.43994 
-2.28484 -8.44403 4.74929 
-3.43994 4.74929 -12.5469 
-7.86437 -3.08162 -2.11915 
-3.08162 -8.29701 5.03482 
-2.11915 5.03482 -13.4989 
-8.81879 1.31497 -6.56537 
1.31497 -4.89622 7.64528 
-6.56537 7.64528 -15.9452 
-13.6652 1.16933 -0.748751 
1.16933 -7.56829 -0.304177 
-0.748751 -0.304177 -8.42677 
-9.79825 -0.0254935 -0.124797 
-0.0254935 -9.75766 -0.845724 
-0.124797 -0.845724 -9.94707 
-9.8401 0.0264503 -0.13782 
0.0264503 -9.76138 -0.858164 
-0.13782 -0.858164 -9.9015 
-9.82539 -0.0478525 -0.108747 
-0.0478525 -9.7748 -0.783942 
-0.108747 -0.783942 -9.90279 
-9.84616 0.0424325 -0.134727 
0.0424325 -9.74077 -0.850167 
-0.134727 -0.850167 -9.91605 
-5.50389 -0.274962 -0.479457 
-0.274962 -5.8743 0.575166 
-0.479457 0.575166 -0.74487 
-5.03887 0.173627 0.35173 
0.173627 -5.04822 1.21863 
0.35173 1.21863 -2.03597 
-5.74254 -0.145566 -0.113633 
-0.145566 -5.60438 0.924687 
-0.113633 0.924687 -0.776144 
-5.20597 0.24086 -0.456722 
0.24086 -4.65642 1.67255 
-0.456722 1.67255 -2.26068 
-9.73257 -0.0497672 0.612801 
-0.0497672 -10.5058 0.188616 
0.612801 0.188616 -9.95719 
-9.33552 0.238284 -0.0845237 
0.238284 -10.2789 0.00188025 
-0.0845237 0.00188025 -10.5811 
-10.2623 -0.0254387 -0.733234 
-0.0254387 -9.58965 0.0713881 
-0.733234 0.0713881 -10.3436 
-9.66845 0.133968 -0.0628984 
0.133968 -9.77608 -0.193278 
-0.0628984 -0.193278 -10.751 
-9.50824 -0.958638 0.203488 
-0.958638 -9.23007 -0.790563 
0.203488 -0.790563 -10.4772 
-9.55207 -0.513797 0.39161 
-0.513797 -9.09496 -0.499238 
0.39161 -0.499238 -10.5684 
-9.23695 -0.536109 0.687961 
-0.536109 -9.39053 -0.674162 
0.687961 -0.674162 -10.588 
-9.65758 -0.516921 0.481159 
-0.516921 -9.05854 -0.508716 
0.481159 -0.508716 -10.4993 
-9.73504 0.173071 -0.709328 
0.173071 -9.61367 -0.610105 
-0.709328 -0.610105 -9.87765 
-9.66863 0.115484 -0.676482 
0.115484 -9.68056 -0.45575 
-0.676482 -0.45575 -9.87717 
-9.6821 0.13319 -0.660653 
0.13319 -9.68769 -0.629303 
-0.660653 -0.629303 -9.85658 
-9.69407 0.0919426 -0.683596 
0.0919426 -9.67381 -0.581744 
-0.683596 -0.581744 -9.85849 
-9.72794 0.132142 0.486805 
0.132142 -9.61721 0.289785 
0.486805 0.289785 -8.12734 
-9.68987 -0.0194602 0.548914 
-0.0194602 -9.79704 0.222008 
0.548914 0.222008 -7.98559 
-9.58596 0.0145254 0.500688 
0.0145254 -9.67977 0.0649411 
0.500688 0.0649411 -8.20677 
-9.57894 -0.0484965 0.213061 
-0.0484965 -9.55092 -0.114374 
0.213061 -0.114374 -8.34264 
-10.056 -0.275012 -0.447423 
-0.275012 -9.36262 -0.391222 
-0.447423 -0.391222 -8.98406 
-8.75274 0.568525 0.192086 
0.568525 -9.47418 -0.00593546 
0.192086 -0.00593546 -10.1758 
-9.56758 -0.20971 -0.34316 
-0.20971 -9.42544 -0.466643 
-0.34316 -0.466643 -9.40967 
-8.87173 0.499175 -0.870096 
0.499175 -9.06902 -0.0916811 
-0.870096 -0.0916811 -10.4619 
-2.26691 0.207125 -0.565038 
0.207125 -1.72559 -0.702743 
-0.565038 -0.702743 -0.976514 
-2.06861 0.198401 -0.468081 
0.198401 -2.05121 -0.699753 
-0.468081 -0.699753 -0.849182 
-2.75286 0.0617905 0.502382 
0.0617905 -3.321 0.406698 
0.502382 0.406698 1.10485 
-2.52858 -0.732041 -0.392344 
-0.732041 -2.74501 -0.95467 
-0.392344 -0.95467 0.30458 
-9.37964 -0.180507 -0.275277 
-0.180507 -9.1129 0.692143 
-0.275277 0.692143 -9.59634 
-9.42234 -0.082038 -0.303527 
-0.082038 -9.09499 0.696896 
-0.303527 0.696896 -9.57154 
-9.29896 -0.0570231 -0.337867 
-0.0570231 -9.11707 0.613294 
-0.337867 0.613294 -9.67285 
-9.37976 -0.0643724 -0.354995 
-0.0643724 -9.01004 0.730464 
-0.354995 0.730464 -9.69908 
-5.59799 -1.37188 4.05316 
-1.37188 -10.6901 0.857189 
4.05316 0.857189 -2.22674 
-5.40401 0.451135 1.65351 
0.451135 -8.53612 4.17149 
1.65351 4.17149 -4.5747 
-8.73591 -0.213208 4.07776 
-0.213208 -4.44522 1.61996 
4.07776 1.61996 -5.3337 
-5.72446 -1.31465 3.40756 
-1.31465 -8.46662 3.06855 
3.40756 3.06855 -4.32375 
-9.38688 -0.187121 0.154192 
-0.187121 -9.31038 -0.328932 
0.154192 -0.328932 -9.79527 
-9.45749 -0.213384 0.0758735 
-0.213384 -9.24362 -0.434416 
0.0758735 -0.434416 -9.79142 
-9.28619 -0.217108 0.249051 
-0.217108 -9.39836 -0.28846 
0.249051 -0.28846 -9.80799 
-9.36057 -0.149297 0.232126 
-0.149297 -9.26501 -0.230041 
0.232126 -0.230041 -9.86696 
-9.57951 0.00470723 -0.108228 
0.00470723 -9.7655 -0.131676 
-0.108228 -0.131676 -10.1728 
-10.0258 -0.70875 -0.186498 
-0.70875 -10.1223 0.225823 
-0.186498 0.225823 -9.3697 
-9.65838 0.629437 0.0227267 
0.629437 -9.44696 0.0147939 
0.0227267 0.0147939 -10.4124 
-9.18814 0.204869 -0.274085 
0.204869 -10.1887 -0.423941 
-0.274085 -0.423941 -10.1409 
-11.7689 -1.7161 -0.374459 
-1.7161 -9.23404 0.635686 
-0.374459 0.635686 -13.0776 
-11.3122 2.26366 -0.614826 
2.26366 -7.26432 1.05077 
-0.614826 1.05077 -15.5041 
-12.058 1.00484 0.285814 
1.00484 -9.01327 1.54641 
0.285814 1.54641 -13.0093 
-10.6151 -0.235826 0.162406 
-0.235826 -9.58959 2.24667 
0.162406 2.24667 -13.8759 
-9.67506 0.20406 -0.0236672 
0.20406 -9.60822 1.62656 
-0.0236672 1.62656 -8.77449 
-9.89669 -0.0748836 0.0571229 
-0.0748836 -9.18702 1.41404 
0.0571229 1.41404 -8.97407 
-9.70231 0.100992 0.0364758 
0.100992 -9.29141 1.39744 
0.0364758 1.39744 -9.06405 
-10.0232 -0.0714312 -0.0185895 
-0.0714312 -8.90977 1.67012 
-0.0185895 1.67012 -9.12478 
-9.07558 0.585954 -0.853061 
0.585954 -9.32248 -0.557075 
-0.853061 -0.557075 -10.6151 
-9.09138 0.754153 -0.675744 
0.754153 -9.12973 -0.332272 
-0.675744 -0.332272 -10.792 
-9.15004 0.497359 -0.930516 
0.497359 -9.15743 -0.645221 
-0.930516 -0.645221 -10.7057 
-9.07704 0.46185 -0.415103 
0.46185 -9.60791 -0.544057 
-0.415103 -0.544057 -10.3282 
-12.2037 0.876871 0.498791 
0.876871 -8.49104 1.1108 
0.498791 1.1108 -13.2677 
-11.6627 -0.549292 0.0182871 
-0.549292 -8.74771 1.36838 
0.0182871 1.36838 -13.5521 
-11.4475 -1.93752 0.918743 
-1.93752 -7.71636 1.58501 
0.918743 1.58501 -14.7986 
-11.0691 -0.327359 -0.856401 
-0.327359 -9.20483 1.59213 
-0.856401 1.59213 -13.6886 
-9.60938 0.162549 0.308003 
0.162549 -9.05167 0.920981 
0.308003 0.920981 -9.78617 
-9.51732 0.166851 0.233944 
0.166851 -9.15844 0.81942 
0.233944 0.81942 -9.77146 
-9.50277 0.207579 0.262014 
0.207579 -9.2039 0.85272 
0.262014 0.85272 -9.74056 
-9.53966 -0.216227 0.286578 
-0.216227 -9.19746 0.714814 
0.286578 0.714814 -9.7101 
-9.28592 0.215153 0.352627 
0.215153 -9.29947 0.432976 
0.352627 0.432976 -9.88513 
-9.53129 0.311459 0.344813 
0.311459 -8.79068 0.441459 
0.344813 0.441459 -10.1486 
-9.37425 0.220764 0.284878 
0.220764 -9.10867 0.568347 
0.284878 0.568347 -9.9876 
-9.35253 0.18939 0.35556 
0.18939 -9.1881 0.68094 
0.35556 0.68094 -9.92988 
-9.46597 0.030506 0.430324 
0.030506 -9.35498 1.07666 
0.430324 1.07666 -7.69585 
-9.57108 0.0493969 0.428647 
0.0493969 -9.48053 0.86457 
0.428647 0.86457 -7.46519 
-9.66423 0.123694 0.41217 
0.123694 -9.34109 1.00228 
0.41217 1.00228 -7.51148 
-9.73954 -0.244274 0.552381 
-0.244274 -9.52974 0.775567 
0.552381 0.775567 -7.24753 
-8.73376 -0.232332 -2.56525 
-0.232332 -9.1077 0.275471 
-2.56525 0.275471 -4.67118 
-7.98359 -0.16114 -2.03725 
-0.16114 -9.19389 0.528481 
-2.03725 0.528481 -5.33517 
-7.99031 0.0307433 -1.9373 
0.0307433 -8.91347 1.15613 
-1.9373 1.15613 -5.60887 
-8.53745 -0.145652 -1.66888 
-0.145652 -8.53321 0.31207 
-1.66888 0.31207 -5.44199 
-9.48206 0.0995774 -0.133879 
0.0995774 -9.12776 -0.825126 
-0.133879 -0.825126 -9.69846 
-9.53312 0.0831983 -0.162673 
0.0831983 -9.03846 -0.826855 
-0.162673 -0.826855 -9.7367 
-9.50583 0.0311724 -0.113343 
0.0311724 -9.13046 -0.819312 
-0.113343 -0.819312 -9.67199 
-9.41291 -0.103431 -0.118807 
-0.103431 -9.13356 -0.866286 
-0.118807 -0.866286 -9.7618 
-9.11903 -0.285513 -0.688314 
-0.285513 -9.03168 1.96237 
-0.688314 1.96237 -7.73663 
-9.65537 0.00766947 -0.628623 
0.00766947 -8.15091 1.75448 
-0.628623 1.75448 -8.08106 
-9.53464 -0.21602 -0.652277 
-0.21602 -8.46389 1.96412 
-0.652277 1.96412 -7.88882 
-9.79873 -0.372179 -0.931328 
-0.372179 -8.08993 2.53448 
-0.931328 2.53448 -7.99868 
-9.41609 0.085565 -0.154329 
0.085565 -9.60498 0.506897 
-0.154329 0.506897 -8.71156 
-10.1742 0.0194237 0.169685 
0.0194237 -9.83285 0.503214 
0.169685 0.503214 -7.72562 
-9.88693 0.0847751 0.411745 
0.0847751 -9.84554 0.784785 
0.411745 0.784785 -8.00016 
-9.76145 0.0310699 0.224024 
0.0310699 -9.90059 0.839706 
0.224024 0.839706 -8.07059 
-10.1384 0.144059 -0.00939587 
0.144059 -9.90558 -0.104616 
-0.00939587 -0.104616 -10.1744 
-10.0075 -0.07922 0.0709837 
-0.07922 -10.0228 0.239386 
0.0709837 0.239386 -10.1882 
-9.9285 0.0480587 -0.0333617 
0.0480587 -10.0509 -0.234109 
-0.0333617 -0.234109 -10.2391 
-10.1172 0.195127 0.0263296 
0.195127 -9.7903 -0.06749 
0.0263296 -0.06749 -10.3109 
-9.41629 -0.136287 -0.0187356 
-0.136287 -9.36316 -0.289721 
-0.0187356 -0.289721 -9.80714 
-9.60987 -0.0457527 0.0474087 
-0.0457527 -9.24487 -0.0880106 
0.0474087 -0.0880106 -9.73185 
-9.52354 0.00132121 0.215968 
0.00132121 -9.27738 -0.287382 
0.215968 -0.287382 -9.78567 
-9.45704 -0.15681 0.0246048 
-0.15681 -9.25776 -0.315972 
0.0246048 -0.315972 -9.87179 
-9.13225 0.15404 1.61405 
0.15404 -9.99996 0.578195 
1.61405 0.578195 -7.84779 
-8.57523 0.176725 1.32823 
0.176725 -9.47782 0.129091 
1.32823 0.129091 -8.92693 
-9.1834 0.0963942 1.14644 
0.0963942 -9.30682 0.426082 
1.14644 0.426082 -8.48977 
-9.22842 -0.0768886 1.31256 
-0.0768886 -9.29097 0.589056 
1.31256 0.589056 -8.4606 
-9.55846 0.295138 0.0346956 
0.295138 -9.08522 0.376528 
0.0346956 0.376528 -9.96694 
-9.52372 0.14109 0.448874 
0.14109 -9.14151 0.308793 
0.448874 0.308793 -9.94539 
-9.53667 0.256415 0.503327 
0.256415 -9.0168 0.305096 
0.503327 0.305096 -10.0572 
-9.57793 0.0806409 -0.0346997 
0.0806409 -9.11651 0.623317 
-0.0346997 0.623317 -9.91619 
-4.48866 -0.613371 0.625175 
-0.613371 -5.5537 -0.285405 
0.625175 -0.285405 0.680225 
-4.70474 0.548249 1.34557 
0.548249 -4.38115 -0.221579 
1.34557 -0.221579 -0.276241 
-2.56965 -0.843837 2.64675 
-0.843837 -3.87265 -0.494162 
2.64675 -0.494162 -2.91984 
-4.88324 0.785808 1.02925 
0.785808 -3.85893 -0.57123 
1.02925 -0.57123 -0.619962 
-9.54444 0.0502399 -0.227789 
0.0502399 -9.36005 -0.747009 
-0.227789 -0.747009 -9.76355 
-9.63586 0.0945709 -0.211308 
0.0945709 -9.35458 -0.708217 
-0.211308 -0.708217 -9.67761 
-9.4938 0.0203458 -0.145819 
0.0203458 -9.49947 -0.735811 
-0.145819 -0.735811 -9.67477 
-9.54955 -0.0496865 -0.182572 
-0.0496865 -9.38934 -0.704685 
-0.182572 -0.704685 -9.72915 
-9.34327 -0.203939 0.0105539 
-0.203939 -9.16908 -0.0464508 
0.0105539 -0.0464508 -10.8943 
-10.2321 -0.130951 -0.223003 
-0.130951 -9.99355 0.290631 
-0.223003 0.290631 -9.18102 
-10.0071 -0.441441 -0.327092 
-0.441441 -9.30963 0.488184 
-0.327092 0.488184 -10.0899 
-9.68279 -0.164099 -0.121582 
-0.164099 -9.46475 0.480057 
-0.121582 0.480057 -10.2591 
-9.90513 -0.109332 -0.36933 
-0.109332 -9.70175 0.912264 
-0.36933 0.912264 -9.75629 
-10.001 -0.0866893 -0.375405 
-0.0866893 -9.67328 0.915435 
-0.375405 0.915435 -9.68886 
-9.87223 -0.104398 -0.268743 
-0.104398 -9.73333 0.913575 
-0.268743 0.913575 -9.75761 
-9.87032 -0.128516 -0.41951 
-0.128516 -9.73334 0.876088 
-0.41951 0.876088 -9.75951 
-9.39182 0.227931 0.518232 
0.227931 -9.35387 0.784238 
0.518232 0.784238 -9.70502 
-9.55349 -0.154407 0.371265 
-0.154407 -9.48662 0.485463 
0.371265 0.485463 -9.41061 
-9.50991 -0.0920623 0.457529 
-0.0920623 -9.50195 0.39428 
0.457529 0.39428 -9.43886 
-9.40971 0.0753283 0.341223 
0.0753283 -9.22323 0.612097 
0.341223 0.612097 -9.81778 
-10.0925 -0.165318 -0.171444 
-0.165318 -9.35308 1.08386 
-0.171444 1.08386 -9.13927 
-9.91704 -0.0203832 -0.341692 
-0.0203832 -8.92518 1.5193 
-0.341692 1.5193 -9.74263 
-9.38065 0.0213871 -0.296221 
0.0213871 -9.09333 0.887637 
-0.296221 0.887637 -10.1109 
-9.54956 -0.566603 -0.223647 
-0.566603 -9.58326 1.06199 
-0.223647 1.06199 -9.45203 
-9.00892 0.981599 -3.49883 
0.981599 -10.2549 -1.62922 
-3.49883 -1.62922 -8.52778 
-8.81819 0.395452 -3.40852 
0.395452 -9.35589 0.0640269 
-3.40852 0.0640269 -9.61751 
-8.6976 1.0762 -3.43379 
1.0762 -9.17484 -1.05528 
-3.43379 -1.05528 -9.91914 
-8.87866 0.339499 -3.41583 
0.339499 -9.51849 -0.769016 
-3.41583 -0.769016 -9.39444 
-9.42337 -0.016959 -0.175606 
-0.016959 -9.04982 0.714777 
-0.175606 0.714777 -9.75528 
-9.55925 0.178993 0.0456818 
0.178993 -9.1247 0.710231 
0.0456818 0.710231 -9.54452 
-9.35968 -0.0480065 -0.185533 
-0.0480065 -9.16911 0.73761 
-0.185533 0.73761 -9.69969 
-9.46881 -0.272398 0.122065 
-0.272398 -9.09737 0.69826 
0.122065 0.69826 -9.66229 
-9.49623 -0.0921428 0.594416 
-0.0921428 -9.38442 -0.614811 
0.594416 -0.614811 -9.87568 
-9.47074 -0.171644 0.442761 
-0.171644 -9.57195 -0.631842 
0.442761 -0.631842 -9.71363 
-9.64654 -0.0718317 0.426483 
-0.0718317 -9.5174 -0.668907 
0.426483 -0.668907 -9.59239 
-9.47324 -0.096093 0.51364 
-0.096093 -9.56018 -0.611421 
0.51364 -0.611421 -9.7229 
-9.75978 -0.0800208 -0.145219 
-0.0800208 -9.59923 0.703089 
-0.145219 0.703089 -9.76348 
-9.7134 -0.0117447 -0.136947 
-0.0117447 -9.49489 0.854674 
-0.136947 0.854674 -9.91422 
-9.6278 0.0566436 -0.138211 
0.0566436 -9.66302 0.964578 
-0.138211 0.964578 -9.83168 
-9.69441 -0.0117063 -0.127005 
-0.0117063 -9.56309 0.847968 
-0.127005 0.847968 -9.865 
-9.00265 0.477088 0.452034 
0.477088 -9.15226 0.389047 
0.452034 0.389047 -9.99798 
-9.0639 0.478458 0.405657 
0.478458 -9.04371 0.335016 
0.405657 0.335016 -10.0453 
-9.02629 0.501627 0.406649 
0.501627 -9.05478 0.342696 
0.406649 0.342696 -10.0718 
-9.20776 0.359968 0.316613 
0.359968 -8.96294 0.188332 
0.316613 0.188332 -9.98218 
-6.15824 0.109157 1.93901 
0.109157 -7.12969 -1.28061 
1.93901 -1.28061 -3.53516 
-5.99484 -0.106381 1.37357 
-0.106381 -6.80636 -2.17677 
1.37357 -2.17677 -4.02189 
-5.9582 -0.356425 1.79255 
-0.356425 -7.14645 -1.30902 
1.79255 -1.30902 -3.71845 
-5.94046 -0.120318 2.09528 
-0.120318 -7.00905 -1.75295 
2.09528 -1.75295 -3.87359 
-9.61947 -0.385868 -0.1203 
-0.385868 -8.66588 0.143917 
-0.1203 0.143917 -9.83547 
-9.19211 -0.242055 -0.527925 
-0.242055 -8.47959 0.333844 
-0.527925 0.333844 -10.4491 
-9.43396 0.246009 -0.258911 
0.246009 -8.98774 0.887762 
-0.258911 0.887762 -9.69912 
-9.4662 -0.340438 -0.304423 
-0.340438 -8.62992 0.411556 
-0.304423 0.411556 -10.0247 
-9.51056 -0.0519744 0.00765551 
-0.0519744 -9.15688 -0.709234 
0.00765551 -0.709234 -9.69662 
-9.29064 0.00504245 0.118848 
0.00504245 -9.30974 -0.595122 
0.118848 -0.595122 -9.76369 
-9.45678 0.0835125 0.112313 
0.0835125 -9.05857 -0.740615 
0.112313 -0.740615 -9.84872 
-9.52431 0.0375665 0.0492291 
0.0375665 -9.21537 -0.794109 
0.0492291 -0.794109 -9.62439 
-9.44576 -0.218819 -0.691043 
-0.218819 -9.1854 0.38671 
-0.691043 0.38671 -9.99911 
-9.38152 -0.182087 -1.11855 
-0.182087 -9.79324 0.537347 
-1.11855 0.537347 -9.45551 
-9.53528 -0.175034 -1.05754 
-0.175034 -9.59478 0.606557 
-1.05754 0.606557 -9.50022 
-9.14653 -0.504967 -1.35305 
-0.504967 -9.78353 0.736808 
-1.35305 0.736808 -9.70021 
-9.47877 0.434623 -1.51226 
0.434623 -9.01714 -1.3175 
-1.51226 -1.3175 -8.25537 
-9.60978 0.582498 -1.9314 
0.582498 -10.2115 -0.968542 
-1.9314 -0.968542 -6.93004 
-8.79461 0.157333 -0.413872 
0.157333 -9.225 -0.298926 
-0.413872 -0.298926 -8.73167 
-9.266 0.353592 -1.53335 
0.353592 -9.19019 -1.23204 
-1.53335 -1.23204 -8.29508 
-9.80088 0.0313684 0.23125 
0.0313684 -9.53469 0.970544 
0.23125 0.970544 -9.9716 
-9.83632 0.0616413 0.234337 
0.0616413 -9.5882 0.977087 
0.234337 0.977087 -9.88265 
-9.8439 0.0546364 0.192724 
0.0546364 -9.54149 0.900861 
0.192724 0.900861 -9.92178 
-9.81237 0.037544 0.195595 
0.037544 -9.64588 1.01889 
0.195595 1.01889 -9.84893 
-8.42532 -0.0205501 -0.692113 
-0.0205501 -12.7081 -0.0533737 
-0.692113 -0.0533737 -11.0847 
-10.4519 0.230902 0.394623 
0.230902 -10.1541 0.541168 
0.394623 0.541168 -11.612 
-9.99251 -0.380375 -0.614668 
-0.380375 -10.0564 -0.739447 
-0.614668 -0.739447 -12.1692 
-9.06795 -0.0640854 0.389309 
-0.0640854 -11.1535 0.269435 
0.389309 0.269435 -11.9966 
-9.86407 0.0212773 0.611047 
0.0212773 -9.74054 -0.355388 
0.611047 -0.355388 -9.41973 
-9.51811 -0.169664 0.513519 
-0.169664 -9.85063 -0.458537 
0.513519 -0.458537 -9.65561 
-9.77044 -0.107191 0.545696 
-0.107191 -9.92066 -0.286872 
0.545696 -0.286872 -9.33325 
-9.77356 -0.0448626 0.560942 
-0.0448626 -9.7849 -0.358707 
0.560942 -0.358707 -9.46589 
-1.95817 -0.203188 1.34486 
-0.203188 -3.49052 -0.202204 
1.34486 -0.202204 1.08586 
-2.40189 1.04661 1.63733 
1.04661 -3.58333 -0.706847 
1.63733 -0.706847 1.62239 
-2.31542 1.01025 1.62227 
1.01025 -0.585132 -2.31381 
1.62227 -2.31381 -1.46228 
-1.44965 0.6122 0.532019 
0.6122 -2.80421 -1.83555 
0.532019 -1.83555 -0.108974 
-9.89438 0.0484476 0.911059 
0.0484476 -9.96279 0.281959 
0.911059 0.281959 -9.92201 
-9.94574 0.043385 0.907172 
0.043385 -9.94575 0.288357 
0.907172 0.288357 -9.88768 
-9.87462 0.0180406 0.851056 
0.0180406 -9.78738 0.253022 
0.851056 0.253022 -10.1172 
-9.88822 -0.000182892 0.97032 
-0.000182892 -9.96705 0.24655 
0.97032 0.24655 -9.9239 
-9.93933 0.212047 -0.561452 
0.212047 -9.25514 -1.324 
-0.561452 -1.324 -8.6762 
-9.85863 0.238066 -0.412087 
0.238066 -9.3108 -1.36672 
-0.412087 -1.36672 -8.70125 
-9.77031 -0.0709328 -0.555663 
-0.0709328 -9.30841 -1.37364 
-0.555663 -1.37364 -8.79195 
-9.8729 -0.144338 -0.563115 
-0.144338 -9.32763 -1.49203 
-0.563115 -1.49203 -8.67014 
-7.13241 -0.0729159 -1.22156 
-0.0729159 -8.54816 -1.05045 
-1.22156 -1.05045 -2.46047 
-7.48431 -0.734825 -0.716115 
-0.734825 -8.55172 -0.613276 
-0.716115 -0.613276 -2.105 
-8.04145 0.639161 -0.808306 
0.639161 -7.40449 -1.18467 
-0.808306 -1.18467 -2.6951 
-8.565 0.295996 -1.06228 
0.295996 -7.78424 -0.9742 
-1.06228 -0.9742 -1.79179 
-9.05532 0.0676789 0.207847 
0.0676789 -9.46458 0.415439 
0.207847 0.415439 -10.1044 
-9.26279 0.305506 0.328137 
0.305506 -9.25297 0.205212 
0.328137 0.205212 -10.1085 
-9.06164 0.403017 0.256446 
0.403017 -9.44528 0.0675139 
0.256446 0.0675139 -10.1174 
-9.22431 0.316104 0.2111 
0.316104 -9.35805 0.0583505 
0.2111 0.0583505 -10.0419 
-9.51299 -0.0358584 0.114615 
-0.0358584 -9.49097 -0.0940948 
0.114615 -0.0940948 -9.61181 
-9.22629 -0.279499 0.414449 
-0.279499 -9.61634 -0.113506 
0.414449 -0.113506 -9.77314 
-9.73501 0.117768 0.0213812 
0.117768 -9.56797 -0.00905549 
0.0213812 -0.00905549 -9.31279 
-9.26861 -0.156902 0.11056 
-0.156902 -9.4189 -0.0387068 
0.11056 -0.0387068 -9.92827 
-8.96323 -0.501153 0.953838 
-0.501153 -9.6338 -0.482594 
0.953838 -0.482594 -10.6754 
-8.9766 -0.409332 0.566739 
-0.409332 -9.74493 -0.409404 
0.566739 -0.409404 -10.5509 
-8.7416 -0.611695 0.784366 
-0.611695 -10.0422 -0.270573 
0.784366 -0.270573 -10.4885 
-8.89188 -0.439362 0.616756 
-0.439362 -9.84824 -0.542521 
0.616756 -0.542521 -10.5323 
-9.81038 0.0033652 -0.920061 
0.0033652 -9.75581 -0.370739 
-0.920061 -0.370739 -9.56708 
-9.75471 0.0449955 -0.904567 
0.0449955 -9.90833 -0.260103 
-0.904567 -0.260103 -9.47024 
-9.50205 0.138242 -0.887764 
0.138242 -10.2863 -0.430564 
-0.887764 -0.430564 -9.34489 
-9.72228 -0.0239954 -1.07044 
-0.0239954 -9.90536 -0.0993397 
-1.07044 -0.0993397 -9.50563 
-9.14766 -0.321901 -0.948586 
-0.321901 -9.54875 0.784814 
-0.948586 0.784814 -9.93494 
-9.39628 -0.244036 -0.695234 
-0.244036 -9.38833 0.494424 
-0.695234 0.494424 -9.84675 
-9.41794 -0.23279 -0.712734 
-0.23279 -9.39635 0.549725 
-0.712734 0.549725 -9.81706 
-9.17017 -0.0119517 -0.632174 
-0.0119517 -9.5908 0.464291 
-0.632174 0.464291 -9.87039 
-9.19257 0.246542 -0.791134 
0.246542 -7.90971 -1.56655 
-0.791134 -1.56655 -8.75641 
-9.42867 0.254304 -0.673279 
0.254304 -8.80053 -2.96034 
-0.673279 -2.96034 -7.62949 
-8.74988 0.155342 0.325085 
0.155342 -8.15796 -1.94064 
0.325085 -1.94064 -8.95085 
-9.65828 -0.266385 -1.1557 
-0.266385 -7.89155 -1.82154 
-1.1557 -1.82154 -8.30886 
-9.27869 0.198784 0.650649 
0.198784 -9.30007 1.10046 
0.650649 1.10046 -8.78218 
-9.55238 0.213849 0.818903 
0.213849 -9.08794 1.19692 
0.818903 1.19692 -8.72062 
-9.42883 0.125499 0.823446 
0.125499 -8.88908 1.4133 
0.823446 1.4133 -9.04302 
-9.53095 0.307391 0.964092 
0.307391 -8.82856 1.35139 
0.964092 1.35139 -9.00143 
-9.33881 -0.376334 -0.933188 
-0.376334 -9.34879 0.94062 
-0.933188 0.94062 -9.58821 
-9.35333 -0.250881 -0.842343 
-0.250881 -9.31264 0.677106 
-0.842343 0.677106 -9.60983 
-9.19785 -0.307562 -0.810888 
-0.307562 -9.38174 0.665262 
-0.810888 0.665262 -9.69621 
-9.25775 -0.145109 -0.522318 
-0.145109 -9.12805 0.891826 
-0.522318 0.891826 -9.89001 
-9.62744 0.086631 -0.03005 
0.086631 -9.6064 1.14151 
-0.03005 1.14151 -9.23867 
-9.7093 0.000330887 0.109875 
0.000330887 -9.48582 1.00517 
0.109875 1.00517 -9.27739 
-9.9011 -0.0403308 -0.00352438 
-0.0403308 -9.46144 1.19196 
-0.00352438 1.19196 -9.10996 
-9.58515 0.0276023 0.116118 
0.0276023 -9.6391 1.09711 
0.116118 1.09711 -9.24825 
-10.7758 -3.11641 0.425542 
-3.11641 -8.49155 -0.875004 
0.425542 -0.875004 -21.4902 
-9.42784 -5.32612 -0.0631795 
-5.32612 -7.15002 -1.30764 
-0.0631795 -1.30764 -24.1797 
-10.8481 -4.22153 1.11079 
-4.22153 -4.74633 -0.709252 
1.11079 -0.709252 -25.1632 
-11.8233 -2.95999 -0.380984 
-2.95999 -8.9899 -0.281996 
-0.380984 -0.281996 -19.9443 
-8.98787 -0.701406 -0.234107 
-0.701406 -9.29935 0.0410356 
-0.234107 0.0410356 -10.4425 
-9.86297 -0.137634 -0.500171 
-0.137634 -8.91317 0.723033 
-0.500171 0.723033 -9.9536 
-9.23155 -0.303807 -0.151238 
-0.303807 -9.6418 0.172376 
-0.151238 0.172376 -9.85639 
-9.54161 -0.327944 -0.296279 
-0.327944 -9.18928 0.266866 
-0.296279 0.266866 -9.99885 
-9.58649 -0.134215 0.793843 
-0.134215 -9.78678 -0.471144 
0.793843 -0.471144 -10.0537 
-9.61707 -0.129706 0.749515 
-0.129706 -9.79903 -0.443008 
0.749515 -0.443008 -10.0109 
-9.68426 -0.164374 0.789403 
-0.164374 -9.71195 -0.445806 
0.789403 -0.445806 -10.0308 
-9.67615 -0.0900811 0.710593 
-0.0900811 -9.79741 -0.335527 
0.710593 -0.335527 -9.95342 
-9.46933 0.0269247 -0.309734 
0.0269247 -9.43901 0.713194 
-0.309734 0.713194 -9.59057 
-9.51123 -0.0767261 -0.266743 
-0.0767261 -9.41145 0.725504 
-0.266743 0.725504 -9.57624 
-9.46521 -0.0818735 -0.331007 
-0.0818735 -9.35357 0.683002 
-0.331007 0.683002 -9.68014 
-9.48142 -0.00937436 -0.265339 
-0.00937436 -9.37105 0.657455 
-0.265339 0.657455 -9.64644 
-9.24068 -0.348815 -0.742957 
-0.348815 -9.39742 0.673312 
-0.742957 0.673312 -9.74856 
-9.57142 -0.312512 -0.989294 
-0.312512 -9.34848 0.866901 
-0.989294 0.866901 -9.46676 
-9.43348 -0.389718 -0.952773 
-0.389718 -9.32513 0.89749 
-0.952773 0.89749 -9.62804 
-8.96845 -0.668054 -1.35172 
-0.668054 -9.79615 0.929697 
-1.35172 0.929697 -9.62205 
-9.77441 -0.000363603 0.0267446 
-0.000363603 -9.48606 -0.943332 
0.0267446 -0.943332 -9.81358 
-9.78961 -0.0435208 0.110968 
-0.0435208 -9.46916 -0.960972 
0.110968 -0.960972 -9.81528 
-9.75215 -0.0719365 0.0484241 
-0.0719365 -9.4683 -0.956845 
0.0484241 -0.956845 -9.8536 
-9.82885 -0.0282882 0.252579 
-0.0282882 -9.48996 -1.04801 
0.252579 -1.04801 -9.75524 
-9.43599 0.0394353 -0.121826 
0.0394353 -8.86178 0.551049 
-0.121826 0.551049 -9.72743 
-9.26186 -0.0690017 -0.151953 
-0.0690017 -9.09124 0.828067 
-0.151953 0.828067 -9.6721 
-9.59093 -0.237531 -0.151994 
-0.237531 -8.1705 0.796704 
-0.151994 0.796704 -10.2638 
-9.29663 -0.11149 -0.204282 
-0.11149 -8.87425 0.684378 
-0.204282 0.684378 -9.85432 
-9.06419 0.109637 -1.84987 
0.109637 -9.66148 -0.909088 
-1.84987 -0.909088 -7.72935 
-8.82986 0.209671 -1.57091 
0.209671 -9.41916 -0.989308 
-1.57091 -0.989308 -8.20601 
-9.67885 0.486833 -0.788231 
0.486833 -8.47178 -0.778537 
-0.788231 -0.778537 -8.30441 
-8.69981 0.32612 -1.62411 
0.32612 -9.54 -1.02059 
-1.62411 -1.02059 -8.21523 
-9.44532 0.0257415 0.269422 
0.0257415 -9.94196 -0.0018259 
0.269422 -0.0018259 -10.1418 
-9.44273 0.02472 0.113608 
0.02472 -9.95654 -0.024332 
0.113608 -0.024332 -10.1298 
-9.84747 0.0130729 0.164451 
0.0130729 -9.73458 -0.0706376 
0.164451 -0.0706376 -9.94698 
-9.72677 0.203984 0.155511 
0.203984 -9.73787 0.0174264 
0.155511 0.0174264 -10.0644 
-9.77468 0.199148 0.131391 
0.199148 -9.38554 0.229879 
0.131391 0.229879 -10.011 
-9.89364 0.413181 0.281506 
0.413181 -9.0928 0.413466 
0.281506 0.413466 -10.1847 
-9.59774 -0.258197 0.0480189 
-0.258197 -9.91536 0.159258 
0.0480189 0.159258 -9.65809 
-9.16522 0.430785 0.153095 
0.430785 -9.72219 -0.128223 
0.153095 -0.128223 -10.2838 
-9.69105 0.0327616 0.367173 
0.0327616 -9.67754 0.740371 
0.367173 0.740371 -9.82784 
-9.73327 0.0229887 0.385077 
0.0229887 -9.6474 0.797735 
0.385077 0.797735 -9.81576 
-9.72957 0.0420338 0.299737 
0.0420338 -9.70303 0.664871 
0.299737 0.664871 -9.76383 
-9.70194 0.0933633 0.373197 
0.0933633 -9.6661 0.761055 
0.373197 0.761055 -9.82839 
-9.29852 -0.275854 -0.122074 
-0.275854 -9.03577 0.552329 
-0.122074 0.552329 -9.86596 
-9.58705 -0.273023 -0.189073 
-0.273023 -8.6726 0.370415 
-0.189073 0.370415 -9.9406 
-9.27375 -0.0818513 -0.145857 
-0.0818513 -8.93939 0.412361 
-0.145857 0.412361 -9.98712 
-9.35887 -0.217268 -0.17673 
-0.217268 -8.82969 0.442961 
-0.17673 0.442961 -10.0117 
-9.13494 -0.0350072 0.812137 
-0.0350072 -9.49342 -0.188679 
0.812137 -0.188679 -9.71449 
-9.18331 -0.102705 0.825728 
-0.102705 -9.46097 -0.177817 
0.825728 -0.177817 -9.69857 
-9.0532 -0.107066 0.853816 
-0.107066 -9.5225 -0.17649 
0.853816 -0.17649 -9.76715 
-9.25079 -0.134058 0.878153 
-0.134058 -9.36906 -0.197836 
0.878153 -0.197836 -9.723 
-9.65049 -0.0270521 -0.0905836 
-0.0270521 -9.71041 -0.760646 
-0.0905836 -0.760646 -9.8383 
-9.71049 0.0393564 -0.225351 
0.0393564 -9.66688 -0.8639 
-0.225351 -0.8639 -9.82182 
-9.79525 0.0415629 -0.145201 
0.0415629 -9.65063 -0.706802 
-0.145201 -0.706802 -9.75331 
-9.68656 0.0397109 -0.157968 
0.0397109 -9.66888 -0.820772 
-0.157968 -0.820772 -9.84376 
-9.57221 0.644088 0.354468 
0.644088 -8.90184 0.795519 
0.354468 0.795519 -7.52411 
-8.89386 0.358541 0.714375 
0.358541 -8.45052 1.76817 
0.714375 1.76817 -8.6538 
-9.23556 0.0265031 0.868848 
0.0265031 -8.84875 1.87774 
0.868848 1.87774 -7.91387 
-9.2281 0.240181 0.68784 
0.240181 -8.8078 1.84814 
0.68784 1.84814 -7.96227 
-8.66833 0.288171 -0.467227 
0.288171 -9.97999 -0.171053 
-0.467227 -0.171053 -10.6157 
-9.13388 0.34091 -0.441683 
0.34091 -9.93874 -0.288489 
-0.441683 -0.288489 -10.1914 
-8.80284 0.139029 -0.600002 
0.139029 -9.87242 -0.300561 
-0.600002 -0.300561 -10.5888 
-8.69452 0.275269 -0.56315 
0.275269 -9.9504 -0.16118 
-0.56315 -0.16118 -10.6191 
-8.94553 -0.0950592 1.0776 
-0.0950592 -9.46022 -0.162938 
1.0776 -0.162938 -8.34642 
-10.0287 0.416006 1.53761 
0.416006 -9.63558 0.965501 
1.53761 0.965501 -7.08787 
-9.12634 0.331112 1.77884 
0.331112 -9.4872 0.604844 
1.77884 0.604844 -8.13864 
-9.29072 0.318962 1.59206 
0.318962 -9.51924 0.6627 
1.59206 0.6627 -7.94221 
-9.53302 -0.302458 -0.540257 
-0.302458 -10.4974 0.0676092 
-0.540257 0.0676092 -11.0247 
-8.85055 -0.760804 -0.830335 
-0.760804 -10.1114 0.94351 
-0.830335 0.94351 -12.0931 
-9.37453 -1.54082 -0.273191 
-1.54082 -9.80488 0.175907 
-0.273191 0.175907 -11.8757 
-9.68648 -0.655801 -1.14791 
-0.655801 -10.1073 -0.183774 
-1.14791 -0.183774 -11.2613 
-6.99632 0.729403 2.02904 
0.729403 -6.40314 0.85024 
2.02904 0.85024 -2.59244 
-6.94066 1.20948 1.79817 
1.20948 -6.4731 1.09058 
1.79817 1.09058 -2.57814 
-7.42243 0.47683 1.39966 
0.47683 -5.60594 1.31791 
1.39966 1.31791 -2.96353 
-6.02299 0.516562 3.08755 
0.516562 -5.95696 0.749643 
3.08755 0.749643 -4.01196 
-8.62999 -0.443483 1.19145 
-0.443483 -9.73237 -0.526553 
1.19145 -0.526553 -10.0976 
-8.98249 -0.555286 0.860991 
-0.555286 -9.53661 -0.452907 
0.860991 -0.452907 -9.94083 
-9.06445 -0.518066 1.06809 
-0.518066 -9.49357 -0.599347 
1.06809 -0.599347 -9.90191 
-8.92831 -0.318325 0.433899 
-0.318325 -9.45453 -0.36653 
0.433899 -0.36653 -10.0771 
-9.59164 -0.519514 0.21185 
-0.519514 -7.46584 1.36296 
0.21185 1.36296 -10.595 
-11.2567 0.109535 -0.535777 
0.109535 -6.65643 1.44349 
-0.535777 1.44349 -9.73933 
-8.14981 -1.80581 -1.64321 
-1.80581 -7.54868 4.11085 
-1.64321 4.11085 -11.954 
-10.9313 -0.482824 -0.0918464 
-0.482824 -8.8262 2.20595 
-0.0918464 2.20595 -7.89498 
-9.35678 -0.295373 0.658564 
-0.295373 -9.31465 -0.732572 
0.658564 -0.732572 -9.79282 
-9.34416 -0.175155 0.696881 
-0.175155 -9.38491 -0.806601 
0.696881 -0.806601 -9.73518 
-9.55762 -0.257317 0.866855 
-0.257317 -9.29392 -0.871737 
0.866855 -0.871737 -9.61271 
-9.31829 -0.227455 0.881525 
-0.227455 -9.44161 -0.437594 
0.881525 -0.437594 -9.70436 
-10.6559 -1.23513 0.032532 
-1.23513 -8.91083 -0.720284 
0.032532 -0.720284 -12.3425 
-10.3425 -0.169517 -0.406414 
-0.169517 -8.91877 0.808518 
-0.406414 0.808518 -12.6479 
-10.8122 -0.0168603 -0.164594 
-0.0168603 -9.31971 0.46824 
-0.164594 0.46824 -11.7773 
-11.3875 -0.29226 0.372919 
-0.29226 -9.61835 0.948748 
0.372919 0.948748 -10.9033 
-7.91507 0.165112 3.8436 
0.165112 -8.76395 1.23398 
3.8436 1.23398 -6.39355 
-8.13746 0.590535 3.71697 
0.590535 -8.14866 1.60147 
3.71697 1.60147 -6.78646 
-7.79842 0.453407 -1.06159 
0.453407 -7.14899 0.479893 
-1.06159 0.479893 -8.12517 
-8.94412 1.25588 3.49947 
1.25588 -9.26994 2.69476 
3.49947 2.69476 -4.85852 
-9.47405 0.0962874 -0.349893 
0.0962874 -9.16488 -0.711909 
-0.349893 -0.711909 -9.72229 
-9.45529 0.12436 -0.318301 
0.12436 -9.10355 -0.748787 
-0.318301 -0.748787 -9.80238 
-9.51808 0.1667 -0.321936 
0.1667 -9.02787 -0.707059 
-0.321936 -0.707059 -9.81527 
-9.34685 0.17413 -0.331011 
0.17413 -9.25067 -0.851293 
-0.331011 -0.851293 -9.7637 
-9.60601 -0.970505 0.12163 
-0.970505 -9.04084 -0.199363 
0.12163 -0.199363 -11.9141 
-10.691 -0.637012 0.0340399 
-0.637012 -9.4742 -0.289992 
0.0340399 -0.289992 -10.3958 
-9.97572 -1.01441 0.40779 
-1.01441 -8.95943 -0.72361 
0.40779 -0.72361 -11.6258 
-10.034 -0.893569 0.487071 
-0.893569 -8.95056 -0.589119 
0.487071 -0.589119 -11.5764 
-9.73167 -0.0240655 -0.309104 
-0.0240655 -9.02619 0.898889 
-0.309104 0.898889 -9.6099 
-9.73595 -0.275237 -0.429662 
-0.275237 -8.87902 1.22053 
-0.429662 1.22053 -9.7528 
-9.45337 -0.263287 -0.475204 
-0.263287 -9.16055 1.11357 
-0.475204 1.11357 -9.75384 
-9.45746 -0.303224 -0.420317 
-0.303224 -9.39101 1.18722 
-0.420317 1.18722 -9.51929 
-9.74145 -0.0797488 -0.641662 
-0.0797488 -9.78856 0.643694 
-0.641662 0.643694 -9.88151 
-9.64382 -0.267687 -0.758387 
-0.267687 -10.1301 0.760733 
-0.758387 0.760733 -9.6376 
-9.90099 -0.0758664 -0.680868 
-0.0758664 -9.73896 0.706806 
-0.680868 0.706806 -9.77156 
-9.93134 -0.0462953 -0.627779 
-0.0462953 -9.63556 0.858992 
-0.627779 0.858992 -9.84461 
-9.64929 0.134561 0.343874 
0.134561 -9.10508 1.06455 
0.343874 1.06455 -9.87837 
-9.33119 -0.156479 -0.0160102 
-0.156479 -9.26546 0.67695 
-0.0160102 0.67695 -10.0361 
-9.62074 0.310115 0.273695 
0.310115 -9.35066 0.71133 
0.273695 0.71133 -9.66133 
-9.67904 0.0939327 0.464986 
0.0939327 -9.25588 0.90477 
0.464986 0.90477 -9.69781 
-9.75161 0.0276543 0.533898 
0.0276543 -9.83533 0.534578 
0.533898 0.534578 -9.90644 
-9.78509 -0.00259174 0.632316 
-0.00259174 -9.796 0.674486 
0.632316 0.674486 -9.91228 
-9.7893 0.0433933 0.577105 
0.0433933 -9.76631 0.617323 
0.577105 0.617323 -9.93776 
-9.80433 0.0700618 0.631624 
0.0700618 -9.7679 0.617596 
0.631624 0.617596 -9.92114 
-9.94393 0.317706 0.633749 
0.317706 -9.2736 1.91324 
0.633749 1.91324 -8.05205 
-9.81002 0.307033 0.275916 
0.307033 -8.75367 1.74991 
0.275916 1.74991 -8.70589 
-9.51321 -0.0964742 0.139559 
-0.0964742 -8.9837 1.35328 
0.139559 1.35328 -8.77267 
-9.71072 0.207938 0.0979333 
0.207938 -8.81701 1.78485 
0.0979333 1.78485 -8.74185 
-9.75067 -0.04337 -0.0268369 
-0.04337 -9.60622 0.889879 
-0.0268369 0.889879 -9.8808 
-9.74377 -0.0334388 -0.0702644 
-0.0334388 -9.64924 0.91847 
-0.0702644 0.91847 -9.84468 
-9.76465 -0.136749 -0.0926649 
-0.136749 -9.56416 0.931711 
-0.0926649 0.931711 -9.90889 
-9.92196 -0.0161522 -0.188421 
-0.0161522 -9.54119 0.976216 
-0.188421 0.976216 -9.77455 
-9.63177 -0.0636521 -0.793674 
-0.0636521 -9.63794 -0.442654 
-0.793674 -0.442654 -9.89906 
-9.63893 0.154964 -0.686899 
0.154964 -9.74878 -0.474363 
-0.686899 -0.474363 -9.78106 
-9.67382 0.0544764 -0.639397 
0.0544764 -9.7221 -0.427486 
-0.639397 -0.427486 -9.77284 
-9.63318 0.0562627 -0.65735 
0.0562627 -9.63891 -0.508878 
-0.65735 -0.508878 -9.89668 
-9.36067 0.118935 0.315766 
0.118935 -9.07103 0.700631 
0.315766 0.700631 -9.72081 
-9.3469 0.235925 0.424018 
0.235925 -9.06658 0.808402 
0.424018 0.808402 -9.73902 
-9.29432 0.139156 0.449133 
0.139156 -9.22438 0.730276 
0.449133 0.730276 -9.6338 
-9.26103 0.172447 0.404851 
0.172447 -9.23484 0.694492 
0.404851 0.694492 -9.65663 
-10.1469 -0.00514046 0.243981 
-0.00514046 -10.1173 -0.829748 
0.243981 -0.829748 -9.7381 
-9.98135 0.0809945 0.207839 
0.0809945 -9.86141 -0.617455 
0.207839 -0.617455 -10.1595 
-10.0912 -0.00132683 0.293183 
-0.00132683 -9.92141 -0.693917 
0.293183 -0.693917 -9.98966 
-10.0608 -0.043347 0.311763 
-0.043347 -10.1881 -0.710312 
0.311763 -0.710312 -9.75342 
-9.76744 0.00300553 -0.272224 
0.00300553 -9.75015 0.990191 
-0.272224 0.990191 -9.86001 
-9.82879 0.202267 -0.0634335 
0.202267 -9.61868 0.733002 
-0.0634335 0.733002 -9.93013 
-9.82666 -0.0430748 -0.182415 
-0.0430748 -9.7437 0.837653 
-0.182415 0.837653 -9.80724 
-9.98102 -9.06869e-06 -0.314102 
-9.06869e-06 -9.56971 1.16365 
-0.314102 1.16365 -9.82687 
-5.68762 1.07488 -2.39201 
1.07488 -7.84204 0.798424 
-2.39201 0.798424 -1.96205 
-6.66764 0.460174 -0.693704 
0.460174 -6.33373 2.20899 
-0.693704 2.20899 -2.49034 
-7.32725 -0.18831 -2.05348 
-0.18831 -6.63001 3.07193 
-2.05348 3.07193 -1.53445 
-2.53256 0.58142 -4.1797 
0.58142 -7.80135 0.383353 
-4.1797 0.383353 -5.15781 
-9.72667 0.262337 -0.749872 
0.262337 -9.56947 -0.582292 
-0.749872 -0.582292 -10.0006 
-9.59864 0.132923 -0.684294 
0.132923 -9.76561 -0.514064 
-0.684294 -0.514064 -9.93253 
-9.60503 0.132899 -0.770831 
0.132899 -9.73095 -0.548796 
-0.770831 -0.548796 -9.9608 
-9.70678 0.050438 -0.554954 
0.050438 -9.7186 -0.327486 
-0.554954 -0.327486 -9.8714 
-9.32399 0.362443 0.832534 
0.362443 -9.53791 0.690865 
0.832534 0.690865 -9.80048 
-9.20368 0.242779 0.802545 
0.242779 -9.55904 0.547514 
0.802545 0.547514 -9.89966 
-9.59033 0.162154 0.442592 
0.162154 -9.15758 0.539921 
0.442592 0.539921 -9.91446 
-9.2318 0.291456 0.76975 
0.291456 -9.47106 0.555303 
0.76975 0.555303 -9.95952 
-9.65731 -0.0387786 0.0904267 
-0.0387786 -9.72722 -0.779117 
0.0904267 -0.779117 -9.6047 
-9.56977 -0.00770313 0.189273 
-0.00770313 -9.7921 -0.759724 
0.189273 -0.759724 -9.62736 
-9.62483 0.0195096 0.205431 
0.0195096 -9.39453 -0.84629 
0.205431 -0.84629 -9.96986 
-9.74532 -0.102567 0.281698 
-0.102567 -9.5281 -0.696504 
0.281698 -0.696504 -9.71581 
-9.4298 -0.3225 -0.0503314 
-0.3225 -9.23542 -0.312262 
-0.0503314 -0.312262 -9.8167 
-9.35021 -0.250469 0.11611 
-0.250469 -9.40975 -0.176744 
0.11611 -0.176744 -9.72196 
-9.35116 -0.179073 0.547114 
-0.179073 -8.80482 0.104317 
0.547114 0.104317 -10.3259 
-10.1632 -0.00804792 0.0406763 
-0.00804792 -8.84064 -1.042 
0.0406763 -1.042 -9.47809 
-9.03287 -0.150747 -0.685188 
-0.150747 -9.72726 0.57321 
-0.685188 0.57321 -10.0791 
-7.80834 -1.50487 -1.68809 
-1.50487 -10.4709 1.3483 
-1.68809 1.3483 -10.5599 
-8.88724 -0.442655 -2.00654 
-0.442655 -10.1976 0.762295 
-2.00654 0.762295 -9.75434 
-9.28056 -0.334541 -2.08635 
-0.334541 -9.52299 0.847107 
-2.08635 0.847107 -10.0356 
-9.54025 0.0128162 0.0705417 
0.0128162 -9.31469 -0.560196 
0.0705417 -0.560196 -9.38178 
-9.43436 -0.140082 0.197199 
-0.140082 -8.87568 -0.76307 
0.197199 -0.76307 -9.92668 
-9.15321 0.178913 0.0561311 
0.178913 -9.80938 -0.517721 
0.0561311 -0.517721 -9.27413 
-9.47092 0.119472 -0.136632 
0.119472 -9.05953 -0.494076 
-0.136632 -0.494076 -9.70626 
-9.66977 0.315375 -0.109195 
0.315375 -9.61141 -0.100777 
-0.109195 -0.100777 -10.1158 
-9.76501 0.171978 -0.207338 
0.171978 -9.71536 -0.159259 
-0.207338 -0.159259 -9.91665 
-9.71352 0.0770584 -0.127475 
0.0770584 -9.70745 -0.233658 
-0.127475 -0.233658 -9.97605 
-9.64875 -0.00304828 -0.241675 
-0.00304828 -9.77666 -0.260981 
-0.241675 -0.260981 -9.97161 
-9.45383 -0.313593 0.582658 
-0.313593 -9.31616 -0.81184 
0.582658 -0.81184 -9.95584 
-9.53329 0.0118299 0.405943 
0.0118299 -9.58119 -0.598085 
0.405943 -0.598085 -9.61135 
-9.6876 0.143754 0.429357 
0.143754 -9.66681 -0.562125 
0.429357 -0.562125 -9.37142 
-9.55216 -0.139525 0.131695 
-0.139525 -9.21641 -0.532018 
0.131695 -0.532018 -9.95725 
-9.39352 -0.0996265 -0.176679 
-0.0996265 -9.00207 0.747148 
-0.176679 0.747148 -9.62302 
-9.20835 -0.0743277 -0.192423 
-0.0743277 -9.08492 0.751864 
-0.192423 0.751864 -9.72535 
-9.22582 -0.0859343 -0.204173 
-0.0859343 -9.04503 0.756783 
-0.204173 0.756783 -9.74777 
-9.33341 -0.11846 -0.148428 
-0.11846 -9.12237 0.703171 
-0.148428 0.703171 -9.56283 
-8.8584 -0.000127578 -0.4353 
-0.000127578 -9.23443 0.110621 
-0.4353 0.110621 -10.3871 
-9.40242 -0.143658 -0.471181 
-0.143658 -9.75041 -0.158359 
-0.471181 -0.158359 -9.32706 
-9.07942 0.0681999 -0.809655 
0.0681999 -9.45909 -0.0990764 
-0.809655 -0.0990764 -9.94138 
-9.09275 -0.0056222 -0.705574 
-0.0056222 -9.56136 0.014766 
-0.705574 0.014766 -9.82577 
-9.81801 -0.157492 -0.160528 
-0.157492 -9.65109 -0.776675 
-0.160528 -0.776675 -10.0094 
-9.86986 0.0326953 -0.230269 
0.0326953 -9.68638 -0.972124 
-0.230269 -0.972124 -9.92229 
-9.88509 0.0479637 -0.237749 
0.0479637 -9.64871 -0.893855 
-0.237749 -0.893855 -9.94474 
-9.94085 -0.0652459 -0.260895 
-0.0652459 -9.71725 -1.14147 
-0.260895 -1.14147 -9.82043 
-9.78119 0.0958626 -0.151043 
0.0958626 -9.61681 -0.919265 
-0.151043 -0.919265 -9.86308 
-9.8189 0.0466304 -0.160005 
0.0466304 -9.64475 -0.925935 
-0.160005 -0.925935 -9.79743 
-9.74666 0.042252 -0.180404 
0.042252 -9.62919 -0.831113 
-0.180404 -0.831113 -9.88523 
-9.83602 0.015569 -0.0968515 
0.015569 -9.60656 -0.861806 
-0.0968515 -0.861806 -9.8185 
-9.36551 0.0237314 -0.379153 
0.0237314 -9.40282 -0.348679 
-0.379153 -0.348679 -9.53196 
-9.30643 0.276381 -0.492484 
0.276381 -9.33204 -0.526705 
-0.492484 -0.526705 -9.66184 
-9.50214 -0.215188 -0.357504 
-0.215188 -9.52491 -0.301942 
-0.357504 -0.301942 -9.27325 
-9.30937 0.12225 -0.25472 
0.12225 -9.27413 -0.337535 
-0.25472 -0.337535 -9.7168 
-9.40818 -0.0331459 -0.295251 
-0.0331459 -9.34193 0.543216 
-0.295251 0.543216 -9.61061 
-9.43266 0.00918482 -0.309107 
0.00918482 -9.36055 0.478861 
-0.309107 0.478861 -9.56751 
-9.39694 -0.0832819 -0.325398 
-0.0832819 -9.32641 0.509168 
-0.325398 0.509168 -9.63737 
-9.43018 -0.0546872 -0.348266 
-0.0546872 -9.3371 0.539113 
-0.348266 0.539113 -9.59345 
-5.58093 0.0255802 -0.404287 
0.0255802 -3.94068 -1.9884 
-0.404287 -1.9884 -2.239 
-3.97397 -0.366421 0.102518 
-0.366421 -4.41974 -1.9508 
0.102518 -1.9508 -3.3669 
-8.56654 -0.595009 -0.198427 
-0.595009 -9.86305 -2.7175 
-0.198427 -2.7175 6.66898 
-3.70961 -0.751366 -1.64921 
-0.751366 -4.42078 -3.70948 
-1.64921 -3.70948 -3.63021 
-3.44336 -0.0757115 0.340152 
-0.0757115 -3.80932 -0.447102 
0.340152 -0.447102 -0.368266 
-3.84218 -0.0633048 0.725676 
-0.0633048 -3.47569 -0.635759 
0.725676 -0.635759 -0.303081 
-3.34859 0.0567198 0.525431 
0.0567198 -3.17683 -0.859433 
0.525431 -0.859433 -1.09553 
-3.09356 0.156378 0.277259 
0.156378 -3.81206 -0.272004 
0.277259 -0.272004 -0.715335 
-10.1097 0.0283303 -0.933018 
0.0283303 -10.0797 -0.183895 
-0.933018 -0.183895 -9.7516 
-9.80805 0.0423048 -0.733134 
0.0423048 -9.87729 -0.091499 
-0.733134 -0.091499 -10.2557 
-9.9228 -0.0725054 -0.872112 
-0.0725054 -10.0899 -0.129741 
-0.872112 -0.129741 -9.92834 
-9.9881 0.0327577 -0.915346 
0.0327577 -10.0949 -0.0417607 
-0.915346 -0.0417607 -9.85808 
-9.63657 0.234517 -0.379501 
0.234517 -9.17018 -1.09894 
-0.379501 -1.09894 -9.2628 
-9.32116 -0.144871 -0.233476 
-0.144871 -9.2589 -1.18056 
-0.233476 -1.18056 -9.4895 
-9.83924 0.128317 -0.208107 
0.128317 -9.07112 -1.35618 
-0.208107 -1.35618 -9.1592 
-9.6972 0.182677 -0.216434 
0.182677 -9.1416 -1.21753 
-0.216434 -1.21753 -9.23077 
-9.91055 0.286145 0.179997 
0.286145 -9.64012 0.0670058 
0.179997 0.0670058 -9.63248 
-10.154 0.289811 0.32884 
0.289811 -9.89442 0.0539578 
0.32884 0.0539578 -9.13478 
-9.84834 -0.137495 0.197947 
-0.137495 -10.0153 -0.0137515 
0.197947 -0.0137515 -9.31954 
-9.81256 -0.159622 0.385575 
-0.159622 -9.9243 -0.0274316 
0.385575 -0.0274316 -9.44629 
-9.51004 -0.355141 -0.257817 
-0.355141 -8.55589 1.04486 
-0.257817 1.04486 -9.94573 
-9.61698 -0.332723 -0.160791 
-0.332723 -8.39116 1.00858 
-0.160791 1.00858 -10.0035 
-9.41153 -0.387298 -0.335274 
-0.387298 -8.54145 1.1228 
-0.335274 1.1228 -10.0587 
-9.31858 -0.0535625 -0.353677 
-0.0535625 -8.77628 1.09515 
-0.353677 1.09515 -9.9168 
-7.73402 1.46957 -3.44896 
1.46957 -9.88486 -0.539569 
-3.44896 -0.539569 -10.2426 
-8.8183 1.35691 -2.7273 
1.35691 -9.32178 -0.622181 
-2.7273 -0.622181 -9.72141 
-8.5593 1.21556 -2.80179 
1.21556 -10.2866 -1.47002 
-2.80179 -1.47002 -9.01562 
-7.16095 2.46243 -2.07144 
2.46243 -9.1951 -0.510041 
-2.07144 -0.510041 -11.5054 
-9.81302 -0.0442408 -0.77361 
-0.0442408 -9.74804 -0.544454 
-0.77361 -0.544454 -9.92818 
-9.81668 0.0683117 -0.650164 
0.0683117 -9.73281 -0.410312 
-0.650164 -0.410312 -9.93975 
-9.7668 0.0156412 -0.669254 
0.0156412 -9.75836 -0.459553 
-0.669254 -0.459553 -9.96408 
-9.8034 0.0335364 -0.750076 
0.0335364 -9.82575 -0.51933 
-0.750076 -0.51933 -9.86009 
-9.77538 -0.0355694 0.107476 
-0.0355694 -9.4439 -0.10994 
0.107476 -0.10994 -9.93883 
-9.82406 -0.337278 0.365343 
-0.337278 -9.57582 -0.275547 
0.365343 -0.275547 -9.75823 
-9.44509 -0.0566628 0.0952425 
-0.0566628 -9.29062 -0.127689 
0.0952425 -0.127689 -10.4224 
-8.95253 -0.197157 0.115885 
-0.197157 -9.90664 -0.29056 
0.115885 -0.29056 -10.2989 
-9.72448 0.357347 -0.40559 
0.357347 -8.54206 -1.62643 
-0.40559 -1.62643 -9.37839 
-9.76467 0.120372 -0.354361 
0.120372 -8.15388 -1.28615 
-0.354361 -1.28615 -9.72638 
-9.18034 0.517481 -0.535813 
0.517481 -9.06502 -1.35045 
-0.535813 -1.35045 -9.39956 
-9.69372 0.161796 -0.137361 
0.161796 -8.44913 -1.34693 
-0.137361 -1.34693 -9.50209 
-9.59114 -0.369787 0.118067 
-0.369787 -10.2582 0.402642 
0.118067 0.402642 -10.8034 
-9.55292 -0.26775 -0.43981 
-0.26775 -9.55297 0.624924 
-0.43981 0.624924 -11.5468 
-10.3426 -0.816526 -0.175506 
-0.816526 -9.71914 -0.666867 
-0.175506 -0.666867 -10.591 
-10.0218 -0.4752 -0.20154 
-0.4752 -9.88683 0.0628821 
-0.20154 0.0628821 -10.7441 
-10.3333 0.284019 0.0151863 
0.284019 -10.0094 0.0182153 
0.0151863 0.0182153 -11.0664 
-10.4764 0.199585 0.0708231 
0.199585 -10.0573 -0.159716 
0.0708231 -0.159716 -10.8754 
-10.2956 0.456541 -0.0434457 
0.456541 -10.0004 -0.200176 
-0.0434457 -0.200176 -11.1131 
-10.5476 0.0950181 0.141821 
0.0950181 -9.94551 -0.103857 
0.141821 -0.103857 -10.916 
-9.90501 -1.04933 -0.66565 
-1.04933 -8.34905 1.00879 
-0.66565 1.00879 -12.4859 
-9.22996 -1.2004 -0.822455 
-1.2004 -8.71682 1.24639 
-0.822455 1.24639 -12.7932 
-11.7627 0.912342 0.245624 
0.912342 -8.98407 0.435031 
0.245624 0.435031 -9.99315 
-10.5399 -1.32186 -0.779916 
-1.32186 -7.98404 1.38176 
-0.779916 1.38176 -12.216 
-9.22568 0.375366 1.06417 
0.375366 -9.43208 0.858142 
1.06417 0.858142 -9.66404 
-9.27688 0.114254 0.522466 
0.114254 -9.07088 0.77492 
0.522466 0.77492 -9.97404 
-9.15219 0.252255 0.848482 
0.252255 -9.5156 0.555466 
0.848482 0.555466 -9.65402 
-9.36681 0.250205 0.935722 
0.250205 -9.41952 0.528844 
0.935722 0.528844 -9.53548 
-8.2268 -0.416751 1.86756 
-0.416751 -9.49872 -0.418599 
1.86756 -0.418599 -9.57762 
-8.69589 -0.554087 1.51375 
-0.554087 -8.68769 -0.615454 
1.51375 -0.615454 -9.91956 
-8.0435 -0.607428 1.34826 
-0.607428 -9.74329 -0.218676 
1.34826 -0.218676 -9.51635 
-7.76701 0.0271447 1.09809 
0.0271447 -9.81952 -0.01179 
1.09809 -0.01179 -9.7166 
-9.48868 -0.0400037 -0.000888019 
-0.0400037 -9.46072 0.462727 
-0.000888019 0.462727 -9.65163 
-9.49993 -0.0114668 -0.0271107 
-0.0114668 -9.37646 0.507246 
-0.0271107 0.507246 -9.72463 
-9.52968 0.029699 -0.00100741 
0.029699 -9.21304 0.44493 
-0.00100741 0.44493 -9.8583 
-9.49866 -0.0183413 -0.0028246 
-0.0183413 -9.3902 0.583329 
-0.0028246 0.583329 -9.71217 
-9.63803 0.0831156 0.575802 
0.0831156 -9.80153 0.406355 
0.575802 0.406355 -9.6758 
-9.66476 -0.0757935 0.596054 
-0.0757935 -9.61672 0.427301 
0.596054 0.427301 -9.83388 
-9.63357 0.0597538 0.782469 
0.0597538 -9.6727 0.457275 
0.782469 0.457275 -9.80909 
-9.60799 0.0410511 0.690459 
0.0410511 -9.64977 0.469185 
0.690459 0.469185 -9.8576 
-10.0335 1.82674 0.606014 
1.82674 -10.6619 1.00543 
0.606014 1.00543 -13.5023 
-9.28547 0.541866 2.32606 
0.541866 -12.3569 -0.17439 
2.32606 -0.17439 -12.5554 
-3.13517 -1.77516 2.57152 
-1.77516 -13.6788 2.52189 
2.57152 2.52189 -17.3837 
-9.18373 1.97574 2.07561 
1.97574 -11.0083 0.306074 
2.07561 0.306074 -14.0057 
-9.75162 -0.19152 0.672431 
-0.19152 -8.81809 -1.82929 
0.672431 -1.82929 -7.98498 
-9.97579 -0.028547 0.445423 
-0.028547 -8.90027 -1.89311 
0.445423 -1.89311 -7.67863 
-9.38819 -0.322671 0.572354 
-0.322671 -9.01095 -1.6775 
0.572354 -1.6775 -8.15555 
-9.76655 -0.244777 0.550864 
-0.244777 -9.19712 -1.71984 
0.550864 -1.71984 -7.59102 
-9.21495 -0.527323 -1.07019 
-0.527323 -9.49231 0.369649 
-1.07019 0.369649 -9.33061 
-9.13285 -0.423303 -1.15772 
-0.423303 -9.58327 0.441359 
-1.15772 0.441359 -9.32175 
-9.12785 -0.132297 -1.28925 
-0.132297 -9.52569 0.573809 
-1.28925 0.573809 -9.38433 
-8.91239 -0.389518 -1.25068 
-0.389518 -9.55682 0.510112 
-1.25068 0.510112 -9.56866 
-11.2662 -0.867555 3.19612 
-0.867555 -6.46972 -0.687682 
3.19612 -0.687682 -15.0592 
-9.14525 -1.72435 1.25141 
-1.72435 -10.7068 -0.319125 
1.25141 -0.319125 -12.9431 
-10.6998 -0.875208 0.599593 
-0.875208 -9.57476 -1.71126 
0.599593 -1.71126 -12.5205 
-10.9083 -0.942884 1.86108 
-0.942884 -8.72239 -0.714063 
1.86108 -0.714063 -13.1644 
-9.61336 0.0517514 -0.234034 
0.0517514 -9.49159 -0.720913 
-0.234034 -0.720913 -9.69617 
-9.53541 0.104121 -0.347887 
0.104121 -9.40076 -0.695357 
-0.347887 -0.695357 -9.86494 
-9.67103 0.088064 -0.247608 
0.088064 -9.38174 -0.7806 
-0.247608 -0.7806 -9.74834 
-9.45322 0.13904 -0.355092 
0.13904 -9.50171 -0.770715 
-0.355092 -0.770715 -9.84619 
-9.91802 -0.0559808 0.49317 
-0.0559808 -9.87881 -0.70681 
0.49317 -0.70681 -10.0811 
-9.96829 0.00101208 0.561387 
0.00101208 -10.0105 -0.780904 
0.561387 -0.780904 -9.89907 
-10.0011 -0.025434 0.552681 
-0.025434 -9.94804 -0.776938 
0.552681 -0.776938 -9.92877 
-9.9418 -0.105465 0.569363 
-0.105465 -9.91569 -0.800751 
0.569363 -0.800751 -10.0204 
-9.69441 -0.0503176 -0.491057 
-0.0503176 -9.6613 0.697944 
-0.491057 0.697944 -9.81618 
-9.71965 -0.0574556 -0.485065 
-0.0574556 -9.65962 0.654496 
-0.485065 0.654496 -9.79263 
-9.68864 0.0155949 -0.433889 
0.0155949 -9.71342 0.627854 
-0.433889 0.627854 -9.76984 
-9.67443 -0.0971804 -0.47778 
-0.0971804 -9.70438 0.684055 
-0.47778 0.684055 -9.79308 
-9.75271 0.0123294 0.869139 
0.0123294 -9.83862 -0.0136273 
0.869139 -0.0136273 -10.0044 
-9.78828 0.00814997 0.925832 
0.00814997 -9.84105 -0.00967347 
0.925832 -0.00967347 -9.96639 
-9.80752 0.00495313 0.905546 
0.00495313 -9.88977 0.0312244 
0.905546 0.0312244 -9.89844 
-9.80579 0.0155738 0.918958 
0.0155738 -9.9089 0.0602797 
0.918958 0.0602797 -9.88104 
-9.60132 -0.0985067 -0.0636612 
-0.0985067 -9.43038 -0.515598 
-0.0636612 -0.515598 -9.18802 
-9.24983 -0.146126 0.431337 
-0.146126 -9.06554 -0.674566 
0.431337 -0.674566 -9.90435 
-9.34221 -0.298843 0.091525 
-0.298843 -9.08456 -0.464641 
0.091525 -0.464641 -9.79295 
-9.43086 -0.169395 0.183415 
-0.169395 -9.11128 -0.460974 
0.183415 -0.460974 -9.67759 
-9.78881 -0.0175591 0.863762 
-0.0175591 -9.77048 0.37308 
0.863762 0.37308 -9.91673 
-9.74234 0.0317003 0.738868 
0.0317003 -9.76417 0.276673 
0.738868 0.276673 -9.96952 
-9.66113 0.0234991 0.711467 
0.0234991 -9.87078 0.353906 
0.711467 0.353906 -9.94412 
-9.77301 0.0262442 0.846435 
0.0262442 -9.83921 0.347372 
0.846435 0.347372 -9.86381 
-9.26596 -0.295113 -0.584123 
-0.295113 -9.23653 1.18327 
-0.584123 1.18327 -9.85053 
-9.83512 -0.319499 -0.394122 
-0.319499 -8.98254 1.28258 
-0.394122 1.28258 -9.53536 
-9.69463 -0.147689 -0.0881677 
-0.147689 -8.98672 0.839516 
-0.0881677 0.839516 -9.67167 
-9.4919 -0.268421 -0.614694 
-0.268421 -8.75727 1.03961 
-0.614694 1.03961 -10.1038 
-11.2312 -1.3035 -0.135069 
-1.3035 -9.52558 0.383025 
-0.135069 0.383025 -12.8353 
-11.4527 -0.130295 0.148973 
-0.130295 -10.2241 0.783193 
0.148973 0.783193 -11.9153 
-10.8935 -0.607293 -0.20035 
-0.607293 -9.85856 0.999472 
-0.20035 0.999472 -12.8401 
-11.5718 -0.868014 -0.414265 
-0.868014 -9.35554 0.395443 
-0.414265 0.395443 -12.6648 
-10.7493 1.09774 0.396966 
1.09774 -8.81913 -0.210093 
0.396966 -0.210093 -12.1843 
-10.9509 0.468678 -0.334983 
0.468678 -9.63862 0.907732 
-0.334983 0.907732 -11.1632 
-10.7934 0.381893 0.110655 
0.381893 -9.3922 0.58465 
0.110655 0.58465 -11.5672 
-10.4851 0.465917 0.119165 
0.465917 -9.13056 0.780383 
0.119165 0.780383 -12.137 
-6.56965 -0.886385 1.31368 
-0.886385 -6.71279 2.90333 
1.31368 2.90333 -2.04503 
-6.00088 -0.0907701 1.95865 
-0.0907701 -7.43986 1.93533 
1.95865 1.93533 -1.88673 
-7.51986 0.245647 2.79743 
0.245647 -6.59866 2.57954 
2.79743 2.57954 -1.20895 
-6.42706 -0.803312 -0.0655803 
-0.803312 -3.94121 3.53725 
-0.0655803 3.53725 -4.95919 
-9.67538 0.113562 0.456372 
0.113562 -9.63285 0.533411 
0.456372 0.533411 -9.7443 
-9.62089 0.103088 0.533753 
0.103088 -9.57964 0.660904 
0.533753 0.660904 -9.852 
-9.60589 -0.0261821 0.606356 
-0.0261821 -9.6229 0.769163 
0.606356 0.769163 -9.82375 
-9.66546 0.13131 0.529855 
0.13131 -9.52455 0.669292 
0.529855 0.669292 -9.86253 
-9.62615 -0.044052 0.370832 
-0.044052 -9.44362 0.211635 
0.370832 0.211635 -9.76096 
-8.7785 0.0196412 -0.0623854 
0.0196412 -9.46954 0.125865 
-0.0623854 0.125865 -10.5827 
-9.56338 0.429977 0.591115 
0.429977 -9.64678 0.0790717 
0.591115 0.0790717 -9.62058 
-9.14479 0.571598 1.0365 
0.571598 -10.03 0.81242 
1.0365 0.81242 -9.65598 
-9.22614 -0.373402 -0.446932 
-0.373402 -9.83642 -0.561342 
-0.446932 -0.561342 -8.97981 
-9.29794 0.0161242 -0.375401 
0.0161242 -9.26527 -0.42008 
-0.375401 -0.42008 -9.47916 
-9.37367 0.427823 -0.0780987 
0.427823 -8.81074 -0.0753731 
-0.0780987 -0.0753731 -9.85796 
-9.07274 0.329584 -0.224633 
0.329584 -8.92835 -0.776433 
-0.224633 -0.776433 -10.0413 
-9.95038 -0.074128 -0.470125 
-0.074128 -9.93727 0.87469 
-0.470125 0.87469 -9.99071 
-9.85559 -0.0107243 -0.507354 
-0.0107243 -9.89714 0.809739 
-0.507354 0.809739 -10.1256 
-10.0593 -0.0907902 -0.452589 
-0.0907902 -10.0404 0.734933 
-0.452589 0.734933 -9.77867 
-10 -0.123039 -0.358809 
-0.123039 -9.96121 0.846088 
-0.358809 0.846088 -9.91715 
-9.7992 -0.314572 -0.290344 
-0.314572 -8.00399 1.61475 
-0.290344 1.61475 -9.88515 
-9.52088 -0.204115 -0.406645 
-0.204115 -8.41452 1.19377 
-0.406645 1.19377 -9.75295 
-9.43328 -0.415601 -0.401254 
-0.415601 -8.36967 1.04638 
-0.401254 1.04638 -9.8854 
-9.18541 0.0263099 0.191479 
0.0263099 -8.49459 1.20237 
0.191479 1.20237 -10.0083 
-10.0854 1.26713 -0.329814 
1.26713 -9.40728 -0.0512449 
-0.329814 -0.0512449 -11.712 
-10.392 0.371436 0.0827635 
0.371436 -10.1379 -1.03111 
0.0827635 -1.03111 -10.6747 
-10.4828 0.805512 -0.458673 
0.805512 -9.40306 -0.521677 
-0.458673 -0.521677 -11.3188 
-10.4057 0.762059 -0.775747 
0.762059 -8.5617 -0.60292 
-0.775747 -0.60292 -12.2373 
-9.13324 0.300611 0.376782 
0.300611 -9.43651 0.248133 
0.376782 0.248133 -9.7666 
-8.99192 0.576389 0.367443 
0.576389 -9.27984 0.254102 
0.367443 0.254102 -10.0646 
-9.08725 0.329596 0.406069 
0.329596 -9.21023 0.488868 
0.406069 0.488868 -10.0389 
-9.18886 0.0610115 0.817248 
0.0610115 -9.15224 0.738634 
0.817248 0.738634 -9.99525 
-6.75671 0.526315 -4.23133 
0.526315 -14.1163 -4.35051 
-4.23133 -4.35051 4.15991 
-11.0899 -1.67428 -1.27211 
-1.67428 -13.3336 -4.98555 
-1.27211 -4.98555 7.71045 
-1.32045 -2.26058 2.75532 
-2.26058 0.643655 -0.362996 
2.75532 -0.362996 -16.0363 
-8.55082 5.38694 -2.68524 
5.38694 -2.02423 -13.6162 
-2.68524 -13.6162 -6.138 
-8.70777 0.0316692 1.36829 
0.0316692 -9.68774 0.0312274 
1.36829 0.0312274 -9.61851 
-8.78715 0.219478 1.14518 
0.219478 -9.52307 0.00203559 
1.14518 0.00203559 -9.7038 
-8.46076 0.0284001 1.31199 
0.0284001 -9.58498 0.325402 
1.31199 0.325402 -9.96828 
-8.55129 -0.155677 1.23278 
-0.155677 -9.75787 0.12314 
1.23278 0.12314 -9.70486 
-7.41376 -0.121148 2.48268 
-0.121148 -6.79229 -1.90555 
2.48268 -1.90555 -2.41922 
-6.77457 -0.910773 1.61549 
-0.910773 -7.05017 -0.736607 
1.61549 -0.736607 -2.80054 
-5.09863 -0.726375 2.01864 
-0.726375 -8.6171 -0.4437 
2.01864 -0.4437 -2.90955 
-5.15779 0.0348764 2.46769 
0.0348764 -5.99204 1.02774 
2.46769 1.02774 -5.47546 
-8.80713 0.436424 0.788882 
0.436424 -9.62696 0.24803 
0.788882 0.24803 -10.4511 
-8.71874 0.30612 0.745269 
0.30612 -9.72362 0.25545 
0.745269 0.25545 -10.4429 
-8.71991 0.288009 0.856804 
0.288009 -9.7154 0.292546 
0.856804 0.292546 -10.4499 
-8.61452 0.194283 0.774907 
0.194283 -9.88842 0.282045 
0.774907 0.282045 -10.3823 
-9.4986 0.0272872 -0.116984 
0.0272872 -8.83434 0.353898 
-0.116984 0.353898 -9.98888 
-9.57014 0.00908431 -0.0517054 
0.00908431 -8.69566 0.403369 
-0.0517054 0.403369 -10.056 
-9.41361 -0.0151242 -0.00818831 
-0.0151242 -8.92299 0.54631 
-0.00818831 0.54631 -9.98523 
-9.56835 0.0124955 -0.0488398 
0.0124955 -8.85436 0.248445 
-0.0488398 0.248445 -9.89912 
-9.37925 0.0863437 0.694787 
0.0863437 -9.51307 0.335433 
0.694787 0.335433 -9.73583 
-9.44341 0.0290308 0.674619 
0.0290308 -9.50438 0.334775 
0.674619 0.334775 -9.68036 
-9.41104 0.0848745 0.680196 
0.0848745 -9.52395 0.313886 
0.680196 0.313886 -9.69317 
-9.39946 0.0205439 0.634192 
0.0205439 -9.51083 0.314869 
0.634192 0.314869 -9.71786 
-9.91815 0.0250966 0.712254 
0.0250966 -9.87681 0.646812 
0.712254 0.646812 -9.97424 
-9.79508 -0.0245774 0.666415 
-0.0245774 -9.84096 0.5827 
0.666415 0.5827 -10.1332 
-9.96709 0.0672386 0.698858 
0.0672386 -9.93236 0.703999 
0.698858 0.703999 -9.86975 
-9.86544 0.114023 0.777107 
0.114023 -9.95992 0.64942 
0.777107 0.64942 -9.94385 
-9.81346 -0.00917237 0.216054 
-0.00917237 -9.70656 0.922026 
0.216054 0.922026 -10.0781 
-9.84537 0.00732081 0.177791 
0.00732081 -9.81181 0.830074 
0.177791 0.830074 -9.94094 
-9.8995 0.0510593 0.166742 
0.0510593 -9.89852 0.822685 
0.166742 0.822685 -9.8001 
-9.96948 0.033611 0.262818 
0.033611 -9.71606 0.741433 
0.262818 0.741433 -9.91257 
-9.49251 -0.721428 2.17542 
-0.721428 -10.2042 -0.833528 
2.17542 -0.833528 -6.84632 
-9.72575 -0.0570267 1.53826 
-0.0570267 -9.82632 -0.879251 
1.53826 -0.879251 -6.99091 
-9.65881 -0.126383 1.31015 
-0.126383 -9.82655 -0.647086 
1.31015 -0.647086 -7.05762 
-9.93578 -0.0835795 1.37187 
-0.0835795 -10.0356 -1.04983 
1.37187 -1.04983 -6.57163 
-9.07272 -0.128334 -0.887531 
-0.128334 -9.64397 0.156423 
-0.887531 0.156423 -9.86997 
-9.38503 0.057676 -0.890536 
0.057676 -9.48381 0.209431 
-0.890536 0.209431 -9.71782 
-9.25513 -0.0727042 -0.713136 
-0.0727042 -9.51163 0.148222 
-0.713136 0.148222 -9.8199 
-9.30711 -0.0754727 -0.873479 
-0.0754727 -9.56869 0.183814 
-0.873479 0.183814 -9.71086 
-9.4469 0.0686841 0.33866 
0.0686841 -9.32861 0.807439 
0.33866 0.807439 -9.68118 
-9.47195 0.187957 0.342341 
0.187957 -9.21372 0.813415 
0.342341 0.813415 -9.77102 
-9.46723 0.131991 0.296192 
0.131991 -9.20402 0.728911 
0.296192 0.728911 -9.78545 
-9.49792 0.0978157 0.330979 
0.0978157 -9.24726 0.790697 
0.330979 0.790697 -9.71151 
-9.82503 0.0954314 0.510546 
0.0954314 -9.96821 -0.137948 
0.510546 -0.137948 -10.0609 
-10.0891 -0.0165376 0.248174 
-0.0165376 -10.1528 -0.136683 
0.248174 -0.136683 -9.61233 
-9.82199 0.0053854 0.448107 
0.0053854 -9.99889 0.031873 
0.448107 0.031873 -10.0333 
-10.1929 -0.0464611 0.373665 
-0.0464611 -10.0588 -0.0917086 
0.373665 -0.0917086 -9.60242 
-9.59182 0.444613 -0.636637 
0.444613 -9.57293 -1.78753 
-0.636637 -1.78753 -8.4418 
-9.40257 -0.0391833 -0.512881 
-0.0391833 -9.45433 -1.76158 
-0.512881 -1.76158 -8.74964 
-9.77951 -0.0481559 -0.391189 
-0.0481559 -8.67904 -0.854393 
-0.391189 -0.854393 -9.148 
-10.7506 -0.0706134 -0.033497 
-0.0706134 -9.15641 -1.56399 
-0.033497 -1.56399 -7.69954 
-9.48604 0.0933413 0.18902 
0.0933413 -9.23196 0.594812 
0.18902 0.594812 -9.4922 
-9.346 0.314926 0.176691 
0.314926 -9.20635 0.595564 
0.176691 0.595564 -9.65786 
-9.33434 0.12933 0.466112 
0.12933 -9.12079 0.621896 
0.466112 0.621896 -9.75507 
-9.25701 0.124822 0.411949 
0.124822 -9.30124 0.561976 
0.411949 0.561976 -9.65195 
-8.90255 0.478941 0.0937237 
0.478941 -9.62626 0.306231 
0.0937237 0.306231 -10.0824 
-9.0411 0.0638131 0.386075 
0.0638131 -9.56601 0.264261 
0.386075 0.264261 -10.0041 
-9.32123 0.167496 0.480086 
0.167496 -9.16643 -0.136826 
0.480086 -0.136826 -10.1235 
-9.03077 0.235918 0.430218 
0.235918 -9.47759 0.0620125 
0.430218 0.0620125 -10.1028 
-9.67722 -1.09235 0.0192215 
-1.09235 -9.83958 0.33435 
0.0192215 0.33435 -11.7161 
-9.80294 -0.0984193 0.199294 
-0.0984193 -10.4517 -0.0412623 
0.199294 -0.0412623 -10.9783 
-9.55425 0.123025 -0.0406235 
0.123025 -10.2796 -0.410537 
-0.0406235 -0.410537 -11.3991 
-9.81388 -0.455779 0.310372 
-0.455779 -10.316 0.100485 
0.310372 0.100485 -11.1031 
-8.87594 -0.602835 0.127025 
-0.602835 -9.70595 0.010623 
0.127025 0.010623 -10.9403 
-8.70354 -0.702019 0.359233 
-0.702019 -9.73387 -0.129321 
0.359233 -0.129321 -11.0848 
-8.66593 -0.905602 0.272276 
-0.905602 -9.74823 -0.176013 
0.272276 -0.176013 -11.1081 
-8.89427 -0.555479 0.786126 
-0.555479 -10.6401 -0.976578 
0.786126 -0.976578 -9.98786 
-9.56599 0.127788 -0.868588 
0.127788 -9.81781 -0.302066 
-0.868588 -0.302066 -10.0083 
-9.70465 0.0671403 -0.922826 
0.0671403 -9.86957 -0.295849 
-0.922826 -0.295849 -9.81784 
-9.70762 0.018292 -0.745226 
0.018292 -9.74943 -0.252014 
-0.745226 -0.252014 -9.93502 
-9.63497 0.0656341 -0.845766 
0.0656341 -9.82452 -0.29218 
-0.845766 -0.29218 -9.93257 
-9.86176 0.00421211 -0.59252 
0.00421211 -9.7869 -0.587685 
-0.59252 -0.587685 -10.0739 
-9.86957 0.0909022 -0.66307 
0.0909022 -9.86591 -0.634464 
-0.66307 -0.634464 -9.98705 
-9.88733 0.0693519 -0.651226 
0.0693519 -9.83023 -0.611674 
-0.651226 -0.611674 -10.005 
-9.90281 0.0814905 -0.654162 
0.0814905 -9.8657 -0.649877 
-0.654162 -0.649877 -9.95402 
-9.8426 -0.062828 -0.00924717 
-0.062828 -9.58821 1.40745 
-0.00924717 1.40745 -8.79919 
-9.8626 -0.0321281 0.127234 
-0.0321281 -9.47131 1.18193 
0.127234 1.18193 -8.89609 
-9.98768 0.0835482 0.0776926 
0.0835482 -9.51414 1.19386 
0.0776926 1.19386 -8.72818 
-10.1743 0.0793743 0.146123 
0.0793743 -9.84111 1.04709 
0.146123 1.04709 -8.21456 
-9.77918 -0.105355 -0.189652 
-0.105355 -9.92647 -0.0712203 
-0.189652 -0.0712203 -10.0686 
-9.4585 -0.0452966 -0.385616 
-0.0452966 -10.3194 -0.184279 
-0.385616 -0.184279 -9.99638 
-9.43353 -0.00431613 -0.120616 
-0.00431613 -9.70674 0.0079509 
-0.120616 0.0079509 -10.634 
-9.73456 0.265167 -0.227109 
0.265167 -9.68746 0.0453328 
-0.227109 0.0453328 -10.3522 
-0.761234 3.85908 2.52055 
3.85908 -11.5493 -0.299351 
2.52055 -0.299351 -26.555 
-0.309222 1.32417 1.94278 
1.32417 -13.0376 1.30238 
1.94278 1.30238 -25.5187 
-5.8628 1.50856 0.0716709 
1.50856 -13.4316 0.0471768 
0.0716709 0.0471768 -19.5711 
-7.44152 1.13843 1.31484 
1.13843 -12.608 0.629287 
1.31484 0.629287 -18.816 
-8.14456 -0.126546 -0.76729 
-0.126546 -8.00719 0.770935 
-0.76729 0.770935 -5.4801 
-9.50026 -0.41078 -1.04457 
-0.41078 -7.90861 3.87766 
-1.04457 3.87766 -4.22298 
-9.02063 -0.780984 -0.619584 
-0.780984 -7.47302 2.07103 
-0.619584 2.07103 -5.1382 
-8.93207 0.208267 -0.626174 
0.208267 -7.63422 3.05826 
-0.626174 3.05826 -5.06557 
-9.6866 -0.12847 0.0530473 
-0.12847 -9.21305 1.38171 
0.0530473 1.38171 -9.44009 
-9.76075 -0.0548317 0.162981 
-0.0548317 -9.2785 1.34668 
0.162981 1.34668 -9.30048 
-9.68248 -0.222937 -0.135186 
-0.222937 -9.07706 1.16821 
-0.135186 1.16821 -9.5802 
-9.95582 0.202342 0.173363 
0.202342 -9.03093 1.62135 
0.173363 1.62135 -9.35298 
-9.4332 0.0450248 0.637873 
0.0450248 -10.3435 -0.0276819 
0.637873 -0.0276819 -11.69 
-9.86576 -0.113967 0.340336 
-0.113967 -10.4396 -0.0753025 
0.340336 -0.0753025 -11.1614 
-9.95541 -0.157198 0.370838 
-0.157198 -10.5008 0.160922 
0.370838 0.160922 -11.0105 
-9.83917 -0.196834 -0.136591 
-0.196834 -10.7217 -0.342173 
-0.136591 -0.342173 -10.9058 
-9.45796 0.183365 0.116289 
0.183365 -8.47015 1.51452 
0.116289 1.51452 -9.22994 
-9.54987 0.0188261 0.0392333 
0.0188261 -8.36579 1.69266 
0.0392333 1.69266 -9.24238 
-9.46574 0.0892922 0.00635517 
0.0892922 -8.4382 1.50503 
0.00635517 1.50503 -9.2541 
-9.41666 0.0191263 0.0506922 
0.0191263 -8.45648 1.59811 
0.0506922 1.59811 -9.2849 
-8.88628 -0.194138 0.404613 
-0.194138 -9.3501 -0.145722 
0.404613 -0.145722 -9.92999 
-8.86501 -0.241177 0.330601 
-0.241177 -9.39461 -0.0979373 
0.330601 -0.0979373 -9.90675 
-8.96741 -0.157558 0.374703 
-0.157558 -9.36617 -0.102048 
0.374703 -0.102048 -9.83279 
-8.82535 -0.220018 0.339209 
-0.220018 -9.4037 -0.119442 
0.339209 -0.119442 -9.93732 
-10.3162 -0.234135 0.0258431 
-0.234135 -10.0974 -0.114761 
0.0258431 -0.114761 -10.9672 
-10.4337 -0.200897 -0.0200384 
-0.200897 -10.1539 -0.111768 
-0.0200384 -0.111768 -10.7933 
-10.313 -0.218974 -0.0124913 
-0.218974 -10.0848 0.0121999 
-0.0124913 0.0121999 -10.9831 
-10.4877 -0.0932316 -0.183627 
-0.0932316 -9.98796 -0.0209535 
-0.183627 -0.0209535 -10.9052 
-10.3052 -0.226 -0.134157 
-0.226 -7.9957 0.371011 
-0.134157 0.371011 -11.4542 
-10.802 0.238877 -0.00996218 
0.238877 -7.73802 0.566057 
-0.00996218 0.566057 -11.2151 
-11.9081 0.053301 0.751015 
0.053301 -8.54469 1.68982 
0.751015 1.68982 -9.30239 
-10.4265 -0.000691092 -0.252895 
-0.000691092 -7.59197 0.717613 
-0.252895 0.717613 -11.7367 
-9.33015 -0.228043 -0.549707 
-0.228043 -9.22423 1.07865 
-0.549707 1.07865 -9.17643 
-9.48784 -0.366687 -0.506526 
-0.366687 -9.1677 1.23657 
-0.506526 1.23657 -9.07527 
-9.35199 -0.273118 -0.575599 
-0.273118 -9.21556 1.14233 
-0.575599 1.14233 -9.16325 
-9.42296 -0.416207 -0.526915 
-0.416207 -9.07068 1.172 
-0.526915 1.172 -9.23717 
-9.84402 0.0100011 0.226179 
0.0100011 -9.6725 -0.776409 
0.226179 -0.776409 -9.80088 
-9.66192 0.0103054 0.207807 
0.0103054 -9.78315 -0.750288 
0.207807 -0.750288 -9.87232 
-9.76308 -0.0195312 0.194889 
-0.0195312 -9.68863 -0.824354 
0.194889 -0.824354 -9.86569 
-9.79874 -0.033486 0.19295 
-0.033486 -9.70457 -0.836347 
0.19295 -0.836347 -9.81408 
-9.17536 0.0398945 0.0725012 
0.0398945 -9.31058 -1.14689 
0.0725012 -1.14689 -6.99825 
-9.40668 -0.0541154 -0.0255902 
-0.0541154 -8.84029 -1.20354 
-0.0255902 -1.20354 -7.23722 
-9.42846 0.00520037 -0.0127977 
0.00520037 -9.17661 -1.5666 
-0.0127977 -1.5666 -6.87912 
-9.48037 -0.186132 0.217908 
-0.186132 -9.2622 -1.7147 
0.217908 -1.7147 -6.74162 
-9.71006 0.0269305 -0.795683 
0.0269305 -9.89031 -0.688693 
-0.795683 -0.688693 -9.82196 
-9.74195 0.0956166 -0.854143 
0.0956166 -10.0093 -0.736087 
-0.854143 -0.736087 -9.67106 
-9.60967 0.0296479 -0.715661 
0.0296479 -9.78211 -0.337835 
-0.715661 -0.337835 -10.0305 
-9.79728 0.144634 -0.622262 
0.144634 -9.73744 -0.633096 
-0.622262 -0.633096 -9.88761 
-10.2606 0.828669 -0.162334 
0.828669 -9.58247 -0.297312 
-0.162334 -0.297312 -11.1217 
-10.0578 0.241873 -0.229869 
0.241873 -10.15 -0.228717 
-0.229869 -0.228717 -10.7569 
-10.1696 0.226446 0.0304691 
0.226446 -9.99285 -0.285062 
0.0304691 -0.285062 -10.8023 
-9.97888 0.221598 -0.310898 
0.221598 -10.34 0.0170715 
-0.310898 0.0170715 -10.6459 
-9.54551 0.187089 -0.808186 
0.187089 -9.50077 -0.471584 
-0.808186 -0.471584 -9.65012 
-9.29963 0.197373 -0.90036 
0.197373 -9.73274 -0.562955 
-0.90036 -0.562955 -9.66403 
-9.55777 0.391787 -0.77044 
0.391787 -9.57171 -0.807985 
-0.77044 -0.807985 -9.56693 
-9.69239 -0.10425 -0.514327 
-0.10425 -9.45841 -0.413406 
-0.514327 -0.413406 -9.5456 
-10.1064 0.023526 0.315993 
0.023526 -9.95369 -0.877747 
0.315993 -0.877747 -9.7267 
-9.63911 -0.0379398 0.47912 
-0.0379398 -9.87884 -0.761726 
0.47912 -0.761726 -10.2688 
-9.94846 -0.0125067 0.427973 
-0.0125067 -9.90305 -0.870513 
0.427973 -0.870513 -9.93528 
-10.1312 -0.0881342 0.508164 
-0.0881342 -9.88497 -0.925636 
0.508164 -0.925636 -9.77063 
-9.10441 -0.22428 -0.257618 
-0.22428 -9.41503 0.135128 
-0.257618 0.135128 -9.80613 
-8.87201 -0.140452 -0.362735 
-0.140452 -9.37661 0.169533 
-0.362735 0.169533 -10.077 
-9.20421 -0.011453 -0.129978 
-0.011453 -9.11269 0.130318 
-0.129978 0.130318 -10.0087 
-9.14237 -0.169822 -0.359787 
-0.169822 -9.54861 0.222232 
-0.359787 0.222232 -9.63459 
-9.84798 -0.0153524 0.0703778 
-0.0153524 -10.0392 -0.0418048 
0.0703778 -0.0418048 -10.0187 
-9.91399 -0.0296403 0.090261 
-0.0296403 -9.94227 0.00551089 
0.090261 0.00551089 -10.0497 
-9.86694 -0.00403465 -0.00543657 
-0.00403465 -9.99625 -0.0420988 
-0.00543657 -0.0420988 -10.0427 
-9.85433 -0.0195855 0.0141019 
-0.0195855 -10.0013 -0.0179913 
0.0141019 -0.0179913 -10.0502 
-10.1667 0.0662646 0.177127 
0.0662646 -9.85139 -0.534597 
0.177127 -0.534597 -10.6334 
-9.93126 -0.534712 0.18646 
-0.534712 -10.2695 -0.194391 
0.18646 -0.194391 -10.4508 
-9.47483 -1.25444 0.210293 
-1.25444 -9.83882 -0.371701 
0.210293 -0.371701 -11.3379 
-9.69978 0.0567445 0.485894 
0.0567445 -10.5166 0.419547 
0.485894 0.419547 -10.4352 
-9.91634 1.31601 2.15223 
1.31601 -6.22134 -1.51639 
2.15223 -1.51639 -1.29334 
-7.0643 0.172622 4.21735 
0.172622 -7.42671 -2.70245 
4.21735 -2.70245 -2.94002 
-3.37169 -2.48579 2.70901 
-2.48579 -9.2328 -1.81793 
2.70901 -1.81793 -4.82654 
-6.89114 1.88347 3.43522 
1.88347 -7.64288 -4.77045 
3.43522 -4.77045 -2.89701 
-9.6437 0.610226 0.726709 
0.610226 -7.93295 1.90228 
0.726709 1.90228 -9.45027 
-9.49378 0.747804 0.988021 
0.747804 -8.18101 2.10045 
0.988021 2.10045 -9.35212 
-9.30635 0.423283 0.921781 
0.423283 -8.53006 2.10796 
0.921781 2.10796 -9.1905 
-9.26177 2.05703 0.835009 
2.05703 -8.36199 2.45655 
0.835009 2.45655 -9.40316 
-10.452 -0.0114297 0.10844 
-0.0114297 -10.4034 0.120489 
0.10844 0.120489 -10.6582 
-11.3636 0.039421 0.488226 
0.039421 -10.6398 0.0793043 
0.488226 0.0793043 -9.51021 
-10.1917 0.177239 -0.349578 
0.177239 -9.98006 0.0734685 
-0.349578 0.0734685 -11.3418 
-9.75288 0.148542 0.42085 
0.148542 -10.596 0.148824 
0.42085 0.148824 -11.1647 
-9.63214 0.233946 0.0185434 
0.233946 -8.77083 -0.119578 
0.0185434 -0.119578 -9.79426 
-9.38174 -0.0390134 0.122293 
-0.0390134 -9.32999 -0.556626 
0.122293 -0.556626 -9.4855 
-9.21454 -0.319322 0.0274712 
-0.319322 -9.9242 -0.662289 
0.0274712 -0.662289 -9.0585 
-9.42737 0.0733502 -0.235069 
0.0733502 -8.8651 -0.615465 
-0.235069 -0.615465 -9.90476 
-10.0217 -0.0040606 0.649971 
-0.0040606 -10.0724 -0.630666 
0.649971 -0.630666 -9.75793 
-9.96129 -0.0028138 0.650874 
-0.0028138 -9.92797 -0.721385 
0.650874 -0.721385 -9.9628 
-9.92388 -0.0302844 0.553269 
-0.0302844 -9.72466 -0.731887 
0.553269 -0.731887 -10.2035 
-9.96596 -0.0792705 0.675407 
-0.0792705 -10.0914 -0.782719 
0.675407 -0.782719 -9.79466 
-9.22901 -0.0104715 -0.0571466 
-0.0104715 -10.149 -0.0537849 
-0.0571466 -0.0537849 -10.2218 
-9.47257 -0.0127642 -0.263796 
-0.0127642 -9.96089 -0.00570772 
-0.263796 -0.00570772 -10.1664 
-10.0606 0.0994862 -0.182562 
0.0994862 -9.67437 0.0688304 
-0.182562 0.0688304 -9.86493 
-9.8305 -0.315193 -0.308736 
-0.315193 -9.65409 -0.048671 
-0.308736 -0.048671 -10.1153 
-12.9993 -0.00682443 0.148917 
-0.00682443 -10.8557 -0.493997 
0.148917 -0.493997 -14.4979 
-12.2226 0.234335 -0.00971586 
0.234335 -9.78766 -1.05731 
-0.00971586 -1.05731 -16.3426 
-13.448 0.106102 -0.0627691 
0.106102 -10.9792 -0.559192 
-0.0627691 -0.559192 -13.9257 
-13.5349 0.18561 -0.207718 
0.18561 -10.938 -0.231305 
-0.207718 -0.231305 -13.88 
-9.43345 -0.435576 -0.971049 
-0.435576 -9.3379 0.951271 
-0.971049 0.951271 -9.68519 
-9.61387 -0.102966 -0.430554 
-0.102966 -8.98514 0.662401 
-0.430554 0.662401 -9.85753 
-9.19884 -0.347421 -0.774743 
-0.347421 -9.37791 0.677688 
-0.774743 0.677688 -9.8798 
-9.01356 -0.435953 -0.729408 
-0.435953 -9.39948 0.702133 
-0.729408 0.702133 -10.0435 
-9.09671 -0.188202 -0.887139 
-0.188202 -9.63626 0.42142 
-0.887139 0.42142 -10.1112 
-9.02473 -0.207348 -0.757064 
-0.207348 -9.61368 0.376905 
-0.757064 0.376905 -10.2057 
-9.05092 -0.120776 -1.09275 
-0.120776 -9.69275 0.393188 
-1.09275 0.393188 -10.1005 
-9.10329 -0.21926 -0.769989 
-0.21926 -9.59934 0.308233 
-0.769989 0.308233 -10.1415 
-3.59455 0.913046 1.1381 
0.913046 -5.89644 0.711018 
1.1381 0.711018 -0.515997 
-5.60749 -0.0808445 1.01463 
-0.0808445 -3.05199 -1.6699 
1.01463 -1.6699 -1.34751 
-7.66865 0.060997 0.0796898 
0.060997 -2.82736 -1.84528 
0.0796898 -1.84528 0.489027 
-3.78591 -0.47971 2.69584 
-0.47971 -5.68641 0.37271 
2.69584 0.37271 -0.534667 
-9.67091 -0.350362 0.189132 
-0.350362 -9.54521 -0.138593 
0.189132 -0.138593 -10.3441 
-9.76976 -0.378186 0.139867 
-0.378186 -9.36827 -0.150713 
0.139867 -0.150713 -10.4222 
-9.65107 -0.365408 -0.125525 
-0.365408 -9.5065 -0.180005 
-0.125525 -0.180005 -10.4027 
-9.89596 -0.216137 -0.205433 
-0.216137 -9.58545 0.284308 
-0.205433 0.284308 -10.0788 
-9.23292 -0.201096 -0.529776 
-0.201096 -9.23708 0.651992 
-0.529776 0.651992 -9.72812 
-9.28125 -0.224316 -0.52043 
-0.224316 -9.28022 0.236237 
-0.52043 0.236237 -9.63665 
-9.30196 -0.180529 -0.588746 
-0.180529 -9.30023 0.2417 
-0.588746 0.2417 -9.59593 
-9.24957 -0.143231 -0.465809 
-0.143231 -9.25821 0.269198 
-0.465809 0.269198 -9.69035 
-9.24068 0.293413 -0.0708601 
0.293413 -9.0827 -0.255701 
-0.0708601 -0.255701 -10.0433 
-9.06658 0.958873 -0.434564 
0.958873 -8.73429 -0.465505 
-0.434564 -0.465505 -10.5658 
-9.33957 0.00764764 -0.746502 
0.00764764 -9.24909 -0.828573 
-0.746502 -0.828573 -9.77806 
-9.07334 0.301876 -0.605695 
0.301876 -9.36093 -0.529736 
-0.605695 -0.529736 -9.93245 
-9.85156 -0.0391002 -0.823086 
-0.0391002 -9.74797 0.0547761 
-0.823086 0.0547761 -10.1161 
-9.70406 -0.0676012 -0.96169 
-0.0676012 -10.0295 0.0792041 
-0.96169 0.0792041 -9.9821 
-9.80829 -0.095651 -0.942422 
-0.095651 -9.9508 0.165758 
-0.942422 0.165758 -9.95652 
-9.74698 -0.0701987 -0.910105 
-0.0701987 -9.94631 0.096631 
-0.910105 0.096631 -10.0223 
-9.6928 -0.318248 0.469377 
-0.318248 -9.0665 -0.764942 
0.469377 -0.764942 -10.6553 
-10.1017 -0.376607 0.279133 
-0.376607 -8.97402 -0.510807 
0.279133 -0.510807 -10.339 
-9.91999 -0.431102 0.394948 
-0.431102 -8.97976 -0.561325 
0.394948 -0.561325 -10.5149 
-9.69991 -0.374995 0.176473 
-0.374995 -9.11721 -0.600166 
0.176473 -0.600166 -10.5975 
-9.08109 0.0055165 0.14201 
0.0055165 -9.18997 -0.708873 
0.14201 -0.708873 -9.74081 
-9.23309 -0.33619 0.37284 
-0.33619 -9.13427 -0.399601 
0.37284 -0.399601 -9.6445 
-9.33236 -0.168457 0.515549 
-0.168457 -9.0303 -0.571519 
0.515549 -0.571519 -9.6492 
-9.1223 -0.261409 0.3578 
-0.261409 -9.11093 -0.822138 
0.3578 -0.822138 -9.77863 
-9.37279 -0.149708 -0.0709787 
-0.149708 -9.25019 0.360813 
-0.0709787 0.360813 -9.99036 
-9.69247 -0.0347916 -0.387929 
-0.0347916 -9.38318 0.259481 
-0.387929 0.259481 -9.53768 
-9.3626 -0.152923 -0.290025 
-0.152923 -9.32367 0.459574 
-0.290025 0.459574 -9.92707 
-9.5832 -0.151434 -0.324471 
-0.151434 -9.24421 0.406976 
-0.324471 0.406976 -9.78593 
-8.97836 -0.75449 0.0273347 
-0.75449 -9.51739 0.201816 
0.0273347 0.201816 -9.7615 
-9.36181 -0.020487 -0.511774 
-0.020487 -9.35276 0.181732 
-0.511774 0.181732 -9.54268 
-9.86498 0.612272 -0.48563 
0.612272 -9.3325 0.345842 
-0.48563 0.345842 -9.05978 
-9.03094 -0.095438 -0.601474 
-0.095438 -9.2539 0.561273 
-0.601474 0.561273 -9.97241 
-9.76192 0.0569255 0.499338 
0.0569255 -8.48527 -0.00214901 
0.499338 -0.00214901 -10.8892 
-10.2762 1.19177 -0.501101 
1.19177 -8.35414 0.92312 
-0.501101 0.92312 -10.506 
-9.62043 0.17471 -0.0396256 
0.17471 -8.90648 3.35641 
-0.0396256 3.35641 -10.6095 
-10.0801 1.34955 2.15596 
1.34955 -7.97123 1.28505 
2.15596 1.28505 -11.0851 
-10.0096 -0.051325 0.629419 
-0.051325 -9.81718 -0.510307 
0.629419 -0.510307 -8.21034 
-9.70542 -0.185439 0.740429 
-0.185439 -9.95774 -0.438746 
0.740429 -0.438746 -8.37397 
-9.6235 0.0566458 0.318831 
0.0566458 -9.73623 -0.0883837 
0.318831 -0.0883837 -8.67739 
-9.75748 -0.112227 0.367555 
-0.112227 -9.73211 -0.402462 
0.367555 -0.402462 -8.54754 
-9.56685 -0.0712507 -0.142366 
-0.0712507 -9.64258 -0.788997 
-0.142366 -0.788997 -9.73372 
-9.6553 0.0497985 -0.155136 
0.0497985 -9.54844 -0.800286 
-0.155136 -0.800286 -9.73941 
-9.65696 0.0076714 -0.147225 
0.0076714 -9.56729 -0.793721 
-0.147225 -0.793721 -9.71889 
-9.68926 -0.00227544 -0.14369 
-0.00227544 -9.54889 -0.793343 
-0.14369 -0.793343 -9.70499 
-2.01668 0.164625 -1.85796 
0.164625 -0.139518 -2.03667 
-1.85796 -2.03667 -10.7176 
-8.58479 -0.904857 -3.00637 
-0.904857 -6.44801 1.28127 
-3.00637 1.28127 2.15902 
-9.46782 -0.299137 -2.1259 
-0.299137 -7.23752 -1.073 
-2.1259 -1.073 3.83156 
-5.30458 -0.834695 -8.84571 
-0.834695 -6.85075 -1.24494 
-8.84571 -1.24494 -0.718448 
-7.46105 0.934096 1.186 
0.934096 -6.30682 2.81021 
1.186 2.81021 -5.96634 
-8.81012 -1.07944 1.0621 
-1.07944 -7.21243 2.37724 
1.0621 2.37724 -3.71166 
-8.37451 -0.130295 0.875827 
-0.130295 -7.73351 2.68676 
0.875827 2.68676 -3.62619 
-7.34137 -0.647011 0.0355557 
-0.647011 -7.80158 2.69958 
0.0355557 2.69958 -4.59126 
-8.11483 0.239453 1.35539 
0.239453 -9.65743 0.128224 
1.35539 0.128224 -10.0971 
-9.03648 0.240089 1.07728 
0.240089 -9.54112 0.127332 
1.07728 0.127332 -9.29176 
-8.24347 0.0640963 1.12623 
0.0640963 -9.68532 0.112433 
1.12623 0.112433 -9.94056 
-8.15649 -0.248552 1.05791 
-0.248552 -9.80581 -0.0636479 
1.05791 -0.0636479 -9.90706 
-9.81703 0.00197249 -0.193828 
0.00197249 -9.76995 0.858122 
-0.193828 0.858122 -10.0005 
-9.87911 -0.00596342 -0.203897 
-0.00596342 -9.8191 0.843031 
-0.203897 0.843031 -9.88923 
-9.79594 -0.00348594 -0.185354 
-0.00348594 -9.7893 0.812223 
-0.185354 0.812223 -10.0022 
-9.89318 -0.0322986 -0.25178 
-0.0322986 -9.80631 0.861751 
-0.25178 0.861751 -9.88795 
-9.15573 -0.25134 0.331377 
-0.25134 -9.32843 -0.208666 
0.331377 -0.208666 -9.94454 
-9.16689 -0.393992 0.237971 
-0.393992 -9.27336 -0.227126 
0.237971 -0.227126 -9.98845 
-9.23554 -0.244162 0.167914 
-0.244162 -9.30427 -0.223305 
0.167914 -0.223305 -9.88888 
-9.18067 -0.339267 0.187136 
-0.339267 -9.29217 -0.182406 
0.187136 -0.182406 -9.95586 
-8.79631 0.398298 0.0804507 
0.398298 -9.53218 -0.0578267 
0.0804507 -0.0578267 -10.2327 
-9.03703 0.449695 0.0810775 
0.449695 -9.29339 0.101379 
0.0810775 0.101379 -10.2308 
-9.31662 0.165599 0.0746453 
0.165599 -9.30029 0.220671 
0.0746453 0.220671 -9.94432 
-8.83836 0.766956 0.292447 
0.766956 -9.26344 0.19548 
0.292447 0.19548 -10.4594 
-8.31531 -0.511206 -2.11515 
-0.511206 -9.64353 0.91893 
-2.11515 0.91893 -8.06647 
-8.50284 -0.426348 -2.25092 
-0.426348 -8.84716 0.949535 
-2.25092 0.949535 -8.67531 
-8.68962 -0.548518 -2.13703 
-0.548518 -9.25538 1.2698 
-2.13703 1.2698 -8.08031 
-8.54915 -0.627338 -1.77401 
-0.627338 -9.49099 0.949441 
-1.77401 0.949441 -7.98517 
-9.65434 0.224998 -0.401092 
0.224998 -10.3608 -0.0923067 
-0.401092 -0.0923067 -11.4294 
-10.1607 -0.0412857 -0.329889 
-0.0412857 -10.3785 -0.122698 
-0.329889 -0.122698 -10.9054 
-9.69354 0.197551 -0.318559 
0.197551 -10.512 0.00448248 
-0.318559 0.00448248 -11.2391 
-9.91412 0.0932204 -0.209567 
0.0932204 -10.6406 -0.00538482 
-0.209567 -0.00538482 -10.8899 
-6.49941 4.4383 3.65332 
4.4383 -10.7432 -1.22705 
3.65332 -1.22705 -17.2249 
-9.53293 0.809685 2.31293 
0.809685 -12.3868 0.888963 
2.31293 0.888963 -12.5478 
-9.06325 -0.942654 1.24895 
-0.942654 -11.815 -0.592085 
1.24895 -0.592085 -13.5893 
-8.2999 -0.858303 2.18466 
-0.858303 -12.1257 0.612676 
2.18466 0.612676 -14.0419 
-9.2719 -0.362648 -0.732934 
-0.362648 -9.30831 0.582863 
-0.732934 0.582863 -9.86615 
-9.34578 -0.3335 -0.936373 
-0.3335 -9.278 0.962598 
-0.936373 0.962598 -9.82257 
-9.01869 -0.411197 -0.728515 
-0.411197 -9.42343 1.01465 
-0.728515 1.01465 -10.0042 
-9.28183 -0.653665 -1.34915 
-0.653665 -9.65173 0.612399 
-1.34915 0.612399 -9.51279 
-9.80351 0.00799875 -0.0952079 
0.00799875 -9.62277 0.824855 
-0.0952079 0.824855 -9.90194 
-9.83044 -0.0821304 -0.100139 
-0.0821304 -9.69819 0.89076 
-0.100139 0.89076 -9.79959 
-9.7488 -0.178645 -0.151015 
-0.178645 -9.71997 0.936839 
-0.151015 0.936839 -9.85944 
-9.85918 -0.0965677 -0.0951651 
-0.0965677 -9.61138 0.809484 
-0.0951651 0.809484 -9.85766 
-8.96639 0.052998 -1.71631 
0.052998 -9.48505 -0.0501062 
-1.71631 -0.0501062 -8.24785 
-8.54171 0.263796 -1.86166 
0.263796 -9.92512 -0.281461 
-1.86166 -0.281461 -8.23245 
-9.21286 0.193543 -1.8548 
0.193543 -9.68112 -0.118944 
-1.8548 -0.118944 -7.80531 
-9.47498 0.658465 -1.97341 
0.658465 -9.58008 -0.379227 
-1.97341 -0.379227 -7.64424 
-9.84338 -0.0209563 -0.278074 
-0.0209563 -9.13319 -1.09633 
-0.278074 -1.09633 -9.66407 
-9.63823 0.0247297 -0.272074 
0.0247297 -9.13187 -1.11682 
-0.272074 -1.11682 -9.87054 
-9.72939 0.037289 -0.543541 
0.037289 -9.49167 -1.05044 
-0.543541 -1.05044 -9.41958 
-9.78961 0.332511 -0.241418 
0.332511 -9.51731 -1.3146 
-0.241418 -1.3146 -9.33371 
-10.3314 -0.121502 0.127347 
-0.121502 -9.2803 -0.0464339 
0.127347 -0.0464339 -11.0213 
-10.3261 -0.0939927 0.116402 
-0.0939927 -9.30252 0.22563 
0.116402 0.22563 -11.0044 
-10.2383 -0.283753 0.0819078 
-0.283753 -9.20349 0.152986 
0.0819078 0.152986 -11.1912 
-10.2945 0.053564 -0.0720216 
0.053564 -9.58911 0.656043 
-0.0720216 0.656043 -10.7495 
-9.92181 0.17335 0.150543 
0.17335 -9.42715 1.18935 
0.150543 1.18935 -8.94516 
-10.0004 0.0074447 0.334239 
0.0074447 -9.65956 1.15659 
0.334239 1.15659 -8.63417 
-9.85621 0.144717 0.040636 
0.144717 -9.51004 1.14719 
0.040636 1.14719 -8.92787 
-9.78818 -0.0296612 0.0271628 
-0.0296612 -9.45199 1.12943 
0.0271628 1.12943 -9.05394 
-10.5679 -1.77285 1.58067 
-1.77285 -15.0083 3.32149 
1.58067 3.32149 10.3111 
-9.82616 -4.25357 0.210745 
-4.25357 -9.31819 4.53957 
0.210745 4.53957 3.87926 
0.68807 0.807214 2.61851 
0.807214 -5.08215 -1.37211 
2.61851 -1.37211 -10.871 
-8.71094 1.52653 4.3859 
1.52653 -3.4485 7.24712 
4.3859 7.24712 -3.10565 
-9.10066 0.0193751 -1.06754 
0.0193751 -9.54841 1.1297 
-1.06754 1.1297 -6.2076 
-9.6632 -0.565068 -1.47195 
-0.565068 -9.3197 1.79611 
-1.47195 1.79611 -5.87377 
-9.27588 -0.426834 -0.824613 
-0.426834 -8.87664 1.06641 
-0.824613 1.06641 -6.70415 
-9.05831 0.0522935 -1.37138 
0.0522935 -9.42948 1.18644 
-1.37138 1.18644 -6.36888 
-9.85076 -0.216957 -0.721892 
-0.216957 -9.49536 0.971383 
-0.721892 0.971383 -8.85917 
-9.6374 -0.249899 -0.618184 
-0.249899 -9.45527 1.00503 
-0.618184 1.00503 -9.11262 
-9.94521 -0.129787 -0.633229 
-0.129787 -9.59253 0.800855 
-0.633229 0.800855 -8.66754 
-9.52199 -0.147281 -1.0469 
-0.147281 -9.93498 1.24946 
-1.0469 1.24946 -8.74832 
-9.53587 -0.0653553 1.07072 
-0.0653553 -9.75137 -0.0270148 
1.07072 -0.0270148 -8.86083 
-9.68881 -0.0774498 1.07228 
-0.0774498 -9.51324 0.179872 
1.07228 0.179872 -8.94602 
-9.61544 -0.0481298 1.02327 
-0.0481298 -9.58523 0.142517 
1.02327 0.142517 -8.94739 
-9.45649 -0.0274234 0.994803 
-0.0274234 -9.62067 0.276545 
0.994803 0.276545 -9.0709 
-2.53187 0.173652 0.166669 
0.173652 -2.54753 0.725275 
0.166669 0.725275 -1.74584 
-2.87807 0.170063 0.183067 
0.170063 -3.05786 0.843652 
0.183067 0.843652 -0.889315 
-4.045 0.110122 -0.426436 
0.110122 -4.55397 0.253186 
-0.426436 0.253186 1.77374 
-2.90596 -0.371116 0.965883 
-0.371116 -2.84669 1.95331 
0.965883 1.95331 -1.07259 
-8.74512 -0.188936 0.086557 
-0.188936 -7.95704 2.21591 
0.086557 2.21591 -5.19795 
-8.90046 -0.0277591 -0.0240215 
-0.0277591 -8.39519 1.37215 
-0.0240215 1.37215 -4.60445 
-9.13091 0.200134 0.100857 
0.200134 -8.91552 2.31182 
0.100857 2.31182 -3.85368 
-8.93475 0.0104281 -0.345188 
0.0104281 -8.3896 1.51287 
-0.345188 1.51287 -4.57576 
-9.94758 -0.261785 0.263187 
-0.261785 -10.1045 -0.084648 
0.263187 -0.084648 -11.0294 
-10.2339 -0.342914 0.169491 
-0.342914 -10.0064 -0.198294 
0.169491 -0.198294 -10.8412 
-9.9191 -0.322382 0.2015 
-0.322382 -10.1228 -0.218951 
0.2015 -0.218951 -11.0396 
-10.175 -0.238272 0.18117 
-0.238272 -10.271 -0.293798 
0.18117 -0.293798 -10.6355 
-9.76967 -0.0137513 0.0399247 
-0.0137513 -9.10638 0.0422343 
0.0399247 0.0422343 -9.88008 
-9.40244 -0.12163 -0.489447 
-0.12163 -9.38209 0.763021 
-0.489447 0.763021 -9.9716 
-9.45703 -0.635504 -0.0397642 
-0.635504 -8.54985 0.0276152 
-0.0397642 0.0276152 -10.7492 
-9.3665 -0.307338 -0.189453 
-0.307338 -9.31599 0.355067 
-0.189453 0.355067 -10.0736 
-9.85657 0.00690167 -0.260745 
0.00690167 -9.78839 -0.88078 
-0.260745 -0.88078 -9.91524 
-9.86008 0.0296554 -0.253668 
0.0296554 -9.83498 -0.870947 
-0.253668 -0.870947 -9.86513 
-9.78088 0.035118 -0.236688 
0.035118 -9.68019 -0.826167 
-0.236688 -0.826167 -10.0991 
-9.9085 0.0518357 -0.254734 
0.0518357 -9.77746 -0.950742 
-0.254734 -0.950742 -9.87423 
-9.75183 -0.00276582 -0.15058 
-0.00276582 -9.81519 -0.891744 
-0.15058 -0.891744 -10.1549 
-9.91807 0.0227162 -0.227397 
0.0227162 -9.9056 -0.894759 
-0.227397 -0.894759 -9.89826 
-9.94873 0.0389598 -0.233205 
0.0389598 -9.86452 -0.901237 
-0.233205 -0.901237 -9.90867 
-9.96351 0.00600281 -0.218207 
0.00600281 -9.91052 -0.946506 
-0.218207 -0.946506 -9.84791 
-10.3345 0.0630167 0.0251563 
0.0630167 -9.41985 -0.0759794 
0.0251563 -0.0759794 -9.63212 
-9.5582 0.043604 -0.234043 
0.043604 -9.74572 0.0150119 
-0.234043 0.0150119 -10.0826 
-9.41514 -0.0530962 -0.104939 
-0.0530962 -9.90733 0.00698509 
-0.104939 0.00698509 -10.0641 
-9.60805 0.228963 -0.193395 
0.228963 -9.7832 -0.0389758 
-0.193395 -0.0389758 -9.99528 
-9.79804 -0.0806182 -0.0404779 
-0.0806182 -9.75239 0.0183705 
-0.0404779 0.0183705 -10.1095 
-9.7008 -0.221081 -0.00528368 
-0.221081 -9.74265 -0.0341156 
-0.00528368 -0.0341156 -10.2165 
-9.67986 -0.132863 0.168766 
-0.132863 -10.0179 -0.161451 
0.168766 -0.161451 -9.96214 
-9.69427 -0.145367 0.0137014 
-0.145367 -9.75323 -0.0256356 
0.0137014 -0.0256356 -10.2124 
-8.70826 -0.501132 0.102004 
-0.501132 -9.56448 -0.174659 
0.102004 -0.174659 -10.1821 
-9.68182 -0.0289632 0.320678 
-0.0289632 -9.39277 -0.315248 
0.320678 -0.315248 -9.38026 
-9.76429 0.327334 0.365387 
0.327334 -9.33224 -0.399903 
0.365387 -0.399903 -9.35832 
-9.43327 -0.456752 0.942676 
-0.456752 -9.10082 -0.17508 
0.942676 -0.17508 -9.92075 
-9.47906 0.0588871 0.736205 
0.0588871 -9.59456 0.275813 
0.736205 0.275813 -9.76459 
-9.45646 0.0749385 0.750564 
0.0749385 -9.62546 0.236662 
0.750564 0.236662 -9.75629 
-9.44269 0.135436 0.709974 
0.135436 -9.65095 0.372989 
0.709974 0.372989 -9.74457 
-9.38652 -0.0253759 0.863866 
-0.0253759 -9.66357 0.26231 
0.863866 0.26231 -9.78812 
-10.0577 1.04942 0.204551 
1.04942 -9.36264 0.23157 
0.204551 0.23157 -11.2741 
-10.0208 0.0494221 0.276803 
0.0494221 -10.0363 0.198508 
0.276803 0.198508 -10.6372 
-9.92105 0.00508798 0.0122029 
0.00508798 -9.86766 0.0291471 
0.0122029 0.0291471 -10.9057 
-10.2845 0.288829 0.122812 
0.288829 -9.72368 -0.0366193 
0.122812 -0.0366193 -10.6862 
-9.75817 0.0294195 0.707781 
0.0294195 -9.61208 0.8027 
0.707781 0.8027 -9.80968 
-9.95631 0.111317 0.517749 
0.111317 -9.6684 0.718666 
0.517749 0.718666 -9.55522 
-9.90519 0.0630613 0.54743 
0.0630613 -9.54142 0.727999 
0.54743 0.727999 -9.73332 
-9.74974 0.0873289 0.681941 
0.0873289 -9.67317 0.844428 
0.681941 0.844428 -9.75701 
-9.25939 -2.04525 -1.43839 
-2.04525 -8.78362 -0.336224 
-1.43839 -0.336224 -22.6576 
-12.3303 0.970991 0.129414 
0.970991 -10.8908 -0.635157 
0.129414 -0.635157 -17.4795 
-13.3482 -1.35947 0.415749 
-1.35947 -13.0625 -2.25993 
0.415749 -2.25993 -14.2899 
-13.6359 -1.16986 0.507835 
-1.16986 -11.5942 -0.0288384 
0.507835 -0.0288384 -15.4705 
-9.81098 -0.320685 -0.718299 
-0.320685 -9.50468 1.30621 
-0.718299 1.30621 -9.39532 
-9.78107 -0.182438 -0.659735 
-0.182438 -9.4719 1.12145 
-0.659735 1.12145 -9.45801 
-9.83829 -0.252657 -0.737254 
-0.252657 -9.52086 1.19849 
-0.737254 1.19849 -9.35183 
-9.79668 -0.178055 -0.907418 
-0.178055 -9.66132 1.12759 
-0.907418 1.12759 -9.25298 
-9.74994 0.0466422 -0.307708 
0.0466422 -9.62397 -0.792259 
-0.307708 -0.792259 -9.86157 
-9.74927 0.0741968 -0.351862 
0.0741968 -9.67194 -0.852697 
-0.351862 -0.852697 -9.81426 
-9.79123 0.0211692 -0.359874 
0.0211692 -9.59233 -0.845798 
-0.359874 -0.845798 -9.85191 
-9.8008 0.087223 -0.347833 
0.087223 -9.62133 -0.757548 
-0.347833 -0.757548 -9.81334 
-8.96635 -0.345248 0.670086 
-0.345248 -9.88243 -0.238806 
0.670086 -0.238806 -10.6294 
-8.85879 -0.380058 0.770787 
-0.380058 -10.2425 -0.311007 
0.770787 -0.311007 -10.3768 
-8.91388 -0.352539 0.625458 
-0.352539 -9.85014 -0.260185 
0.625458 -0.260185 -10.7141 
-8.91099 -0.340125 0.711323 
-0.340125 -9.89685 -0.28154 
0.711323 -0.28154 -10.6703 
-9.20872 0.130474 0.773182 
0.130474 -9.41837 0.180466 
0.773182 0.180466 -9.71784 
-9.14544 0.124506 0.800007 
0.124506 -9.42766 0.296429 
0.800007 0.296429 -9.77183 
-9.10157 0.184685 0.795257 
0.184685 -9.45272 0.263157 
0.795257 0.263157 -9.79064 
-9.14672 -0.0009225 0.881206 
-0.0009225 -9.4738 0.344587 
0.881206 0.344587 -9.72441 
-9.65786 0.0627774 0.787465 
0.0627774 -9.71749 0.280141 
0.787465 0.280141 -9.78102 
-9.64106 0.0349473 0.790135 
0.0349473 -9.70394 0.292513 
0.790135 0.292513 -9.81136 
-9.69617 -0.0327926 0.74516 
-0.0327926 -9.67689 0.254854 
0.74516 0.254854 -9.78331 
-9.62613 0.0461317 0.801585 
0.0461317 -9.78464 0.315908 
0.801585 0.315908 -9.7456 
-8.82217 0.163434 1.01878 
0.163434 -9.06022 -0.650238 
1.01878 -0.650238 -4.13866 
-8.87633 0.0528072 0.716388 
0.0528072 -8.83181 -0.705017 
0.716388 -0.705017 -4.3129 
-9.47681 -0.228448 0.555923 
-0.228448 -8.7014 -0.66008 
0.555923 -0.66008 -3.84284 
-8.72677 -0.133866 0.625061 
-0.133866 -8.27843 -1.24234 
0.625061 -1.24234 -5.01584 
-9.90281 0.00642921 -0.269998 
0.00642921 -9.89212 0.879676 
-0.269998 0.879676 -9.905 
-9.94795 0.00272441 -0.255605 
0.00272441 -9.85729 0.890558 
-0.255605 0.890558 -9.8947 
-9.7176 -0.0283247 -0.340685 
-0.0283247 -9.84637 0.81664 
-0.340685 0.81664 -10.136 
-9.97737 -0.0464635 -0.299815 
-0.0464635 -9.84062 0.939243 
-0.299815 0.939243 -9.88194 
-2.37702 -0.451746 -1.18269 
-0.451746 -2.27693 -0.126016 
-1.18269 -0.126016 -0.991742 
-3.29355 -0.380484 0.0318103 
-0.380484 -3.10599 0.604834 
0.0318103 0.604834 0.753853 
-1.77333 0.0163211 -1.47862 
0.0163211 -1.85233 -0.292151 
-1.47862 -0.292151 -2.02002 
-3.07925 -1.14553 -1.51766 
-1.14553 -2.38725 -0.634587 
-1.51766 -0.634587 -0.179187 
-9.63281 0.0976675 -0.101679 
0.0976675 -9.80523 0.00575205 
-0.101679 0.00575205 -9.9289 
-9.64202 0.0578473 -0.0843968 
0.0578473 -9.7263 -0.0772763 
-0.0843968 -0.0772763 -9.99862 
-9.59919 0.0583481 -0.162089 
0.0583481 -9.72428 -0.217379 
-0.162089 -0.217379 -10.0435 
-9.60528 0.11677 -0.0855263 
0.11677 -9.76179 0.00258155 
-0.0855263 0.00258155 -9.99987 
-9.74707 0.0213972 0.40594 
0.0213972 -9.72115 0.627151 
0.40594 0.627151 -9.79731 
-9.72722 0.0447385 0.461021 
0.0447385 -9.70175 0.746783 
0.461021 0.746783 -9.83656 
-9.73935 0.0311086 0.424033 
0.0311086 -9.69125 0.704128 
0.424033 0.704128 -9.83493 
-9.78382 0.045647 0.441375 
0.045647 -9.63474 0.724073 
0.441375 0.724073 -9.84697 
-9.76231 -0.118199 -0.171761 
-0.118199 -9.94376 0.120852 
-0.171761 0.120852 -9.96094 
-9.77403 -0.0359065 0.0464104 
-0.0359065 -9.87816 0.00262517 
0.0464104 0.00262517 -10.0148 
-9.86215 -0.0870524 0.0499125 
-0.0870524 -9.81012 0.0697619 
0.0499125 0.0697619 -9.99474 
-9.75616 -0.0618203 0.0256255 
-0.0618203 -9.93482 0.0737107 
0.0256255 0.0737107 -9.97603 
-10.0099 0.0292522 -0.0693756 
0.0292522 -10.0866 0.00428676 
-0.0693756 0.00428676 -10.1017 
-10.0091 0.0210809 0.0162512 
0.0210809 -10.0572 -0.0313956 
0.0162512 -0.0313956 -10.1319 
-10.0291 0.0128642 -0.0403144 
0.0128642 -10.0343 0.035648 
-0.0403144 0.035648 -10.1349 
-10.0131 0.0097325 -0.0317394 
0.0097325 -10.0605 0.00277765 
-0.0317394 0.00277765 -10.1246 
-9.46161 0.00769139 -0.626005 
0.00769139 -9.52336 -0.458447 
-0.626005 -0.458447 -9.63466 
-9.536 -0.161029 -0.639033 
-0.161029 -9.52459 -0.41186 
-0.639033 -0.41186 -9.55904 
-9.42184 0.219652 -0.605169 
0.219652 -9.49816 -0.344274 
-0.605169 -0.344274 -9.69962 
-9.45012 0.0336433 -0.716725 
0.0336433 -9.45342 -0.473265 
-0.716725 -0.473265 -9.71609 
-9.65332 -0.0246569 0.428204 
-0.0246569 -9.64762 0.663898 
0.428204 0.663898 -9.69111 
-9.59073 0.176384 0.458818 
0.176384 -9.5812 0.730923 
0.458818 0.730923 -9.82013 
-9.6761 -0.0500907 0.496711 
-0.0500907 -9.64197 0.637575 
0.496711 0.637575 -9.67399 
-9.74671 0.0708012 0.320467 
0.0708012 -9.5169 0.633147 
0.320467 0.633147 -9.72844 
-10.7106 -0.433455 0.119427 
-0.433455 -8.86315 -0.194485 
0.119427 -0.194485 -11.2854 
-10.0305 -0.566859 -0.0438925 
-0.566859 -9.32058 -0.742195 
-0.0438925 -0.742195 -11.508 
-10.2615 -0.689984 0.143353 
-0.689984 -9.29342 -0.493165 
0.143353 -0.493165 -11.3042 
-10.3818 -0.489285 0.0646858 
-0.489285 -9.41134 -0.396373 
0.0646858 -0.396373 -11.0659 
-9.60624 0.106851 0.0936988 
0.106851 -9.73995 0.00570042 
0.0936988 0.00570042 -10.5374 
-9.7707 0.125284 0.272808 
0.125284 -9.97246 0.0823715 
0.272808 0.0823715 -10.1404 
-9.86397 0.108309 0.112374 
0.108309 -9.98869 0.0717954 
0.112374 0.0717954 -10.0309 
-9.79946 0.151996 0.212375 
0.151996 -9.94413 0.156783 
0.212375 0.156783 -10.14 
-10.0964 -0.562087 -0.00572759 
-0.562087 -9.30401 -0.17933 
-0.00572759 -0.17933 -10.2449 
-9.84761 0.0616246 -0.0594923 
0.0616246 -9.79378 0.106194 
-0.0594923 0.106194 -10.004 
-9.67936 0.147665 0.00804858 
0.147665 -10.0634 0.25144 
0.00804858 0.25144 -9.90257 
-9.9808 0.107432 -0.451932 
0.107432 -9.22013 0.336503 
-0.451932 0.336503 -10.4444 
-10.033 -0.55219 0.0364009 
-0.55219 -9.53379 -0.0419229 
0.0364009 -0.0419229 -11.1812 
-10.3853 -0.69655 0.0133995 
-0.69655 -8.96699 -0.0445674 
0.0133995 -0.0445674 -11.3957 
-9.73773 -0.696356 0.0892108 
-0.696356 -9.81596 -0.457507 
0.0892108 -0.457507 -11.1942 
-10.5368 -0.0617935 -0.128031 
-0.0617935 -9.27132 -0.487336 
-0.128031 -0.487336 -10.9399 
-9.27253 0.0840198 -0.623521 
0.0840198 -9.42728 -0.208442 
-0.623521 -0.208442 -9.82831 
-9.14486 0.167164 -0.784761 
0.167164 -9.56372 -0.280427 
-0.784761 -0.280427 -9.81953 
-9.37443 0.0294572 -0.856279 
0.0294572 -9.43613 -0.286175 
-0.856279 -0.286175 -9.71755 
-9.24295 0.0552318 -0.823313 
0.0552318 -9.54875 -0.267569 
-0.823313 -0.267569 -9.73641 
-7.96634 1.07807 -0.989712 
1.07807 -9.16455 -0.929273 
-0.989712 -0.929273 -9.92905 
-7.57596 0.635128 -2.25216 
0.635128 -9.74614 -0.8758 
-2.25216 -0.8758 -9.73784 
-7.94325 0.529163 -1.95753 
0.529163 -9.49003 -0.376686 
-1.95753 -0.376686 -9.62666 
-7.68593 0.605115 -1.64832 
0.605115 -9.61014 -0.438502 
-1.64832 -0.438502 -9.76387 
-8.63709 0.736259 -0.769992 
0.736259 -8.86843 -0.711123 
-0.769992 -0.711123 -10.0331 
-8.55748 0.591943 -0.835059 
0.591943 -8.91564 -0.615998 
-0.835059 -0.615998 -10.0655 
-8.6879 0.411355 -0.991012 
0.411355 -8.86585 -0.722952 
-0.991012 -0.722952 -9.98489 
-8.61721 0.529328 -0.730505 
0.529328 -8.93215 -0.617191 
-0.730505 -0.617191 -9.98927 
-9.72805 -0.0140691 0.718715 
-0.0140691 -9.64623 -0.385279 
0.718715 -0.385279 -9.55097 
-9.32358 -0.125029 0.713266 
-0.125029 -9.6082 -0.471144 
0.713266 -0.471144 -9.99347 
-9.72771 0.0959742 0.652078 
0.0959742 -9.58434 -0.46952 
0.652078 -0.46952 -9.6132 
-9.67574 -0.132783 0.472934 
-0.132783 -9.54489 -0.490994 
0.472934 -0.490994 -9.70461 
-9.65436 0.0349538 -0.478866 
0.0349538 -9.5413 -0.852478 
-0.478866 -0.852478 -9.78851 
-9.78188 0.0577532 -0.268676 
0.0577532 -9.45909 -0.766383 
-0.268676 -0.766383 -9.7432 
-9.61543 0.106905 -0.485842 
0.106905 -9.50176 -0.845925 
-0.485842 -0.845925 -9.86698 
-9.68267 0.100594 -0.427676 
0.100594 -9.47016 -0.833754 
-0.427676 -0.833754 -9.83135 
-9.2739 0.0441307 1.00209 
0.0441307 -7.22974 1.6942 
1.00209 1.6942 -10.1905 
-8.14689 -2.11192 -1.18487 
-2.11192 -8.53369 -0.660998 
-1.18487 -0.660998 -10.0136 
-8.93168 -0.581939 -3.10122 
-0.581939 -7.80339 0.647794 
-3.10122 0.647794 -9.95911 
-9.06405 -2.33319 -1.36732 
-2.33319 -6.99646 2.97792 
-1.36732 2.97792 -10.6337 
-9.75154 -0.0625596 0.202833 
-0.0625596 -8.55754 1.156 
0.202833 1.156 -9.32043 
-9.39048 0.115828 0.177644 
0.115828 -9.11528 1.46342 
0.177644 1.46342 -9.12375 
-9.66621 0.0355541 0.0973489 
0.0355541 -8.79301 1.60315 
0.0973489 1.60315 -9.17029 
-9.51924 0.147415 0.072442 
0.147415 -8.88601 1.53984 
0.072442 1.53984 -9.22426 
-10.0658 0.00819407 0.0174808 
0.00819407 -10.0884 0.0150706 
0.0174808 0.0150706 -10.1674 
-10.1039 0.0623331 0.0286174 
0.0623331 -10.0994 -0.0217214 
0.0286174 -0.0217214 -10.1183 
-10.0865 0.0312708 0.0101031 
0.0312708 -10.099 -0.0117348 
0.0101031 -0.0117348 -10.1362 
-10.1024 0.00728672 -0.00486167 
0.00728672 -10.1325 -0.00400396 
-0.00486167 -0.00400396 -10.0868 
-9.84232 0.148295 0.083088 
0.148295 -9.66064 0.265525 
0.083088 0.265525 -10.0817 
-9.88399 0.333614 0.0173811 
0.333614 -9.44445 0.0855026 
0.0173811 0.0855026 -10.2563 
-9.75183 -0.0731362 0.0656169 
-0.0731362 -9.89878 0.208857 
0.0656169 0.208857 -9.93409 
-9.90016 -0.174024 0.15137 
-0.174024 -9.59885 0.344902 
0.15137 0.344902 -10.0857 
-9.95369 0.547208 -1.27559 
0.547208 -9.02306 -1.70852 
-1.27559 -1.70852 -9.29154 
-9.07765 0.996696 -0.570882 
0.996696 -8.82825 -2.78645 
-0.570882 -2.78645 -10.3624 
-10.0185 0.854896 -0.791226 
0.854896 -8.39312 -1.43771 
-0.791226 -1.43771 -9.8567 
-9.46963 0.384458 -0.367551 
0.384458 -8.21412 -1.16377 
-0.367551 -1.16377 -10.5845 
-1.98911 -0.31164 -1.21789 
-0.31164 -4.73428 0.21268 
-1.21789 0.21268 -1.56919 
-5.28892 -0.0404792 -0.33262 
-0.0404792 -3.09178 0.0939178 
-0.33262 0.0939178 0.0881232 
-4.20805 -0.402499 -1.71736 
-0.402499 -4.03544 0.390694 
-1.71736 0.390694 -0.0490856 
-4.63715 0.359763 -1.85374 
0.359763 -3.31771 0.297118 
-1.85374 0.297118 -0.337709 
-7.4778 -2.17649 4.21836 
-2.17649 -9.34318 -3.76024 
4.21836 -3.76024 -8.67903 
-7.15837 -1.21994 1.70986 
-1.21994 -7.91457 -2.21296 
1.70986 -2.21296 -10.4271 
-10.5008 0.307712 1.54061 
0.307712 -7.58683 -1.87217 
1.54061 -1.87217 -7.41244 
-8.93656 -1.04472 2.48837 
-1.04472 -8.32028 -1.16349 
2.48837 -1.16349 -8.24318 
-9.52736 -0.0105767 -0.652942 
-0.0105767 -9.64105 -0.308886 
-0.652942 -0.308886 -9.6568 
-9.49433 0.157319 -0.776071 
0.157319 -9.59857 -0.394533 
-0.776071 -0.394533 -9.73231 
-9.47457 0.074644 -0.390721 
0.074644 -9.64472 -0.479124 
-0.390721 -0.479124 -9.70591 
-9.55146 0.0265428 -0.76655 
0.0265428 -9.38198 -0.636396 
-0.76655 -0.636396 -9.89177 
-5.37099 0.125081 1.29675 
0.125081 -5.7005 0.524709 
1.29675 0.524709 -0.826104 
-5.75985 -0.0887583 0.456035 
-0.0887583 -4.62765 -0.139884 
0.456035 -0.139884 -1.5101 
-7.82369 -0.832481 1.61513 
-0.832481 -4.37102 -0.544356 
1.61513 -0.544356 0.297103 
-1.83941 1.28935 4.17863 
1.28935 -7.18101 0.614676 
4.17863 0.614676 -2.87718 
-6.93903 -0.0757558 1.1841 
-0.0757558 -7.14064 -0.424751 
1.1841 -0.424751 -2.66228 
-7.64862 -0.1179 1.34305 
-0.1179 -7.12641 -1.01373 
1.34305 -1.01373 -1.96692 
-7.40356 -0.105804 0.943661 
-0.105804 -6.86626 -0.364044 
0.943661 -0.364044 -2.47213 
-7.43969 0.163218 1.50455 
0.163218 -7.30629 -0.428723 
1.50455 -0.428723 -1.99597 
-9.97618 0.0288182 -0.951742 
0.0288182 -9.99383 -0.0438707 
-0.951742 -0.0438707 -9.81705 
-9.81589 0.0109405 -0.89625 
0.0109405 -9.90873 0.0146525 
-0.89625 0.0146525 -10.0624 
-9.7062 -0.0513874 -0.838554 
-0.0513874 -9.94899 0.0584031 
-0.838554 0.0584031 -10.1319 
-9.74855 0.151473 -1.05306 
0.151473 -9.97358 0.0475024 
-1.05306 0.0475024 -10.0649 
-9.24609 0.226055 1.08477 
0.226055 -9.92083 0.512832 
1.08477 0.512832 -8.98912 
-9.33021 -0.0828658 1.08112 
-0.0828658 -9.19704 0.590728 
1.08112 0.590728 -9.6288 
-9.51131 0.32006 0.940065 
0.32006 -9.74163 0.574621 
0.940065 0.574621 -8.90311 
-9.57704 0.153772 1.22473 
0.153772 -9.66522 0.830197 
1.22473 0.830197 -8.9138 
-9.5444 -0.0251683 -0.18754 
-0.0251683 -8.91178 0.773872 
-0.18754 0.773872 -9.78814 
-9.47977 -0.0964059 -0.0622221 
-0.0964059 -9.33828 0.523667 
-0.0622221 0.523667 -9.42627 
-9.11248 0.046703 -0.045365 
0.046703 -9.84264 0.379464 
-0.045365 0.379464 -9.28921 
-9.44389 -0.235987 -0.314225 
-0.235987 -9.14191 0.498807 
-0.314225 0.498807 -9.65853 
-9.68434 0.041232 -0.112075 
0.041232 -8.60903 1.34278 
-0.112075 1.34278 -9.887 
-9.66487 -0.0452111 -0.177596 
-0.0452111 -8.70512 1.26701 
-0.177596 1.26701 -9.81038 
-9.69154 -0.237605 -0.0412106 
-0.237605 -8.51591 1.42392 
-0.0412106 1.42392 -9.97292 
-9.62471 -0.045823 0.0712193 
-0.045823 -8.58342 1.19045 
0.0712193 1.19045 -9.97224 
-10.5384 0.289565 -0.171128 
0.289565 -9.38514 -0.280692 
-0.171128 -0.280692 -11.4539 
-10.6339 0.253744 -0.0557667 
0.253744 -9.02723 -0.012638 
-0.0557667 -0.012638 -11.7163 
-10.7185 -0.0178853 -0.0564927 
-0.0178853 -9.35844 -0.451669 
-0.0564927 -0.451669 -11.3005 
-9.35179 -0.471397 0.193468 
-0.471397 -10.803 1.63467 
0.193468 1.63467 -11.2226 
-9.29634 -0.0714074 -0.208243 
-0.0714074 -9.12179 0.253042 
-0.208243 0.253042 -9.94801 
-9.50422 -0.191421 -0.0734587 
-0.191421 -9.02925 0.25502 
-0.0734587 0.25502 -9.83266 
-9.59051 -0.0977857 -0.0818411 
-0.0977857 -9.00603 0.236818 
-0.0818411 0.236818 -9.76959 
-9.48572 -0.0848777 -0.12428 
-0.0848777 -8.88824 0.286585 
-0.12428 0.286585 -9.99217 
-9.56404 0.283174 0.684147 
0.283174 -9.35844 0.837402 
0.684147 0.837402 -9.51937 
-9.39749 0.266407 0.739064 
0.266407 -9.51703 1.03073 
0.739064 1.03073 -9.52733 
-9.83471 0.397552 0.779404 
0.397552 -9.252 1.35377 
0.779404 1.35377 -9.35514 
-9.60699 -0.031798 0.416554 
-0.031798 -9.36875 0.7586 
0.416554 0.7586 -9.46611 
-9.97106 -0.0359959 0.0558557 
-0.0359959 -9.82339 -0.000377309 
0.0558557 -0.000377309 -9.94423 
-9.91034 -0.00112233 -0.0746864 
-0.00112233 -9.84552 0.131122 
-0.0746864 0.131122 -9.98282 
-9.84295 -0.0148167 0.00818355 
-0.0148167 -9.86727 0.0651747 
0.00818355 0.0651747 -10.0285 
-9.9144 -0.0324104 0.012453 
-0.0324104 -9.80938 0.0188106 
0.012453 0.0188106 -10.0149 
-9.3425 -0.0686469 -0.427627 
-0.0686469 -9.23826 -1.07842 
-0.427627 -1.07842 -9.99774 
-10.2782 -0.16013 0.400264 
-0.16013 -9.42355 0.570971 
0.400264 0.570971 -8.87679 
-9.28024 -0.853047 -0.48738 
-0.853047 -9.6043 1.06582 
-0.48738 1.06582 -9.69396 
-8.66131 0.111595 -1.25728 
0.111595 -9.37445 0.294882 
-1.25728 0.294882 -10.5427 
-9.70509 0.355672 0.72001 
0.355672 -8.75221 0.956773 
0.72001 0.956773 -10.0936 
-9.33606 0.46488 0.542453 
0.46488 -8.9926 0.793779 
0.542453 0.793779 -10.2222 
-9.59918 0.476814 0.641926 
0.476814 -8.91287 1.11657 
0.641926 1.11657 -10.0388 
-9.58906 0.617863 0.572368 
0.617863 -8.86478 0.745449 
0.572368 0.745449 -10.097 
-10.064 -0.00153415 -0.149463 
-0.00153415 -9.62387 1.18513 
-0.149463 1.18513 -9.67214 
-10.064 -0.0308429 -0.263597 
-0.0308429 -9.56894 1.01672 
-0.263597 1.01672 -9.72704 
-10.0527 -0.111711 -0.228999 
-0.111711 -9.56829 1.16757 
-0.228999 1.16757 -9.73902 
-9.99896 -0.142325 -0.304865 
-0.142325 -9.5799 0.816521 
-0.304865 0.816521 -9.78113 
-9.96208 -0.0169932 0.220827 
-0.0169932 -9.9115 -0.919796 
0.220827 -0.919796 -9.87655 
-9.89045 -0.00294904 0.180517 
-0.00294904 -9.97917 -0.895606 
0.180517 -0.895606 -9.8805 
-9.78708 0.061346 0.0718873 
0.061346 -9.77806 -0.871921 
0.0718873 -0.871921 -10.185 
-10.0152 -0.0317206 0.197268 
-0.0317206 -9.86859 -0.989874 
0.197268 -0.989874 -9.86634 
-9.42482 0.131235 0.377481 
0.131235 -9.47807 0.731969 
0.377481 0.731969 -9.51491 
-9.56509 0.0168202 -0.125059 
0.0168202 -9.28472 0.587524 
-0.125059 0.587524 -9.568 
-9.36535 0.0139157 -0.0573432 
0.0139157 -9.17887 0.919704 
-0.0573432 0.919704 -9.87359 
-9.57074 0.0808296 0.247379 
0.0808296 -9.10265 0.813427 
0.247379 0.813427 -9.74442 
-9.67394 0.00499923 -0.665784 
0.00499923 -9.71963 -0.528313 
-0.665784 -0.528313 -9.83643 
-9.67763 0.01604 -0.690507 
0.01604 -9.7199 -0.518314 
-0.690507 -0.518314 -9.83248 
-9.72222 0.0145045 -0.629784 
0.0145045 -9.71478 -0.47946 
-0.629784 -0.47946 -9.793 
-9.72738 0.0608504 -0.714323 
0.0608504 -9.75474 -0.483488 
-0.714323 -0.483488 -9.7479 
-3.37791 -1.55467 -0.615796 
-1.55467 -7.32478 0.18475 
-0.615796 0.18475 1.2962 
-5.43391 1.01105 0.265094 
1.01105 -1.80788 0.424712 
0.265094 0.424712 -2.16471 
-4.2267 -0.343518 0.770292 
-0.343518 -4.38471 2.15966 
0.770292 2.15966 -0.795084 
-3.74689 -0.0470465 0.237609 
-0.0470465 -4.85913 1.65231 
0.237609 1.65231 -0.800479 
-8.43829 0.669478 -1.34403 
0.669478 -9.30965 -0.756464 
-1.34403 -0.756464 -9.69625 
-8.43959 0.45174 -1.3802 
0.45174 -9.52136 -0.683573 
-1.3802 -0.683573 -9.48325 
-8.43546 0.700235 -1.3442 
0.700235 -9.29494 -0.745668 
-1.3442 -0.745668 -9.71379 
-8.76704 0.819129 -1.0963 
0.819129 -8.88684 -0.77457 
-1.0963 -0.77457 -9.79032 
-6.29239 -0.165231 0.920272 
-0.165231 -6.06104 0.276752 
0.920272 0.276752 -0.58272 
-6.33137 0.379305 1.03915 
0.379305 -5.90001 -0.169902 
1.03915 -0.169902 -0.704763 
-5.60432 0.84095 0.539728 
0.84095 -6.75129 -1.09923 
0.539728 -1.09923 -0.580532 
-5.79823 0.28525 1.67181 
0.28525 -4.53487 0.283244 
1.67181 0.283244 -2.60304 
-9.62485 0.258677 0.775428 
0.258677 -9.41974 1.21493 
0.775428 1.21493 -9.25803 
-9.18067 0.219892 0.774758 
0.219892 -9.45691 0.750033 
0.774758 0.750033 -9.66505 
-9.37363 0.393466 0.768693 
0.393466 -9.49819 1.16537 
0.768693 1.16537 -9.4308 
-9.75828 0.471942 1.17292 
0.471942 -9.57619 1.00096 
1.17292 1.00096 -8.96815 
-9.84422 0.0302734 0.680793 
0.0302734 -9.91214 0.499547 
0.680793 0.499547 -9.84514 
-9.80155 -0.0171188 0.630535 
-0.0171188 -9.73949 0.498857 
0.630535 0.498857 -10.0604 
-9.79497 0.0235946 0.685125 
0.0235946 -9.82002 0.525559 
0.685125 0.525559 -9.9865 
-9.86196 0.0748884 0.676133 
0.0748884 -9.89057 0.583643 
0.676133 0.583643 -9.84897 
-9.71974 -0.182938 -0.242023 
-0.182938 -9.02106 1.18565 
-0.242023 1.18565 -9.85485 
-9.77698 -0.164994 -0.214112 
-0.164994 -8.71445 1.05415 
-0.214112 1.05415 -10.1042 
-9.57337 -0.0856252 -0.171572 
-0.0856252 -9.09247 0.926369 
-0.171572 0.926369 -9.92981 
-9.64905 -0.20695 -0.279423 
-0.20695 -8.82553 1.05942 
-0.279423 1.05942 -10.1211 
-2.67135 0.942361 -0.0188473 
0.942361 -5.01948 1.20633 
-0.0188473 1.20633 -3.73474 
-5.30939 1.73437 -2.24098 
1.73437 -8.34723 1.55468 
-2.24098 1.55468 2.23105 
-5.20425 -0.602784 -1.50967 
-0.602784 -5.12182 1.64587 
-1.50967 1.64587 -1.0995 
-3.48917 1.10122 0.720391 
1.10122 -5.84878 3.03941 
0.720391 3.03941 -2.08762 
-9.24158 -0.226107 0.646449 
-0.226107 -9.44714 -0.18787 
0.646449 -0.18787 -9.69274 
-8.93204 -0.0730073 0.678896 
-0.0730073 -9.4426 -0.422393 
0.678896 -0.422393 -10.0068 
-9.35282 0.0510528 0.441751 
0.0510528 -9.20531 -0.334212 
0.441751 -0.334212 -9.82332 
-9.19059 -0.0816658 0.76903 
-0.0816658 -9.62888 -0.33659 
0.76903 -0.33659 -9.56198 
-9.34416 -0.108725 -0.102384 
-0.108725 -9.41036 -0.573194 
-0.102384 -0.573194 -9.51584 
-9.41881 0.036172 -0.106893 
0.036172 -9.24521 -0.661265 
-0.106893 -0.661265 -9.60634 
-9.4377 0.0412423 -0.131429 
0.0412423 -9.1978 -0.628643 
-0.131429 -0.628643 -9.63487 
-9.47023 -0.00718286 -0.140575 
-0.00718286 -9.24073 -0.697754 
-0.140575 -0.697754 -9.55941 
-9.51935 0.131318 0.56913 
0.131318 -9.46971 0.659794 
0.56913 0.659794 -9.58224 
-9.42302 0.179913 0.604312 
0.179913 -9.3694 0.678396 
0.604312 0.678396 -9.77888 
-9.47725 0.201652 0.552404 
0.201652 -9.35287 0.710149 
0.552404 0.710149 -9.74119 
-9.43954 0.0875985 0.430004 
0.0875985 -9.41561 0.557497 
0.430004 0.557497 -9.71616 
-9.08516 0.520413 -0.775613 
0.520413 -8.99833 -0.728538 
-0.775613 -0.728538 -9.98449 
-9.18612 0.63362 -0.794649 
0.63362 -8.90568 -0.710366 
-0.794649 -0.710366 -9.97619 
-9.21435 0.541607 -0.80197 
0.541607 -9.02138 -0.874098 
-0.80197 -0.874098 -9.83226 
-9.22071 0.5461 -0.82085 
0.5461 -8.90058 -0.769927 
-0.82085 -0.769927 -9.9467 
-10.3118 0.107317 -0.0506595 
0.107317 -10.1183 -0.331036 
-0.0506595 -0.331036 -8.45636 
-10.137 0.0405651 0.0480093 
0.0405651 -10.1269 -0.356456 
0.0480093 -0.356456 -8.62266 
-10.2233 -0.154297 0.290264 
-0.154297 -10.1238 -0.482848 
0.290264 -0.482848 -8.53934 
-9.94299 0.00582798 -0.0168057 
0.00582798 -10.1389 -0.263426 
-0.0168057 -0.263426 -8.80464 
-9.47348 -0.107144 0.17873 
-0.107144 -8.98436 -0.521609 
0.17873 -0.521609 -9.78201 
-9.25923 -0.216752 0.178631 
-0.216752 -9.12775 -0.438379 
0.178631 -0.438379 -9.85286 
-9.3848 -0.277196 0.165932 
-0.277196 -8.90057 -0.399471 
0.165932 -0.399471 -9.95447 
-9.29681 -0.211895 0.118506 
-0.211895 -9.04123 -0.378572 
0.118506 -0.378572 -9.9018 
-9.80914 -0.0314864 -0.443647 
-0.0314864 -9.71108 0.739856 
-0.443647 0.739856 -9.91458 
-9.64374 -0.11677 -0.512615 
-0.11677 -9.84418 0.754622 
-0.512615 0.754622 -9.94688 
-9.77367 -0.0779132 -0.502456 
-0.0779132 -9.77115 0.77826 
-0.502456 0.77826 -9.88998 
-9.95165 -0.0563227 -0.545932 
-0.0563227 -9.62983 0.825297 
-0.545932 0.825297 -9.85332 
-9.03551 0.765832 1.08413 
0.765832 -9.40176 0.589853 
1.08413 0.589853 -10.1631 
-8.93726 0.291811 0.84206 
0.291811 -9.63708 0.413891 
0.84206 0.413891 -10.0261 
-8.97065 0.199425 0.965374 
0.199425 -9.63898 0.496106 
0.965374 0.496106 -9.99079 
-9.1433 0.250961 0.384509 
0.250961 -9.39132 0.0771234 
0.384509 0.0771234 -10.0658 
-9.37101 0.570482 0.554208 
0.570482 -8.68537 1.12867 
0.554208 1.12867 -9.89398 
-9.27965 0.598207 0.629071 
0.598207 -8.8311 1.17241 
0.629071 1.17241 -9.83961 
-9.5576 0.597417 0.567262 
0.597417 -8.51278 1.29233 
0.567262 1.29233 -9.87999 
-9.48775 0.159742 0.561266 
0.159742 -8.6605 1.10464 
0.561266 1.10464 -9.80212 
-9.58046 0.113366 0.649852 
0.113366 -9.466 -0.44933 
0.649852 -0.44933 -9.5075 
-9.34727 -0.208551 0.538808 
-0.208551 -9.49895 -0.412134 
0.538808 -0.412134 -9.70774 
-9.50582 -0.000177981 0.668171 
-0.000177981 -9.4406 -0.459945 
0.668171 -0.459945 -9.60754 
-9.37542 -0.00468474 0.700401 
-0.00468474 -9.46969 -0.546136 
0.700401 -0.546136 -9.70885 
-12.1498 2.73274 0.399848 
2.73274 -9.60866 0.808409 
0.399848 0.808409 -18.815 
-11.9752 4.09451 0.151155 
4.09451 -9.03648 1.15813 
0.151155 1.15813 -19.5618 
-9.01357 4.45502 0.47822 
4.45502 -8.86118 0.948653 
0.47822 0.948653 -22.6987 
-11.6727 3.51759 0.492052 
3.51759 -11.2822 1.22196 
0.492052 1.22196 -17.6186 
-13.0094 -0.248729 -1.62018 
-0.248729 -10.8853 0.895669 
-1.62018 0.895669 -10.7404 
-12.6134 0.167221 -2.05511 
0.167221 -13.0599 1.34046 
-2.05511 1.34046 -8.96171 
-7.88046 1.08513 1.33615 
1.08513 -11.1434 -1.27674 
1.33615 -1.27674 -15.6111 
-9.21911 -2.71205 -1.78593 
-2.71205 -11.1906 -0.0379583 
-1.78593 -0.0379583 -14.2253 
-8.98223 -0.261621 -0.294652 
-0.261621 -9.61616 0.00999915 
-0.294652 0.00999915 -10.2192 
-9.19784 0.357126 -0.561207 
0.357126 -9.38691 -0.232894 
-0.561207 -0.232894 -10.2329 
-8.37821 -0.0991693 -0.470033 
-0.0991693 -9.88013 0.133772 
-0.470033 0.133772 -10.5593 
-8.99788 0.0560599 -0.285183 
0.0560599 -9.72252 -0.0951762 
-0.285183 -0.0951762 -10.0972 
-9.37105 -0.0463651 0.477926 
-0.0463651 -9.2978 0.664648 
0.477926 0.664648 -9.6896 
-9.48583 0.127753 0.324516 
0.127753 -9.23437 0.656636 
0.324516 0.656636 -9.63825 
-9.31161 0.118292 0.468533 
0.118292 -9.27246 0.683279 
0.468533 0.683279 -9.77438 
-9.42504 0.108123 0.2674 
0.108123 -9.36594 0.612717 
0.2674 0.612717 -9.56747 
-9.64995 -0.0771482 -0.0475171 
-0.0771482 -9.10057 0.920604 
-0.0475171 0.920604 -9.82562 
-9.641 -0.132879 0.00301055 
-0.132879 -9.03405 0.864565 
0.00301055 0.864565 -9.90109 
-9.66878 0.0669593 -0.0974216 
0.0669593 -8.97378 1.3286 
-0.0974216 1.3286 -9.93358 
-9.47029 0.18525 0.0305374 
0.18525 -9.2724 0.814144 
0.0305374 0.814144 -9.83345 
-9.11111 0.164205 0.653581 
0.164205 -9.39188 0.282132 
0.653581 0.282132 -9.70087 
-9.17221 0.0525984 0.639439 
0.0525984 -9.28431 0.420585 
0.639439 0.420585 -9.74735 
-9.20478 0.147731 0.71998 
0.147731 -9.29508 0.360939 
0.71998 0.360939 -9.704 
-9.18865 0.147878 0.679248 
0.147878 -9.33316 0.334207 
0.679248 0.334207 -9.68206 
-9.55939 0.092707 -0.848526 
0.092707 -9.63451 0.108241 
-0.848526 0.108241 -8.21366 
-9.41045 0.0773588 -1.16887 
0.0773588 -9.56718 0.245593 
-1.16887 0.245593 -8.42993 
-9.52933 0.118532 -0.942369 
0.118532 -9.62596 0.0802706 
-0.942369 0.0802706 -8.25226 
-9.57447 0.0429617 -1.1774 
0.0429617 -9.58666 0.203731 
-1.1774 0.203731 -8.24643 
-9.23394 -0.423897 -0.753695 
-0.423897 -9.87377 0.894705 
-0.753695 0.894705 -6.66948 
-10.0492 -0.0875289 -1.17505 
-0.0875289 -9.40232 1.30119 
-1.17505 1.30119 -6.32565 
-8.80064 -0.612367 -1.31635 
-0.612367 -9.65201 0.856751 
-1.31635 0.856751 -7.32454 
-8.82779 -0.380644 -1.22001 
-0.380644 -9.53499 1.28957 
-1.22001 1.28957 -7.41441 
-9.18614 0.0488755 0.701197 
0.0488755 -9.45161 0.119328 
0.701197 0.119328 -9.67982 
-9.17945 0.0225613 0.581303 
0.0225613 -9.41057 0.141843 
0.581303 0.141843 -9.72755 
-9.09552 0.0510308 0.822288 
0.0510308 -9.43615 0.138149 
0.822288 0.138149 -9.78589 
-9.28532 0.0997151 0.868663 
0.0997151 -9.52888 0.262232 
0.868663 0.262232 -9.50337 
-9.68898 0.0459935 0.588765 
0.0459935 -9.69082 0.536333 
0.588765 0.536333 -9.7826 
-9.67755 0.055285 0.628213 
0.055285 -9.68394 0.602542 
0.628213 0.602542 -9.8009 
-9.72749 0.039691 0.534879 
0.039691 -9.70803 0.532286 
0.534879 0.532286 -9.72687 
-9.64189 0.0666149 0.591504 
0.0666149 -9.71341 0.582207 
0.591504 0.582207 -9.80709 
-9.90057 0.0430916 -0.13863 
0.0430916 -9.95184 -0.832528 
-0.13863 -0.832528 -9.86861 
-9.83189 0.0753219 -0.10731 
0.0753219 -9.78049 -0.937811 
-0.10731 -0.937811 -10.1086 
-9.97951 0.0237187 -0.152293 
0.0237187 -9.81822 -0.854131 
-0.152293 -0.854131 -9.92331 
-9.96936 -0.0219817 -0.147122 
-0.0219817 -9.74232 -0.786781 
-0.147122 -0.786781 -10.0094 
-8.1955 0.191639 -1.95139 
0.191639 -8.75304 0.561301 
-1.95139 0.561301 -4.57715 
-8.25896 0.0329576 -2.45262 
0.0329576 -8.61435 0.343418 
-2.45262 0.343418 -4.65237 
-8.57435 -0.592464 -2.67642 
-0.592464 -9.12043 1.02006 
-2.67642 1.02006 -3.83091 
-8.02161 0.120995 -1.59327 
0.120995 -8.11877 1.4012 
-1.59327 1.4012 -5.38531 
-9.36804 -0.24204 0.426591 
-0.24204 -9.10191 -0.658353 
0.426591 -0.658353 -9.77014 
-9.45085 -0.0599644 0.442206 
-0.0599644 -9.09096 -0.715975 
0.442206 -0.715975 -9.69827 
-9.30836 -0.164991 0.269404 
-0.164991 -9.20053 -0.668208 
0.269404 -0.668208 -9.73119 
-9.33199 -0.242962 0.440896 
-0.242962 -9.12218 -0.703919 
0.440896 -0.703919 -9.78592 
-10.831 -0.193149 0.118288 
-0.193149 -10.5575 -0.284759 
0.118288 -0.284759 -11.1492 
-11.3579 -0.137228 0.223651 
-0.137228 -11.1142 -0.0650961 
0.223651 -0.0650961 -10.0657 
-10.1182 -0.0242432 0.0790393 
-0.0242432 -9.62497 0.128587 
0.0790393 0.128587 -12.7947 
-11.1582 -0.360218 0.354954 
-0.360218 -10.389 -1.63697 
0.354954 -1.63697 -10.9907 
-9.58868 0.00180248 0.13688 
0.00180248 -9.65786 0.981807 
0.13688 0.981807 -9.81705 
-9.82732 0.0949448 0.134612 
0.0949448 -9.60252 0.620712 
0.134612 0.620712 -9.63375 
-9.6738 0.0106234 0.0723567 
0.0106234 -9.53473 0.833854 
0.0723567 0.833854 -9.85506 
-9.77396 -0.00664518 0.0926475 
-0.00664518 -9.44458 0.841975 
0.0926475 0.841975 -9.84505 
-9.49323 0.202223 0.738621 
0.202223 -9.45277 0.845984 
0.738621 0.845984 -8.6887 
-9.02277 0.0514538 0.954144 
0.0514538 -9.22226 0.868027 
0.954144 0.868027 -9.38966 
-9.55462 0.240797 0.685872 
0.240797 -9.38126 1.00529 
0.685872 1.00529 -8.69882 
-9.56192 0.381615 1.28104 
0.381615 -9.66358 1.06604 
1.28104 1.06604 -8.4092 
-9.76452 0.310446 -0.0908491 
0.310446 -9.60876 -0.124679 
-0.0908491 -0.124679 -10.2261 
-9.81536 0.0353174 -0.223932 
0.0353174 -9.74353 -0.168432 
-0.223932 -0.168432 -10.0405 
-9.81606 0.1698 -0.180542 
0.1698 -9.71289 -0.232738 
-0.180542 -0.232738 -10.0704 
-9.91042 -0.0390926 -0.233436 
-0.0390926 -9.63217 -0.25917 
-0.233436 -0.25917 -10.0567 
-9.8357 0.0295439 0.174374 
0.0295439 -9.75114 0.785528 
0.174374 0.785528 -10.052 
-9.81424 0.0239867 0.171481 
0.0239867 -9.83945 0.840426 
0.171481 0.840426 -9.98516 
-9.95088 0.0134994 0.131195 
0.0134994 -9.8756 0.82817 
0.131195 0.82817 -9.81238 
-9.90578 0.0107579 0.0478014 
0.0107579 -9.80673 0.867647 
0.0478014 0.867647 -9.92634 
-9.9021 -0.261641 -0.206849 
-0.261641 -8.84899 0.483284 
-0.206849 0.483284 -11.1384 
-9.94453 -1.07641 -1.61933 
-1.07641 -8.25773 0.484062 
-1.61933 0.484062 -11.6872 
-10.5413 0.149905 0.29642 
0.149905 -9.11976 3.062 
0.29642 3.062 -10.2284 
-10.2023 -1.02944 0.436772 
-1.02944 -8.79707 0.974795 
0.436772 0.974795 -10.8901 
-7.88177 -0.520508 -1.9083 
-0.520508 -9.45117 -0.0944423 
-1.9083 -0.0944423 -7.66939 
-8.58595 -0.0126952 -2.1515 
-0.0126952 -9.26064 0.9915 
-2.1515 0.9915 -7.15574 
-8.53167 -0.382713 -2.43727 
-0.382713 -9.44814 0.722797 
-2.43727 0.722797 -7.02252 
-9.0245 7.7931e-05 -2.11812 
7.7931e-05 -9.09836 0.462878 
-2.11812 0.462878 -6.87948 
-9.24413 -0.271852 -0.378623 
-0.271852 -9.4154 0.241372 
-0.378623 0.241372 -9.85936 
-9.39829 0.442837 -0.390194 
0.442837 -9.5406 0.165675 
-0.390194 0.165675 -9.58001 
-9.33643 -0.098504 -0.403881 
-0.098504 -9.43227 0.332853 
-0.403881 0.332853 -9.7502 
-9.28942 -0.0853275 -0.58452 
-0.0853275 -9.53762 0.407765 
-0.58452 0.407765 -9.69185 
-8.68766 -0.482448 -0.00700617 
-0.482448 -9.30764 -1.15053 
-0.00700617 -1.15053 -3.66909 
-8.72687 -0.146302 0.0568278 
-0.146302 -8.78333 -1.31545 
0.0568278 -1.31545 -4.15419 
-8.73169 0.268638 0.230856 
0.268638 -8.81934 -1.50963 
0.230856 -1.50963 -4.11336 
-8.38845 -0.112917 0.795304 
-0.112917 -8.43832 -1.21102 
0.795304 -1.21102 -4.83762 
-9.96079 0.192858 -0.737467 
0.192858 -8.54366 -0.499989 
-0.737467 -0.499989 -11.6781 
-9.72557 -0.226414 -0.0862845 
-0.226414 -9.53875 -0.0633574 
-0.0862845 -0.0633574 -10.9182 
-9.80291 -0.523167 0.924378 
-0.523167 -9.14557 -1.45748 
0.924378 -1.45748 -11.234 
-10.9314 -0.490814 0.833727 
-0.490814 -9.21563 0.451248 
0.833727 0.451248 -10.0355 
-9.87096 0.0192904 0.436384 
0.0192904 -9.7269 0.625764 
0.436384 0.625764 -9.91281 
-9.77425 0.0534213 0.460188 
0.0534213 -9.77505 0.674994 
0.460188 0.674994 -9.96137 
-9.79576 -0.0079106 0.537206 
-0.0079106 -9.79453 0.774108 
0.537206 0.774108 -9.92038 
-9.82142 0.0647974 0.472391 
0.0647974 -9.77331 0.758454 
0.472391 0.758454 -9.91593 
-9.41967 -0.157001 0.361685 
-0.157001 -9.18039 -1.02142 
0.361685 -1.02142 -9.81552 
-9.47978 -0.227947 0.478687 
-0.227947 -9.16642 -0.963662 
0.478687 -0.963662 -9.76939 
-9.56805 -0.0694691 0.264006 
-0.0694691 -9.13754 -0.791751 
0.264006 -0.791751 -9.71 
-9.42162 -0.180117 0.375423 
-0.180117 -9.13466 -0.76607 
0.375423 -0.76607 -9.85931 
-9.80585 0.101551 0.14493 
0.101551 -10.5059 -0.0183617 
0.14493 -0.0183617 -11.0024 
-10.0882 -0.174778 0.0084639 
-0.174778 -10.3401 -0.135143 
0.0084639 -0.135143 -10.8858 
-9.9263 -0.0151746 0.0667484 
-0.0151746 -10.4747 -0.095761 
0.0667484 -0.095761 -10.9131 
-9.9447 -0.0480007 -0.032631 
-0.0480007 -10.5967 0.0307111 
-0.032631 0.0307111 -10.7727 
-10.6303 0.591838 0.0165694 
0.591838 -10.0823 0.193571 
0.0165694 0.193571 -10.9966 
-10.1226 0.214743 0.100058 
0.214743 -10.6005 -0.109337 
0.100058 -0.109337 -10.986 
-9.49904 -0.107833 -0.105571 
-0.107833 -10.6353 0.00972617 
-0.105571 0.00972617 -11.5749 
-10.0692 0.561154 0.365865 
0.561154 -10.5262 -0.190239 
0.365865 -0.190239 -11.1138 
-9.97852 -0.384052 -0.0971922 
-0.384052 -9.36427 0.0839247 
-0.0971922 0.0839247 -10.9113 
-9.90909 -0.495974 0.190974 
-0.495974 -9.272 -0.190557 
0.190974 -0.190557 -11.073 
-9.72231 -0.951304 0.0266195 
-0.951304 -9.17629 -0.174468 
0.0266195 -0.174468 -11.3555 
-9.66909 -0.697693 0.775656 
-0.697693 -10.2554 -0.332355 
0.775656 -0.332355 -10.3296 
-8.7218 0.248394 -0.851619 
0.248394 -8.60983 2.38066 
-0.851619 2.38066 -4.26748 
-9.22333 -0.650304 -0.593216 
-0.650304 -8.57801 2.6417 
-0.593216 2.6417 -3.79777 
-8.32089 0.313395 -1.16461 
0.313395 -8.85517 2.60736 
-1.16461 2.60736 -4.42305 
-8.29154 -1.00036 -1.16777 
-1.00036 -7.97299 1.78193 
-1.16777 1.78193 -5.33459 
-9.70818 0.069227 1.0713 
0.069227 -9.37891 -0.337822 
1.0713 -0.337822 -4.61797 
-8.86426 -0.0665763 1.10295 
-0.0665763 -9.03687 -0.887768 
1.10295 -0.887768 -5.80394 
-8.89334 -0.4011 1.06345 
-0.4011 -9.45368 -0.69685 
1.06345 -0.69685 -5.35805 
-8.84745 -0.110252 0.813354 
-0.110252 -9.69241 -0.533636 
0.813354 -0.533636 -5.16521 
-9.56174 -0.156306 0.0601713 
-0.156306 -9.21342 -0.183606 
0.0601713 -0.183606 -9.9402 
-9.69415 -0.238361 0.00409214 
-0.238361 -8.69812 -0.263931 
0.00409214 -0.263931 -10.3231 
-9.51592 -0.0012412 -0.0701469 
-0.0012412 -9.07237 -0.23929 
-0.0701469 -0.23929 -10.1271 
-9.64486 -0.183193 0.0424865 
-0.183193 -9.06061 -0.0789035 
0.0424865 -0.0789035 -10.0099 
-10.3512 -0.0584462 -0.285431 
-0.0584462 -10.1493 0.0884759 
-0.285431 0.0884759 -12.1587 
-11.056 0.110017 0.328122 
0.110017 -10.8848 0.0122181 
0.328122 0.0122181 -10.7184 
-11.1638 0.119136 0.13477 
0.119136 -10.9098 -0.0330405 
0.13477 -0.0330405 -10.5856 
-11.1534 0.317513 0.28696 
0.317513 -10.8849 0.624995 
0.28696 0.624995 -10.6209 
-9.93461 -0.308096 0.0165063 
-0.308096 -9.86431 0.0659461 
0.0165063 0.0659461 -10.3935 
-10.0185 -0.267721 0.0496694 
-0.267721 -9.73104 0.0011114 
0.0496694 0.0011114 -10.4429 
-9.98149 -0.227116 0.088068 
-0.227116 -9.73421 -0.0266663 
0.088068 -0.0266663 -10.4767 
-10.0412 -0.277179 0.0668611 
-0.277179 -9.72976 -0.320076 
0.0668611 -0.320076 -10.4215 
-7.36126 0.861767 -5.87268 
0.861767 -9.71796 -1.25132 
-5.87268 -1.25132 -11.51 
-9.54258 -1.07864 -3.44888 
-1.07864 -10.1149 -1.32239 
-3.44888 -1.32239 -8.93171 
-6.59488 1.02002 -5.30983 
1.02002 -11.2918 -1.06624 
-5.30983 -1.06624 -10.7025 
-5.72685 2.29196 -3.34848 
2.29196 -11.1446 -0.931402 
-3.34848 -0.931402 -11.7177 
-10.1688 -0.107476 -0.0824427 
-0.107476 -10.0983 -0.0691125 
-0.0824427 -0.0691125 -10.2385 
-10.1753 -0.0152519 0.0303684 
-0.0152519 -10.1157 0.0371948 
0.0303684 0.0371948 -10.2146 
-10.2194 0.0243956 -0.0420831 
0.0243956 -10.051 0.0419579 
-0.0420831 0.0419579 -10.2351 
-10.17 -0.0336556 -0.0404308 
-0.0336556 -10.0722 0.0351921 
-0.0404308 0.0351921 -10.2633 
-9.3258 0.0745684 0.322616 
0.0745684 -9.41226 0.530415 
0.322616 0.530415 -9.68739 
-9.40134 0.172117 0.180478 
0.172117 -9.26726 0.732807 
0.180478 0.732807 -9.75686 
-9.49111 0.0868319 0.399771 
0.0868319 -9.08007 0.609607 
0.399771 0.609607 -9.85428 
-9.51356 0.0198952 0.221958 
0.0198952 -9.25966 0.772427 
0.221958 0.772427 -9.65224 
-9.74821 0.112118 1.19894 
0.112118 -10.1318 0.0770823 
1.19894 0.0770823 -8.82185 
-9.67948 0.0128836 1.00729 
0.0128836 -10.2441 0.0011984 
1.00729 0.0011984 -8.77831 
-9.74004 0.125231 1.22838 
0.125231 -10.1646 0.157103 
1.22838 0.157103 -8.79721 
-9.62891 0.0544894 0.996137 
0.0544894 -10.1403 0.0462331 
0.996137 0.0462331 -8.93265 
-9.70188 -0.0733924 0.688771 
-0.0733924 -9.7836 -0.48766 
0.688771 -0.48766 -9.83851 
-9.71093 -0.0237803 0.677385 
-0.0237803 -9.73307 -0.475919 
0.677385 -0.475919 -9.87998 
-9.74381 -0.0136381 0.673802 
-0.0136381 -9.72777 -0.451443 
0.673802 -0.451443 -9.8524 
-9.77851 -0.0787224 0.706723 
-0.0787224 -9.74701 -0.485184 
0.706723 -0.485184 -9.79847 
-9.69134 0.0711731 0.858785 
0.0711731 -9.7792 0.0210647 
0.858785 0.0210647 -9.84761 
-9.60153 0.101221 1.08999 
0.101221 -9.93588 0.00349556 
1.08999 0.00349556 -9.78073 
-9.74252 -0.0472372 0.995062 
-0.0472372 -9.81983 -0.0441725 
0.995062 -0.0441725 -9.7558 
-9.71102 -0.0429197 0.945454 
-0.0429197 -9.8261 -0.0281313 
0.945454 -0.0281313 -9.78103 
-9.32608 -0.146089 -0.633595 
-0.146089 -9.64768 0.234597 
-0.633595 0.234597 -9.73478 
-9.67088 0.065763 -0.728601 
0.065763 -9.47627 0.317683 
-0.728601 0.317683 -9.56139 
-9.56552 0.018235 -0.710135 
0.018235 -9.54929 0.403989 
-0.710135 0.403989 -9.59373 
-9.48432 -0.079376 -0.820696 
-0.079376 -9.46377 0.302849 
-0.820696 0.302849 -9.76045 
-9.72749 -0.0112204 0.420359 
-0.0112204 -9.63188 0.694671 
0.420359 0.694671 -9.63471 
-9.63002 0.124426 0.575667 
0.124426 -9.66565 0.85353 
0.575667 0.85353 -9.69841 
-9.79267 0.148163 0.555383 
0.148163 -9.66319 0.840286 
0.555383 0.840286 -9.53822 
-9.9873 0.129141 0.644595 
0.129141 -9.65699 0.939183 
0.644595 0.939183 -9.34979 
-9.87501 -0.0102026 -0.504032 
-0.0102026 -9.66039 0.654195 
-0.504032 0.654195 -10.0071 
-9.8207 -0.0945639 -0.605003 
-0.0945639 -9.77026 0.670486 
-0.605003 0.670486 -9.95159 
-9.78889 -0.0955299 -0.616502 
-0.0955299 -9.81469 0.707823 
-0.616502 0.707823 -9.93897 
-9.84497 -0.114327 -0.62063 
-0.114327 -9.80791 0.749482 
-0.62063 0.749482 -9.88966 
-9.14949 0.0412995 -0.607908 
0.0412995 -9.3518 -0.0944828 
-0.607908 -0.0944828 -9.70937 
-9.28852 0.0705406 -0.625353 
0.0705406 -9.42553 -0.139469 
-0.625353 -0.139469 -9.4966 
-9.38344 -0.00463132 -0.565764 
-0.00463132 -9.25158 -0.297416 
-0.565764 -0.297416 -9.57563 
-9.28311 0.117537 -0.633123 
0.117537 -9.37546 -0.15009 
-0.633123 -0.15009 -9.55208 
-9.24957 -0.1341 -0.494231 
-0.1341 -9.24266 0.48133 
-0.494231 0.48133 -9.68275 
-9.32658 -0.135882 -0.525572 
-0.135882 -9.29916 0.620371 
-0.525572 0.620371 -9.54925 
-9.27095 -0.19349 -0.47149 
-0.19349 -9.27887 0.451101 
-0.47149 0.451101 -9.62517 
-9.25727 -0.158397 -0.605806 
-0.158397 -9.17717 0.525222 
-0.605806 0.525222 -9.74054 
-9.23987 0.101875 -0.42032 
0.101875 -9.66943 -0.413762 
-0.42032 -0.413762 -9.40799 
-8.94155 0.157854 -0.470746 
0.157854 -9.22593 -0.189393 
-0.470746 -0.189393 -10.1498 
-9.31245 0.153843 -0.615793 
0.153843 -9.18224 -0.293531 
-0.615793 -0.293531 -9.82261 
-9.22673 0.390149 -0.584661 
0.390149 -9.38178 -0.52756 
-0.584661 -0.52756 -9.70879 
-9.78007 -0.00221965 0.346545 
-0.00221965 -9.77654 0.862042 
0.346545 0.862042 -9.91734 
-9.78269 0.0193385 0.313038 
0.0193385 -9.73467 0.761156 
0.313038 0.761156 -9.95659 
-9.78481 0.0675647 0.290847 
0.0675647 -9.7924 0.721914 
0.290847 0.721914 -9.89674 
-9.84081 0.0368648 0.364156 
0.0368648 -9.73374 0.808013 
0.364156 0.808013 -9.89941 
-10.9275 0.634708 0.338798 
0.634708 -7.71458 0.0806286 
0.338798 0.0806286 -11.9844 
-11.0757 -0.32978 -0.0288877 
-0.32978 -8.06501 0.7234 
-0.0288877 0.7234 -11.4857 
-10.5969 -0.394457 0.417704 
-0.394457 -7.85978 1.15964 
0.417704 1.15964 -12.1698 
-11.7956 -0.428769 -1.31559 
-0.428769 -8.78874 1.26359 
-1.31559 1.26359 -10.0421 
-9.40437 0.377687 -0.492205 
0.377687 -9.28767 -0.652 
-0.492205 -0.652 -9.92144 
-9.48745 0.115747 -0.523162 
0.115747 -9.35635 -0.680847 
-0.523162 -0.680847 -9.76968 
-9.51922 0.0452172 -0.412884 
0.0452172 -9.349 -0.504024 
-0.412884 -0.504024 -9.74526 
-9.41867 0.0971833 -0.543041 
0.0971833 -9.44342 -0.739254 
-0.543041 -0.739254 -9.75139 
-9.84769 0.0122451 -0.273963 
0.0122451 -9.17694 1.27376 
-0.273963 1.27376 -6.8428 
-9.65317 0.102517 -0.267929 
0.102517 -9.1617 1.45994 
-0.267929 1.45994 -7.05257 
-9.4428 -0.0221094 -0.593171 
-0.0221094 -8.98465 1.34991 
-0.593171 1.34991 -7.43998 
-8.90506 -0.294512 -0.140044 
-0.294512 -9.44195 1.06928 
-0.140044 1.06928 -7.52043 
-9.15013 0.025625 0.113026 
0.025625 -9.0383 0.224484 
0.113026 0.224484 -10.0768 
-9.59134 -0.182693 0.0600882 
-0.182693 -8.95614 0.308442 
0.0600882 0.308442 -9.71771 
-9.58554 0.00722507 -0.000386147 
0.00722507 -8.85483 0.23481 
-0.000386147 0.23481 -9.82482 
-9.40485 -0.134468 0.0175062 
-0.134468 -8.80431 0.325168 
0.0175062 0.325168 -10.056 
-9.26402 0.00824993 0.492775 
0.00824993 -9.33564 -0.102793 
0.492775 -0.102793 -9.57229 
-8.67375 0.12976 0.183312 
0.12976 -9.74748 0.0924403 
0.183312 0.0924403 -9.75073 
-9.99846 -0.0934322 0.525423 
-0.0934322 -9.04712 0.00677964 
0.525423 0.00677964 -9.12638 
-8.97823 -0.0207011 0.713877 
-0.0207011 -9.31842 0.164979 
0.713877 0.164979 -9.87531 
-8.21559 0.0956071 -1.80036 
0.0956071 -9.78006 -0.193242 
-1.80036 -0.193242 -8.78925 
-9.07854 -0.047713 -2.5637 
-0.047713 -9.83424 0.0480884 
-2.5637 0.0480884 -7.87211 
-8.70653 0.243349 -2.03943 
0.243349 -9.9425 0.0562414 
-2.03943 0.0562414 -8.13586 
-9.20519 0.129694 -2.08602 
0.129694 -10.0893 -0.0378091 
-2.08602 -0.0378091 -7.4904 
-10.0071 0.0557023 0.292115 
0.0557023 -9.55282 0.996816 
0.292115 0.996816 -9.48627 
-9.76148 0.0995089 0.252366 
0.0995089 -9.62398 0.944817 
0.252366 0.944817 -9.66076 
-9.61626 0.155446 0.40422 
0.155446 -9.79928 1.44901 
0.40422 1.44901 -9.63067 
-9.90187 0.0878373 0.308073 
0.0878373 -9.72846 0.974348 
0.308073 0.974348 -9.41589 
-9.28993 0.0554051 -0.247867 
0.0554051 -9.25803 0.112087 
-0.247867 0.112087 -10.1255 
-9.19615 0.204865 -0.30935 
0.204865 -9.77507 0.0159921 
-0.30935 0.0159921 -9.70221 
-9.12137 -0.00170377 -0.190565 
-0.00170377 -9.63862 -0.0239697 
-0.190565 -0.0239697 -9.91344 
-8.97036 0.171814 -0.33047 
0.171814 -9.47729 0.0494194 
-0.33047 0.0494194 -10.2258 
-9.73502 0.0411319 -0.153426 
0.0411319 -9.65141 0.908958 
-0.153426 0.908958 -9.84935 
-9.83367 0.102484 -0.102423 
0.102484 -9.56451 0.792683 
-0.102423 0.792683 -9.83761 
-9.80102 0.0444345 -0.111821 
0.0444345 -9.66565 0.833119 
-0.111821 0.833119 -9.7691 
-9.81087 0.0150828 -0.197761 
0.0150828 -9.63043 0.943906 
-0.197761 0.943906 -9.79447 
-9.2396 0.275593 -0.607128 
0.275593 -9.36097 -0.412034 
-0.607128 -0.412034 -9.69656 
-9.32823 0.0438694 -0.404223 
0.0438694 -9.40448 -0.345302 
-0.404223 -0.345302 -9.56442 
-9.54247 -0.248144 -0.354249 
-0.248144 -9.48036 -0.284318 
-0.354249 -0.284318 -9.27429 
-9.2321 0.115441 -0.375175 
0.115441 -9.31591 -0.187263 
-0.375175 -0.187263 -9.74912 
-9.81184 -0.0509198 0.514077 
-0.0509198 -9.91448 -0.58351 
0.514077 -0.58351 -9.94757 
-9.84711 -0.065475 0.574048 
-0.065475 -9.84375 -0.629685 
0.574048 -0.629685 -9.98303 
-9.84972 0.016123 0.671702 
0.016123 -9.84392 -0.689488 
0.671702 -0.689488 -9.98025 
-9.83209 -0.0898732 0.650321 
-0.0898732 -9.87417 -0.618206 
0.650321 -0.618206 -9.96763 
-9.51927 -0.101513 0.46819 
-0.101513 -9.43073 -0.663087 
0.46819 -0.663087 -9.73073 
-9.50325 -0.0886085 0.41026 
-0.0886085 -9.40073 -0.678832 
0.41026 -0.678832 -9.77675 
-9.61847 -0.130482 0.484599 
-0.130482 -9.37652 -0.654756 
0.484599 -0.654756 -9.68575 
-9.57079 0.0283114 0.415958 
0.0283114 -9.30079 -0.70663 
0.415958 -0.70663 -9.80915 
-10.1579 -0.0445477 0.585171 
-0.0445477 -10.1499 -0.534161 
0.585171 -0.534161 -9.69008 
-9.86133 -0.0211935 0.408437 
-0.0211935 -9.98523 -0.624728 
0.408437 -0.624728 -10.1513 
-9.90042 0.0936309 0.384733 
0.0936309 -9.99772 -0.517355 
0.384733 -0.517355 -10.0997 
-10.2407 -0.0585778 0.394361 
-0.0585778 -10.0122 -0.573254 
0.394361 -0.573254 -9.74499 
-12.1376 -7.85316 -3.64174 
-7.85316 -5.45671 -2.74316 
-3.64174 -2.74316 -21.0929 
-10.3398 -0.865298 -0.0642617 
-0.865298 -11.8658 2.64071 
-0.0642617 2.64071 -16.4816 
-11.5976 1.40324 -0.605194 
1.40324 -10.8775 -1.51166 
-0.605194 -1.51166 -16.2122 
-14.336 -2.83752 0.327452 
-2.83752 -10.966 4.57134 
0.327452 4.57134 -13.3852 
-9.45466 0.217865 0.260729 
0.217865 -9.33541 -0.548783 
0.260729 -0.548783 -9.689 
-9.34819 -0.310196 0.096394 
-0.310196 -9.11915 -0.3155 
0.096394 -0.3155 -10.0117 
-9.58704 -0.135985 -0.0336852 
-0.135985 -9.03536 -0.197366 
-0.0336852 -0.197366 -9.85667 
-9.43731 -0.133215 -0.0449622 
-0.133215 -9.20543 -0.157196 
-0.0449622 -0.157196 -9.83633 
-7.85023 1.4213 -0.307798 
1.4213 -6.1684 0.68496 
-0.307798 0.68496 -0.504213 
-5.52286 -0.184944 0.966981 
-0.184944 -6.47896 1.91979 
0.966981 1.91979 -2.52102 
-4.88385 -0.81296 0.950839 
-0.81296 -7.48751 2.67875 
0.950839 2.67875 -2.15147 
-7.38844 3.39168 3.96944 
3.39168 -0.654723 4.21526 
3.96944 4.21526 -6.47967 
-8.93294 0.0657464 -0.51067 
0.0657464 -8.98955 0.0870085 
-0.51067 0.0870085 -9.9151 
-8.75847 0.0394239 -1.13794 
0.0394239 -9.13937 0.0944875 
-1.13794 0.0944875 -9.93975 
-8.75352 0.297404 -0.346957 
0.297404 -9.46942 -0.288842 
-0.346957 -0.288842 -9.61466 
-9.03306 -0.00222156 -0.808076 
-0.00222156 -9.38586 -0.537649 
-0.808076 -0.537649 -9.41868 
-9.8157 0.0217263 -0.0589629 
0.0217263 -8.92535 1.20872 
-0.0589629 1.20872 -9.97633 
-9.66566 -0.0710227 -0.172516 
-0.0710227 -9.16075 0.911959 
-0.172516 0.911959 -9.89096 
-9.82956 -0.254804 -0.349757 
-0.254804 -9.06386 1.24605 
-0.349757 1.24605 -9.82395 
-9.82613 -0.0798648 0.0529413 
-0.0798648 -8.73467 1.13409 
0.0529413 1.13409 -10.1566 
-11.5227 -0.172058 1.0275 
-0.172058 -13.4659 -0.585542 
1.0275 -0.585542 -15.1232 
-11.917 -1.4722 1.60737 
-1.4722 -12.381 -0.242213 
1.60737 -0.242213 -15.8138 
-13.2049 0.231955 -0.266909 
0.231955 -14.1907 0.110303 
-0.266909 0.110303 -12.7162 
-14.4502 0.340177 0.392359 
0.340177 -13.3514 -0.30978 
0.392359 -0.30978 -12.3102 
-5.63217 0.082223 1.32898 
0.082223 -5.65606 0.334365 
1.32898 0.334365 -1.17865 
-7.72323 -0.0436178 1.30644 
-0.0436178 -4.32858 1.21945 
1.30644 1.21945 -0.415072 
-5.98008 -0.0516189 0.891733 
-0.0516189 -4.83318 0.758229 
0.891733 0.758229 -1.65362 
-2.51467 0.264852 3.56453 
0.264852 -7.06961 1.03373 
3.56453 1.03373 -2.88259 
-9.74619 0.0922661 0.162508 
0.0922661 -9.62914 0.58621 
0.162508 0.58621 -9.01095 
-9.03716 0.161196 0.275849 
0.161196 -9.20319 0.326747 
0.275849 0.326747 -10.1459 
-9.44359 0.287458 0.470745 
0.287458 -9.16617 0.675185 
0.470745 0.675185 -9.77651 
-9.38187 0.112633 0.32737 
0.112633 -9.18045 0.601462 
0.32737 0.601462 -9.82396 
-9.79572 -0.0275444 0.735175 
-0.0275444 -9.80998 -0.339943 
0.735175 -0.339943 -9.98342 
-9.8416 0.00945923 0.898139 
0.00945923 -9.79046 -0.374033 
0.898139 -0.374033 -9.95705 
-9.77431 0.0101171 0.69169 
0.0101171 -9.89398 -0.332483 
0.69169 -0.332483 -9.92082 
-9.75942 -0.0456979 0.862139 
-0.0456979 -9.89168 -0.303956 
0.862139 -0.303956 -9.93801 
-9.8844 -0.0346989 0.00555591 
-0.0346989 -9.61328 0.108894 
0.00555591 0.108894 -10.0537 
-9.80952 0.0323063 0.0105166 
0.0323063 -9.57216 0.164939 
0.0105166 0.164939 -10.1697 
-9.92194 -0.0047706 0.0170107 
-0.0047706 -9.55555 0.0604884 
0.0170107 0.0604884 -10.0739 
-9.82314 0.00377104 -0.0145913 
0.00377104 -9.6194 0.0824264 
-0.0145913 0.0824264 -10.1089 
-9.95174 0.433689 0.0808507 
0.433689 -9.5859 -0.00814943 
0.0808507 -0.00814943 -9.58883 
-9.38799 -0.158568 -0.261094 
-0.158568 -9.63423 0.120197 
-0.261094 0.120197 -10.1042 
-9.44873 -0.20135 -0.0396636 
-0.20135 -9.75096 0.095182 
-0.0396636 0.095182 -9.92677 
-9.23592 0.0200516 -0.229769 
0.0200516 -9.90562 -0.0208366 
-0.229769 -0.0208366 -9.98492 
-9.30382 0.0116982 -1.22254 
0.0116982 -9.59736 -0.205462 
-1.22254 -0.205462 -9.79524 
-9.30764 0.0235957 -0.915617 
0.0235957 -9.64059 -0.339911 
-0.915617 -0.339911 -9.74819 
-9.16223 0.24215 -0.761384 
0.24215 -9.71687 -0.36354 
-0.761384 -0.36354 -9.81733 
-9.28742 0.0298079 -0.826867 
0.0298079 -9.36667 -0.179023 
-0.826867 -0.179023 -10.0423 
-9.52172 0.00607994 -0.00953376 
0.00607994 -8.96906 -0.093571 
-0.00953376 -0.093571 -9.84514 
-9.52476 -0.0778622 0.164951 
-0.0778622 -9.14812 -0.369499 
0.164951 -0.369499 -9.66304 
-9.49878 -0.0824257 -0.0150501 
-0.0824257 -8.96401 -0.271445 
-0.0150501 -0.271445 -9.87312 
-9.41547 -0.219484 -0.144581 
-0.219484 -8.77552 -0.384145 
-0.144581 -0.384145 -10.1449 
-9.92861 -0.356194 0.186199 
-0.356194 -8.89038 -0.173231 
0.186199 -0.173231 -10.6195 
-9.75181 -0.203266 0.131294 
-0.203266 -9.02707 -0.426856 
0.131294 -0.426856 -10.6597 
-9.79144 -0.274514 0.374429 
-0.274514 -9.28473 -0.542513 
0.374429 -0.542513 -10.3624 
-9.59541 -0.285041 0.295875 
-0.285041 -9.33976 -0.585237 
0.295875 -0.585237 -10.5034 
-9.64634 0.249876 -0.138699 
0.249876 -8.65895 -1.48544 
-0.138699 -1.48544 -8.5664 
-9.55985 -0.110293 -0.14862 
-0.110293 -8.83793 -1.73107 
-0.14862 -1.73107 -8.47392 
-9.68375 0.0991381 -0.109908 
0.0991381 -8.83471 -1.53316 
-0.109908 -1.53316 -8.35323 
-9.62853 0.025859 0.0129028 
0.025859 -8.93374 -1.60178 
0.0129028 -1.60178 -8.30943 
-9.77392 0.476457 -0.0863628 
0.476457 -9.36128 -0.0635296 
-0.0863628 -0.0635296 -10.357 
-9.70744 -0.506183 0.0614353 
-0.506183 -10.1376 0.0600497 
0.0614353 0.0600497 -9.6472 
-9.75695 0.210852 -0.106719 
0.210852 -9.51967 -0.271254 
-0.106719 -0.271254 -10.2156 
-10.0435 -0.0581063 -0.14648 
-0.0581063 -9.34094 -0.442752 
-0.14648 -0.442752 -10.1078 
-9.60884 -0.148479 -0.5251 
-0.148479 -9.01861 1.70453 
-0.5251 1.70453 -8.03332 
-9.61603 -0.0288132 -0.24944 
-0.0288132 -8.78584 1.20087 
-0.24944 1.20087 -8.2589 
-9.25153 -0.252588 -0.488169 
-0.252588 -8.96765 1.62425 
-0.488169 1.62425 -8.44158 
-9.18243 -0.271168 -0.502045 
-0.271168 -8.64027 1.77715 
-0.502045 1.77715 -8.83807 
-9.22837 0.0230615 0.62752 
0.0230615 -9.35939 -0.0891639 
0.62752 -0.0891639 -9.72048 
-9.12697 -0.154162 0.779147 
-0.154162 -9.3113 -0.147403 
0.779147 -0.147403 -9.86997 
-9.1263 -0.0558836 0.663374 
-0.0558836 -9.49738 -0.222262 
0.663374 -0.222262 -9.68456 
-9.25886 -0.104175 0.776733 
-0.104175 -9.46003 -0.228766 
0.776733 -0.228766 -9.58936 
-9.37862 -0.0169548 0.408386 
-0.0169548 -9.36677 -0.599848 
0.408386 -0.599848 -9.54006 
-9.28127 -0.316069 0.293778 
-0.316069 -9.22595 -0.475606 
0.293778 -0.475606 -9.77822 
-9.49001 0.147017 0.34827 
0.147017 -9.45407 -0.612925 
0.34827 -0.612925 -9.34137 
-9.3977 -0.0768193 0.597352 
-0.0768193 -9.22526 -0.684622 
0.597352 -0.684622 -9.66249 
-9.98361 -2.7557 5.29484 
-2.7557 -7.78044 -1.7339 
5.29484 -1.7339 -3.27666 
-5.25767 3.09759 3.58946 
3.09759 -8.35336 -1.98245 
3.58946 -1.98245 -7.42968 
-7.40619 -1.23323 4.84517 
-1.23323 -6.81329 -0.122897 
4.84517 -0.122897 -6.82124 
-7.04278 -1.43236 4.05971 
-1.43236 -7.02288 2.07375 
4.05971 2.07375 -6.97505 
-9.67882 0.201037 0.86576 
0.201037 -9.44478 1.07269 
0.86576 1.07269 -8.533 
-9.46252 0.4464 1.13744 
0.4464 -9.74963 0.98755 
1.13744 0.98755 -8.44446 
-9.46233 0.181526 0.810781 
0.181526 -9.73647 0.977347 
0.810781 0.977347 -8.45781 
-10.1886 -0.0260751 0.980955 
-0.0260751 -9.33444 1.17644 
0.980955 1.17644 -8.13356 
-10.2281 0.0428084 0.190808 
0.0428084 -10.1955 -0.442881 
0.190808 -0.442881 -8.49164 
-9.93251 0.13062 0.1368 
0.13062 -10.1266 -0.161621 
0.1368 -0.161621 -8.85615 
-10.068 0.0204401 0.183107 
0.0204401 -10.2235 -0.300584 
0.183107 -0.300584 -8.62374 
-10.1428 -0.0768739 0.223447 
-0.0768739 -10.3634 -0.188841 
0.223447 -0.188841 -8.40908 
-9.41765 0.333098 -0.234475 
0.333098 -9.19543 -0.325007 
-0.234475 -0.325007 -9.70117 
-9.28696 0.185346 -0.346483 
0.185346 -9.28631 -0.456295 
-0.346483 -0.456295 -9.74098 
-9.46132 -0.467158 -0.332898 
-0.467158 -9.64353 -0.216469 
-0.332898 -0.216469 -9.2094 
-9.05012 0.192635 -0.352757 
0.192635 -9.61462 -0.404024 
-0.352757 -0.404024 -9.64951 
-9.51924 -0.0142125 0.000124828 
-0.0142125 -9.05505 1.18123 
0.000124828 1.18123 -9.60784 
-9.67524 -0.0310911 -0.0731093 
-0.0310911 -9.13778 1.2748 
-0.0731093 1.2748 -9.3691 
-9.55376 -0.0294615 0.0137463 
-0.0294615 -9.15377 1.19573 
0.0137463 1.19573 -9.4746 
-9.79015 0.146731 0.0672974 
0.146731 -9.19172 0.852214 
0.0672974 0.852214 -9.20026 
-8.19008 0.113125 3.02669 
0.113125 -8.26672 -0.205721 
3.02669 -0.205721 -5.24183 
-7.4309 0.219363 2.99448 
0.219363 -8.18971 0.0589902 
2.99448 0.0589902 -6.07802 
-6.49729 -1.01386 2.35472 
-1.01386 -7.99693 -0.50023 
2.35472 -0.50023 -7.20441 
-8.00077 0.869787 3.36289 
0.869787 -8.70185 -0.822541 
3.36289 -0.822541 -4.996 
-9.29986 -0.109284 -0.672389 
-0.109284 -9.63147 0.199068 
-0.672389 0.199068 -9.66793 
-9.45991 -0.00306022 -0.771586 
-0.00306022 -9.49028 0.148258 
-0.771586 0.148258 -9.64907 
-9.64502 0.0599881 -0.765239 
0.0599881 -9.40777 0.209889 
-0.765239 0.209889 -9.54648 
-9.39916 -0.00124294 -0.808708 
-0.00124294 -9.5036 0.246509 
-0.808708 0.246509 -9.69651 
-10.0125 -0.383458 -0.32184 
-0.383458 -9.05487 1.21978 
-0.32184 1.21978 -7.82808 
-9.3804 -0.0256664 -0.475624 
-0.0256664 -9.37352 1.25329 
-0.475624 1.25329 -8.14153 
-9.57712 -0.219477 -0.186023 
-0.219477 -9.06836 1.27862 
-0.186023 1.27862 -8.24996 
-9.34657 -0.0747 -0.231234 
-0.0747 -9.46504 1.24747 
-0.231234 1.24747 -8.08384 
-10.1513 -1.30837 -0.58525 
-1.30837 -9.69754 -0.0283388 
-0.58525 -0.0283388 -11.5794 
-10.314 0.175844 0.535043 
0.175844 -9.66868 -0.442732 
0.535043 -0.442732 -11.4456 
-11.0093 0.691668 0.0666865 
0.691668 -10.0624 -0.440875 
0.0666865 -0.440875 -10.3565 
-10.6531 -0.30159 0.211563 
-0.30159 -9.85475 -0.328316 
0.211563 -0.328316 -10.9204 
-10.1156 0.362687 0.787644 
0.362687 -9.45874 1.52113 
0.787644 1.52113 -9.14284 
-9.51815 -0.107061 0.358425 
-0.107061 -9.52507 0.883081 
0.358425 0.883081 -9.67393 
-9.59626 0.184187 0.835785 
0.184187 -9.80053 0.770644 
0.835785 0.770644 -9.32036 
-9.74609 0.131071 0.603935 
0.131071 -9.68423 0.888301 
0.603935 0.888301 -9.28682 
-9.62919 0.286725 0.173486 
0.286725 -8.80798 0.112131 
0.173486 0.112131 -9.86862 
-9.354 0.00566461 0.153533 
0.00566461 -9.59243 0.549704 
0.153533 0.549704 -9.35936 
-9.39171 -0.150856 0.301162 
-0.150856 -9.67236 0.551246 
0.301162 0.551246 -9.24173 
-9.24498 0.164339 0.263608 
0.164339 -9.06894 0.692465 
0.263608 0.692465 -9.99188 
-9.83775 -0.00803299 0.0755128 
-0.00803299 -9.51703 0.0596635 
0.0755128 0.0596635 -9.90569 
-9.5787 -0.0124244 -0.10353 
-0.0124244 -9.92468 -0.00343239 
-0.10353 -0.00343239 -9.7571 
-9.69483 -0.0504219 0.063807 
-0.0504219 -9.52677 0.173687 
0.063807 0.173687 -10.0389 
-9.72812 -0.159263 -0.0165942 
-0.159263 -9.5762 0.102497 
-0.0165942 0.102497 -9.95616 
-10.2029 -0.105347 -0.640255 
-0.105347 -9.84867 -0.0539051 
-0.640255 -0.0539051 -10.2743 
-9.88101 0.0237916 -0.0582717 
0.0237916 -9.64652 -0.0786013 
-0.0582717 -0.0786013 -10.7983 
-9.739 0.0334747 0.331388 
0.0334747 -10.5712 0.134428 
0.331388 0.134428 -10.0156 
-9.6843 0.444843 -0.0773024 
0.444843 -10.0757 -0.0208119 
-0.0773024 -0.0208119 -10.5659 
-9.81203 -0.0733087 0.761617 
-0.0733087 -9.83047 -0.130959 
0.761617 -0.130959 -9.93065 
-9.80205 0.0111765 0.919673 
0.0111765 -9.83421 -0.19153 
0.919673 -0.19153 -9.9369 
-9.76698 -0.0119234 0.797688 
-0.0119234 -9.8206 -0.152873 
0.797688 -0.152873 -9.98558 
-9.75848 -0.0409907 0.869139 
-0.0409907 -9.8967 -0.224156 
0.869139 -0.224156 -9.91798 
-10.0185 -0.0168613 -0.0610872 
-0.0168613 -10.0925 -0.131913 
-0.0610872 -0.131913 -10.1547 
-10.0072 -0.0353687 0.0597105 
-0.0353687 -10.1379 0.150381 
0.0597105 0.150381 -10.1206 
-10.033 0.0818944 -0.0442421 
0.0818944 -10.051 0.026242 
-0.0442421 0.026242 -10.1817 
-10.0035 0.0765898 -0.0553983 
0.0765898 -9.99702 0.0184393 
-0.0553983 0.0184393 -10.2652 
-8.5286 0.81522 0.497222 
0.81522 -10.3392 0.287392 
0.497222 0.287392 -12.3351 
-8.22222 1.11347 -0.531261 
1.11347 -10.3033 -0.156518 
-0.531261 -0.156518 -12.6774 
-9.02216 1.01115 -0.815438 
1.01115 -12.1695 -0.148801 
-0.815438 -0.148801 -10.0113 
-8.36592 0.848246 -0.20217 
0.848246 -10.5061 -0.115408 
-0.20217 -0.115408 -12.3309 
-12.274 0.136115 1.57121 
0.136115 -12.7172 1.72053 
1.57121 1.72053 -9.54894 
-12.7105 -0.452476 1.23185 
-0.452476 -10.9336 1.45738 
1.23185 1.45738 -10.896 
-8.07062 0.482012 -1.11044 
0.482012 -10.9138 -1.70135 
-1.11044 -1.70135 -15.5556 
-10.9365 2.49436 1.3531 
2.49436 -9.22013 0.632649 
1.3531 0.632649 -14.3834 
-9.73638 -0.34684 -0.60652 
-0.34684 -9.37512 1.1644 
-0.60652 1.1644 -8.0018 
-9.73821 0.276445 -0.684746 
0.276445 -9.81179 1.28873 
-0.684746 1.28873 -7.5633 
-9.72749 -0.0795779 -0.253271 
-0.0795779 -9.31779 0.789106 
-0.253271 0.789106 -8.06803 
-9.66468 -0.345915 -0.367518 
-0.345915 -9.53151 0.864016 
-0.367518 0.864016 -7.91711 
-8.68598 -1.30972 -0.610777 
-1.30972 -9.3307 0.652056 
-0.610777 0.652056 -12.621 
-8.41758 -1.78943 -1.86743 
-1.78943 -10.1107 1.17081 
-1.86743 1.17081 -12.1094 
-9.67522 0.213158 -0.123758 
0.213158 -11.2218 0.281305 
-0.123758 0.281305 -9.74062 
-9.13019 -1.4379 -1.40679 
-1.4379 -9.07199 0.726328 
-1.40679 0.726328 -12.4355 
-9.84027 -0.0804956 -0.632155 
-0.0804956 -9.87295 0.681477 
-0.632155 0.681477 -9.89007 
-9.86481 -0.0456518 -0.626833 
-0.0456518 -9.85092 0.692787 
-0.626833 0.692787 -9.88757 
-9.73938 0.0275457 -0.525197 
0.0275457 -9.71251 0.716922 
-0.525197 0.716922 -10.1514 
-9.90414 -0.0675579 -0.643024 
-0.0675579 -9.84218 0.746063 
-0.643024 0.746063 -9.85697 
-9.8423 -0.0363069 -0.553521 
-0.0363069 -9.78287 0.549905 
-0.553521 0.549905 -9.91747 
-9.80948 0.00664673 -0.679903 
0.00664673 -9.80393 0.639614 
-0.679903 0.639614 -9.92923 
-9.78105 -0.0385867 -0.621555 
-0.0385867 -9.80692 0.583236 
-0.621555 0.583236 -9.95467 
-9.78524 -0.064785 -0.61748 
-0.064785 -9.82308 0.639169 
-0.61748 0.639169 -9.93432 
-9.76437 0.0173233 -0.777315 
0.0173233 -9.81589 -0.285922 
-0.777315 -0.285922 -9.95208 
-9.81731 -0.0076328 -0.867396 
-0.0076328 -9.78589 -0.350284 
-0.867396 -0.350284 -9.92914 
-9.83502 0.0396008 -0.727762 
0.0396008 -9.80295 -0.274613 
-0.727762 -0.274613 -9.89438 
-9.78087 0.046709 -0.80886 
0.046709 -9.82837 -0.369587 
-0.80886 -0.369587 -9.9231 
-9.12884 -0.0261401 0.219554 
-0.0261401 -8.9926 -0.188522 
0.219554 -0.188522 -10.1984 
-9.06006 -0.115233 0.279909 
-0.115233 -9.55073 -0.378125 
0.279909 -0.378125 -9.70906 
-9.20748 -0.515846 0.044288 
-0.515846 -9.38353 -0.172149 
0.044288 -0.172149 -9.72884 
-8.94815 -0.136955 0.4142 
-0.136955 -9.26002 -0.259279 
0.4142 -0.259279 -10.1117 
-9.17028 0.16514 -0.243388 
0.16514 -8.94295 -0.392381 
-0.243388 -0.392381 -10.2297 
-9.27636 0.339292 -0.559539 
0.339292 -9.28843 -0.476863 
-0.559539 -0.476863 -9.77813 
-9.72168 0.129159 -0.457705 
0.129159 -9.34001 -0.271222 
-0.457705 -0.271222 -9.28123 
-9.2643 0.189916 -0.435201 
0.189916 -9.25924 -0.540433 
-0.435201 -0.540433 -9.81938 
-9.63485 -0.0292076 0.318768 
-0.0292076 -9.57125 0.861315 
0.318768 0.861315 -9.80577 
-9.66997 0.0478778 0.29832 
0.0478778 -9.52761 0.794439 
0.29832 0.794439 -9.8143 
-9.72695 0.0750845 0.234206 
0.0750845 -9.56029 0.677287 
0.234206 0.677287 -9.72463 
-9.72328 0.139013 0.312243 
0.139013 -9.49645 0.796935 
0.312243 0.796935 -9.79214 
-9.45658 -0.103332 0.161591 
-0.103332 -9.4084 0.534186 
0.161591 0.534186 -9.41925 
-9.32824 -0.187919 0.266483 
-0.187919 -9.60262 0.447128 
0.266483 0.447128 -9.35338 
-9.43071 0.439279 0.430133 
0.439279 -8.8855 0.809186 
0.430133 0.809186 -9.96801 
-9.19982 0.0966929 -0.0581454 
0.0966929 -8.93391 0.252379 
-0.0581454 0.252379 -10.1505 
-9.55053 -0.171983 -0.00250943 
-0.171983 -9.34605 0.0658513 
-0.00250943 0.0658513 -10.5375 
-9.98857 -0.244468 0.0510189 
-0.244468 -9.44945 0.332896 
0.0510189 0.332896 -9.99608 
-9.75289 -0.229164 0.0059089 
-0.229164 -9.62873 0.157792 
0.0059089 0.157792 -10.0525 
-9.70133 0.125625 -0.0857958 
0.125625 -9.45713 0.172196 
-0.0857958 0.172196 -10.2756 
-9.11208 -0.0700327 1.10106 
-0.0700327 -9.62708 -0.261125 
1.10106 -0.261125 -9.76013 
-9.25036 -0.0707144 0.994644 
-0.0707144 -9.49515 -0.133889 
0.994644 -0.133889 -9.75377 
-9.15222 -0.0564808 0.949216 
-0.0564808 -9.54982 -0.24074 
0.949216 -0.24074 -9.79724 
-9.26034 -0.119178 0.844012 
-0.119178 -9.42084 -0.538785 
0.844012 -0.538785 -9.81811 
-9.32572 0.264866 -0.854253 
0.264866 -9.50962 -0.463996 
-0.854253 -0.463996 -9.93365 
-9.30064 0.309793 -1.03802 
0.309793 -9.64625 -0.606796 
-1.03802 -0.606796 -9.82209 
-9.28897 0.366516 -0.973164 
0.366516 -9.62582 -0.543716 
-0.973164 -0.543716 -9.85419 
-9.2936 0.354109 -0.992737 
0.354109 -9.57403 -0.717816 
-0.992737 -0.717816 -9.90135 
-8.93199 -0.150944 1.13327 
-0.150944 -8.69394 0.107246 
1.13327 0.107246 -4.00109 
-8.54568 -0.236774 1.13742 
-0.236774 -8.76041 -0.201194 
1.13742 -0.201194 -4.32093 
-8.04119 0.176252 1.10191 
0.176252 -8.64252 -0.28545 
1.10191 -0.28545 -4.94332 
-8.57349 -0.140987 0.745648 
-0.140987 -8.44618 -0.243989 
0.745648 -0.243989 -4.60735 
-9.71688 -0.0524461 -0.551369 
-0.0524461 -9.70907 0.592882 
-0.551369 0.592882 -9.80466 
-9.70737 -0.0495357 -0.599825 
-0.0495357 -9.69858 0.629097 
-0.599825 0.629097 -9.82466 
-9.73899 -0.0364727 -0.537408 
-0.0364727 -9.74623 0.545152 
-0.537408 0.545152 -9.74539 
-9.74691 -0.0659741 -0.579025 
-0.0659741 -9.65967 0.585461 
-0.579025 0.585461 -9.82403 
-9.90311 -0.0632593 -0.0917569 
-0.0632593 -9.81605 -0.576555 
-0.0917569 -0.576555 -9.4794 
-10.0463 0.00688787 0.0798377 
0.00688787 -9.79324 -0.463083 
0.0798377 -0.463083 -9.359 
-9.96263 -0.0455549 0.0468281 
-0.0455549 -9.7414 -0.491956 
0.0468281 -0.491956 -9.49453 
-9.95202 0.0168731 -0.0549455 
0.0168731 -9.84718 -0.630595 
-0.0549455 -0.630595 -9.39936 
-9.88915 -0.123052 0.202401 
-0.123052 -10.3707 0.0744723 
0.202401 0.0744723 -11.0014 
-9.97507 0.00310175 0.0633565 
0.00310175 -10.3487 0.060168 
0.0633565 0.060168 -10.9374 
-10.0272 0.0886323 0.124456 
0.0886323 -10.3355 0.11607 
0.124456 0.11607 -10.8985 
-9.90184 -0.00410083 -0.105916 
-0.00410083 -10.5383 0.0818659 
-0.105916 0.0818659 -10.8211 
-8.46129 0.474165 -1.39351 
0.474165 -9.09249 -1.02661 
-1.39351 -1.02661 -8.59998 
-9.53621 0.178377 -1.10333 
0.178377 -9.75461 -1.46674 
-1.10333 -1.46674 -6.86294 
-9.86698 0.578446 -1.60993 
0.578446 -9.39206 -2.14469 
-1.60993 -2.14469 -6.89471 
-9.89085 -0.0844582 -0.802524 
-0.0844582 -9.57067 -1.53047 
-0.802524 -1.53047 -6.69225 
-10.8015 1.23944 0.203729 
1.23944 -9.34891 0.418954 
0.203729 0.418954 -13.0139 
-11.2432 1.14008 0.334747 
1.14008 -9.13561 0.545585 
0.334747 0.545585 -12.7856 
-10.8719 -0.605235 -0.154859 
-0.605235 -10.8948 0.545505 
-0.154859 0.545505 -11.3977 
-11.1262 1.53794 0.698792 
1.53794 -9.1107 1.36973 
0.698792 1.36973 -12.9275 
-9.54073 -0.351485 0.0365044 
-0.351485 -8.78497 -0.153458 
0.0365044 -0.153458 -9.69705 
-8.68042 -0.375305 0.624361 
-0.375305 -9.84272 -0.875062 
0.624361 -0.875062 -9.49961 
-8.94115 -0.220818 -0.196952 
-0.220818 -8.5267 -0.550158 
-0.196952 -0.550158 -10.5549 
-9.27536 -0.366176 0.131246 
-0.366176 -8.90595 -0.4366 
0.131246 -0.4366 -9.84144 
-9.41644 0.72437 -0.408677 
0.72437 -11.1097 -1.96939 
-0.408677 -1.96939 -14.0559 
-11.0097 0.950729 0.423103 
0.950729 -9.01817 0.50147 
0.423103 0.50147 -14.5542 
-11.1318 1.23091 -0.173568 
1.23091 -9.90896 0.650481 
-0.173568 0.650481 -13.5414 
-10.0928 0.097183 -0.454665 
0.097183 -12.2071 1.52244 
-0.454665 1.52244 -12.2822 
-9.29141 -0.253942 -0.771949 
-0.253942 -9.20242 0.9563 
-0.771949 0.9563 -9.03045 
-9.89 -0.115805 -0.374955 
-0.115805 -9.54831 1.4644 
-0.374955 1.4644 -8.08596 
-9.46169 -0.0953217 -0.463173 
-0.0953217 -9.61232 1.02889 
-0.463173 1.02889 -8.45026 
-9.59929 -0.0424845 -0.307115 
-0.0424845 -9.60672 0.918592 
-0.307115 0.918592 -8.31826 
-9.89556 -0.00222077 -0.13161 
-0.00222077 -9.81158 0.845446 
-0.13161 0.845446 -9.9134 
-9.7986 -0.013748 -0.10368 
-0.013748 -9.79435 0.891587 
-0.10368 0.891587 -10.0276 
-9.84768 0.00537184 -0.111796 
0.00537184 -9.79902 0.841573 
-0.111796 0.841573 -9.97384 
-9.91799 -0.0256922 -0.115035 
-0.0256922 -9.80663 0.837128 
-0.115035 0.837128 -9.89593 
-10.1517 0.0328412 -0.0624424 
0.0328412 -10.0849 -0.0820814 
-0.0624424 -0.0820814 -10.1916 
-10.1983 0.0236534 0.115938 
0.0236534 -10.0943 0.0748127 
0.115938 0.0748127 -10.1356 
-10.0954 0.0101367 -0.0170242 
0.0101367 -10.0757 -0.026018 
-0.0170242 -0.026018 -10.2571 
-10.0701 0.0280392 -0.0222476 
0.0280392 -10.048 -0.00846768 
-0.0222476 -0.00846768 -10.3101 
-8.84169 0.124051 -0.251939 
0.124051 -8.71671 0.00732765 
-0.251939 0.00732765 -10.5553 
-9.83653 0.474101 -0.557755 
0.474101 -9.61453 0.00339159 
-0.557755 0.00339159 -8.66259 
-8.74905 -0.151861 -0.672264 
-0.151861 -9.26259 -0.425805 
-0.672264 -0.425805 -10.102 
-8.6431 0.389231 -0.889843 
0.389231 -9.81268 -0.218254 
-0.889843 -0.218254 -9.65788 
-9.61123 -0.211356 0.176522 
-0.211356 -9.50484 0.492691 
0.176522 0.492691 -9.35809 
-9.34961 0.554433 0.122586 
0.554433 -9.13187 0.270482 
0.122586 0.270482 -9.99269 
-9.40682 -0.248509 0.154924 
-0.248509 -9.60538 0.629009 
0.154924 0.629009 -9.46196 
-9.68137 0.148007 0.642154 
0.148007 -8.99744 0.554355 
0.642154 0.554355 -9.79535 
-9.32904 0.103648 0.695641 
0.103648 -9.57378 0.500348 
0.695641 0.500348 -9.86553 
-9.60124 0.0474391 0.694643 
0.0474391 -9.58533 0.327139 
0.694643 0.327139 -9.58179 
-9.71714 -0.124843 0.617431 
-0.124843 -9.52114 0.418126 
0.617431 0.418126 -9.53007 
-9.58509 0.150233 0.559345 
0.150233 -9.51729 0.483699 
0.559345 0.483699 -9.66597 
-9.61494 0.20984 -0.154629 
0.20984 -8.14175 -1.68238 
-0.154629 -1.68238 -10.0739 
-9.67967 0.33267 -0.0166876 
0.33267 -8.47405 -1.87626 
-0.0166876 -1.87626 -9.67689 
-9.82287 0.220679 -0.209673 
0.220679 -8.54429 -2.26647 
-0.209673 -2.26647 -9.46344 
-9.01904 -0.318175 0.136521 
-0.318175 -9.29486 -1.19369 
0.136521 -1.19369 -9.51671 
-9.64381 -0.0311365 -0.118946 
-0.0311365 -9.49632 0.780521 
-0.118946 0.780521 -9.7663 
-9.70404 -0.0214801 -0.132949 
-0.0214801 -9.45447 0.767398 
-0.132949 0.767398 -9.74793 
-9.61984 -0.0340396 -0.124051 
-0.0340396 -9.47575 0.790303 
-0.124051 0.790303 -9.81085 
-9.62352 0.00643504 -0.114654 
0.00643504 -9.49291 0.781841 
-0.114654 0.781841 -9.79 
-9.48355 -0.0273713 -0.455898 
-0.0273713 -9.44654 0.411434 
-0.455898 0.411434 -9.38227 
-9.29728 -0.148681 -0.528533 
-0.148681 -9.43146 0.300059 
-0.528533 0.300059 -9.58361 
-9.31969 -0.0611716 -0.497113 
-0.0611716 -9.30295 0.434096 
-0.497113 0.434096 -9.68972 
-9.39151 -0.144567 -0.41705 
-0.144567 -9.3646 0.319768 
-0.41705 0.319768 -9.55624 
-8.85324 0.396733 0.705178 
0.396733 -9.03751 0.840494 
0.705178 0.840494 -9.87477 
-8.789 0.581563 0.517305 
0.581563 -9.02526 0.705292 
0.517305 0.705292 -9.95127 
-8.88483 0.702063 1.18196 
0.702063 -9.09781 0.911036 
1.18196 0.911036 -9.78289 
-8.5791 0.284394 0.69413 
0.284394 -9.2161 0.235405 
0.69413 0.235405 -9.97033 
-9.29023 0.354254 0.39085 
0.354254 -8.75021 0.724139 
0.39085 0.724139 -9.98669 
-9.22007 0.452705 0.374249 
0.452705 -8.79147 0.607967 
0.374249 0.607967 -10.0156 
-9.18189 0.482857 0.570356 
0.482857 -8.756 0.865997 
0.570356 0.865997 -10.0892 
-9.10774 0.0807969 0.521051 
0.0807969 -9.16811 0.809476 
0.521051 0.809476 -9.75129 
-10.0492 0.412965 -0.958912 
0.412965 -10.0669 -0.343403 
-0.958912 -0.343403 -12.3856 
-11.901 -0.464639 1.18788 
-0.464639 -10.6201 -0.237818 
1.18788 -0.237818 -9.98054 
-11.0903 0.0348578 0.73563 
0.0348578 -11.0039 -0.0661309 
0.73563 -0.0661309 -10.4075 
-9.17466 -0.00153284 0.354477 
-0.00153284 -11.0066 -0.124561 
0.354477 -0.124561 -12.3205 
-9.69728 0.0475001 0.320505 
0.0475001 -9.53669 0.747117 
0.320505 0.747117 -9.75392 
-9.59582 -0.0018293 0.33404 
-0.0018293 -9.63752 0.730491 
0.33404 0.730491 -9.75455 
-9.64418 0.0258131 0.347776 
0.0258131 -9.63097 0.731 
0.347776 0.731 -9.71274 
-9.64838 0.0684048 0.338998 
0.0684048 -9.62084 0.700917 
0.338998 0.700917 -9.71867 
-9.95993 0.025909 -0.781041 
0.025909 -9.95908 -0.530663 
-0.781041 -0.530663 -9.86844 
-9.93795 -0.0168044 -0.816592 
-0.0168044 -9.90731 -0.506001 
-0.816592 -0.506001 -9.94219 
-9.74013 -0.0729182 -0.845469 
-0.0729182 -9.8705 -0.459057 
-0.845469 -0.459057 -10.1768 
-9.97458 0.0594405 -0.852077 
0.0594405 -9.96508 -0.521738 
-0.852077 -0.521738 -9.84779 
-9.9799 -0.376557 0.551524 
-0.376557 -9.03698 0.54411 
0.551524 0.54411 -8.82605 
-8.87963 0.333157 0.130551 
0.333157 -9.36143 0.084686 
0.130551 0.084686 -9.60187 
-9.2262 0.142225 0.3085 
0.142225 -9.1224 0.359602 
0.3085 0.359602 -9.49434 
-8.95901 0.211516 0.512138 
0.211516 -9.16973 0.236852 
0.512138 0.236852 -9.71419 
-9.76423 -0.0723051 -0.142573 
-0.0723051 -9.78001 0.0399922 
-0.142573 0.0399922 -10.0817 
-9.32401 -0.317207 -0.0979484 
-0.317207 -9.97978 0.0289379 
-0.0979484 0.0289379 -10.3222 
-9.57885 -0.0375812 0.325105 
-0.0375812 -10.1051 -0.0437055 
0.325105 -0.0437055 -9.94208 
-9.62754 -0.112245 -0.0254298 
-0.112245 -9.77893 0.0156181 
-0.0254298 0.0156181 -10.2195 
-9.85972 0.000190066 0.246363 
0.000190066 -9.83316 1.04611 
0.246363 1.04611 -9.88446 
-9.81168 -0.0461741 0.135865 
-0.0461741 -9.9033 0.691317 
0.135865 0.691317 -9.86236 
-10.0023 0.0874258 0.0934031 
0.0874258 -9.80711 0.846769 
0.0934031 0.846769 -9.76788 
-9.95097 0.120285 0.31184 
0.120285 -9.84183 1.02571 
0.31184 1.02571 -9.78454 
-10.202 -0.392284 0.149822 
-0.392284 -10.5767 -0.00871468 
0.149822 -0.00871468 -10.5571 
-9.17218 0.2303 -0.45532 
0.2303 -10.1341 0.025997 
-0.45532 0.025997 -12.0295 
-11.4285 -0.109255 0.202738 
-0.109255 -10.3602 -0.211636 
0.202738 -0.211636 -9.54703 
-9.42204 -0.561165 1.25538 
-0.561165 -10.6895 -0.300573 
1.25538 -0.300573 -11.2243 
-9.45666 0.115002 -0.340077 
0.115002 -9.163 -0.643134 
-0.340077 -0.643134 -9.60223 
-9.23426 0.0595527 -0.412702 
0.0595527 -9.28787 -0.493035 
-0.412702 -0.493035 -9.69976 
-9.38765 0.21378 -0.445435 
0.21378 -9.14904 -0.708508 
-0.445435 -0.708508 -9.6852 
-9.48476 0.0776637 -0.299969 
0.0776637 -9.23044 -0.797486 
-0.299969 -0.797486 -9.50669 
-9.44081 -0.13521 0.583922 
-0.13521 -9.75347 0.140384 
0.583922 0.140384 -4.89409 
-9.26474 0.0246734 0.629857 
0.0246734 -9.52395 0.126175 
0.629857 0.126175 -5.29969 
-9.42193 0.249931 0.444249 
0.249931 -9.40567 0.357851 
0.444249 0.357851 -5.26078 
-9.60777 0.165337 0.395329 
0.165337 -9.33329 0.222709 
0.395329 0.222709 -5.14732 
-4.93118 -0.17624 0.724201 
-0.17624 -4.88355 1.62627 
0.724201 1.62627 -1.44574 
-4.02486 1.11116 0.367331 
1.11116 -5.6254 1.34209 
0.367331 1.34209 -1.61021 
-8.29108 -0.661578 0.227855 
-0.661578 -9.87162 1.50565 
0.227855 1.50565 6.90224 
-3.67621 -1.00521 1.96256 
-1.00521 -4.45574 2.87277 
1.96256 2.87277 -3.12852 
-9.24986 0.0917608 -0.524979 
0.0917608 -9.44313 -0.269093 
-0.524979 -0.269093 -9.63928 
-9.60596 -0.202573 -0.607089 
-0.202573 -9.37128 -0.172123 
-0.607089 -0.172123 -9.35504 
-9.13163 0.308966 -0.352424 
0.308966 -9.44428 -0.205567 
-0.352424 -0.205567 -9.75636 
-9.01917 -0.0837898 -0.537998 
-0.0837898 -9.60163 -0.363119 
-0.537998 -0.363119 -9.71147 
-9.84843 0.0486579 0.293618 
0.0486579 -9.68942 0.834279 
0.293618 0.834279 -9.87512 
-9.86045 -0.00892016 0.199355 
-0.00892016 -9.62039 0.860751 
0.199355 0.860751 -9.93212 
-9.83973 0.00617321 0.210949 
0.00617321 -9.64786 0.896987 
0.210949 0.896987 -9.92538 
-9.83086 0.102253 0.201742 
0.102253 -9.68021 0.961743 
0.201742 0.961743 -9.90189 
-7.76994 -0.46731 -2.2803 
-0.46731 -9.04138 0.413823 
-2.2803 0.413823 -7.09459 
-7.71918 -0.582128 -2.18274 
-0.582128 -8.93536 0.857211 
-2.18274 0.857211 -7.25137 
-7.85971 -0.582314 -2.87479 
-0.582314 -9.37694 1.0567 
-2.87479 1.0567 -6.66926 
-8.0081 -0.329605 -2.53666 
-0.329605 -8.7466 1.11089 
-2.53666 1.11089 -7.15121 
-7.80754 -0.220924 -4.21053 
-0.220924 -8.46891 1.43876 
-4.21053 1.43876 -6.64416 
-9.15459 -0.146965 -3.62086 
-0.146965 -9.29151 1.35377 
-3.62086 1.35377 -4.47451 
-8.33134 0.042202 -3.36062 
0.042202 -8.9847 1.42958 
-3.36062 1.42958 -5.60457 
-8.35367 -0.546436 -1.10038 
-0.546436 -7.81691 0.99289 
-1.10038 0.99289 -6.75003 
-9.91251 0.38698 0.0854283 
0.38698 -9.30097 -0.0280728 
0.0854283 -0.0280728 -10.2482 
-9.52507 -0.450192 -0.132714 
-0.450192 -10.4584 -0.0893408 
-0.132714 -0.0893408 -9.47812 
-9.72907 0.0400316 0.0341108 
0.0400316 -9.5072 0.212879 
0.0341108 0.212879 -10.2254 
-9.97298 -0.17348 0.140314 
-0.17348 -9.40677 0.344674 
0.140314 0.344674 -10.0819 
-9.50137 0.0286009 0.0290187 
0.0286009 -9.44423 -0.39432 
0.0290187 -0.39432 -9.17573 
-9.42494 -0.284976 0.368697 
-0.284976 -8.82115 -0.771127 
0.368697 -0.771127 -9.87525 
-9.16944 0.0930124 0.140851 
0.0930124 -9.58634 -0.376098 
0.140851 -0.376098 -9.36556 
-9.15248 -0.120553 0.0401382 
-0.120553 -9.00779 -0.313543 
0.0401382 -0.313543 -9.96107 
-9.62102 0.036988 -0.763877 
0.036988 -9.41889 1.19751 
-0.763877 1.19751 -4.3201 
-9.32436 -0.030104 -1.20042 
-0.030104 -9.01174 1.08333 
-1.20042 1.08333 -5.02391 
-8.86285 -0.171391 -1.31337 
-0.171391 -8.99795 0.892583 
-1.31337 0.892583 -5.49921 
-9.26301 -0.053156 -1.25046 
-0.053156 -8.96026 1.19938 
-1.25046 1.19938 -5.13674 
-9.82251 0.0568067 -0.326972 
0.0568067 -9.63501 0.935878 
-0.326972 0.935878 -9.82238 
-9.93145 -0.104347 -0.217876 
-0.104347 -9.66225 0.962992 
-0.217876 0.962992 -9.68621 
-9.92624 -0.152012 -0.284897 
-0.152012 -9.75983 0.955284 
-0.284897 0.955284 -9.59384 
-9.86377 -0.0958977 -0.207797 
-0.0958977 -9.61606 1.03499 
-0.207797 1.03499 -9.80007 
-9.62988 -0.0775085 0.0933455 
-0.0775085 -8.82073 -1.06351 
0.0933455 -1.06351 -10.0022 
-9.49804 -0.0411557 0.00572238 
-0.0411557 -9.13975 -1.0316 
0.00572238 -1.0316 -9.81505 
-9.69622 -0.211777 0.135502 
-0.211777 -8.78057 -1.03124 
0.135502 -1.03124 -9.97605 
-9.76241 0.0335575 0.14629 
0.0335575 -8.55451 -1.10152 
0.14629 -1.10152 -10.1359 
-9.45437 0.0992881 0.614863 
0.0992881 -9.2791 0.573678 
0.614863 0.573678 -9.79286 
-9.4278 0.161617 0.422714 
0.161617 -9.45206 0.612052 
0.422714 0.612052 -9.64647 
-9.57523 0.0496768 0.33052 
0.0496768 -9.45534 0.666095 
0.33052 0.666095 -9.49576 
-9.38051 0.111739 0.477651 
0.111739 -9.47299 0.584893 
0.477651 0.584893 -9.67283 
-3.47394 -1.05379 2.75989 
-1.05379 -10.5216 3.20213 
2.75989 3.20213 -7.5395 
-11.1092 1.21286 4.35975 
1.21286 -6.91513 3.24381 
4.35975 3.24381 -3.51064 
-7.87497 0.280985 5.02038 
0.280985 -6.6225 1.76708 
5.02038 1.76708 -7.03754 
-7.97668 1.10276 4.60405 
1.10276 -6.2868 -0.224586 
4.60405 -0.224586 -7.27153 
-9.78463 0.0232542 0.83901 
0.0232542 -9.80508 0.277695 
0.83901 0.277695 -10.0475 
-9.86931 -0.0318884 0.804118 
-0.0318884 -9.80643 0.283896 
0.804118 0.283896 -9.96146 
-9.85538 0.0437341 0.788146 
0.0437341 -9.8673 0.30035 
0.788146 0.30035 -9.91451 
-9.83476 0.0279648 0.75265 
0.0279648 -9.91635 0.287434 
0.75265 0.287434 -9.88609 
-9.89297 -0.0301167 -0.739111 
-0.0301167 -10.0475 0.594929 
-0.739111 0.594929 -9.95972 
-9.87531 -0.0430302 -0.740972 
-0.0430302 -9.9145 0.558321 
-0.740972 0.558321 -10.1104 
-10.0028 -0.0144823 -0.738979 
-0.0144823 -10.044 0.567467 
-0.738979 0.567467 -9.85336 
-9.99623 -0.0422212 -0.682851 
-0.0422212 -10.0251 0.615521 
-0.682851 0.615521 -9.87885 
-9.53494 -0.24178 -0.567311 
-0.24178 -9.38087 1.08676 
-0.567311 1.08676 -9.32805 
-9.54311 -0.308664 -0.583643 
-0.308664 -9.31112 1.00905 
-0.583643 1.00905 -9.38964 
-9.39845 -0.230843 -0.613913 
-0.230843 -9.44369 0.878693 
-0.613913 0.878693 -9.40173 
-9.57666 -0.0138236 -0.587238 
-0.0138236 -8.99252 0.998275 
-0.587238 0.998275 -9.67469 
-7.7859 0.138639 1.34135 
0.138639 -7.95138 -0.180821 
1.34135 -0.180821 -2.87451 
-7.80997 0.475185 0.821022 
0.475185 -8.26737 -0.276458 
0.821022 -0.276458 -2.53445 
-7.77953 0.172211 0.974884 
0.172211 -8.22009 0.047815 
0.974884 0.047815 -2.61217 
-8.44216 -0.41838 0.775024 
-0.41838 -8.31697 -0.176369 
0.775024 -0.176369 -1.85266 
-10.0747 1.2609 -0.483855 
1.2609 -7.27544 2.5866 
-0.483855 2.5866 -9.69568 
-9.34032 0.33687 0.7154 
0.33687 -7.79128 1.94802 
0.7154 1.94802 -9.91426 
-10.2396 0.582318 0.546195 
0.582318 -8.64732 2.84247 
0.546195 2.84247 -8.15893 
-9.43509 0.628638 0.19989 
0.628638 -8.81967 2.82619 
0.19989 2.82619 -8.7911 
-9.11449 -0.105048 0.958028 
-0.105048 -9.60435 -0.298542 
0.958028 -0.298542 -9.89548 
-9.00256 -0.079022 0.852119 
-0.079022 -9.61872 -0.25833 
0.852119 -0.25833 -9.99304 
-9.07139 -0.128418 1.16838 
-0.128418 -9.67219 -0.26324 
1.16838 -0.26324 -9.87074 
-9.41133 -0.282668 0.786454 
-0.282668 -9.43738 -0.322302 
0.786454 -0.322302 -9.7656 
-9.53884 -0.0663332 -0.700653 
-0.0663332 -9.23118 1.33908 
-0.700653 1.33908 -8.97976 
-9.71828 -0.32113 -0.550582 
-0.32113 -9.20002 1.55941 
-0.550582 1.55941 -8.83148 
-9.4171 -0.354167 -0.639047 
-0.354167 -9.14403 1.23518 
-0.639047 1.23518 -9.18865 
-9.86028 -0.0289607 -0.604996 
-0.0289607 -8.92628 1.40541 
-0.604996 1.40541 -8.96321 
-10.081 0.655487 0.0775487 
0.655487 -10.7497 0.0751106 
0.0775487 0.0751106 -11.2124 
-9.89266 0.212414 0.00782588 
0.212414 -10.6843 0.228849 
0.00782588 0.228849 -11.4662 
-9.72534 -0.429116 0.10272 
-0.429116 -10.3572 0.0240734 
0.10272 0.0240734 -11.9605 
-9.74993 0.133362 -0.131724 
0.133362 -10.8648 0.340864 
-0.131724 0.340864 -11.4284 
-6.22898 -1.46363 0.879553 
-1.46363 -5.3553 -0.35812 
0.879553 -0.35812 1.35962 
-4.16242 -0.032866 1.54315 
-0.032866 -4.83225 -0.580121 
1.54315 -0.580121 -1.22999 
-4.63419 -0.839407 1.81125 
-0.839407 -4.24525 -1.03389 
1.81125 -1.03389 -1.34523 
-4.69977 -1.01845 2.3868 
-1.01845 -3.74646 -1.71488 
2.3868 -1.71488 -1.77843 
-9.58902 -0.0426714 -0.335601 
-0.0426714 -9.59467 0.710266 
-0.335601 0.710266 -9.58533 
-9.52927 0.126074 -0.448114 
0.126074 -9.7048 0.634482 
-0.448114 0.634482 -9.53495 
-9.57602 -0.117952 -0.503613 
-0.117952 -9.30151 0.686688 
-0.503613 0.686688 -9.89149 
-9.50106 -0.148177 -0.485645 
-0.148177 -9.60825 0.549607 
-0.485645 0.549607 -9.65971 
-9.34928 -0.475273 -0.167485 
-0.475273 -7.7817 3.27991 
-0.167485 3.27991 -7.83653 
-9.41074 -0.217705 -0.518037 
-0.217705 -7.89161 3.18931 
-0.518037 3.18931 -7.66517 
-9.45781 -0.301322 -0.330889 
-0.301322 -7.82402 2.98169 
-0.330889 2.98169 -7.68569 
-9.49713 0.787605 -0.142785 
0.787605 -7.18886 2.71875 
-0.142785 2.71875 -8.28153 
-9.75373 -0.195662 0.110803 
-0.195662 -8.49736 -1.04875 
0.110803 -1.04875 -9.91499 
-9.33038 -0.0965752 0.0631579 
-0.0965752 -8.61118 -0.994937 
0.0631579 -0.994937 -10.2245 
-9.63187 -0.0611588 0.0577336 
-0.0611588 -8.46733 -1.32935 
0.0577336 -1.32935 -10.0669 
-9.71319 -0.184899 0.167173 
-0.184899 -8.77383 -1.13349 
0.167173 -1.13349 -9.67907 
-9.56688 -0.220051 0.344755 
-0.220051 -9.32333 -0.609151 
0.344755 -0.609151 -9.59149 
-9.4929 0.109362 0.429136 
0.109362 -9.51741 -0.576009 
0.429136 -0.576009 -9.47139 
-9.48153 -0.144589 0.464428 
-0.144589 -9.31434 -0.663499 
0.464428 -0.663499 -9.68582 
-9.30132 -0.0999071 0.464047 
-0.0999071 -9.56001 -0.616163 
0.464047 -0.616163 -9.62037 
-9.53923 0.0600033 -0.484801 
0.0600033 -9.56983 -0.62972 
-0.484801 -0.62972 -9.59648 
-9.49089 0.0592556 -0.479491 
0.0592556 -9.4714 -0.60751 
-0.479491 -0.60751 -9.74325 
-9.50429 0.053328 -0.507956 
0.053328 -9.47858 -0.636268 
-0.507956 -0.636268 -9.72267 
-9.51522 0.0745397 -0.501762 
0.0745397 -9.4601 -0.662383 
-0.501762 -0.662383 -9.73022 
-6.73507 0.437063 -2.41421 
0.437063 -8.99366 1.32648 
-2.41421 1.32648 -3.52531 
-9.08663 -0.40087 -1.66611 
-0.40087 -7.9358 0.161716 
-1.66611 0.161716 -2.2316 
-8.77827 0.160103 -2.60602 
0.160103 -7.54391 0.388284 
-2.60602 0.388284 -2.93186 
-8.53953 0.0291953 -2.18465 
0.0291953 -7.89471 0.544853 
-2.18465 0.544853 -2.8198 
-4.70712 0.967444 -0.881958 
0.967444 -3.35433 1.19716 
-0.881958 1.19716 -3.75976 
-6.02183 -2.2053 -0.97237 
-2.2053 -4.7778 1.55839 
-0.97237 1.55839 -1.02159 
-8.98464 1.20265 -0.542552 
1.20265 -8.46426 2.15282 
-0.542552 2.15282 5.62769 
-4.64836 1.17635 -3.34414 
1.17635 -4.01424 1.37148 
-3.34414 1.37148 -3.15861 
-11.6529 0.80121 0.341119 
0.80121 -12.6078 0.823567 
0.341119 0.823567 -16.2578 
-12.395 -0.423985 -0.0473814 
-0.423985 -10.9821 0.579099 
-0.0473814 0.579099 -17.1414 
-11.0855 0.678169 0.256615 
0.678169 -9.08856 0.840838 
0.256615 0.840838 -20.3445 
-12.8741 1.02175 0.683024 
1.02175 -11.6042 0.931217 
0.683024 0.931217 -16.0403 
-9.42104 -1.26563 2.04787 
-1.26563 -5.7925 2.8383 
2.04787 2.8383 -7.58524 
-8.85367 0.562713 0.777822 
0.562713 -5.36741 2.00869 
0.777822 2.00869 -8.5777 
-7.95248 -0.28555 -1.84385 
-0.28555 -6.19021 2.85596 
-1.84385 2.85596 -8.65608 
-9.18416 0.995433 0.691338 
0.995433 -7.73842 6.39076 
0.691338 6.39076 -5.87619 
-8.95072 0.0273166 0.584197 
0.0273166 -9.42119 -0.022022 
0.584197 -0.022022 -9.71276 
-8.88279 -0.0262879 0.406149 
-0.0262879 -9.60977 -0.0326537 
0.406149 -0.0326537 -9.59209 
-9.94154 -0.0166336 0.548783 
-0.0166336 -9.00852 0.164468 
0.548783 0.164468 -9.13461 
-9.10293 0.328321 0.553216 
0.328321 -9.38451 -0.0168699 
0.553216 -0.0168699 -9.59722 
-9.62633 -0.0698569 0.120846 
-0.0698569 -9.65758 -0.114132 
0.120846 -0.114132 -10.0254 
-9.68934 -0.117716 0.126716 
-0.117716 -9.66672 -0.114632 
0.126716 -0.114632 -9.95322 
-9.62279 -0.0752868 0.170731 
-0.0752868 -9.62898 -0.139548 
0.170731 -0.139548 -10.0575 
-9.67198 -0.0767501 0.132074 
-0.0767501 -9.66437 -0.117021 
0.132074 -0.117021 -9.97293 
-4.37127 0.568498 0.788942 
0.568498 -5.00939 -0.349048 
0.788942 -0.349048 -0.837233 
-4.95713 0.00666837 0.436802 
0.00666837 -4.70004 -0.566714 
0.436802 -0.566714 -0.560727 
-5.08266 -0.084523 0.767868 
-0.084523 -4.86568 -0.602313 
0.767868 -0.602313 -0.269551 
-4.5221 0.0188286 0.317059 
0.0188286 -4.82376 0.317631 
0.317059 0.317631 -0.872041 
-9.00717 0.0719921 1.11225 
0.0719921 -9.56717 0.154364 
1.11225 0.154364 -9.77594 
-9.11809 0.0944652 0.815159 
0.0944652 -9.47893 0.173687 
0.815159 0.173687 -9.75326 
-9.09002 0.073218 0.984766 
0.073218 -9.49116 0.28877 
0.984766 0.28877 -9.7691 
-9.18286 0.140095 0.86449 
0.140095 -9.50606 0.216021 
0.86449 0.216021 -9.66136 
-8.90836 -0.23798 1.0177 
-0.23798 -7.2853 1.25739 
1.0177 1.25739 -6.67362 
-8.66753 0.664273 0.650908 
0.664273 -8.45615 4.08884 
0.650908 4.08884 -5.74359 
-8.73842 0.318228 1.35899 
0.318228 -8.80872 3.33304 
1.35899 3.33304 -5.32014 
-9.85754 0.593196 3.43107 
0.593196 -9.3157 3.46016 
3.43107 3.46016 -3.69404 
-9.28811 -0.0886075 0.296369 
-0.0886075 -9.58996 0.529236 
0.296369 0.529236 -9.55409 
-9.41673 0.0339627 0.348489 
0.0339627 -9.47335 0.594755 
0.348489 0.594755 -9.54207 
-9.56096 0.109586 0.351186 
0.109586 -9.26068 0.651226 
0.351186 0.651226 -9.61051 
-9.44982 0.18023 0.425554 
0.18023 -9.43502 0.581975 
0.425554 0.581975 -9.5473 
-9.78476 -0.0622052 -0.0350376 
-0.0622052 -9.91448 0.00197938 
-0.0350376 0.00197938 -9.92038 
-9.74881 -0.076003 0.0805025 
-0.076003 -9.91634 0.00124428 
0.0805025 0.00124428 -9.95447 
-9.82682 -0.0183022 0.148287 
-0.0183022 -9.80877 -0.0385251 
0.148287 -0.0385251 -9.98403 
-9.76062 -0.072749 0.022582 
-0.072749 -9.85957 0.00442406 
0.022582 0.00442406 -9.99944 
-11.3637 0.17774 -0.192102 
0.17774 -11.0046 -0.193029 
-0.192102 -0.193029 -10.0775 
-10.9473 0.142156 -0.0458134 
0.142156 -10.5241 -0.341688 
-0.0458134 -0.341688 -10.9743 
-10.0728 0.118269 -0.0831196 
0.118269 -9.52035 0.217494 
-0.0831196 0.217494 -12.8526 
-11.2835 0.407086 -0.420698 
0.407086 -9.99088 -1.72545 
-0.420698 -1.72545 -11.1713 
-8.52358 -0.119325 0.7522 
-0.119325 -8.70106 3.44013 
0.7522 3.44013 -8.54114 
-9.6158 1.17891 0.908874 
1.17891 -8.74707 4.0344 
0.908874 4.0344 -7.40291 
-12.3343 -0.335057 -0.508024 
-0.335057 -8.10661 2.81443 
-0.508024 2.81443 -5.32489 
-9.23923 -0.997885 0.398921 
-0.997885 -6.85522 0.476626 
0.398921 0.476626 -9.67133 
-10.554 0.281825 0.650787 
0.281825 -8.35246 1.47726 
0.650787 1.47726 -10.408 
-10.4641 0.440197 0.476557 
0.440197 -8.52548 2.19564 
0.476557 2.19564 -10.3249 
-10.0042 0.386683 0.125458 
0.386683 -8.78643 1.10971 
0.125458 1.10971 -10.5238 
-10.1081 1.62479 0.548365 
1.62479 -7.61471 2.018 
0.548365 2.018 -11.5916 
-13.4847 2.31971 -0.519886 
2.31971 -8.87101 -0.796928 
-0.519886 -0.796928 -19.4991 
-12.4102 4.01675 0.0295508 
4.01675 -9.48813 -0.849488 
0.0295508 -0.849488 -19.9565 
-8.02645 6.14818 0.115063 
6.14818 -8.17546 -0.544712 
0.115063 -0.544712 -25.6529 
-12.8444 2.83245 0.674898 
2.83245 -11.9391 -0.51719 
0.674898 -0.51719 -17.0713 
-9.96854 -0.033905 0.609859 
-0.033905 -9.99194 -0.633356 
0.609859 -0.633356 -9.79662 
-9.92777 -0.0102146 0.650587 
-0.0102146 -9.83166 -0.659224 
0.650587 -0.659224 -9.99767 
-9.92669 -0.0693598 0.726259 
-0.0693598 -9.79733 -0.687541 
0.726259 -0.687541 -10.0331 
-9.87299 -0.121347 0.646834 
-0.121347 -9.91456 -0.598601 
0.646834 -0.598601 -9.96955 
-9.84467 0.057471 -0.465054 
0.057471 -9.81171 -0.759215 
-0.465054 -0.759215 -9.91272 
-9.8271 -0.00525652 -0.400953 
-0.00525652 -9.8348 -0.67564 
-0.400953 -0.67564 -9.9072 
-9.78752 -0.0505931 -0.477584 
-0.0505931 -9.81328 -0.778781 
-0.477584 -0.778781 -9.96829 
-9.84865 0.087955 -0.451178 
0.087955 -9.77723 -0.758083 
-0.451178 -0.758083 -9.94321 
-8.91537 -0.325422 -0.824557 
-0.325422 -9.51296 0.472126 
-0.824557 0.472126 -9.81872 
-9.52574 0.109835 -0.441854 
0.109835 -9.48214 0.102874 
-0.441854 0.102874 -9.23917 
-9.55849 0.0657191 -0.391074 
0.0657191 -9.36485 0.249824 
-0.391074 0.249824 -9.32371 
-8.90835 -0.173164 -0.388641 
-0.173164 -9.23088 0.130795 
-0.388641 0.130795 -10.1078 
-9.64065 0.304755 -0.875807 
0.304755 -10.552 -0.224399 
-0.875807 -0.224399 -12.1713 
-9.90929 0.64198 -0.48447 
0.64198 -10.8081 -0.327024 
-0.48447 -0.327024 -11.6465 
-9.328 -0.00539396 -0.0443608 
-0.00539396 -10.8779 -0.0566082 
-0.0443608 -0.0566082 -12.158 
-9.33463 0.24235 0.233724 
0.24235 -11.193 0.0777329 
0.233724 0.0777329 -11.8363 
-9.08378 -0.291399 0.667363 
-0.291399 -9.33815 -0.39485 
0.667363 -0.39485 -9.94352 
-9.27407 -0.182235 0.462821 
-0.182235 -9.49398 -0.269519 
0.462821 -0.269519 -9.5974 
-9.79696 0.456765 0.389535 
0.456765 -9.31908 -0.223615 
0.389535 -0.223615 -9.24941 
-8.95628 -0.00660748 0.537965 
-0.00660748 -9.64787 -0.106531 
0.537965 -0.106531 -9.7613 
-3.62657 -0.235586 -1.43665 
-0.235586 -2.83251 -0.70636 
-1.43665 -0.70636 -3.64242 
-6.54071 -0.386882 -0.503635 
-0.386882 -5.8039 -0.673545 
-0.503635 -0.673545 2.24311 
-3.55131 0.989957 -1.58814 
0.989957 -4.91983 -0.774119 
-1.58814 -0.774119 -1.63036 
-4.72379 -0.614406 -3.50076 
-0.614406 -3.0076 -0.185406 
-3.50076 -0.185406 -2.37011 
-9.55872 -0.0615195 -0.731918 
-0.0615195 -9.64249 0.35992 
-0.731918 0.35992 -9.74717 
-9.5371 -0.0646724 -0.746613 
-0.0646724 -9.66481 0.364002 
-0.746613 0.364002 -9.74647 
-9.55724 -0.0733879 -0.726052 
-0.0733879 -9.61212 0.341214 
-0.726052 0.341214 -9.77902 
-9.55539 -0.0480024 -0.739723 
-0.0480024 -9.62845 0.359585 
-0.739723 0.359585 -9.76453 
-9.1194 -0.156398 -0.977644 
-0.156398 -9.52215 0.331143 
-0.977644 0.331143 -9.70619 
-9.12017 -0.161988 -1.02916 
-0.161988 -9.49221 0.344586 
-1.02916 0.344586 -9.73537 
-9.09114 -0.161177 -0.92923 
-0.161177 -9.53941 0.327689 
-0.92923 0.327689 -9.7172 
-9.15463 -0.0924075 -0.963273 
-0.0924075 -9.52797 0.352771 
-0.963273 0.352771 -9.66516 
-10.8967 0.159051 0.246849 
0.159051 -11.0009 0.264889 
0.246849 0.264889 -10.2434 
-9.40211 -0.192523 -0.179649 
-0.192523 -9.72774 -0.0872734 
-0.179649 -0.0872734 -13.0112 
-10.6872 0.0861617 0.275276 
0.0861617 -11.0646 -0.105011 
0.275276 -0.105011 -10.3893 
-9.95773 0.221627 1.8878 
0.221627 -11.2753 0.000587343 
1.8878 0.000587343 -10.908 
-10.157 -0.269148 -0.268443 
-0.269148 -8.36088 1.37851 
-0.268443 1.37851 -10.3818 
-9.65884 0.267556 0.0811284 
0.267556 -8.85584 0.664974 
0.0811284 0.664974 -10.385 
-9.61851 -0.385808 -0.193637 
-0.385808 -8.58029 1.22795 
-0.193637 1.22795 -10.7009 
-9.62239 -0.123175 -0.311637 
-0.123175 -8.37326 1.03307 
-0.311637 1.03307 -10.904 
-9.08927 0.275006 -0.158583 
0.275006 -10.4086 -0.0229553 
-0.158583 -0.0229553 -11.7113 
-9.21099 0.173041 0.152089 
0.173041 -10.4219 0.167872 
0.152089 0.167872 -11.5762 
-9.61128 0.437961 -0.445136 
0.437961 -11.0166 -0.492931 
-0.445136 -0.492931 -10.5813 
-8.8729 0.541678 -0.264852 
0.541678 -10.4716 0.0115369 
-0.264852 0.0115369 -11.8646 
-9.16549 -0.290021 0.342858 
-0.290021 -9.34646 -0.246635 
0.342858 -0.246635 -9.6802 
-9.46559 0.0322184 0.354777 
0.0322184 -9.26486 -0.302533 
0.354777 -0.302533 -9.46169 
-9.2312 -0.238815 0.482009 
-0.238815 -9.37389 -0.278312 
0.482009 -0.278312 -9.58706 
-9.21826 0.0799174 0.403803 
0.0799174 -9.38547 -0.247816 
0.403803 -0.247816 -9.58842 
-11.2762 0.703325 -0.096837 
0.703325 -8.76927 0.0471747 
-0.096837 0.0471747 -12.3228 
-10.022 -0.296506 -0.589632 
-0.296506 -11.5504 -1.22438 
-0.589632 -1.22438 -10.796 
-11.0011 0.975546 -0.106958 
0.975546 -9.05191 -0.00553554 
-0.106958 -0.00553554 -12.3154 
-11.2697 0.964744 -0.197286 
0.964744 -8.57706 -0.642251 
-0.197286 -0.642251 -12.5216 
-9.43549 -0.158158 0.53421 
-0.158158 -9.48353 -0.498925 
0.53421 -0.498925 -9.64349 
-9.51102 0.0442245 0.573219 
0.0442245 -9.47174 -0.558141 
0.573219 -0.558141 -9.57974 
-9.47613 0.00501467 0.573908 
0.00501467 -9.49244 -0.581212 
0.573908 -0.581212 -9.59394 
-9.49043 -0.0361262 0.626619 
-0.0361262 -9.41043 -0.570595 
0.626619 -0.570595 -9.66166 
-9.73594 -0.00761387 0.686671 
-0.00761387 -10.0805 0.703465 
0.686671 0.703465 -6.16361 
-9.92956 0.0191 0.715298 
0.0191 -9.8529 0.722253 
0.715298 0.722253 -6.19763 
-9.95521 0.0864149 0.752909 
0.0864149 -9.81237 0.831952 
0.752909 0.831952 -6.21252 
-9.88677 -0.0971593 0.644211 
-0.0971593 -9.58675 0.544298 
0.644211 0.544298 -6.50657 
-10.5988 -0.20479 1.26081 
-0.20479 -12.3751 0.808001 
1.26081 0.808001 -16.7374 
-12.948 -0.28505 1.29911 
-0.28505 -15.0964 -0.421896 
1.29911 -0.421896 -11.6669 
-11.2292 -0.476303 0.342486 
-0.476303 -13.0696 0.631012 
0.342486 0.631012 -15.4125 
-11.7496 -0.699877 0.21622 
-0.699877 -13.104 -0.755367 
0.21622 -0.755367 -14.8578 
-8.7058 0.109228 -0.353766 
0.109228 -9.70678 0.0100997 
-0.353766 0.0100997 -9.89143 
-9.62261 -0.117478 -0.559862 
-0.117478 -9.31871 0.0809462 
-0.559862 0.0809462 -9.36269 
-9.5523 0.0255085 -0.63157 
0.0255085 -9.25861 0.168843 
-0.63157 0.168843 -9.49311 
-9.04569 -0.138407 -0.837327 
-0.138407 -9.45722 -0.183429 
-0.837327 -0.183429 -9.80111 
-9.77607 -0.0810676 -0.228652 
-0.0810676 -8.46505 0.210839 
-0.228652 0.210839 -7.38579 
-9.26918 -0.0830043 -1.28447 
-0.0830043 -9.44869 0.875149 
-1.28447 0.875149 -6.90903 
-8.85759 -0.272644 -1.08333 
-0.272644 -9.06566 1.03993 
-1.08333 1.03993 -7.70366 
-8.89729 -0.152958 -1.04993 
-0.152958 -9.31241 0.785761 
-1.04993 0.785761 -7.41721 
-9.4416 0.0147075 0.678198 
0.0147075 -9.68275 0.282699 
0.678198 0.282699 -5.95098 
-9.38607 0.0202047 0.265514 
0.0202047 -9.71925 0.378797 
0.265514 0.378797 -5.97001 
-8.83671 0.127212 -0.0561479 
0.127212 -9.19622 -0.17624 
-0.0561479 -0.17624 -7.04239 
-9.9907 -0.138674 0.252711 
-0.138674 -9.78775 -0.391024 
0.252711 -0.391024 -5.29687 
-9.33038 0.0151834 0.216838 
0.0151834 -9.19102 -0.620137 
0.216838 -0.620137 -9.69983 
-9.37833 -0.145481 0.292596 
-0.145481 -9.3016 -0.744381 
0.292596 -0.744381 -9.5413 
-9.52504 -0.127176 0.28106 
-0.127176 -9.11669 -0.480178 
0.28106 -0.480178 -9.5795 
-9.31779 -0.112832 0.31156 
-0.112832 -9.17226 -0.716402 
0.31156 -0.716402 -9.73118 
-9.55592 -0.0111232 0.300752 
-0.0111232 -9.76573 0.584307 
0.300752 0.584307 -9.76769 
-9.90743 0.103836 0.321397 
0.103836 -9.61697 0.935202 
0.321397 0.935202 -9.56494 
-9.77563 0.0683983 0.257754 
0.0683983 -9.59068 1.01002 
0.257754 1.01002 -9.72304 
-9.94615 0.15065 0.355255 
0.15065 -9.76791 1.06447 
0.355255 1.06447 -9.37528 
-9.61157 0.0855552 0.381755 
0.0855552 -9.46377 0.666851 
0.381755 0.666851 -9.7087 
-9.56285 0.0376818 0.388951 
0.0376818 -9.52036 0.692001 
0.388951 0.692001 -9.70083 
-9.55408 -0.00586032 0.391663 
-0.00586032 -9.55356 0.68132 
0.391663 0.68132 -9.6764 
-9.49352 0.041811 0.366777 
0.041811 -9.59585 0.681374 
0.366777 0.681374 -9.69467 
-7.33421 -1.43429 0.569169 
-1.43429 -11.8633 -3.27307 
0.569169 -3.27307 -13.2908 
-10.1167 -2.14196 0.918903 
-2.14196 -9.13289 -1.0276 
0.918903 -1.0276 -13.2387 
-8.73889 -0.826482 0.100657 
-0.826482 -11.8015 -2.20791 
0.100657 -2.20791 -11.9479 
-9.89658 -0.736153 1.70103 
-0.736153 -9.82612 -0.746734 
1.70103 -0.746734 -12.7656 
-10.3423 -0.245126 0.138643 
-0.245126 -10.5255 0.0671979 
0.138643 0.0671979 -10.4494 
-10.1477 0.0614468 -0.00284816 
0.0614468 -10.4625 -0.0857994 
-0.00284816 -0.0857994 -10.7069 
-10.3248 -0.109009 0.0708471 
-0.109009 -10.5231 0.0642284 
0.0708471 0.0642284 -10.4692 
-10.4191 -0.0634673 0.129144 
-0.0634673 -10.3084 0.0523881 
0.129144 0.0523881 -10.5896 
-9.19868 0.0452619 0.402599 
0.0452619 -9.37276 0.407317 
0.402599 0.407317 -9.6443 
-9.40633 0.264019 0.524677 
0.264019 -8.88838 0.592952 
0.524677 0.592952 -9.92103 
-9.60354 0.135808 0.0981138 
0.135808 -9.02501 0.570322 
0.0981138 0.570322 -9.58719 
-9.55771 0.0232551 0.0386862 
0.0232551 -9.13706 0.945107 
0.0386862 0.945107 -9.52097 
-4.82123 -0.633617 0.386327 
-0.633617 -5.4076 -0.491278 
0.386327 -0.491278 1.31806 
-5.435 0.44624 0.0089348 
0.44624 -3.5483 -1.76943 
0.0089348 -1.76943 0.0725293 
-2.58144 -0.93247 -0.191855 
-0.93247 -3.29657 -1.71995 
-0.191855 -1.71995 -3.03277 
-3.07532 -1.3037 -1.58328 
-1.3037 -4.60945 -2.21088 
-1.58328 -2.21088 -1.22601 
-9.15354 -0.401552 0.1592 
-0.401552 -9.40178 -0.0595536 
0.1592 -0.0595536 -9.77801 
-9.44058 -0.223394 0.37636 
-0.223394 -9.01297 -0.193427 
0.37636 -0.193427 -9.87979 
-9.06053 0.025582 0.242804 
0.025582 -9.09959 -0.220844 
0.242804 -0.220844 -10.1732 
-9.23339 -0.223433 0.260534 
-0.223433 -9.14669 -0.21813 
0.260534 -0.21813 -9.95326 
-9.42832 0.30642 1.57602 
0.30642 -9.9608 0.558697 
1.57602 0.558697 -7.58927 
-9.45347 0.212276 1.60941 
0.212276 -9.76475 0.440043 
1.60941 0.440043 -7.76017 
-9.63879 0.174719 1.65926 
0.174719 -9.9918 0.494236 
1.65926 0.494236 -7.3478 
-9.35029 -0.228383 2.28181 
-0.228383 -9.77394 1.3671 
2.28181 1.3671 -7.85415 
-9.72908 0.0109411 -0.880462 
0.0109411 -9.86044 0.275296 
-0.880462 0.275296 -10.0168 
-9.75329 -0.102831 -0.963968 
-0.102831 -9.90473 0.225326 
-0.963968 0.225326 -9.94826 
-9.79936 -0.0723216 -0.929073 
-0.0723216 -9.8935 0.320611 
-0.929073 0.320611 -9.91341 
-9.75709 -0.0163265 -0.869704 
-0.0163265 -9.91564 0.262247 
-0.869704 0.262247 -9.93355 
-9.52872 -0.190432 -0.340802 
-0.190432 -8.78757 -0.214953 
-0.340802 -0.214953 -9.68792 
-9.48833 -0.101073 0.313235 
-0.101073 -8.75422 -0.622678 
0.313235 -0.622678 -9.76166 
-9.28077 -0.0520595 0.422752 
-0.0520595 -9.14252 -0.414201 
0.422752 -0.414201 -9.58091 
-9.09215 -0.103038 -0.158163 
-0.103038 -9.01969 -0.955249 
-0.158163 -0.955249 -9.89237 
-10.1359 0.0683455 0.0250374 
0.0683455 -10.0737 -0.0189126 
0.0250374 -0.0189126 -10.0454 
-10.1201 -0.0389336 -0.0389688 
-0.0389336 -10.0532 0.0728803 
-0.0389688 0.0728803 -10.0817 
-10.0839 -0.00465871 0.0426393 
-0.00465871 -10.0566 -0.00506405 
0.0426393 -0.00506405 -10.1145 
-10.1004 0.00631257 0.011953 
0.00631257 -10.0557 -0.00328207 
0.011953 -0.00328207 -10.0989 
-9.89673 -0.226043 0.0975233 
-0.226043 -9.34926 -0.139966 
0.0975233 -0.139966 -10.0887 
-9.5623 0.250973 -0.240246 
0.250973 -10.0643 0.176517 
-0.240246 0.176517 -9.70811 
-9.70569 -0.060522 -0.151537 
-0.060522 -9.90344 0.0649106 
-0.151537 0.0649106 -9.72558 
-9.608 -0.305885 0.154891 
-0.305885 -9.64977 0.2081 
0.154891 0.2081 -10.0769 
-9.55149 0.0378727 -0.276279 
0.0378727 -9.57894 0.735762 
-0.276279 0.735762 -9.72165 
-9.62182 -0.0447713 -0.269852 
-0.0447713 -9.51233 0.735554 
-0.269852 0.735554 -9.71793 
-9.60366 -0.0907492 -0.272221 
-0.0907492 -9.50074 0.774752 
-0.272221 0.774752 -9.74768 
-9.66645 -0.00670216 -0.253785 
-0.00670216 -9.49662 0.767119 
-0.253785 0.767119 -9.68901 
-9.64927 0.148481 -0.104348 
0.148481 -9.94562 0.171404 
-0.104348 0.171404 -9.80051 
-9.80738 -0.193349 -0.0573281 
-0.193349 -9.48002 0.254234 
-0.0573281 0.254234 -10.108 
-9.94274 -0.254664 0.0430569 
-0.254664 -9.24629 0.0418795 
0.0430569 0.0418795 -10.2064 
-9.5051 -0.241551 0.00270488 
-0.241551 -9.83461 0.251537 
0.00270488 0.251537 -10.0557 
-9.40537 0.0975315 0.276414 
0.0975315 -9.46453 -0.475007 
0.276414 -0.475007 -9.19938 
-9.2717 0.129241 0.0847245 
0.129241 -9.72789 -0.677751 
0.0847245 -0.677751 -9.06968 
-9.50149 -0.360723 0.068826 
-0.360723 -8.76467 0.112041 
0.068826 0.112041 -9.80311 
-9.21266 -0.0910573 0.136048 
-0.0910573 -8.65283 -0.506455 
0.136048 -0.506455 -10.2038 
-8.87887 -0.204623 1.28153 
-0.204623 -8.16344 -0.196793 
1.28153 -0.196793 -3.57774 
-9.05412 0.0125594 0.474461 
0.0125594 -8.8899 -0.389935 
0.474461 -0.389935 -2.67602 
-8.70194 0.0279657 0.94665 
0.0279657 -8.53573 -0.0974223 
0.94665 -0.0974223 -3.38238 
-7.7389 -0.128624 0.579751 
-0.128624 -7.79654 -0.461133 
0.579751 -0.461133 -5.08461 
-10.1717 0.0612484 0.019884 
0.0612484 -10.0328 0.0435743 
0.019884 0.0435743 -10.9513 
-10.3815 0.0871013 0.112373 
0.0871013 -10.2618 0.121611 
0.112373 0.121611 -10.5125 
-10.0461 0.0745205 0.100563 
0.0745205 -9.91873 0.124687 
0.100563 0.124687 -11.191 
-10.3995 0.127136 -0.0633079 
0.127136 -9.97884 0.393854 
-0.0633079 0.393854 -10.7774 
-8.25212 0.300451 1.89062 
0.300451 -9.8034 1.24344 
1.89062 1.24344 -5.23357 
-8.39575 -0.00781279 2.10298 
-0.00781279 -9.34111 1.45801 
2.10298 1.45801 -5.55223 
-8.72632 0.545185 2.18557 
0.545185 -8.64049 1.33259 
2.18557 1.33259 -5.92228 
-8.73552 0.699851 2.59558 
0.699851 -9.27892 1.51128 
2.59558 1.51128 -5.27465 
-8.38266 0.704989 1.63753 
0.704989 -8.7539 1.46868 
1.63753 1.46868 -5.94964 
-8.56851 0.504147 1.67607 
0.504147 -8.6397 1.15012 
1.67607 1.15012 -5.87798 
-9.27289 0.419279 1.94296 
0.419279 -9.13892 2.23018 
1.94296 2.23018 -4.67438 
-8.96362 0.0267225 0.359266 
0.0267225 -8.15699 0.4435 
0.359266 0.4435 -5.96558 
-9.423 0.00839491 0.897242 
0.00839491 -9.81697 -0.201002 
0.897242 -0.201002 -9.89206 
-9.53833 -0.109802 1.08038 
-0.109802 -9.82304 -0.078246 
1.08038 -0.078246 -9.77066 
-9.56512 -0.0607561 0.858859 
-0.0607561 -9.71084 -0.211002 
0.858859 -0.211002 -9.85608 
-9.50585 -0.0358558 0.923468 
-0.0358558 -9.72962 -0.240839 
0.923468 -0.240839 -9.89657 
-9.92769 -0.142638 0.49314 
-0.142638 -9.16718 0.19573 
0.49314 0.19573 -9.15114 
-8.74918 0.203976 0.174353 
0.203976 -9.69306 -0.00462536 
0.174353 -0.00462536 -9.80377 
-9.34163 -0.00898184 0.463211 
-0.00898184 -9.32992 0.217268 
0.463211 0.217268 -9.57445 
-9.0643 0.13331 0.716397 
0.13331 -9.30219 0.0545887 
0.716397 0.0545887 -9.87952 
-7.24923 0.540491 3.55148 
0.540491 -7.87622 1.03234 
3.55148 1.03234 -4.3897 
-6.10167 0.382844 1.09906 
0.382844 -9.67887 1.83222 
1.09906 1.83222 -3.73461 
-9.00424 -0.208223 2.95229 
-0.208223 -6.64137 0.721584 
2.95229 0.721584 -3.86954 
-7.84248 0.152147 2.94341 
0.152147 -8.78208 0.752577 
2.94341 0.752577 -2.89059 
-9.36753 -0.549145 0.158865 
-0.549145 -9.07547 -0.12193 
0.158865 -0.12193 -10.0531 
-9.47771 0.22701 0.436407 
0.22701 -9.48405 -0.244556 
0.436407 -0.244556 -9.53439 
-9.39176 0.044403 0.342416 
0.044403 -9.58903 -0.239551 
0.342416 -0.239551 -9.51536 
-9.0407 -0.196474 0.362283 
-0.196474 -9.56836 -0.666954 
0.362283 -0.666954 -9.88709 
-9.22244 0.106271 -0.636189 
0.106271 -9.44989 -0.256107 
-0.636189 -0.256107 -9.69428 
-9.3952 0.173152 -0.822036 
0.173152 -9.50655 -0.418277 
-0.822036 -0.418277 -9.46486 
-9.21085 0.0838131 -0.581922 
0.0838131 -9.43101 -0.287301 
-0.581922 -0.287301 -9.72475 
-9.13202 0.128019 -0.721891 
0.128019 -9.2946 -0.260087 
-0.721891 -0.260087 -9.93998 
-10.2111 -0.341456 -0.0610805 
-0.341456 -10.4822 -0.0421602 
-0.0610805 -0.0421602 -10.683 
-10.0067 0.287055 0.807009 
0.287055 -10.4656 -0.659237 
0.807009 -0.659237 -10.904 
-10.2599 -0.0255319 -0.127973 
-0.0255319 -10.3499 0.0523963 
-0.127973 0.0523963 -10.7664 
-9.92188 -1.00143 -0.1729 
-1.00143 -10.1874 0.279005 
-0.1729 0.279005 -11.267 
-2.47805 0.418066 0.346502 
0.418066 -2.86614 0.754296 
0.346502 0.754296 0.932499 
-1.32158 0.72195 1.28705 
0.72195 -0.876361 -0.550478 
1.28705 -0.550478 -2.21374 
-2.34217 0.43275 0.888014 
0.43275 -2.20816 -0.148021 
0.888014 -0.148021 0.138643 
-2.58455 1.1246 2.14343 
1.1246 -2.04093 0.0743095 
2.14343 0.0743095 0.213791 
-9.34803 0.252783 -0.809186 
0.252783 -9.65185 -0.155256 
-0.809186 -0.155256 -9.72314 
-9.1832 0.208149 -0.820808 
0.208149 -9.53728 -0.138145 
-0.820808 -0.138145 -10.0025 
-8.85564 -0.0249379 -1.02825 
-0.0249379 -9.73689 -0.403511 
-1.02825 -0.403511 -10.1305 
-9.32342 -0.0924894 -0.728689 
-0.0924894 -9.52171 -0.244006 
-0.728689 -0.244006 -9.8779 
-9.69207 0.00633918 0.25599 
0.00633918 -9.67069 0.77948 
0.25599 0.77948 -9.86762 
-9.70506 0.171096 0.296248 
0.171096 -9.52998 0.766838 
0.296248 0.766838 -9.99534 
-9.77007 0.079054 0.308867 
0.079054 -9.54808 0.809816 
0.308867 0.809816 -9.91222 
-9.88886 0.053561 0.348403 
0.053561 -9.54254 0.999006 
0.348403 0.999006 -9.79898 
-9.27298 -0.0154498 -0.642002 
-0.0154498 -9.33636 0.180077 
-0.642002 0.180077 -9.75732 
-9.07553 -0.0461993 -0.810204 
-0.0461993 -9.45263 0.228389 
-0.810204 0.228389 -9.8385 
-9.13869 -0.0144221 -0.700884 
-0.0144221 -9.57317 0.0767328 
-0.700884 0.0767328 -9.6548 
-9.29259 0.0421413 -0.973223 
0.0421413 -9.57512 -0.0696685 
-0.973223 -0.0696685 -9.49895 
-9.93322 -0.0163658 0.432209 
-0.0163658 -9.83971 -0.753507 
0.432209 -0.753507 -9.88302 
-9.84968 0.0494235 0.430506 
0.0494235 -9.8116 -0.779749 
0.430506 -0.779749 -9.99467 
-9.84903 -0.00789906 0.389185 
-0.00789906 -9.81419 -0.740308 
0.389185 -0.740308 -9.99272 
-9.91501 -0.0214715 0.432413 
-0.0214715 -9.88683 -0.758772 
0.432413 -0.758772 -9.85411 
-5.44709 0.0348818 -0.479245 
0.0348818 -4.62531 -0.348582 
-0.479245 -0.348582 -0.0453828 
-5.3522 0.0775849 -0.186995 
0.0775849 -4.52885 0.230568 
-0.186995 0.230568 -0.236737 
-4.64058 -0.510106 -0.439114 
-0.510106 -4.77353 0.343414 
-0.439114 0.343414 -0.703682 
-3.95752 0.0373683 -0.0102366 
0.0373683 -4.60261 0.866423 
-0.0102366 0.866423 -1.55765 
-8.98746 -0.0447324 -0.982579 
-0.0447324 -9.61339 0.0599923 
-0.982579 0.0599923 -9.66762 
-9.02655 -0.0494154 -1.03996 
-0.0494154 -9.50373 0.0765542 
-1.03996 0.0765542 -9.73817 
-9.02225 -0.0720774 -1.01346 
-0.0720774 -9.54815 0.0532713 
-1.01346 0.0532713 -9.69807 
-9.0524 -0.070675 -1.01134 
-0.070675 -9.55374 0.0251238 
-1.01134 0.0251238 -9.66232 
-9.5938 0.0449263 0.0646122 
0.0449263 -9.27403 1.0565 
0.0646122 1.0565 -9.86948 
-9.75237 0.0166849 0.0881053 
0.0166849 -9.1775 0.854752 
0.0881053 0.854752 -9.80743 
-9.70443 0.0626612 0.0711329 
0.0626612 -9.25524 0.918423 
0.0711329 0.918423 -9.77764 
-9.68386 0.0646243 0.076516 
0.0646243 -9.30125 0.932361 
0.076516 0.932361 -9.75219 
-9.99101 -0.000454571 -0.256534 
-0.000454571 -9.9559 0.912658 
-0.256534 0.912658 -9.94812 
-10.0646 0.000720522 -0.242996 
0.000720522 -9.95348 0.911532 
-0.242996 0.911532 -9.87696 
-9.9041 -0.0314684 -0.217878 
-0.0314684 -9.86995 0.8705 
-0.217878 0.8705 -10.121 
-10.0223 -0.0630332 -0.334188 
-0.0630332 -9.9338 0.951344 
-0.334188 0.951344 -9.93887 
-9.3224 0.381656 -1.29762 
0.381656 -9.93077 0.706311 
-1.29762 0.706311 -5.56607 
-9.52013 -0.555777 -1.49507 
-0.555777 -9.2281 1.20015 
-1.49507 1.20015 -6.07101 
-9.362 -0.419682 -1.1987 
-0.419682 -9.39262 0.695699 
-1.1987 0.695699 -6.06461 
-9.13595 0.0879554 -0.984588 
0.0879554 -9.31982 0.64294 
-0.984588 0.64294 -6.36347 
-8.8197 0.230796 -0.0351424 
0.230796 -8.84248 -0.195446 
-0.0351424 -0.195446 -6.97441 
-9.33025 -0.271632 0.965894 
-0.271632 -9.23244 -0.933482 
0.965894 -0.933482 -6.0739 
-9.41227 -0.146712 0.991919 
-0.146712 -9.2291 -0.521364 
0.991919 -0.521364 -5.99522 
-9.76512 0.12922 0.560337 
0.12922 -9.82108 -0.716113 
0.560337 -0.716113 -5.0504 
-8.54854 -0.649856 2.77544 
-0.649856 -7.83855 0.058465 
2.77544 0.058465 -4.06389 
-7.68659 -0.0203126 3.28753 
-0.0203126 -8.76555 -0.546101 
3.28753 -0.546101 -3.99883 
-7.65403 0.2338 2.66553 
0.2338 -8.06789 -0.073519 
2.66553 -0.073519 -4.72905 
-8.1834 -0.964175 2.44459 
-0.964175 -8.65601 -0.535844 
2.44459 -0.535844 -3.61157 
-9.49911 0.0660775 0.794923 
0.0660775 -9.56297 0.256664 
0.794923 0.256664 -9.73779 
-9.64419 -0.0988726 0.75658 
-0.0988726 -9.5645 0.275924 
0.75658 0.275924 -9.59119 
-9.50941 0.0514069 0.730044 
0.0514069 -9.59622 0.28862 
0.730044 0.28862 -9.69425 
-9.48667 0.0276259 0.797609 
0.0276259 -9.63436 0.292474 
0.797609 0.292474 -9.67884 
-13.2772 -0.687914 -0.2823 
-0.687914 -11.314 -0.658645 
-0.2823 -0.658645 -17.3926 
-11.8012 0.567813 -0.18565 
0.567813 -8.73958 -0.680491 
-0.18565 -0.680491 -21.4431 
-11.5609 0.866897 -0.245275 
0.866897 -13.6184 -1.13668 
-0.245275 -1.13668 -16.8045 
-13.8422 1.09453 -0.587299 
1.09453 -11.8575 -0.671942 
-0.587299 -0.671942 -16.2841 
-9.55862 0.0872326 0.176186 
0.0872326 -9.49212 0.721395 
0.176186 0.721395 -9.6993 
-9.52134 0.0397188 0.3422 
0.0397188 -9.46084 0.786635 
0.3422 0.786635 -9.76785 
-9.5852 0.0854372 0.340646 
0.0854372 -9.3338 0.582516 
0.340646 0.582516 -9.83103 
-9.57385 0.11647 0.273401 
0.11647 -9.4418 0.765942 
0.273401 0.765942 -9.73438 
-9.95246 0.00272709 -0.0310946 
0.00272709 -9.9406 0.0156241 
-0.0310946 0.0156241 -10.1103 
-10.0036 -0.0801805 -0.0014331 
-0.0801805 -9.93546 0.0167471 
-0.0014331 0.0167471 -10.0643 
-9.87905 0.00741702 0.0654729 
0.00741702 -10.0209 -0.0343401 
0.0654729 -0.0343401 -10.1034 
-9.94866 -0.0142218 0.016693 
-0.0142218 -9.9604 0.0119318 
0.016693 0.0119318 -10.0943 
-9.13256 0.26435 -0.0294843 
0.26435 -9.38009 0.456195 
-0.0294843 0.456195 -9.68127 
-9.25492 0.0586454 0.539947 
0.0586454 -9.48417 0.123011 
0.539947 0.123011 -9.45484 
-9.28695 0.317629 0.633571 
0.317629 -9.27561 0.399144 
0.633571 0.399144 -9.63137 
-9.24553 0.0192876 0.555333 
0.0192876 -9.09103 0.782156 
0.555333 0.782156 -9.85736 
-9.96328 0.0178883 -0.824726 
0.0178883 -9.97743 -0.422357 
-0.824726 -0.422357 -9.90234 
-9.91396 0.0203833 -0.799368 
0.0203833 -9.88853 -0.397701 
-0.799368 -0.397701 -10.0406 
-9.90302 0.0500046 -0.809982 
0.0500046 -9.93538 -0.385242 
-0.809982 -0.385242 -10.0047 
-9.91407 0.0252732 -0.854076 
0.0252732 -9.92192 -0.403375 
-0.854076 -0.403375 -10.0071 
-9.8519 -0.101755 0.679663 
-0.101755 -9.8794 -0.455334 
0.679663 -0.455334 -10.0325 
-9.93032 0.00416138 0.755057 
0.00416138 -9.90543 -0.480709 
0.755057 -0.480709 -9.92809 
-9.85853 0.000794578 0.731146 
0.000794578 -9.93406 -0.464845 
0.731146 -0.464845 -9.97125 
-9.84474 -0.00845724 0.771361 
-0.00845724 -9.96036 -0.492883 
0.771361 -0.492883 -9.95874 
-10.0112 0.00622439 0.00583025 
0.00622439 -9.97184 -0.167038 
0.00583025 -0.167038 -10.277 
-10.2296 -0.00988508 -0.0078423 
-0.00988508 -9.90405 0.160504 
-0.0078423 0.160504 -10.1264 
-10.0848 -0.00696316 -0.0337997 
-0.00696316 -9.72285 -0.0373051 
-0.0337997 -0.0373051 -10.4524 
-10.0915 0.0283841 0.00784121 
0.0283841 -9.76096 -0.0360932 
0.00784121 -0.0360932 -10.4076 
-9.62922 -0.176776 -0.0802771 
-0.176776 -9.41469 0.202565 
-0.0802771 0.202565 -9.82452 
-9.42911 0.350434 0.020732 
0.350434 -9.96582 0.0699522 
0.020732 0.0699522 -9.4735 
-9.54514 -0.180946 -0.178307 
-0.180946 -9.34989 0.372096 
-0.178307 0.372096 -9.9734 
-9.35508 -0.224179 -0.190272 
-0.224179 -9.62232 0.172227 
-0.190272 0.172227 -9.89102 
-10.1529 0.0978486 -0.553695 
0.0978486 -10.0902 0.188737 
-0.553695 0.188737 -9.69343 
-9.78437 0.0425151 -0.720517 
0.0425151 -10.1419 0.128122 
-0.720517 0.128122 -10.0104 
-9.92208 0.0220495 -0.75266 
0.0220495 -9.89727 0.260767 
-0.75266 0.260767 -10.1173 
-10.1851 -0.00403055 -0.657251 
-0.00403055 -10.0597 0.143896 
-0.657251 0.143896 -9.69187 
-9.65698 -0.112299 -0.14061 
-0.112299 -9.27137 0.977202 
-0.14061 0.977202 -9.76813 
-9.41388 0.0736908 0.101272 
0.0736908 -9.30494 0.941918 
0.101272 0.941918 -9.97766 
-9.77298 -0.038087 -0.0639825 
-0.038087 -9.18153 1.11204 
-0.0639825 1.11204 -9.74197 
-9.68052 -0.0307971 -0.113885 
-0.0307971 -9.30497 0.982682 
-0.113885 0.982682 -9.71099 
-9.76518 -0.0509792 0.208483 
-0.0509792 -9.80261 0.893179 
0.208483 0.893179 -9.89605 
-9.81135 0.0257107 0.146917 
0.0257107 -9.73938 0.845812 
0.146917 0.845812 -9.91311 
-9.6973 0.0392546 0.082398 
0.0392546 -9.8196 0.669912 
0.082398 0.669912 -9.94694 
-9.85276 0.0382602 0.187602 
0.0382602 -9.71139 0.855407 
0.187602 0.855407 -9.89968 
-14.0272 0.0450888 0.152483 
0.0450888 -5.02769 1.22502 
0.152483 1.22502 -21.316 
-13.8461 1.13603 1.01233 
1.13603 -7.13988 1.01082 
1.01233 1.01082 -19.3849 
-12.7393 1.44671 0.419345 
1.44671 -8.30788 0.454194 
0.419345 0.454194 -19.3237 
-14.3946 0.253982 0.470111 
0.253982 -8.6208 1.22989 
0.470111 1.22989 -17.3555 
-9.75163 -0.085105 -0.712849 
-0.085105 -9.81279 0.27681 
-0.712849 0.27681 -9.71378 
-9.73149 0.0045443 -0.743598 
0.0045443 -9.69554 0.322852 
-0.743598 0.322852 -9.85117 
-9.65998 -0.0376989 -0.825996 
-0.0376989 -9.77354 0.409815 
-0.825996 0.409815 -9.84468 
-9.70711 -0.0358045 -0.763967 
-0.0358045 -9.72041 0.336104 
-0.763967 0.336104 -9.85068 
-9.79056 -0.0261928 -0.537732 
-0.0261928 -9.76938 0.712671 
-0.537732 0.712671 -10.0418 
-9.88489 -0.0424288 -0.490232 
-0.0424288 -9.82803 0.704409 
-0.490232 0.704409 -9.88881 
-9.79513 0.0353895 -0.501736 
0.0353895 -9.82371 0.684367 
-0.501736 0.684367 -9.98289 
-9.86509 -0.0540244 -0.495642 
-0.0540244 -9.86953 0.681648 
-0.495642 0.681648 -9.86711 
-9.46564 -0.204212 0.155031 
-0.204212 -8.66789 -1.3176 
0.155031 -1.3176 -10.8835 
-10.0344 -0.170852 0.28631 
-0.170852 -8.48809 -0.651691 
0.28631 -0.651691 -10.4946 
-10.1015 -0.40052 0.468252 
-0.40052 -8.19678 -0.957528 
0.468252 -0.957528 -10.7188 
-9.70771 -0.476793 -0.373076 
-0.476793 -8.12657 -0.842686 
-0.373076 -0.842686 -11.1828 
-9.84983 0.0633723 0.555615 
0.0633723 -9.76246 0.811383 
0.555615 0.811383 -9.7977 
-9.81062 0.120824 0.6611 
0.120824 -9.97708 0.880223 
0.6611 0.880223 -9.6223 
-9.58152 0.101544 0.513912 
0.101544 -9.75262 0.576952 
0.513912 0.576952 -10.0758 
-9.88301 0.0874278 0.496909 
0.0874278 -9.70154 0.829419 
0.496909 0.829419 -9.82544 
-9.84342 0.0222204 -0.766529 
0.0222204 -9.8953 -0.366288 
-0.766529 -0.366288 -10.032 
-9.72841 0.116244 -0.814295 
0.116244 -9.97126 -0.378069 
-0.814295 -0.378069 -10.071 
-9.8152 0.0510208 -0.796867 
0.0510208 -9.94066 -0.364525 
-0.796867 -0.364525 -10.0148 
-9.88683 -0.00723705 -0.857897 
-0.00723705 -9.9216 -0.384686 
-0.857897 -0.384686 -9.96224 
-8.88428 -0.546218 -1.58469 
-0.546218 -9.22504 1.54897 
-1.58469 1.54897 -7.8064 
-8.76065 -0.501247 -1.35427 
-0.501247 -9.14951 1.51248 
-1.35427 1.51248 -8.00557 
-9.16692 -0.420953 -1.52022 
-0.420953 -8.907 1.56779 
-1.52022 1.56779 -7.8418 
-8.96562 -0.647071 -1.72191 
-0.647071 -8.96507 1.4423 
-1.72191 1.4423 -7.98503 
-10.3679 -0.0857844 0.0772118 
-0.0857844 -9.59923 0.11079 
0.0772118 0.11079 -9.842 
-9.79865 0.0851446 0.0653311 
0.0851446 -9.9242 0.000932026 
0.0653311 0.000932026 -10.0863 
-9.43163 0.0405333 -0.0360529 
0.0405333 -10.185 -0.0294683 
-0.0360529 -0.0294683 -10.1926 
-9.79236 0.32782 0.215127 
0.32782 -9.91436 -0.125562 
0.215127 -0.125562 -10.1024 
-8.71521 -0.363508 1.32804 
-0.363508 -9.78572 -0.287899 
1.32804 -0.287899 -10.3659 
-8.55794 -0.27023 0.904664 
-0.27023 -9.6187 0.0133518 
0.904664 0.0133518 -10.6902 
-8.82356 -0.0827582 0.611227 
-0.0827582 -10.0961 -0.351832 
0.611227 -0.351832 -9.94714 
-8.73105 -0.275006 1.22551 
-0.275006 -9.56682 -0.301345 
1.22551 -0.301345 -10.569 
-11.1119 0.144986 -0.168457 
0.144986 -10.3623 -0.254 
-0.168457 -0.254 -9.86127 
-9.70126 -0.0137287 0.248275 
-0.0137287 -10.067 0.0350863 
0.248275 0.0350863 -11.5672 
-10.2206 0.27015 -0.0987727 
0.27015 -10.2934 -0.127204 
-0.0987727 -0.127204 -10.8215 
-9.84914 0.517611 -0.884371 
0.517611 -10.4875 -0.177185 
-0.884371 -0.177185 -10.9987 
-9.37175 0.053494 -0.295831 
0.053494 -9.7176 -1.66065 
-0.295831 -1.66065 -4.76517 
-9.72887 -0.056114 0.0477972 
-0.056114 -8.78379 -1.23526 
0.0477972 -1.23526 -5.34186 
-9.7695 -0.327316 0.207043 
-0.327316 -8.55547 -1.61991 
0.207043 -1.61991 -5.52956 
-8.77355 0.0342777 0.427912 
0.0342777 -8.57674 -1.83262 
0.427912 -1.83262 -6.50423 
-9.69931 -0.0463202 -0.697306 
-0.0463202 -9.77894 0.335728 
-0.697306 0.335728 -9.8029 
-9.74606 -0.0131192 -0.819336 
-0.0131192 -9.65991 0.443365 
-0.819336 0.443365 -9.87519 
-9.66035 -0.0567098 -0.759684 
-0.0567098 -9.77412 0.359678 
-0.759684 0.359678 -9.84669 
-9.6657 -0.0591047 -0.753977 
-0.0591047 -9.72404 0.373328 
-0.753977 0.373328 -9.89141 
-9.14111 0.233446 0.293816 
0.233446 -9.11056 0.378396 
0.293816 0.378396 -9.75185 
-9.12814 0.26782 0.541646 
0.26782 -9.20065 0.481108 
0.541646 0.481108 -9.67474 
-9.11551 0.621321 0.380029 
0.621321 -9.00666 0.608997 
0.380029 0.608997 -9.88136 
-9.22797 0.0353387 0.568847 
0.0353387 -9.05976 0.586491 
0.568847 0.586491 -9.7158 
-4.82766 -0.0158189 -0.700667 
-0.0158189 -4.85234 0.456384 
-0.700667 0.456384 0.0466272 
-5.11731 -0.374527 -0.0217443 
-0.374527 -3.76536 -0.346814 
-0.0217443 -0.346814 -0.7507 
-4.60438 0.0284903 -0.138951 
0.0284903 -4.79819 0.385276 
-0.138951 0.385276 -0.230807 
-4.55924 0.270577 0.405846 
0.270577 -4.01257 0.0225376 
0.405846 0.0225376 -1.06156 
-10.0219 -0.00407576 -0.426694 
-0.00407576 -9.93627 0.815118 
-0.426694 0.815118 -9.90775 
-9.90688 -0.0603095 -0.365875 
-0.0603095 -9.86176 0.694258 
-0.365875 0.694258 -10.0973 
-9.96189 -0.0332406 -0.418448 
-0.0332406 -9.9631 0.805671 
-0.418448 0.805671 -9.94095 
-9.97832 -0.112618 -0.447403 
-0.112618 -9.84114 0.805511 
-0.447403 0.805511 -10.0465 
-3.78687 -0.236279 1.65471 
-0.236279 -5.88119 -0.612865 
1.65471 -0.612865 -0.745186 
-7.2367 0.631068 1.19836 
0.631068 -4.1992 -0.539651 
1.19836 -0.539651 1.02265 
-4.66961 -0.016528 1.30428 
-0.016528 -2.25525 0.617397 
1.30428 0.617397 -3.48839 
-5.46683 0.512929 1.98051 
0.512929 -3.22097 1.87429 
1.98051 1.87429 -1.72545 
-7.79618 0.523883 5.16626 
0.523883 -14.6552 3.35798 
5.16626 3.35798 4.91127 
-12.8237 -2.20175 0.781762 
-2.20175 -16.0184 4.0823 
0.781762 4.0823 11.3019 
2.22411 -1.7763 -4.41956 
-1.7763 1.94711 -1.12018 
-4.41956 -1.12018 -21.7113 
-8.75879 6.35765 5.05412 
6.35765 -2.23503 17.7942 
5.05412 17.7942 -6.5463 
-9.72612 -0.0384573 -0.188949 
-0.0384573 -9.33064 0.871508 
-0.188949 0.871508 -9.90262 
-9.64723 -0.032934 -0.11674 
-0.032934 -9.6568 0.771108 
-0.11674 0.771108 -9.65535 
-9.57687 0.0214246 -0.146799 
0.0214246 -9.71653 0.731604 
-0.146799 0.731604 -9.66597 
-9.63249 -0.198007 -0.269994 
-0.198007 -9.52638 0.638299 
-0.269994 0.638299 -9.8005 
-4.54422 0.254062 0.8772 
0.254062 -5.7126 -0.804333 
0.8772 -0.804333 0.933546 
-6.65951 0.230642 -0.408721 
0.230642 -1.60499 -1.61711 
-0.408721 -1.61711 -1.05877 
-5.7686 -0.252046 1.68068 
-0.252046 -4.2765 -2.6108 
1.68068 -2.6108 0.721827 
-2.43472 1.53711 3.08159 
1.53711 -6.06263 -2.87289 
3.08159 -2.87289 -0.825919 
-9.8851 -0.0094369 -0.852237 
-0.0094369 -10.011 0.298255 
-0.852237 0.298255 -9.92447 
-9.83501 -0.00834024 -0.949897 
-0.00834024 -9.93926 0.324159 
-0.949897 0.324159 -10.0463 
-9.99372 0.0364266 -0.827743 
0.0364266 -9.90722 0.286291 
-0.827743 0.286291 -9.91963 
-9.81154 -0.021163 -0.841222 
-0.021163 -10.01 0.320253 
-0.841222 0.320253 -9.99901 
-3.23488 0.779443 -0.270574 
0.779443 -3.58977 -0.547317 
-0.270574 -0.547317 -0.315212 
-3.93735 -0.0585986 -0.813158 
-0.0585986 -2.87692 -0.256895 
-0.813158 -0.256895 -0.325596 
-3.35039 -0.629309 0.893318 
-0.629309 -3.61898 -0.306463 
0.893318 -0.306463 -0.170493 
-3.26505 0.462315 -0.134351 
0.462315 -3.36808 -0.555391 
-0.134351 -0.555391 -0.506728 
-9.77831 -0.155753 0.706235 
-0.155753 -9.63776 0.861174 
0.706235 0.861174 -10.0601 
-9.9706 -0.0346758 0.683061 
-0.0346758 -9.91779 0.59431 
0.683061 0.59431 -9.58775 
-9.91063 0.151026 0.561651 
0.151026 -9.81456 0.734962 
0.561651 0.734962 -9.75094 
-9.88639 0.0589936 0.607263 
0.0589936 -9.80444 0.716122 
0.607263 0.716122 -9.7853 
-9.67848 0.298966 0.0224576 
0.298966 -8.89201 -0.086126 
0.0224576 -0.086126 -11.355 
-9.93858 -0.0346139 -0.0962387 
-0.0346139 -9.20228 0.549072 
-0.0962387 0.549072 -10.7846 
-10.1821 -0.0587371 -0.0111067 
-0.0587371 -8.69891 0.685419 
-0.0111067 0.685419 -11.0444 
-10.039 0.0435817 -0.0581757 
0.0435817 -8.9328 0.462671 
-0.0581757 0.462671 -10.9536 
-5.30407 0.0730395 0.712945 
0.0730395 -5.79321 0.329129 
0.712945 0.329129 -0.743991 
-5.01201 -0.157994 0.351048 
-0.157994 -4.44133 1.86164 
0.351048 1.86164 -2.38793 
-5.78174 0.0665009 0.346765 
0.0665009 -5.74948 0.669849 
0.346765 0.669849 -0.310048 
-5.09213 -0.21339 -0.660978 
-0.21339 -4.903 0.953876 
-0.660978 0.953876 -1.84614 
-9.89631 0.210542 0.312935 
0.210542 -9.15602 1.11001 
0.312935 1.11001 -9.83773 
-9.69514 -0.0114983 0.213181 
-0.0114983 -9.38719 0.944492 
0.213181 0.944492 -9.80773 
-9.73132 -0.0312932 0.156255 
-0.0312932 -9.27256 0.816393 
0.156255 0.816393 -9.88619 
-9.74632 0.072393 0.251425 
0.072393 -9.44477 0.938222 
0.251425 0.938222 -9.69898 
-9.99632 -1.15585 -0.376035 
-1.15585 -11.1062 0.215801 
-0.376035 0.215801 -11.0062 
-9.68975 0.093074 -0.102694 
0.093074 -10.5966 0.513009 
-0.102694 0.513009 -11.8224 
-10.1406 -0.152405 -0.148809 
-0.152405 -10.4501 -0.331972 
-0.148809 -0.331972 -11.518 
-9.73988 -0.53112 0.0580003 
-0.53112 -10.6504 -0.323267 
0.0580003 -0.323267 -11.7185 
-9.28456 -0.0559291 -0.45034 
-0.0559291 -9.40472 0.133881 
-0.45034 0.133881 -9.53376 
-9.93527 0.198702 -0.483964 
0.198702 -9.22302 0.215195 
-0.483964 0.215195 -9.06474 
-8.81204 -0.211358 -0.181936 
-0.211358 -9.65036 0.168663 
-0.181936 0.168663 -9.76064 
-9.1027 -0.222414 -0.687688 
-0.222414 -9.30075 0.155296 
-0.687688 0.155296 -9.81958 
-9.90535 -0.016187 0.966497 
-0.016187 -9.97062 -0.042414 
0.966497 -0.042414 -9.86991 
-9.89911 0.0342216 0.938255 
0.0342216 -9.87757 -0.105801 
0.938255 -0.105801 -9.9692 
-9.86332 -0.0321085 0.876531 
-0.0321085 -9.78588 -0.11949 
0.876531 -0.11949 -10.0967 
-9.86909 -0.0629027 0.981035 
-0.0629027 -9.99949 -0.109146 
0.981035 -0.109146 -9.8773 
-9.8637 0.0852555 0.576979 
0.0852555 -9.78807 0.35204 
0.576979 0.35204 -9.57172 
-9.86989 0.005433 0.395291 
0.005433 -9.87719 0.403304 
0.395291 0.403304 -9.47641 
-9.82032 0.127641 0.385437 
0.127641 -9.79664 0.417184 
0.385437 0.417184 -9.60654 
-9.85698 0.0216087 0.620934 
0.0216087 -9.92069 0.354174 
0.620934 0.354174 -9.44582 
-9.39109 0.00459887 -0.78755 
0.00459887 -9.52457 -0.0212963 
-0.78755 -0.0212963 -9.44266 
-9.556 0.0317804 -0.841864 
0.0317804 -9.37456 -0.122972 
-0.841864 -0.122972 -9.42778 
-9.24567 -0.0137633 -0.760371 
-0.0137633 -9.43689 -0.00750429 
-0.760371 -0.00750429 -9.67577 
-9.3849 0.0521741 -0.789896 
0.0521741 -9.45532 -0.0546108 
-0.789896 -0.0546108 -9.51811 
-10.7274 0.145594 0.117117 
0.145594 -11.0851 -0.333322 
0.117117 -0.333322 -9.65956 
-10.3422 -0.15378 -0.012053 
-0.15378 -10.7373 -0.132469 
-0.012053 -0.132469 -10.3926 
-10.1795 0.322446 -0.121612 
0.322446 -10.0975 0.306337 
-0.121612 0.306337 -11.195 
-10.5674 -0.225086 -0.00198813 
-0.225086 -9.9468 -0.242277 
-0.00198813 -0.242277 -10.9579 
-3.22164 -0.087401 -0.815371 
-0.087401 -2.88154 0.515466 
-0.815371 0.515466 0.472526 
-2.54708 0.139669 0.246233 
0.139669 -2.36418 0.117062 
0.246233 0.117062 -0.719397 
-2.05054 -0.427415 0.332268 
-0.427415 -2.17935 -0.172358 
0.332268 -0.172358 -1.40077 
-2.74996 0.539533 0.434307 
0.539533 -2.3486 -0.523653 
0.434307 -0.523653 -0.532091 
-9.89595 0.00858519 0.957628 
0.00858519 -9.99128 0.121187 
0.957628 0.121187 -9.93727 
-9.8707 0.0190237 0.908042 
0.0190237 -10.0255 0.128011 
0.908042 0.128011 -9.92829 
-9.84877 0.0455053 0.925931 
0.0455053 -9.96138 0.0718393 
0.925931 0.0718393 -10.0144 
-9.95071 0.0226727 0.906483 
0.0226727 -10.0307 0.126102 
0.906483 0.126102 -9.84305 
-9.82247 0.00560604 -0.0115446 
0.00560604 -9.81629 -0.793662 
-0.0115446 -0.793662 -9.87171 
-9.83791 -0.0133061 -0.0117671 
-0.0133061 -9.76134 -0.876525 
-0.0117671 -0.876525 -9.91121 
-9.81288 0.00707123 0.0067815 
0.00707123 -9.7692 -0.86726 
0.0067815 -0.86726 -9.92838 
-9.87586 -0.00993375 -0.0149607 
-0.00993375 -9.71861 -0.847115 
-0.0149607 -0.847115 -9.91599 
-9.93318 0.000823611 -0.452846 
0.000823611 -9.92325 -0.745285 
-0.452846 -0.745285 -9.963 
-9.94536 0.00155494 -0.463238 
0.00155494 -9.92983 -0.744857 
-0.463238 -0.744857 -9.94424 
-9.94252 0.00911222 -0.46785 
0.00911222 -9.95537 -0.740322 
-0.46785 -0.740322 -9.92153 
-9.92162 -0.0240031 -0.470734 
-0.0240031 -9.89149 -0.784558 
-0.470734 -0.784558 -10.0063 
-7.93711 0.149069 2.17863 
0.149069 -9.6728 -1.79066 
2.17863 -1.79066 -3.95282 
-8.15242 -0.0721005 2.00921 
-0.0721005 -9.72694 -1.71069 
2.00921 -1.71069 -3.68337 
-8.0752 -0.21178 1.86715 
-0.21178 -9.06628 -2.11585 
1.86715 -2.11585 -4.42125 
-8.14279 -0.161452 2.59876 
-0.161452 -9.63382 -1.88493 
2.59876 -1.88493 -3.78613 
-9.97729 -0.0316574 -0.724366 
-0.0316574 -9.93359 0.573033 
-0.724366 0.573033 -9.98891 
-9.93418 -0.0743018 -0.65034 
-0.0743018 -9.81059 0.539775 
-0.65034 0.539775 -10.155 
-9.99582 -0.0334136 -0.749071 
-0.0334136 -10.076 0.552957 
-0.749071 0.552957 -9.82794 
-9.91648 -0.151406 -0.772036 
-0.151406 -10.0015 0.693388 
-0.772036 0.693388 -9.98182 
-9.90554 0.083567 -0.0306197 
0.083567 -10.038 0.00468136 
-0.0306197 0.00468136 -10.0396 
-9.94969 0.0606982 0.0820085 
0.0606982 -10.0404 0.00104592 
0.0820085 0.00104592 -9.99304 
-10.012 -0.0111837 -0.146009 
-0.0111837 -9.88669 -0.00932625 
-0.146009 -0.00932625 -10.0845 
-9.87895 0.117394 0.0189711 
0.117394 -9.95379 0.0829791 
0.0189711 0.0829791 -10.1504 
-10.277 -0.0613473 -0.0323981 
-0.0613473 -10.368 -0.215318 
-0.0323981 -0.215318 -10.608 
-10.4026 0.114839 0.0211191 
0.114839 -10.1084 -0.188834 
0.0211191 -0.188834 -10.742 
-10.4488 0.321771 0.0847779 
0.321771 -9.95598 -0.484102 
0.0847779 -0.484102 -10.8482 
-10.5634 0.084615 0.00817931 
0.084615 -9.90565 0.0597555 
0.00817931 0.0597555 -10.784 
-9.26102 -0.209193 -0.664113 
-0.209193 -9.4342 0.621075 
-0.664113 0.621075 -10.039 
-9.22877 -0.366447 -0.995594 
-0.366447 -9.4884 0.688559 
-0.995594 0.688559 -10.017 
-9.15634 -0.376188 -0.927985 
-0.376188 -9.48622 0.699364 
-0.927985 0.699364 -10.0916 
-9.07646 -0.39348 -0.952725 
-0.39348 -9.54007 0.682429 
-0.952725 0.682429 -10.1176 
-9.82099 0.043522 0.111905 
0.043522 -9.75185 -0.0290185 
0.111905 -0.0290185 -9.9616 
-9.78854 -0.238644 -0.00266549 
-0.238644 -9.79789 0.0293571 
-0.00266549 0.0293571 -9.948 
-9.64626 0.0728131 -0.248115 
0.0728131 -9.86695 0.169453 
-0.248115 0.169453 -10.0212 
-9.75057 -0.138931 0.0519886 
-0.138931 -9.80396 -0.0157619 
0.0519886 -0.0157619 -9.97991 
-9.70443 0.0112901 0.253713 
0.0112901 -9.51173 0.22627 
0.253713 0.22627 -9.1693 
-9.87866 -0.0480301 0.500845 
-0.0480301 -9.87178 0.254136 
0.500845 0.254136 -8.63501 
-9.56114 -0.0350922 0.508184 
-0.0350922 -9.7616 0.29854 
0.508184 0.29854 -9.06271 
-9.58295 0.00850027 0.534876 
0.00850027 -9.65064 0.414886 
0.534876 0.414886 -9.15186 
-6.93525 1.14347 -0.689462 
1.14347 -4.06675 -0.252662 
-0.689462 -0.252662 0.0024277 
-3.59962 -0.502051 -0.492317 
-0.502051 -4.8935 0.182032 
-0.492317 0.182032 -2.50646 
-3.96661 -0.999056 -1.87889 
-0.999056 -6.94641 0.734428 
-1.87889 0.734428 -0.0865557 
-6.77952 0.59793 -2.18141 
0.59793 -3.21786 -3.24539 
-2.18141 -3.24539 -1.00219 
-10.0539 -0.0673383 0.0118818 
-0.0673383 -10.0675 -0.127246 
0.0118818 -0.127246 -10.0949 
-10.0345 -0.0315956 -0.0869244 
-0.0315956 -10.0415 0.00333163 
-0.0869244 0.00333163 -10.1402 
-10.1297 0.0682343 -0.0537063 
0.0682343 -10.0483 0.0458561 
-0.0537063 0.0458561 -10.0383 
-10.0674 -0.0232599 -0.0750569 
-0.0232599 -9.99695 0.0236579 
-0.0750569 0.0236579 -10.1519 
-2.04823 -0.166773 0.594626 
-0.166773 -0.242382 0.471749 
0.594626 0.471749 -9.44661 
-9.57744 -1.49339 1.91729 
-1.49339 -6.3111 -1.1105 
1.91729 -1.1105 4.15132 
-9.97824 -0.277992 1.24218 
-0.277992 -6.36457 1.98204 
1.24218 1.98204 4.60558 
-5.09373 0.0704283 7.25876 
0.0704283 -6.26781 1.48861 
7.25876 1.48861 -0.375686 
-9.78806 -0.0477143 0.2625 
-0.0477143 -9.93651 -0.830478 
0.2625 -0.830478 -10.0108 
-9.91694 -0.0573636 0.278329 
-0.0573636 -9.8277 -0.84925 
0.278329 -0.84925 -9.99074 
-9.92004 -0.00429663 0.240016 
-0.00429663 -9.87518 -0.812035 
0.240016 -0.812035 -9.94016 
-9.9089 -0.0301803 0.235592 
-0.0301803 -9.89363 -0.818859 
0.235592 -0.818859 -9.93284 
-8.98242 -0.0289103 -0.332469 
-0.0289103 -9.44448 0.00850834 
-0.332469 0.00850834 -10.033 
-9.36799 -0.371694 -0.254111 
-0.371694 -9.24939 0.528755 
-0.254111 0.528755 -9.84253 
-9.21191 0.0714097 -0.0429154 
0.0714097 -9.72919 0.77409 
-0.0429154 0.77409 -9.51881 
-9.4306 -0.251168 -0.352367 
-0.251168 -9.25008 0.254249 
-0.352367 0.254249 -9.77923 
-8.96148 -0.260321 1.5269 
-0.260321 -9.65782 1.86093 
1.5269 1.86093 -5.11197 
-9.53462 0.132861 1.73351 
0.132861 -9.28518 1.9167 
1.73351 1.9167 -4.91146 
-8.8492 -0.171839 1.15657 
-0.171839 -8.88991 1.33123 
1.15657 1.33123 -5.99215 
-9.96627 0.310768 2.45954 
0.310768 -8.74439 2.71375 
2.45954 2.71375 -5.0206 
-9.0392 0.0687242 0.736911 
0.0687242 -9.58874 0.0752073 
0.736911 0.0752073 -9.72281 
-9.30085 -0.00325749 0.582652 
-0.00325749 -9.47355 0.115588 
0.582652 0.115588 -9.57635 
-9.64143 -0.0262587 0.583697 
-0.0262587 -9.31423 0.0621092 
0.583697 0.0621092 -9.39508 
-9.24725 0.0264653 0.418178 
0.0264653 -9.44049 -0.001137 
0.418178 -0.001137 -9.66301 
-10.2452 0.0189671 -0.336297 
0.0189671 -9.29119 1.47058 
-0.336297 1.47058 -6.76825 
-9.57302 -0.0815913 -0.353495 
-0.0815913 -9.33753 1.29493 
-0.353495 1.29493 -7.39407 
-10.0305 -0.133901 -0.416896 
-0.133901 -9.68911 1.39621 
-0.416896 1.39621 -6.585 
-9.63363 -0.361385 -1.25279 
-0.361385 -9.94066 2.18187 
-1.25279 2.18187 -6.73033 
-9.87454 0.030437 0.615103 
0.030437 -9.86213 0.583879 
0.615103 0.583879 -9.88973 
-9.81614 0.0211046 0.630131 
0.0211046 -9.80032 0.6024 
0.630131 0.6024 -10.0099 
-9.81922 0.00553409 0.589386 
0.00553409 -9.81755 0.576623 
0.589386 0.576623 -9.98962 
-9.86028 0.0396688 0.636833 
0.0396688 -9.88695 0.554999 
0.636833 0.554999 -9.87916 
-9.4931 0.149106 0.0671389 
0.149106 -9.25344 0.162834 
0.0671389 0.162834 -9.96379 
-9.90949 -0.211674 -0.316515 
-0.211674 -9.03003 0.0435192 
-0.316515 0.0435192 -9.7708 
-8.87735 -0.326717 0.17173 
-0.326717 -8.94906 0.313372 
0.17173 0.313372 -10.8839 
-9.74956 -0.598256 -0.597326 
-0.598256 -9.66189 1.04525 
-0.597326 1.04525 -9.29887 
-9.78689 0.499535 0.333814 
0.499535 -9.32356 1.29649 
0.333814 1.29649 -7.57026 
-9.51902 0.0241557 0.247558 
0.0241557 -9.29635 1.38128 
0.247558 1.38128 -7.86534 
-9.5751 0.128582 0.251251 
0.128582 -9.19497 1.33569 
0.251251 1.33569 -7.91065 
-9.52743 0.0193142 0.406643 
0.0193142 -9.23639 1.28847 
0.406643 1.28847 -7.9169 
-10.1566 0.0729835 -0.0618934 
0.0729835 -10.2218 -0.0105069 
-0.0618934 -0.0105069 -10.636 
-10.1337 -0.00307772 -0.0828013 
-0.00307772 -10.404 -0.0375761 
-0.0828013 -0.0375761 -10.4766 
-9.98364 0.13429 -0.134243 
0.13429 -10.1892 0.01173 
-0.134243 0.01173 -10.8416 
-10.1409 0.106772 -0.0809815 
0.106772 -10.292 -0.123529 
-0.0809815 -0.123529 -10.5815 
-9.81574 -0.0363854 -0.153052 
-0.0363854 -9.79278 0.826677 
-0.153052 0.826677 -9.94751 
-9.90571 -0.169089 -0.290685 
-0.169089 -9.87591 1.05695 
-0.290685 1.05695 -9.7744 
-9.99791 0.0303201 -0.128191 
0.0303201 -9.77561 1.01518 
-0.128191 1.01518 -9.7825 
-10.0055 0.0559475 -0.0792135 
0.0559475 -9.69512 1.04181 
-0.0792135 1.04181 -9.85538 
-10.0913 0.0251358 -0.00734723 
0.0251358 -10.1285 -0.0775001 
-0.00734723 -0.0775001 -10.1152 
-10.1864 0.0332538 0.00201029 
0.0332538 -10.0633 0.0401124 
0.00201029 0.0401124 -10.0854 
-10.0917 -0.0319264 -0.0584461 
-0.0319264 -10.0321 -0.0442729 
-0.0584461 -0.0442729 -10.2112 
-10.2067 -0.0105832 0.00151228 
-0.0105832 -10.0732 -0.0215652 
0.00151228 -0.0215652 -10.0552 
-9.80671 -0.303327 0.0157234 
-0.303327 -8.77746 0.190615 
0.0157234 0.190615 -9.85061 
-9.44635 -0.059043 -0.20466 
-0.059043 -9.30239 0.395475 
-0.20466 0.395475 -9.68604 
-9.1909 0.281489 -0.111617 
0.281489 -9.97127 0.396556 
-0.111617 0.396556 -9.27261 
-9.42162 -0.0939205 -0.130739 
-0.0939205 -9.16283 0.720788 
-0.130739 0.720788 -9.85032 
-9.307 0.0386609 1.2697 
0.0386609 -9.30331 0.827718 
1.2697 0.827718 -7.35267 
-9.10603 0.17307 1.43692 
0.17307 -9.15376 0.907622 
1.43692 0.907622 -7.70319 
-8.87843 0.531884 0.817027 
0.531884 -9.56532 0.502702 
0.817027 0.502702 -7.51923 
-9.50208 0.154865 1.32726 
0.154865 -9.43406 0.734618 
1.32726 0.734618 -7.02683 
-9.74723 -0.00159515 -0.860014 
-0.00159515 -10.0461 0.240538 
-0.860014 0.240538 -9.71002 
-9.73081 -0.0299401 -0.925841 
-0.0299401 -9.97605 0.14027 
-0.925841 0.14027 -9.79652 
-10.0002 -0.0149214 -0.790518 
-0.0149214 -9.59141 0.234495 
-0.790518 0.234495 -9.9118 
-10.0021 0.0491805 -1.11112 
0.0491805 -9.83743 0.11583 
-1.11112 0.11583 -9.66382 
-2.88823 -6.88593 3.03138 
-6.88593 -10.6166 -3.51082 
3.03138 -3.51082 -27.1256 
-1.81627 -9.61481 6.53211 
-9.61481 -3.31557 -4.6619 
6.53211 -4.6619 -35.4986 
-6.75694 -4.47763 0.555478 
-4.47763 -11.8371 -0.428449 
0.555478 -0.428449 -22.0364 
-10.7017 -0.763071 1.38133 
-0.763071 -12.4102 -3.21367 
1.38133 -3.21367 -17.5185 
-9.67889 0.0286045 0.0655284 
0.0286045 -9.09095 -1.30577 
0.0655284 -1.30577 -9.37592 
-9.32979 -0.282948 -0.0237672 
-0.282948 -9.35125 -1.08122 
-0.0237672 -1.08122 -9.46472 
-9.68666 -0.0147533 0.167407 
-0.0147533 -8.97567 -1.26604 
0.167407 -1.26604 -9.48342 
-9.70774 -0.000606259 0.0674624 
-0.000606259 -9.08218 -1.24546 
0.0674624 -1.24546 -9.35584 
-9.61066 -0.0404391 -0.78132 
-0.0404391 -9.71524 -0.0477421 
-0.78132 -0.0477421 -9.76764 
-9.59487 0.0314576 -0.868534 
0.0314576 -9.67217 -0.0392588 
-0.868534 -0.0392588 -9.82649 
-9.54394 0.0038454 -0.827583 
0.0038454 -9.73134 -0.0521928 
-0.827583 -0.0521928 -9.81826 
-9.5993 0.0120739 -0.82519 
0.0120739 -9.72077 -0.0248415 
-0.82519 -0.0248415 -9.77346 
-7.93859 -0.316189 0.437485 
-0.316189 -10.2559 -0.417537 
0.437485 -0.417537 -11.2743 
-8.71069 -0.0985471 0.902708 
-0.0985471 -10.015 -0.192798 
0.902708 -0.192798 -10.7431 
-9.61656 -0.549249 0.9956 
-0.549249 -9.49702 -0.52137 
0.9956 -0.52137 -10.3552 
-8.6647 0.167963 1.04759 
0.167963 -10.1617 -0.0456943 
1.04759 -0.0456943 -10.6424 
-9.59412 0.046991 0.764392 
0.046991 -9.4356 -0.207293 
0.764392 -0.207293 -9.55535 
-9.32071 -0.106791 0.687643 
-0.106791 -9.60743 -0.205216 
0.687643 -0.205216 -9.65692 
-9.48276 -0.00195479 0.785345 
-0.00195479 -9.47398 -0.151899 
0.785345 -0.151899 -9.62832 
-9.4066 0.00477497 0.810938 
0.00477497 -9.50182 -0.254528 
0.810938 -0.254528 -9.67664 
-9.35394 0.0318804 -0.740918 
0.0318804 -9.50537 -0.0458113 
-0.740918 -0.0458113 -9.77552 
-9.49248 -0.0188405 -0.777137 
-0.0188405 -9.59695 -0.0336114 
-0.777137 -0.0336114 -9.5454 
-9.3739 0.0142077 -0.847232 
0.0142077 -9.51976 -0.0566341 
-0.847232 -0.0566341 -9.74117 
-9.38264 0.00491441 -0.811405 
0.00491441 -9.5413 -0.0287014 
-0.811405 -0.0287014 -9.71089 
-9.63393 0.00333593 -0.714304 
0.00333593 -9.72897 0.563601 
-0.714304 0.563601 -9.83936 
-9.62601 -0.0634241 -0.650174 
-0.0634241 -9.69497 0.554964 
-0.650174 0.554964 -9.88129 
-9.71338 -0.0781344 -0.572899 
-0.0781344 -9.68392 0.528198 
-0.572899 0.528198 -9.80496 
-9.66232 -0.0600677 -0.630327 
-0.0600677 -9.7171 0.565062 
-0.630327 0.565062 -9.82285 
-9.40148 -0.0190677 0.366029 
-0.0190677 -9.37387 -0.300053 
0.366029 -0.300053 -9.67183 
-9.40092 -0.080804 0.370126 
-0.080804 -9.39228 -0.285269 
0.370126 -0.285269 -9.65397 
-9.27791 -0.242145 0.451984 
-0.242145 -9.33622 -0.396483 
0.451984 -0.396483 -9.83305 
-9.44408 -0.0242752 0.266172 
-0.0242752 -9.27063 -0.287344 
0.266172 -0.287344 -9.73246 
-9.37148 0.331782 -0.711427 
0.331782 -9.28012 -0.826496 
-0.711427 -0.826496 -9.72041 
-9.39345 0.215908 -0.624989 
0.215908 -9.23364 -0.676765 
-0.624989 -0.676765 -9.74492 
-9.2912 0.231348 -0.688959 
0.231348 -9.36515 -0.600707 
-0.688959 -0.600707 -9.71567 
-9.34129 0.192291 -0.63733 
0.192291 -9.28157 -0.788083 
-0.63733 -0.788083 -9.74915 
-9.8898 0.0425142 0.80796 
0.0425142 -9.94555 0.562637 
0.80796 0.562637 -9.95993 
-9.9534 0.049534 0.778771 
0.049534 -10.0487 0.4889 
0.778771 0.4889 -9.79322 
-9.84571 -0.0224152 0.784867 
-0.0224152 -9.80829 0.504659 
0.784867 0.504659 -10.1413 
-9.92707 0.0808442 0.730454 
0.0808442 -10.0136 0.602866 
0.730454 0.602866 -9.8546 
-9.36076 0.00204296 0.218366 
0.00204296 -9.26303 0.726041 
0.218366 0.726041 -9.42075 
-9.44068 0.053463 0.182853 
0.053463 -9.10055 0.585384 
0.182853 0.585384 -9.50332 
-9.25363 0.00229352 0.241854 
0.00229352 -9.51177 0.749692 
0.241854 0.749692 -9.27914 
-9.33295 0.05898 0.184804 
0.05898 -9.19386 0.738864 
0.184804 0.738864 -9.51773 
-9.90902 0.00796112 0.738055 
0.00796112 -9.96477 0.581846 
0.738055 0.581846 -9.9576 
-9.93738 0.047194 0.762992 
0.047194 -9.97423 0.576173 
0.762992 0.576173 -9.91978 
-9.86719 0.0373906 0.691769 
0.0373906 -9.8718 0.527016 
0.691769 0.527016 -10.0924 
-9.93101 0.0911528 0.726866 
0.0911528 -9.89728 0.635374 
0.726866 0.635374 -10.0031 
-9.48153 0.0297201 0.090162 
0.0297201 -9.51722 -0.801307 
0.090162 -0.801307 -9.59701 
-9.4393 0.0217286 0.0488768 
0.0217286 -9.62653 -0.785567 
0.0488768 -0.785567 -9.52994 
-9.67135 -0.0324344 -0.00567458 
-0.0324344 -9.24253 -0.698923 
-0.00567458 -0.698923 -9.68189 
-9.46156 -0.0340165 0.0183546 
-0.0340165 -9.44182 -0.872749 
0.0183546 -0.872749 -9.69239 
-9.37718 0.263552 0.194844 
0.263552 -9.352 0.115469 
0.194844 0.115469 -9.92175 
-9.54173 0.148301 0.186124 
0.148301 -9.41399 0.418572 
0.186124 0.418572 -9.69522 
-9.36188 0.171369 0.245335 
0.171369 -9.31261 0.109642 
0.245335 0.109642 -9.97644 
-9.37666 0.22852 0.345653 
0.22852 -9.23329 0.142054 
0.345653 0.142054 -10.041 
-9.64233 -0.107632 0.117911 
-0.107632 -9.27049 -0.872505 
0.117911 -0.872505 -9.92346 
-9.49334 0.0490074 0.0568105 
0.0490074 -9.78026 -0.790947 
0.0568105 -0.790947 -9.56268 
-9.65828 0.0366659 0.0839448 
0.0366659 -9.62826 -0.804215 
0.0839448 -0.804215 -9.54973 
-9.67361 0.0982825 -0.0942778 
0.0982825 -9.42464 -0.666011 
-0.0942778 -0.666011 -9.73803 
-8.55037 -0.321042 -3.62731 
-0.321042 -5.94505 -2.35199 
-3.62731 -2.35199 -5.52755 
-4.53649 0.0343018 -3.20629 
0.0343018 -9.0359 -2.6091 
-3.20629 -2.6091 -6.45059 
-6.29444 -0.712504 -4.17556 
-0.712504 -9.89138 -1.7932 
-4.17556 -1.7932 -3.83715 
-7.77628 0.115561 -2.93844 
0.115561 -7.5907 -3.28148 
-2.93844 -3.28148 -4.65599 
-9.94502 -0.0525289 0.150386 
-0.0525289 -10.0171 -0.606411 
0.150386 -0.606411 -10.1609 
-10.1652 -0.0123968 0.102906 
-0.0123968 -10.253 -0.448678 
0.102906 -0.448678 -9.70492 
-10.0723 -0.129703 0.236839 
-0.129703 -9.96213 -0.516565 
0.236839 -0.516565 -10.0886 
-10.1608 0.0759664 0.252163 
0.0759664 -10.1792 -0.570752 
0.252163 -0.570752 -9.78309 
-9.50572 -0.125688 -1.39891 
-0.125688 -9.98406 0.196426 
-1.39891 0.196426 -6.18152 
-9.85303 0.0475658 -0.753332 
0.0475658 -9.7467 0.0267582 
-0.753332 0.0267582 -6.07158 
-9.85702 0.289308 -0.758084 
0.289308 -9.8804 -0.240344 
-0.758084 -0.240344 -5.93389 
-9.51118 -0.185105 -0.609892 
-0.185105 -9.20434 0.0956266 
-0.609892 0.0956266 -6.95579 
-9.52112 -0.235502 -0.406657 
-0.235502 -9.34026 0.538309 
-0.406657 0.538309 -9.66868 
-9.45707 0.11736 -0.44591 
0.11736 -9.5514 0.613771 
-0.44591 0.613771 -9.52159 
-9.45741 -0.00393729 -0.398927 
-0.00393729 -9.46456 0.662977 
-0.398927 0.662977 -9.60809 
-9.4988 -0.00836123 -0.536664 
-0.00836123 -9.3583 0.693176 
-0.536664 0.693176 -9.67295 
-9.76607 -0.0846102 0.62702 
-0.0846102 -9.75055 -0.579153 
0.62702 -0.579153 -9.82135 
-9.74856 -0.0219576 0.584867 
-0.0219576 -9.75786 -0.584909 
0.584867 -0.584909 -9.83154 
-9.74105 -0.0344437 0.600158 
-0.0344437 -9.73076 -0.581322 
0.600158 -0.581322 -9.86615 
-9.73329 -0.0557016 0.62529 
-0.0557016 -9.81568 -0.588825 
0.62529 -0.588825 -9.78899 
-9.5224 -0.0727955 -0.597012 
-0.0727955 -9.58992 0.520182 
-0.597012 0.520182 -9.78874 
-9.56694 -0.0772409 -0.605881 
-0.0772409 -9.61316 0.525266 
-0.605881 0.525266 -9.72097 
-9.54939 -0.0720486 -0.625615 
-0.0720486 -9.59087 0.535327 
-0.625615 0.535327 -9.7608 
-9.55187 -0.0803763 -0.619865 
-0.0803763 -9.58435 0.551723 
-0.619865 0.551723 -9.76484 
-10.6174 -0.0361447 -0.0173729 
-0.0361447 -10.3646 0.0827153 
-0.0173729 0.0827153 -10.6381 
-10.4834 0.0555752 0.0289896 
0.0555752 -10.2243 0.00192706 
0.0289896 0.00192706 -10.9124 
-10.5612 0.144952 0.00898464 
0.144952 -10.3558 0.149289 
0.00898464 0.149289 -10.7031 
-10.66 0.0781698 0.129072 
0.0781698 -10.4026 0.288643 
0.129072 0.288643 -10.5575 
-9.4731 0.194537 -0.258575 
0.194537 -9.73858 -0.0933404 
-0.258575 -0.0933404 -9.95968 
-9.87371 -0.145816 -0.00402402 
-0.145816 -9.69465 -0.0723791 
-0.00402402 -0.0723791 -9.603 
-9.56808 0.1812 -0.123026 
0.1812 -9.74846 -0.0399707 
-0.123026 -0.0399707 -9.85482 
-9.39487 -0.0225871 -0.0696265 
-0.0225871 -9.78686 0.0163031 
-0.0696265 0.0163031 -9.98963 
-10.0919 0.0285223 -0.507967 
0.0285223 -9.99805 -0.768613 
-0.507967 -0.768613 -9.83219 
-10.0085 0.00585417 -0.535735 
0.00585417 -9.98007 -0.777987 
-0.535735 -0.777987 -9.93362 
-9.89126 0.0495198 -0.463659 
0.0495198 -9.86431 -0.772121 
-0.463659 -0.772121 -10.1666 
-10.0019 0.0387787 -0.62445 
0.0387787 -10.037 -0.755126 
-0.62445 -0.755126 -9.88321 
-9.89115 0.201434 0.590809 
0.201434 -9.79879 0.943646 
0.590809 0.943646 -8.39582 
-10.0093 0.07026 0.492153 
0.07026 -9.93425 0.984989 
0.492153 0.984989 -8.14222 
-9.66413 0.149788 0.472654 
0.149788 -9.58175 1.051 
0.472654 1.051 -8.83988 
-10.0784 0.129041 0.803545 
0.129041 -9.72379 0.925577 
0.803545 0.925577 -8.28356 
-12.9515 1.83494 -2.64436 
1.83494 -9.1089 3.09213 
-2.64436 3.09213 7.54682 
-9.53995 3.34559 -4.84089 
3.34559 -10.0643 -0.00646195 
-4.84089 -0.00646195 5.09071 
-2.64036 0.0218992 1.02328 
0.0218992 0.919251 1.06391 
1.02328 1.06391 -12.7925 
-3.17372 -2.10065 -9.14965 
-2.10065 -8.05029 5.8117 
-9.14965 5.8117 -3.28956 
-9.71047 -0.000557936 0.724514 
-0.000557936 -9.90264 0.563303 
0.724514 0.563303 -9.63848 
-9.96465 0.142378 0.692114 
0.142378 -9.76605 0.757194 
0.692114 0.757194 -9.52088 
-9.80551 0.171307 0.781271 
0.171307 -9.64797 0.50485 
0.781271 0.50485 -9.79811 
-9.72564 0.0581867 0.674004 
0.0581867 -9.8676 0.629621 
0.674004 0.629621 -9.65835 
-9.88307 0.0627322 0.366093 
0.0627322 -8.36185 2.07811 
0.366093 2.07811 -8.31334 
-8.76744 0.0325994 -0.149055 
0.0325994 -8.47001 1.7567 
-0.149055 1.7567 -9.32081 
-9.85018 -0.111481 0.354245 
-0.111481 -8.74548 1.79215 
0.354245 1.79215 -7.96261 
-9.95156 -0.256107 -0.571933 
-0.256107 -8.73437 3.28766 
-0.571933 3.28766 -7.87233 
-10.2308 -0.0219742 -0.0861395 
-0.0219742 -10.2132 -0.0714389 
-0.0861395 -0.0714389 -10.1581 
-10.13 0.0329652 0.0265149 
0.0329652 -10.1941 -0.0253069 
0.0265149 -0.0253069 -10.278 
-10.2084 0.0214033 0.0544694 
0.0214033 -10.1471 0.0475639 
0.0544694 0.0475639 -10.2467 
-10.1499 0.0161939 0.0277531 
0.0161939 -10.19 -0.0310279 
0.0277531 -0.0310279 -10.2623 
-5.1039 -0.0439106 -0.727377 
-0.0439106 -4.81267 -0.0212935 
-0.727377 -0.0212935 -1.73857 
-6.27329 -0.397446 -1.03148 
-0.397446 -4.2021 0.311652 
-1.03148 0.311652 -1.17974 
-4.96615 -0.0467411 -1.52434 
-0.0467411 -5.60581 -0.637936 
-1.52434 -0.637936 -1.08317 
-2.73565 -0.0380371 -3.94563 
-0.0380371 -6.52501 -0.85462 
-3.94563 -0.85462 -2.39448 
-9.92367 -0.0521445 0.035609 
-0.0521445 -9.8977 -0.00944936 
0.035609 -0.00944936 -9.99638 
-9.93758 -0.0335348 0.056048 
-0.0335348 -9.88264 -0.0633796 
0.056048 -0.0633796 -9.99754 
-9.9314 -0.0379903 -0.01968 
-0.0379903 -9.92651 0.00578553 
-0.01968 0.00578553 -9.95984 
-9.9104 -0.0524117 0.0142947 
-0.0524117 -9.87751 0.0221551 
0.0142947 0.0221551 -10.0298 
-9.90367 0.00166632 -0.028833 
0.00166632 -9.75888 -0.908639 
-0.028833 -0.908639 -9.93873 
-9.89869 0.0237075 -0.0709917 
0.0237075 -9.75096 -0.92882 
-0.0709917 -0.92882 -9.95163 
-9.90567 0.077169 -0.093342 
0.077169 -9.72082 -0.9213 
-0.093342 -0.9213 -9.97479 
-9.88723 -0.0723419 -0.0784835 
-0.0723419 -9.79093 -0.96621 
-0.0784835 -0.96621 -9.92313 
-9.50745 0.188857 -0.538863 
0.188857 -9.41685 -0.684385 
-0.538863 -0.684385 -9.78849 
-9.52139 0.147067 -0.531678 
0.147067 -9.42845 -0.696716 
-0.531678 -0.696716 -9.76295 
-9.53306 0.20543 -0.502188 
0.20543 -9.41078 -0.654923 
-0.502188 -0.654923 -9.76896 
-9.35792 0.214689 -0.570095 
0.214689 -9.40568 -0.743544 
-0.570095 -0.743544 -9.9492 
-9.59103 0.0961969 -0.808776 
0.0961969 -9.6157 -0.0569881 
-0.808776 -0.0569881 -4.81853 
-9.21944 -0.105775 -0.86617 
-0.105775 -9.65591 0.0040064 
-0.86617 0.0040064 -5.14992 
-9.29617 0.0690705 -1.08877 
0.0690705 -9.28597 -0.150785 
-1.08877 -0.150785 -5.44312 
-9.33508 -0.192646 -0.743418 
-0.192646 -9.61958 -0.140447 
-0.743418 -0.140447 -5.07059 
-9.95765 -0.00268604 0.598745 
-0.00268604 -9.95158 -0.617447 
0.598745 -0.617447 -9.94083 
-9.94413 -0.0087838 0.585298 
-0.0087838 -9.9665 -0.623308 
0.585298 -0.623308 -9.93943 
-9.95152 -0.0104888 0.596005 
-0.0104888 -9.93569 -0.632948 
0.596005 -0.632948 -9.96284 
-9.94001 0.0261125 0.608323 
0.0261125 -9.86863 -0.67765 
0.608323 -0.67765 -10.0414 
-3.91558 -0.174053 0.0724816 
-0.174053 -3.67768 0.507147 
0.0724816 0.507147 -0.429598 
-3.41176 0.202508 0.456331 
0.202508 -3.47661 0.710845 
0.456331 0.710845 -1.13449 
-3.98761 0.085953 0.101253 
0.085953 -3.76755 0.117949 
0.101253 0.117949 -0.267701 
-3.87539 -0.499313 0.262063 
-0.499313 -3.56947 0.364585 
0.262063 0.364585 -0.578003 
-9.94841 -0.198678 0.285243 
-0.198678 -12.603 -0.280403 
0.285243 -0.280403 -14.6137 
-9.75483 3.73237 0.4594 
3.73237 -10.3574 -0.402714 
0.4594 -0.402714 -17.0528 
-10.3534 0.180824 -1.5643 
0.180824 -11.4341 -1.43896 
-1.5643 -1.43896 -15.3776 
-10.1624 1.37196 -1.37363 
1.37196 -12.4117 -0.894083 
-1.37363 -0.894083 -14.591 
-9.79842 -0.0403785 -0.772951 
-0.0403785 -9.77546 -0.016032 
-0.772951 -0.016032 -9.89197 
-9.72235 0.00839735 -0.895332 
0.00839735 -9.83028 -0.00709848 
-0.895332 -0.00709848 -9.91322 
-9.74086 -0.0201558 -0.873145 
-0.0201558 -9.77111 -0.0149449 
-0.873145 -0.0149449 -9.95388 
-9.65206 -0.00618436 -0.859156 
-0.00618436 -9.87186 0.00494391 
-0.859156 0.00494391 -9.94192 
-9.2911 0.0838227 -0.587857 
0.0838227 -9.34843 -0.491581 
-0.587857 -0.491581 -10.1422 
-9.25527 0.647328 -0.856867 
0.647328 -9.40057 -0.810772 
-0.856867 -0.810772 -10.1259 
-9.31838 0.484248 -0.795689 
0.484248 -9.39592 -0.85759 
-0.795689 -0.85759 -10.0674 
-9.38292 0.432983 -1.00557 
0.432983 -9.57767 -0.89344 
-1.00557 -0.89344 -9.82113 
-10.7241 0.0203377 -0.0123204 
0.0203377 -11.4302 -0.371294 
-0.0123204 -0.371294 -9.25926 
-9.78382 -0.235878 0.142362 
-0.235878 -10.0684 0.508593 
0.142362 0.508593 -11.5613 
-10.5237 0.153794 0.0272835 
0.153794 -10.5062 -0.139081 
0.0272835 -0.139081 -10.3837 
-10.7537 -0.0982784 0.208799 
-0.0982784 -9.6255 -0.497127 
0.208799 -0.497127 -11.0343 
-9.46262 -0.152346 -0.779848 
-0.152346 -9.60081 0.324228 
-0.779848 0.324228 -9.86988 
-9.61156 -0.0133849 -0.722746 
-0.0133849 -9.67966 0.376403 
-0.722746 0.376403 -9.64209 
-9.68658 0.0565387 -0.749299 
0.0565387 -9.60662 0.315406 
-0.749299 0.315406 -9.64012 
-9.51628 0.0269933 -0.692792 
0.0269933 -9.72367 0.221928 
-0.692792 0.221928 -9.69337 
-3.8657 -0.540332 -0.164906 
-0.540332 -2.84042 1.19371 
-0.164906 1.19371 -0.284488 
-3.0632 -0.243325 -0.589323 
-0.243325 -3.62854 -0.0784302 
-0.589323 -0.0784302 -0.298862 
-3.29955 0.396573 -0.783201 
0.396573 -3.62016 0.380133 
-0.783201 0.380133 -0.0709073 
-3.09213 -0.034147 -0.677431 
-0.034147 -3.02429 0.773299 
-0.677431 0.773299 -0.874195 
-9.861 0.118487 0.621658 
0.118487 -9.49439 0.859266 
0.621658 0.859266 -9.0124 
-9.76093 0.0260617 0.797942 
0.0260617 -9.52532 0.845335 
0.797942 0.845335 -9.08154 
-9.61062 0.297584 0.713156 
0.297584 -9.70759 0.997416 
0.713156 0.997416 -9.04959 
-9.44464 0.221201 0.673607 
0.221201 -9.67258 0.857325 
0.673607 0.857325 -9.25057 
-9.32991 -0.208373 0.358628 
-0.208373 -11.5442 -0.021169 
0.358628 -0.021169 -11.0187 
-10.0098 0.251625 0.160091 
0.251625 -10.2233 -0.17337 
0.160091 -0.17337 -11.6597 
-10.3247 0.0810543 -0.115574 
0.0810543 -10.3096 0.337162 
-0.115574 0.337162 -11.2585 
-9.70327 0.0502142 -0.0134867 
0.0502142 -10.6698 0.300224 
-0.0134867 0.300224 -11.5197 
-9.54283 -0.0592077 -0.823073 
-0.0592077 -9.61762 0.123093 
-0.823073 0.123093 -9.76467 
-9.54755 -0.0554413 -0.843365 
-0.0554413 -9.61808 0.164523 
-0.843365 0.164523 -9.75951 
-9.51148 -0.0464398 -0.816495 
-0.0464398 -9.62526 0.221279 
-0.816495 0.221279 -9.78839 
-9.53938 -0.0674375 -0.817582 
-0.0674375 -9.61486 0.142943 
-0.817582 0.142943 -9.77089 
-9.51927 0.248522 -0.344891 
0.248522 -9.13858 -0.45974 
-0.344891 -0.45974 -9.5446 
-9.34461 0.0538229 -0.288553 
0.0538229 -9.16398 -0.601447 
-0.288553 -0.601447 -9.69386 
-9.13383 0.139197 -0.411136 
0.139197 -9.15885 -0.705356 
-0.411136 -0.705356 -9.90977 
-9.35635 0.18589 -0.480647 
0.18589 -9.44116 -0.807994 
-0.480647 -0.807994 -9.40494 
-10.0131 -0.0450552 0.013219 
-0.0450552 -10.1105 -0.00673266 
0.013219 -0.00673266 -10.1331 
-9.98757 0.0301551 -0.0802451 
0.0301551 -10.1274 0.0424068 
-0.0802451 0.0424068 -10.1415 
-10.0791 -0.0325191 0.0666846 
-0.0325191 -10.071 -0.00801498 
0.0666846 -0.00801498 -10.1065 
-10.0248 -0.0635132 0.0308299 
-0.0635132 -10.1421 0.0107311 
0.0308299 0.0107311 -10.0896 
-4.06737 0.0169742 -0.328502 
0.0169742 -2.88287 0.647802 
-0.328502 0.647802 -0.268108 
-3.25262 -0.244632 -0.193662 
-0.244632 -3.1883 0.974825 
-0.193662 0.974825 -0.77743 
-2.55779 0.510814 -0.823381 
0.510814 -4.6863 -0.263381 
-0.823381 -0.263381 0.0257408 
-2.65278 0.223136 -1.01023 
0.223136 -3.61684 0.151387 
-1.01023 0.151387 -0.948723 
-9.32071 0.478014 0.477441 
0.478014 -9.25026 -0.25544 
0.477441 -0.25544 -9.66778 
-9.20953 0.470187 0.189507 
0.470187 -9.07753 0.721474 
0.189507 0.721474 -9.95169 
-9.23238 -0.034484 -0.0476518 
-0.034484 -9.31423 0.463854 
-0.0476518 0.463854 -9.69213 
-9.17898 0.0997531 0.791898 
0.0997531 -9.21398 0.381773 
0.791898 0.381773 -9.84579 
-9.94065 0.0619934 -0.221565 
0.0619934 -10.335 0.0239881 
-0.221565 0.0239881 -10.6613 
-10.0402 0.0144895 -0.122912 
0.0144895 -10.1534 -0.0174009 
-0.122912 -0.0174009 -10.7434 
-9.39003 0.210007 -0.355503 
0.210007 -10.5935 0.0250055 
-0.355503 0.0250055 -10.9534 
-10.0121 0.131156 -0.0774621 
0.131156 -10.2789 -0.0367952 
-0.0774621 -0.0367952 -10.6459 
-4.36619 0.46826 -0.140249 
0.46826 -2.57067 -0.565581 
-0.140249 -0.565581 -0.0388146 
-3.03372 -0.151217 -0.700124 
-0.151217 -3.18272 -0.265848 
-0.700124 -0.265848 -0.759236 
-3.01076 -0.415951 -0.804944 
-0.415951 -3.54179 -0.17669 
-0.804944 -0.17669 -0.423131 
-3.1275 0.474337 -0.716363 
0.474337 -3.33669 1.11231 
-0.716363 1.11231 -0.511492 
-9.33158 -0.307165 0.336884 
-0.307165 -9.58421 0.334323 
0.336884 0.334323 -9.38792 
-9.26923 0.304683 0.317956 
0.304683 -9.23232 0.240235 
0.317956 0.240235 -9.80216 
-9.27394 0.0435331 0.419077 
0.0435331 -9.34571 0.375394 
0.419077 0.375394 -9.68406 
-9.25203 0.0584948 0.507063 
0.0584948 -9.3218 0.450278 
0.507063 0.450278 -9.72988 
-9.59326 0.197385 -0.0211559 
0.197385 -10.0033 -0.0302416 
-0.0211559 -0.0302416 -10.1746 
-10.0457 -0.16398 0.0277334 
-0.16398 -9.83048 0.0777126 
0.0277334 0.0777126 -9.89502 
-9.93455 0.0561081 0.02238 
0.0561081 -9.88488 0.0448672 
0.02238 0.0448672 -9.95173 
-9.95652 0.189842 0.215319 
0.189842 -9.76697 -0.0320332 
0.215319 -0.0320332 -10.0477 
-9.18526 0.496713 0.749026 
0.496713 -8.97888 0.780491 
0.749026 0.780491 -10.0531 
-9.17329 0.614541 0.506909 
0.614541 -9.10013 0.591791 
0.506909 0.591791 -9.94385 
-9.15709 0.488699 0.694396 
0.488699 -9.1816 0.603591 
0.694396 0.603591 -9.87857 
-9.21218 0.0277963 0.68015 
0.0277963 -9.24789 0.682742 
0.68015 0.682742 -9.75719 
-3.49201 0.139659 -0.522975 
0.139659 -2.94453 -0.396524 
-0.522975 -0.396524 -0.168449 
-3.09308 0.146463 -0.801405 
0.146463 -2.60539 -0.0851718 
-0.801405 -0.0851718 -0.906521 
-2.62843 -0.238224 -0.831633 
-0.238224 -3.70415 0.503751 
-0.831633 0.503751 -0.272405 
-2.96551 0.62357 0.413495 
0.62357 -3.38879 -0.675528 
0.413495 -0.675528 -0.250684 
-8.84699 -0.187407 -0.458591 
-0.187407 -9.42785 -0.148319 
-0.458591 -0.148319 -9.97943 
-9.09081 -0.131936 -0.69904 
-0.131936 -9.3474 0.171768 
-0.69904 0.171768 -9.81606 
-9.1702 0.00831214 -0.375657 
0.00831214 -9.46574 0.434969 
-0.375657 0.434969 -9.61834 
-9.02941 -0.117813 -0.595458 
-0.117813 -9.44643 0.155009 
-0.595458 0.155009 -9.77844 
-9.62831 0.121431 0.187629 
0.121431 -9.97909 0.0458705 
0.187629 0.0458705 -10.0627 
-9.79302 0.00802251 0.0912287 
0.00802251 -9.83911 0.160128 
0.0912287 0.160128 -10.038 
-9.82116 0.0109532 0.10846 
0.0109532 -9.81199 0.00289598 
0.10846 0.00289598 -10.037 
-9.74215 -0.00199105 0.0379546 
-0.00199105 -9.86007 -0.0147623 
0.0379546 -0.0147623 -10.0679 
-10.0297 -0.293649 -0.334612 
-0.293649 -10.4102 0.0730469 
-0.334612 0.0730469 -11.0845 
-10.1787 -0.378041 -0.157224 
-0.378041 -10.0445 -0.0352867 
-0.157224 -0.0352867 -11.3012 
-9.77169 -0.325035 -0.0835518 
-0.325035 -10.4566 0.181797 
-0.0835518 0.181797 -11.2962 
-10.2553 -0.38212 -0.0441014 
-0.38212 -10.258 0.0620162 
-0.0441014 0.0620162 -11.0112 
-10.2665 0.00262803 0.082156 
0.00262803 -10.2394 0.410368 
0.082156 0.410368 -9.73986 
-10.2349 0.0755513 0.0326615 
0.0755513 -10.1381 0.31691 
0.0326615 0.31691 -9.87272 
-9.98635 0.00873742 -0.0476695 
0.00873742 -9.87673 0.319562 
-0.0476695 0.319562 -10.3827 
-10.1639 -0.0314189 0.145902 
-0.0314189 -10.2449 0.198309 
0.145902 0.198309 -9.83694 
-10.7182 -0.197731 -0.0468172 
-0.197731 -9.90594 0.123482 
-0.0468172 0.123482 -10.9532 
-10.5779 -0.303896 -0.220403 
-0.303896 -9.86264 -0.124437 
-0.220403 -0.124437 -11.1368 
-9.95533 -0.211505 -0.0533415 
-0.211505 -10.2692 0.265221 
-0.0533415 0.265221 -11.3528 
-10.2077 -0.1615 -0.0908025 
-0.1615 -10.5372 -0.148366 
-0.0908025 -0.148366 -10.8324 
-9.97605 -0.736494 -0.304724 
-0.736494 -10.6873 0.0524209 
-0.304724 0.0524209 -11.2333 
-10.2075 0.086502 -0.351432 
0.086502 -9.69907 0.294224 
-0.351432 0.294224 -11.9901 
-10.3851 -0.743243 0.427915 
-0.743243 -10.2165 0.0084724 
0.427915 0.0084724 -11.295 
-10.893 0.320399 0.338476 
0.320399 -10.2607 -0.0325333 
0.338476 -0.0325333 -10.7429 
-9.72156 0.0179859 -0.201923 
0.0179859 -10.1478 -0.0530615 
-0.201923 -0.0530615 -9.97825 
-9.82488 0.0319138 0.172991 
0.0319138 -9.87447 0.0138011 
0.172991 0.0138011 -10.1482 
-9.6341 0.0750649 0.035484 
0.0750649 -9.88091 0.0210337 
0.035484 0.0210337 -10.3326 
-9.46017 0.257479 0.0635956 
0.257479 -10.0205 -0.010517 
0.0635956 -0.010517 -10.367 
-14.9728 -1.05184 -1.66282 
-1.05184 -16.392 1.71934 
-1.66282 1.71934 -11.382 
-13.307 -0.520565 -0.635857 
-0.520565 -13.5865 -0.117092 
-0.635857 -0.117092 -15.8532 
-11.6034 -1.49255 -2.00425 
-1.49255 -10.9961 -1.43358 
-2.00425 -1.43358 -20.1472 
-13.7136 -0.847653 0.910896 
-0.847653 -13.8148 1.03903 
0.910896 1.03903 -15.2183 
-9.73775 0.0266849 -0.374316 
0.0266849 -9.68144 -0.773317 
-0.374316 -0.773317 -9.82879 
-9.75304 0.0165536 -0.38511 
0.0165536 -9.6737 -0.803395 
-0.38511 -0.803395 -9.82125 
-9.72825 0.0168135 -0.324682 
0.0168135 -9.72681 -0.697779 
-0.324682 -0.697779 -9.79293 
-9.73986 0.084936 -0.378094 
0.084936 -9.69127 -0.783193 
-0.378094 -0.783193 -9.81686 
-9.40252 0.00480568 -0.648568 
0.00480568 -9.50484 0.114686 
-0.648568 0.114686 -9.79796 
-9.15769 -0.0851155 -0.557091 
-0.0851155 -9.60372 0.174144 
-0.557091 0.174144 -9.94391 
-9.53562 0.0397185 -0.563047 
0.0397185 -9.50074 0.166546 
-0.563047 0.166546 -9.66896 
-9.43849 0.0121456 -0.728105 
0.0121456 -9.48874 0.170309 
-0.728105 0.170309 -9.7781 
-11.0853 -0.0654346 0.061463 
-0.0654346 -10.9472 0.0496461 
0.061463 0.0496461 -10.3338 
-10.833 -0.0582207 0.198279 
-0.0582207 -10.9662 -0.0145645 
0.198279 -0.0145645 -10.567 
-10.095 0.140588 -0.284996 
0.140588 -10.101 -0.0446298 
-0.284996 -0.0446298 -12.1702 
-11.0166 -0.155393 0.180164 
-0.155393 -10.957 -0.531837 
0.180164 -0.531837 -10.3926 
-9.49177 -0.0420795 -0.45329 
-0.0420795 -9.50717 -0.713177 
-0.45329 -0.713177 -9.55627 
-9.52565 -0.00403233 -0.440721 
-0.00403233 -9.46253 -0.682033 
-0.440721 -0.682033 -9.56702 
-9.45847 0.121164 -0.42566 
0.121164 -9.4709 -0.622145 
-0.42566 -0.622145 -9.62584 
-9.50134 0.053654 -0.493664 
0.053654 -9.4146 -0.665838 
-0.493664 -0.665838 -9.63927 
-9.91688 -0.279323 -0.973396 
-0.279323 -8.4304 3.47084 
-0.973396 3.47084 -5.66084 
-9.1161 -0.27854 -0.907546 
-0.27854 -8.90898 2.432 
-0.907546 2.432 -5.98303 
-9.21682 -0.308957 -1.21886 
-0.308957 -8.7402 2.55766 
-1.21886 2.55766 -6.0511 
-8.29945 0.235604 0.529034 
0.235604 -8.38444 1.85009 
0.529034 1.85009 -7.32423 
-9.65043 -0.116065 -0.670486 
-0.116065 -9.69957 0.241633 
-0.670486 0.241633 -9.51144 
-9.47083 -0.0612528 -0.677631 
-0.0612528 -9.52695 -0.0830482 
-0.677631 -0.0830482 -9.86366 
-9.44115 0.074614 -0.953638 
0.074614 -9.52794 0.127485 
-0.953638 0.127485 -9.89236 
-9.39318 -0.125034 -0.881409 
-0.125034 -9.8028 0.265315 
-0.881409 0.265315 -9.66547 
-5.12682 -0.0517908 0.251194 
-0.0517908 -4.86127 0.478945 
0.251194 0.478945 -0.434643 
-4.8363 -0.199187 0.0567855 
-0.199187 -4.73877 0.215064 
0.0567855 0.215064 -0.847657 
-4.75924 0.135653 0.359487 
0.135653 -4.76289 0.445916 
0.359487 0.445916 -0.9006 
-4.68949 0.0112818 0.540445 
0.0112818 -4.54316 -0.230485 
0.540445 -0.230485 -1.19008 
-9.96954 -0.0977035 0.0305775 
-0.0977035 -9.76582 0.463995 
0.0305775 0.463995 -9.64157 
-9.95668 0.00315495 0.246585 
0.00315495 -9.92365 0.491427 
0.246585 0.491427 -9.49661 
-10.0447 -0.20237 0.385238 
-0.20237 -9.97891 0.407959 
0.385238 0.407959 -9.35329 
-9.8764 0.0990282 0.27288 
0.0990282 -9.95622 0.571133 
0.27288 0.571133 -9.54432 
-9.47061 0.227581 0.561002 
0.227581 -9.24684 0.733638 
0.561002 0.733638 -9.94217 
-9.52122 0.240385 0.469479 
0.240385 -9.0801 0.791643 
0.469479 0.791643 -10.0583 
-9.46642 0.400079 0.424242 
0.400079 -9.26376 0.888517 
0.424242 0.888517 -9.92944 
-9.44303 0.21794 0.47183 
0.21794 -9.27209 0.779388 
0.47183 0.779388 -9.9445 
-9.62811 -0.0890292 -0.0459144 
-0.0890292 -8.99598 0.773579 
-0.0459144 0.773579 -9.79709 
-9.41313 0.0072389 -0.0826589 
0.0072389 -9.47028 0.491196 
-0.0826589 0.491196 -9.53777 
-9.50132 0.0532554 -0.0804289 
0.0532554 -9.5606 0.494181 
-0.0804289 0.494181 -9.35927 
-9.45035 0.0720716 0.101235 
0.0720716 -9.1798 0.420324 
0.101235 0.420324 -9.79104 
-9.78594 -0.0240579 -0.899453 
-0.0240579 -9.71419 0.0889809 
-0.899453 0.0889809 -10.1741 
-9.90787 0.0256761 -0.973345 
0.0256761 -10.0364 -0.0132349 
-0.973345 -0.0132349 -9.72998 
-9.81042 0.00717595 -1.01434 
0.00717595 -9.86574 0.105767 
-1.01434 0.105767 -9.9981 
-9.83317 -0.0582236 -0.981868 
-0.0582236 -10.0586 0.160214 
-0.981868 0.160214 -9.78247 
-3.56133 -0.15569 -0.0397788 
-0.15569 -3.68717 0.433297 
-0.0397788 0.433297 -0.333618 
-3.58815 0.00205242 0.0345353 
0.00205242 -3.65656 0.0929394 
0.0345353 0.0929394 -0.337414 
-3.88322 0.25116 0.126706 
0.25116 -3.29281 0.0948189 
0.126706 0.0948189 -0.406095 
-3.18911 0.030819 0.271491 
0.030819 -3.69479 -0.149894 
0.271491 -0.149894 -0.698222 
-12.2224 1.0196 -0.517045 
1.0196 -13.3736 -0.291522 
-0.517045 -0.291522 -13.4988 
-12.9421 0.35336 -0.0915565 
0.35336 -13.2164 -0.175935 
-0.0915565 -0.175935 -12.9363 
-12.8854 0.737657 -0.656158 
0.737657 -12.194 -0.325067 
-0.656158 -0.325067 -14.0154 
-13.1905 0.116635 0.0211098 
0.116635 -13.0603 -0.46157 
0.0211098 -0.46157 -12.8439 
-8.77898 -0.601959 -0.863509 
-0.601959 -9.28642 0.600611 
-0.863509 0.600611 -10.0848 
-8.73563 -0.496016 -0.854518 
-0.496016 -9.45623 0.606122 
-0.854518 0.606122 -9.95838 
-8.8236 -0.465104 -1.02861 
-0.465104 -9.25138 0.733078 
-1.02861 0.733078 -10.0753 
-8.80715 -0.525825 -0.856501 
-0.525825 -9.25839 0.648299 
-0.856501 0.648299 -10.0847 
-9.84406 -0.0706069 -0.00275825 
-0.0706069 -9.68106 -0.784312 
-0.00275825 -0.784312 -9.73155 
-9.77068 0.00431898 0.0808424 
0.00431898 -9.65651 -0.880974 
0.0808424 -0.880974 -9.82947 
-9.64569 -0.010776 0.0683809 
-0.010776 -9.75478 -0.789454 
0.0683809 -0.789454 -9.8562 
-9.74766 -0.00946907 0.0703157 
-0.00946907 -9.67517 -0.8496 
0.0703157 -0.8496 -9.83384 
-9.78779 -0.0444576 -0.073212 
-0.0444576 -9.8093 -0.796807 
-0.073212 -0.796807 -10.0717 
-9.8609 -0.00016723 -0.10684 
-0.00016723 -9.8493 -0.843797 
-0.10684 -0.843797 -9.9586 
-9.91058 0.00874722 -0.115053 
0.00874722 -9.88119 -0.832426 
-0.115053 -0.832426 -9.87703 
-9.94669 0.0221511 -0.0984342 
0.0221511 -9.84945 -0.89685 
-0.0984342 -0.89685 -9.87266 
-8.50616 -0.663995 1.43145 
-0.663995 -10.6645 -0.516364 
1.43145 -0.516364 -11.5549 
-7.293 0.202509 1.11709 
0.202509 -11.5983 -0.217795 
1.11709 -0.217795 -11.8342 
-9.23818 -0.629219 0.371081 
-0.629219 -10.6583 -0.0636641 
0.371081 -0.0636641 -10.8291 
-9.32091 -1.04441 1.92126 
-1.04441 -9.70789 0.0501099 
1.92126 0.0501099 -11.6967 
-9.37012 0.0325013 0.577827 
0.0325013 -9.4343 0.136279 
0.577827 0.136279 -9.56853 
-9.04923 0.113325 0.754733 
0.113325 -9.55963 0.203071 
0.754733 0.203071 -9.76409 
-9.57624 -0.0272673 0.582083 
-0.0272673 -9.39299 0.131912 
0.582083 0.131912 -9.40372 
-9.29133 0.0929349 0.401816 
0.0929349 -9.41302 0.192772 
0.401816 0.192772 -9.6686 
-9.47551 0.333179 0.759419 
0.333179 -9.28291 0.643381 
0.759419 0.643381 -9.96679 
-9.29788 0.319245 0.679578 
0.319245 -9.43482 0.654878 
0.679578 0.654878 -9.9925 
-9.3738 0.246395 0.61919 
0.246395 -9.39787 0.680368 
0.61919 0.680368 -9.95354 
-9.35186 0.22078 0.647256 
0.22078 -9.37899 0.682482 
0.647256 0.682482 -9.99437 
-9.61095 -0.0300711 0.00979206 
-0.0300711 -9.82884 -0.090827 
0.00979206 -0.090827 -9.77876 
-9.68722 -0.046118 0.042834 
-0.046118 -9.6459 -0.106033 
0.042834 -0.106033 -9.88543 
-9.74123 -0.0241934 0.0748634 
-0.0241934 -9.60633 -0.10467 
0.0748634 -0.10467 -9.871 
-9.75445 -0.0623841 0.0123637 
-0.0623841 -9.55614 -0.0124302 
0.0123637 -0.0124302 -9.90796 
-9.94617 -0.0708141 -0.10387 
-0.0708141 -9.97957 -0.0369183 
-0.10387 -0.0369183 -10.0797 
-9.89105 -0.0378347 -0.0636731 
-0.0378347 -10.0425 -0.048735 
-0.0636731 -0.048735 -10.0719 
-9.98425 -0.106765 0.123491 
-0.106765 -9.91532 -0.0184516 
0.123491 -0.0184516 -10.1059 
-9.80236 -0.0360926 -0.0436864 
-0.0360926 -10.0393 -0.0533018 
-0.0436864 -0.0533018 -10.1638 
-9.71729 -0.00994949 -0.647625 
-0.00994949 -9.7931 0.560033 
-0.647625 0.560033 -9.81947 
-9.69186 -0.10832 -0.680405 
-0.10832 -9.75251 0.580053 
-0.680405 0.580053 -9.88548 
-9.71011 -0.0501695 -0.660605 
-0.0501695 -9.75971 0.510958 
-0.660605 0.510958 -9.86004 
-9.72884 -0.0964474 -0.645993 
-0.0964474 -9.77617 0.548663 
-0.645993 0.548663 -9.82484 
-9.21034 -0.184591 -0.317417 
-0.184591 -9.01143 1.33326 
-0.317417 1.33326 -5.5834 
-9.29772 0.069568 0.209987 
0.069568 -8.78889 1.3888 
0.209987 1.3888 -5.71856 
-9.0772 -0.104056 -0.209963 
-0.104056 -9.30623 1.2997 
-0.209963 1.2997 -5.42173 
-9.26239 0.157969 0.144079 
0.157969 -9.14489 1.51919 
0.144079 1.51919 -5.39788 
-9.48751 0.0844129 -0.00320743 
0.0844129 -9.15155 -0.694871 
-0.00320743 -0.694871 -9.68238 
-9.37564 -0.062502 -0.142692 
-0.062502 -9.06484 -0.771642 
-0.142692 -0.771642 -9.88096 
-9.30361 0.0675605 -0.149423 
0.0675605 -9.29129 -0.633012 
-0.149423 -0.633012 -9.72654 
-9.5285 -0.0422831 -0.0270358 
-0.0422831 -9.25315 -0.832303 
-0.0270358 -0.832303 -9.53979 
-9.3723 0.191935 -0.447268 
0.191935 -9.22909 -0.793972 
-0.447268 -0.793972 -9.65696 
-9.40966 0.168329 -0.432959 
0.168329 -9.17576 -0.767241 
-0.432959 -0.767241 -9.67293 
-9.41152 0.179703 -0.444631 
0.179703 -9.19437 -0.728219 
-0.444631 -0.728219 -9.65247 
-9.36727 0.167285 -0.474615 
0.167285 -9.16113 -0.808787 
-0.474615 -0.808787 -9.72996 
-9.25938 0.145482 0.550126 
0.145482 -9.39295 0.369484 
0.550126 0.369484 -9.6126 
-9.33421 0.123749 0.610187 
0.123749 -9.3536 0.450266 
0.610187 0.450266 -9.57712 
-9.24699 0.125718 0.557217 
0.125718 -9.37065 0.399549 
0.557217 0.399549 -9.64729 
-9.24792 0.156418 0.745507 
0.156418 -9.26435 0.361092 
0.745507 0.361092 -9.75267 
-9.12283 0.00896154 -0.381532 
0.00896154 -9.3399 -0.277903 
-0.381532 -0.277903 -7.02574 
-9.73427 0.144338 -0.781991 
0.144338 -9.75645 0.0398301 
-0.781991 0.0398301 -5.99775 
-9.72273 0.0680282 -1.02359 
0.0680282 -9.75307 -0.34691 
-1.02359 -0.34691 -6.01269 
-10.3225 -0.283686 0.106158 
-0.283686 -9.9754 -0.650511 
0.106158 -0.650511 -5.19062 
-9.46363 -0.288758 -0.721156 
-0.288758 -9.47508 0.948039 
-0.721156 0.948039 -9.68722 
-9.59815 -0.253811 -0.700153 
-0.253811 -9.38295 0.780555 
-0.700153 0.780555 -9.64483 
-9.49551 -0.220871 -0.615509 
-0.220871 -9.37099 0.844962 
-0.615509 0.844962 -9.75943 
-9.71487 -0.143148 -0.671838 
-0.143148 -9.18753 0.859585 
-0.671838 0.859585 -9.72353 
-9.5363 -0.532556 -1.28394 
-0.532556 -7.70629 3.32307 
-1.28394 3.32307 -6.17335 
-9.12309 -0.959914 -1.53288 
-0.959914 -7.69684 2.79379 
-1.53288 2.79379 -6.596 
-9.16178 -0.527962 -1.19794 
-0.527962 -7.68172 2.8137 
-1.19794 2.8137 -6.57243 
-8.14308 0.928614 -0.459638 
0.928614 -8.31088 2.05109 
-0.459638 2.05109 -6.96197 
-8.50497 0.0162815 -0.17272 
0.0162815 -8.71773 1.02035 
-0.17272 1.02035 -3.92668 
-8.44752 0.155021 -0.505942 
0.155021 -8.66288 0.954403 
-0.505942 0.954403 -4.03898 
-8.50611 -0.116017 -0.214946 
-0.116017 -8.19976 0.622468 
-0.214946 0.622468 -4.44351 
-8.16531 0.046917 -0.360304 
0.046917 -8.3408 1.1903 
-0.360304 1.1903 -4.64327 
-9.55404 -0.0248754 -0.777135 
-0.0248754 -9.66431 0.181007 
-0.777135 0.181007 -9.74045 
-9.55745 -0.0119227 -0.789998 
-0.0119227 -9.67326 0.145938 
-0.789998 0.145938 -9.72809 
-9.61806 0.0571295 -0.784246 
0.0571295 -9.5608 0.152291 
-0.784246 0.152291 -9.77994 
-9.55268 0.00218213 -0.77692 
0.00218213 -9.67538 0.156599 
-0.77692 0.156599 -9.73074 
-9.69201 -0.0257096 0.776496 
-0.0257096 -9.7422 -0.318796 
0.776496 -0.318796 -9.85367 
-9.68841 -0.0508192 0.781228 
-0.0508192 -9.7847 -0.300202 
0.781228 -0.300202 -9.81478 
-9.71551 -0.0162889 0.747062 
-0.0162889 -9.76699 -0.318816 
0.747062 -0.318816 -9.80538 
-9.67036 -0.0162089 0.790658 
-0.0162089 -9.82085 -0.322655 
0.790658 -0.322655 -9.79668 
-9.60645 0.0729434 -0.0905031 
0.0729434 -9.80451 -0.0490719 
-0.0905031 -0.0490719 -9.99562 
-9.66714 0.00798178 -0.0664444 
0.00798178 -9.8065 -0.105417 
-0.0664444 -0.105417 -9.93294 
-9.72183 -0.0502195 -0.119444 
-0.0502195 -9.77798 0.00147179 
-0.119444 0.00147179 -9.90676 
-9.6683 0.0187457 -0.117785 
0.0187457 -9.83198 -0.0435652 
-0.117785 -0.0435652 -9.9063 
-9.54343 -0.149718 0.607551 
-0.149718 -9.44972 -0.620586 
0.607551 -0.620586 -9.94458 
-9.64972 -0.0184482 0.539803 
-0.0184482 -9.69889 -0.640157 
0.539803 -0.640157 -9.58912 
-9.65299 0.077896 0.599466 
0.077896 -9.6566 -0.558357 
0.599466 -0.558357 -9.62814 
-9.50639 -0.0598179 0.563732 
-0.0598179 -9.722 -0.444685 
0.563732 -0.444685 -9.70934 
-9.48506 -0.00250682 0.717494 
-0.00250682 -9.49561 -0.381284 
0.717494 -0.381284 -9.60882 
-9.28556 -0.181306 0.675745 
-0.181306 -9.63776 -0.213545 
0.675745 -0.213545 -9.66616 
-9.65263 0.0973162 0.732722 
0.0973162 -9.43125 -0.312168 
0.732722 -0.312168 -9.5056 
-9.43486 -0.0556874 0.84473 
-0.0556874 -9.43893 -0.318979 
0.84473 -0.318979 -9.71569 
-9.923 -0.0329786 0.0097244 
-0.0329786 -9.79081 0.889434 
0.0097244 0.889434 -9.99654 
-9.93512 -0.0396807 -0.0178199 
-0.0396807 -9.7678 0.885266 
-0.0178199 0.885266 -10.0074 
-9.89708 -0.0250999 -0.00194741 
-0.0250999 -9.80508 0.916985 
-0.00194741 0.916985 -10.0082 
-9.89773 0.00255448 -0.00402436 
0.00255448 -9.84383 0.920575 
-0.00402436 0.920575 -9.96881 
-11.9529 0.0460287 0.900357 
0.0460287 -10.8938 0.664521 
0.900357 0.664521 -10.6044 
-8.80946 -0.4335 -0.903147 
-0.4335 -10.3006 -0.92044 
-0.903147 -0.92044 -14.341 
-11.631 -0.160541 1.13303 
-0.160541 -11.9881 0.431484 
1.13303 0.431484 -9.83203 
-9.54883 1.47005 1.66474 
1.47005 -11.0755 0.510124 
1.66474 0.510124 -12.8267 
-10.011 -0.0403213 -0.016228 
-0.0403213 -10.0975 0.0400673 
-0.016228 0.0400673 -10.0941 
-10.0223 -0.0148782 0.0428752 
-0.0148782 -10.1244 -0.0370385 
0.0428752 -0.0370385 -10.0559 
-10.0272 0.000820426 -0.0175378 
0.000820426 -10.0443 0.0400152 
-0.0175378 0.0400152 -10.1311 
-9.9733 -0.0148682 0.0196872 
-0.0148682 -10.0819 0.0319462 
0.0196872 0.0319462 -10.1474 
-9.80169 0.0140441 -0.333197 
0.0140441 -9.77716 -0.850069 
-0.333197 -0.850069 -9.89415 
-9.79544 0.0127856 -0.323495 
0.0127856 -9.71816 -0.745396 
-0.323495 -0.745396 -9.95939 
-9.82066 0.0770684 -0.281871 
0.0770684 -9.7505 -0.783666 
-0.281871 -0.783666 -9.90184 
-9.83273 0.0356741 -0.351575 
0.0356741 -9.7779 -0.832504 
-0.351575 -0.832504 -9.86236 
-9.6691 0.0170048 -0.842395 
0.0170048 -9.71366 -0.108947 
-0.842395 -0.108947 -9.78676 
-9.6579 0.0302494 -0.782533 
0.0302494 -9.75477 -0.0613624 
-0.782533 -0.0613624 -9.75685 
-9.66059 -0.0176355 -0.859583 
-0.0176355 -9.71496 -0.110925 
-0.859583 -0.110925 -9.79398 
-9.66509 0.022951 -0.854549 
0.022951 -9.75821 -0.0711642 
-0.854549 -0.0711642 -9.74622 
-9.51726 -0.575552 0.649328 
-0.575552 -9.82307 -0.57825 
0.649328 -0.57825 -10.7766 
-9.6905 -0.435514 0.161965 
-0.435514 -9.91664 -0.369874 
0.161965 -0.369874 -10.5098 
-9.39612 -0.473035 0.0567611 
-0.473035 -9.07474 -0.0341584 
0.0567611 -0.0341584 -11.6461 
-9.73191 -0.290879 0.311992 
-0.290879 -9.86692 -0.105605 
0.311992 -0.105605 -10.5182 
-8.57146 -0.0649458 -0.32418 
-0.0649458 -7.91405 1.48298 
-0.32418 1.48298 -3.42441 
-8.56455 -0.0980935 0.269805 
-0.0980935 -8.53181 1.60825 
0.269805 1.60825 -2.81355 
-8.63313 0.147921 -0.151361 
0.147921 -8.21292 1.57144 
-0.151361 1.57144 -3.06386 
-8.47053 -0.0758425 0.157552 
-0.0758425 -8.16794 1.52654 
0.157552 1.52654 -3.27143 
-9.81231 -0.0495084 0.0624603 
-0.0495084 -9.77103 0.0449504 
0.0624603 0.0449504 -9.8901 
-9.68238 0.188082 0.125605 
0.188082 -9.79693 0.089491 
0.125605 0.089491 -9.99413 
-9.69998 0.0676771 0.0359078 
0.0676771 -9.81143 0.102791 
0.0359078 0.102791 -9.96202 
-9.7333 0.0874091 -0.0148113 
0.0874091 -9.76531 -0.0175403 
-0.0148113 -0.0175403 -9.97483 
-9.93647 0.00273999 -0.812123 
0.00273999 -9.93914 -0.316222 
-0.812123 -0.316222 -9.93201 
-9.91745 -0.00254656 -0.831762 
-0.00254656 -9.93121 -0.308614 
-0.831762 -0.308614 -9.95896 
-9.91455 -0.00811182 -0.818139 
-0.00811182 -9.93199 -0.309667 
-0.818139 -0.309667 -9.96108 
-9.89951 -0.0248584 -0.850282 
-0.0248584 -9.90221 -0.314962 
-0.850282 -0.314962 -10.0059 
-5.20106 -0.0941363 0.497744 
-0.0941363 -4.85052 0.499226 
0.497744 0.499226 -0.0985367 
-4.34465 -0.0437597 -0.0468266 
-0.0437597 -4.76159 0.718542 
-0.0468266 0.718542 -1.04388 
-4.7574 0.252319 0.505104 
0.252319 -4.62143 0.557918 
0.505104 0.557918 -0.771292 
-4.78597 -0.0203511 0.15142 
-0.0203511 -4.8247 0.376101 
0.15142 0.376101 -0.539447 
-10.1521 0.062648 -0.297603 
0.062648 -9.96588 0.0818956 
-0.297603 0.0818956 -12.5461 
-11.0437 0.0443614 0.230999 
0.0443614 -10.9786 0.0729197 
0.230999 0.0729197 -10.6418 
-11.1348 0.0269136 0.0721975 
0.0269136 -10.9266 0.134365 
0.0721975 0.134365 -10.6027 
-11.1037 0.25705 0.517429 
0.25705 -10.9433 0.810268 
0.517429 0.810268 -10.6171 
-9.62845 0.0142492 0.742821 
0.0142492 -9.69986 -0.374702 
0.742821 -0.374702 -9.52212 
-9.68976 0.0743836 0.754213 
0.0743836 -9.56669 -0.301705 
0.754213 -0.301705 -9.59398 
-9.36253 -0.178668 0.78184 
-0.178668 -9.51076 -0.386941 
0.78184 -0.386941 -9.97713 
-9.42147 0.0135442 0.663179 
0.0135442 -9.72597 -0.146411 
0.663179 -0.146411 -9.70299 
-8.41125 0.0779666 1.60759 
0.0779666 -8.82228 0.388503 
1.60759 0.388503 -4.31639 
-8.0828 0.310125 1.41107 
0.310125 -8.60671 -0.18838 
1.41107 -0.18838 -4.86041 
-8.40943 -0.0643919 1.68428 
-0.0643919 -8.53747 0.280416 
1.68428 0.280416 -4.60302 
-7.93648 -0.0107123 1.75437 
-0.0107123 -8.64269 0.428583 
1.75437 0.428583 -4.97075 
-7.51203 0.00782069 0.288946 
0.00782069 -7.29702 1.42337 
0.288946 1.42337 -2.6733 
-7.55831 0.324962 0.647002 
0.324962 -7.61532 1.72911 
0.647002 1.72911 -2.30871 
-7.60976 0.21905 0.921636 
0.21905 -8.0571 1.51944 
0.921636 1.51944 -1.81548 
-7.78044 0.277318 0.553725 
0.277318 -7.81586 1.36211 
0.553725 1.36211 -1.88605 
-9.45371 -0.00465108 0.111404 
-0.00465108 -9.43397 0.795665 
0.111404 0.795665 -9.55528 
-9.62581 0.0153748 0.0153965 
0.0153748 -9.23928 0.72094 
0.0153965 0.72094 -9.57787 
-9.37387 -0.0157791 0.0431906 
-0.0157791 -9.55357 0.798843 
0.0431906 0.798843 -9.51551 
-9.45092 0.0222367 0.0359068 
0.0222367 -9.37156 0.852655 
0.0359068 0.852655 -9.62048 
-9.48758 -0.270026 -0.837958 
-0.270026 -9.12134 0.995851 
-0.837958 0.995851 -9.19163 
-9.48789 -0.352538 -1.2223 
-0.352538 -9.44487 1.1452 
-1.2223 1.1452 -8.86779 
-9.26295 -0.3539 -1.03562 
-0.3539 -9.35688 1.2433 
-1.03562 1.2433 -9.18072 
-9.12061 -0.439527 -1.07884 
-0.439527 -9.51223 1.16148 
-1.07884 1.16148 -9.16771 
-9.01798 -0.330137 1.46986 
-0.330137 -9.58558 -0.483372 
1.46986 -0.483372 -10.7752 
-8.32438 -0.0580429 -0.254376 
-0.0580429 -10.488 -0.634035 
-0.254376 -0.634035 -10.5663 
-8.41795 -0.232403 0.641751 
-0.232403 -9.88151 -0.141652 
0.641751 -0.141652 -11.0793 
-7.8127 -0.45052 0.792873 
-0.45052 -9.59115 0.847952 
0.792873 0.847952 -11.9749 
-9.79681 -0.00298007 -0.832173 
-0.00298007 -9.78929 0.321298 
-0.832173 0.321298 -9.95986 
-9.76551 -0.0393007 -0.820494 
-0.0393007 -9.85253 0.312895 
-0.820494 0.312895 -9.92793 
-9.79855 -0.0161889 -0.770045 
-0.0161889 -9.83824 0.301671 
-0.770045 0.301671 -9.90917 
-9.76142 -0.0301579 -0.803205 
-0.0301579 -9.85484 0.31001 
-0.803205 0.31001 -9.92971 
-9.66978 -0.0745419 -0.0296141 
-0.0745419 -8.77284 -0.408894 
-0.0296141 -0.408894 -9.68208 
-9.35457 0.012767 0.122869 
0.012767 -9.23211 -0.570302 
0.122869 -0.570302 -9.53801 
-9.08846 0.132753 0.0325386 
0.132753 -9.71593 -0.514801 
0.0325386 -0.514801 -9.3203 
-9.36463 0.046964 0.048171 
0.046964 -9.15158 -0.789776 
0.048171 -0.789776 -9.60848 
-9.29292 0.0295898 1.50015 
0.0295898 -9.60216 0.901647 
1.50015 0.901647 -7.088 
-9.20921 0.58529 2.05998 
0.58529 -9.82647 1.49612 
2.05998 1.49612 -6.94739 
-9.02851 0.179841 1.40169 
0.179841 -9.42909 0.59513 
1.40169 0.59513 -7.52547 
-9.45624 0.0752053 1.34204 
0.0752053 -9.63558 0.959681 
1.34204 0.959681 -6.89125 
-9.76085 -0.0374287 -0.677162 
-0.0374287 -9.85387 -0.683325 
-0.677162 -0.683325 -10.0603 
-9.91304 0.0320111 -0.69156 
0.0320111 -9.90188 -0.583661 
-0.69156 -0.583661 -9.8601 
-9.86114 -0.0189855 -0.643993 
-0.0189855 -9.81011 -0.628704 
-0.643993 -0.628704 -10.0038 
-9.88849 0.07654 -0.649615 
0.07654 -9.93572 -0.618145 
-0.649615 -0.618145 -9.85081 
-10.7162 -0.0590474 -0.126172 
-0.0590474 -9.79655 0.330217 
-0.126172 0.330217 -11.2689 
-10.876 -0.147848 -0.0464702 
-0.147848 -9.89536 -0.226205 
-0.0464702 -0.226205 -11.0102 
-10.132 -0.349899 -0.192955 
-0.349899 -9.7391 -0.203188 
-0.192955 -0.203188 -11.9105 
-10.5144 -0.172423 0.137544 
-0.172423 -10.0558 -0.203355 
0.137544 -0.203355 -11.2114 
-9.87023 -0.243099 0.565774 
-0.243099 -9.1009 0.0504008 
0.565774 0.0504008 -9.22824 
-9.02552 0.247092 0.382581 
0.247092 -9.51101 0.163165 
0.382581 0.163165 -9.66283 
-9.07294 0.122697 0.573304 
0.122697 -9.40128 0.210925 
0.573304 0.210925 -9.72514 
-8.99348 -0.170546 0.545211 
-0.170546 -9.55414 0.220286 
0.545211 0.220286 -9.65175 
-9.70544 0.0569823 -0.536259 
0.0569823 -9.73281 -0.759267 
-0.536259 -0.759267 -9.79696 
-9.76765 0.0912447 -0.424575 
0.0912447 -9.73628 -0.644277 
-0.424575 -0.644277 -9.73128 
-9.70498 -0.00328821 -0.426876 
-0.00328821 -9.73004 -0.637379 
-0.426876 -0.637379 -9.80019 
-9.71067 0.062872 -0.456293 
0.062872 -9.68163 -0.759819 
-0.456293 -0.759819 -9.84291 
-9.23559 0.0589129 0.603056 
0.0589129 -9.18965 0.511515 
0.603056 0.511515 -9.62379 
-9.0972 0.427528 0.59931 
0.427528 -9.10318 0.591128 
0.59931 0.591128 -9.84865 
-9.06855 0.157554 0.47661 
0.157554 -9.28483 0.403989 
0.47661 0.403989 -9.69565 
-9.18667 0.176101 0.51759 
0.176101 -9.14316 0.536871 
0.51759 0.536871 -9.71919 
-9.87523 0.0311026 0.323188 
0.0311026 -9.76458 0.776943 
0.323188 0.776943 -9.85262 
-9.81235 -9.56233e-05 0.373573 
-9.56233e-05 -9.83939 0.806977 
0.373573 0.806977 -9.84069 
-9.83305 0.0051179 0.324855 
0.0051179 -9.78024 0.793183 
0.324855 0.793183 -9.87914 
-9.82818 -0.0107577 0.377074 
-0.0107577 -9.80357 0.811502 
0.377074 0.811502 -9.86067 
-10.1461 -0.0555142 -0.0382397 
-0.0555142 -10.1122 -0.0160862 
-0.0382397 -0.0160862 -10.1042 
-10.0737 0.000205079 -0.0514171 
0.000205079 -10.117 -0.0110057 
-0.0514171 -0.0110057 -10.1719 
-10.1418 0.038859 0.0380246 
0.038859 -10.0988 0.0485968 
0.0380246 0.0485968 -10.122 
-10.1026 -0.00589609 -0.0374977 
-0.00589609 -10.0923 -0.00596366 
-0.0374977 -0.00596366 -10.1678 
-3.03668 -0.999693 1.45231 
-0.999693 -3.88794 0.731106 
1.45231 0.731106 -0.579011 
-1.84279 -0.59457 1.17559 
-0.59457 -4.2461 0.637388 
1.17559 0.637388 -1.41474 
-3.19675 -0.154213 0.968452 
-0.154213 -2.45704 1.24711 
0.968452 1.24711 -1.84984 
-2.03152 -0.803887 1.19093 
-0.803887 -2.95357 1.21236 
1.19093 1.21236 -2.51854 
-9.6643 0.0328277 -0.808628 
0.0328277 -9.727 -0.368504 
-0.808628 -0.368504 -9.81871 
-9.68722 0.0415736 -0.75446 
0.0415736 -9.71549 -0.334196 
-0.75446 -0.334196 -9.8073 
-9.69537 0.0573482 -0.733696 
0.0573482 -9.76566 -0.306229 
-0.733696 -0.306229 -9.74899 
-9.67807 0.0507287 -0.783545 
0.0507287 -9.71944 -0.329485 
-0.783545 -0.329485 -9.8125 
-9.10648 -0.035592 -0.708239 
-0.035592 -9.63888 0.0996145 
-0.708239 0.0996145 -9.76839 
-9.23444 -0.029351 -0.580463 
-0.029351 -9.60525 0.0964539 
-0.580463 0.0964539 -9.67406 
-9.5071 -0.0234778 -0.601291 
-0.0234778 -9.44048 0.113626 
-0.601291 0.113626 -9.56617 
-9.35955 0.125536 -0.539473 
0.125536 -9.4617 0.0562773 
-0.539473 0.0562773 -9.6925 
-10.0554 0.136614 -0.397549 
0.136614 -8.51984 -1.70165 
-0.397549 -1.70165 -10.6704 
-9.76905 0.495096 -0.331104 
0.495096 -8.86744 -1.31338 
-0.331104 -1.31338 -10.6092 
-10.4508 0.933985 -0.512535 
0.933985 -8.05657 -1.13998 
-0.512535 -1.13998 -10.7384 
-9.9726 0.496411 -0.364394 
0.496411 -8.61821 -1.38748 
-0.364394 -1.38748 -10.6549 
-9.43347 0.050779 -0.381444 
0.050779 -9.28592 -0.525156 
-0.381444 -0.525156 -9.52242 
-9.50531 0.193695 -0.320678 
0.193695 -9.11999 -0.64218 
-0.320678 -0.64218 -9.61651 
-9.25976 -0.0640551 -0.265755 
-0.0640551 -9.5004 -0.571871 
-0.265755 -0.571871 -9.48165 
-9.3785 0.0632689 -0.234046 
0.0632689 -9.33641 -0.427626 
-0.234046 -0.427626 -9.5269 
-9.95303 0.0438224 0.811677 
0.0438224 -10.0176 0.50533 
0.811677 0.50533 -9.85999 
-9.87231 0.0635238 0.73996 
0.0635238 -9.91506 0.533956 
0.73996 0.533956 -10.0433 
-9.92709 0.0445707 0.813351 
0.0445707 -9.89923 0.51497 
0.813351 0.51497 -10.0043 
-9.89065 0.0439183 0.841682 
0.0439183 -10.0369 0.56933 
0.841682 0.56933 -9.90311 
-9.82372 0.137771 0.20372 
0.137771 -9.51189 0.162233 
0.20372 0.162233 -10.2886 
-9.8942 -0.0250272 0.0195855 
-0.0250272 -9.732 -0.110445 
0.0195855 -0.110445 -9.99798 
-10.0542 -0.118427 -0.115203 
-0.118427 -9.69047 -0.145921 
-0.115203 -0.145921 -9.87952 
-9.51909 -0.0681267 0.202818 
-0.0681267 -9.97492 -0.30055 
0.202818 -0.30055 -10.1302 
-9.61592 -0.388614 -0.352038 
-0.388614 -9.35633 -0.195766 
-0.352038 -0.195766 -9.17694 
-9.10034 0.235958 -0.507782 
0.235958 -9.36084 -0.343566 
-0.507782 -0.343566 -9.68802 
-9.10953 0.268205 -0.347291 
0.268205 -9.44596 -0.227399 
-0.347291 -0.227399 -9.59371 
-9.49339 0.205153 -0.358892 
0.205153 -9.07859 -0.321872 
-0.358892 -0.321872 -9.57722 
-6.97681 -0.137532 0.586689 
-0.137532 -7.08095 0.0563347 
0.586689 0.0563347 -1.98089 
-7.17633 -0.345275 0.50447 
-0.345275 -7.40248 0.332681 
0.50447 0.332681 -1.45984 
-7.16018 0.0996749 0.71504 
0.0996749 -6.70806 0.337613 
0.71504 0.337613 -2.17042 
-7.2017 -0.0712296 0.910924 
-0.0712296 -7.51406 0.232575 
0.910924 0.232575 -1.32289 
-8.64501 -0.0937435 1.67342 
-0.0937435 -9.05239 0.205963 
1.67342 0.205963 -4.16473 
-8.92263 -0.150705 1.60241 
-0.150705 -8.94059 0.147591 
1.60241 0.147591 -3.9989 
-8.63505 0.149989 2.0533 
0.149989 -9.21204 0.48547 
2.0533 0.48547 -4.01503 
-8.35229 -0.00664408 1.54751 
-0.00664408 -8.7828 0.101364 
1.54751 0.101364 -4.72704 
-9.82736 -0.0192247 0.0175386 
-0.0192247 -9.79563 0.822355 
0.0175386 0.822355 -9.86273 
-9.81412 -0.006315 0.0167311 
-0.006315 -9.75535 0.843805 
0.0167311 0.843805 -9.91625 
-9.81071 0.00428775 -0.0234484 
0.00428775 -9.77134 0.880941 
-0.0234484 0.880941 -9.90368 
-9.84456 -0.0186074 -0.017903 
-0.0186074 -9.76607 0.859631 
-0.017903 0.859631 -9.87509 
-10.0036 0.0725722 -0.324461 
0.0725722 -9.87495 -0.817054 
-0.324461 -0.817054 -9.86867 
-9.89121 0.0249127 -0.417103 
0.0249127 -9.78698 -0.869369 
-0.417103 -0.869369 -10.069 
-9.92179 -0.0877132 -0.34393 
-0.0877132 -9.87604 -0.794204 
-0.34393 -0.794204 -9.94941 
-9.92392 0.112904 -0.340254 
0.112904 -9.82998 -0.753688 
-0.340254 -0.753688 -9.99334 
-9.79312 0.027962 0.0559702 
0.027962 -9.79211 0.0505659 
0.0559702 0.0505659 -9.9257 
-9.78737 0.0775899 0.0711333 
0.0775899 -9.75505 0.0479286 
0.0711333 0.0479286 -9.96851 
-9.714 0.142793 0.126464 
0.142793 -9.74523 0.102359 
0.126464 0.102359 -10.0517 
-9.74832 0.0829751 -0.0232601 
0.0829751 -9.77364 0.0142246 
-0.0232601 0.0142246 -9.98898 
-9.9372 0.0351414 -0.0198498 
0.0351414 -10.0012 -0.0411821 
-0.0198498 -0.0411821 -9.97661 
-9.85834 -0.0137321 -0.0403062 
-0.0137321 -10.0632 -0.0670195 
-0.0403062 -0.0670195 -9.99352 
-10.142 0.0248917 0.0310916 
0.0248917 -9.54395 0.0637403 
0.0310916 0.0637403 -10.2291 
-9.98262 0.213151 0.127272 
0.213151 -9.8474 -0.251492 
0.127272 -0.251492 -10.085 
-3.391 -0.105298 0.234525 
-0.105298 -2.39751 -0.291819 
0.234525 -0.291819 0.0941585 
-3.22632 -0.0571695 0.0325901 
-0.0571695 -3.28344 -0.293933 
0.0325901 -0.293933 0.8154 
-2.37241 0.063601 0.739296 
0.063601 -2.37753 0.381327 
0.739296 0.381327 -0.944414 
-2.70857 -0.397917 1.10146 
-0.397917 -2.80196 -0.18258 
1.10146 -0.18258 -0.183819 
-9.26117 -0.0230987 0.323798 
-0.0230987 -9.28366 0.693594 
0.323798 0.693594 -9.63778 
-9.33734 0.127643 0.621547 
0.127643 -9.17385 0.554375 
0.621547 0.554375 -9.67142 
-9.25812 0.230093 0.460602 
0.230093 -9.32988 0.368661 
0.460602 0.368661 -9.59462 
-9.26404 0.15308 0.504322 
0.15308 -9.2734 0.602475 
0.504322 0.602475 -9.64516 
-9.94235 0.0686099 -0.466443 
0.0686099 -9.87584 -0.758944 
-0.466443 -0.758944 -10.0831 
-10.0609 0.0145233 -0.46479 
0.0145233 -9.99605 -0.839597 
-0.46479 -0.839597 -9.84436 
-9.96315 0.0441021 -0.466581 
0.0441021 -9.93868 -0.834293 
-0.466581 -0.834293 -9.9995 
-10.0537 0.0602131 -0.546411 
0.0602131 -9.87592 -0.871998 
-0.546411 -0.871998 -9.97169 
-9.60374 -0.0146281 -0.0383624 
-0.0146281 -9.29168 0.719775 
-0.0383624 0.719775 -9.63007 
-9.49523 -0.0216804 -0.0898414 
-0.0216804 -9.4207 0.784914 
-0.0898414 0.784914 -9.60956 
-9.38308 0.000865046 -0.0610213 
0.000865046 -9.62432 0.79235 
-0.0610213 0.79235 -9.51809 
-9.48568 -0.0170665 -0.050379 
-0.0170665 -9.39143 0.843069 
-0.050379 0.843069 -9.64838 
-9.24543 -0.107955 -0.99961 
-0.107955 -9.56328 0.222568 
-0.99961 0.222568 -9.94289 
-9.27679 -0.0801058 -0.88901 
-0.0801058 -9.68504 0.155705 
-0.88901 0.155705 -9.78977 
-9.23628 -0.0924767 -0.851658 
-0.0924767 -9.68388 0.153059 
-0.851658 0.153059 -9.83144 
-9.32605 -0.0385337 -0.877566 
-0.0385337 -9.66284 0.173462 
-0.877566 0.173462 -9.76271 
-9.94381 0.00888908 -0.45733 
0.00888908 -9.91532 0.730264 
-0.45733 0.730264 -9.93578 
-9.88664 0.0330789 -0.459212 
0.0330789 -9.88496 0.774263 
-0.459212 0.774263 -10.0233 
-9.93004 0.00783412 -0.445331 
0.00783412 -9.91585 0.719454 
-0.445331 0.719454 -9.94902 
-9.92032 -0.00214636 -0.443853 
-0.00214636 -9.89846 0.763961 
-0.443853 0.763961 -9.97614 
-10.0977 -0.0354673 -0.804584 
-0.0354673 -10.0832 0.275119 
-0.804584 0.275119 -9.8227 
-10.0054 -0.0437476 -0.814015 
-0.0437476 -10.1252 0.272165 
-0.814015 0.272165 -9.873 
-9.91795 -0.0894714 -0.678488 
-0.0894714 -9.84899 0.218061 
-0.678488 0.218061 -10.2367 
-10.0745 -0.0188821 -0.863301 
-0.0188821 -10.0813 0.175976 
-0.863301 0.175976 -9.84774 
-9.16427 -0.134219 0.458842 
-0.134219 -9.19523 0.175751 
0.458842 0.175751 -9.82795 
-9.12959 0.272857 0.524626 
0.272857 -8.9565 0.277507 
0.524626 0.277507 -10.1014 
-9.49665 0.317815 0.160281 
0.317815 -9.14099 0.339095 
0.160281 0.339095 -9.5498 
-9.4966 0.205531 0.246164 
0.205531 -9.22961 0.859274 
0.246164 0.859274 -9.46123 
-9.65417 -0.0725555 -0.642403 
-0.0725555 -9.50907 -0.544577 
-0.642403 -0.544577 -9.7643 
-9.58094 0.0376049 -0.674791 
0.0376049 -9.64929 -0.469277 
-0.674791 -0.469277 -9.6973 
-9.58372 0.0794708 -0.645089 
0.0794708 -9.66198 -0.507356 
-0.645089 -0.507356 -9.68184 
-9.61244 0.0341218 -0.679964 
0.0341218 -9.6185 -0.508589 
-0.679964 -0.508589 -9.69659 
-9.90695 -0.00315472 0.0331042 
-0.00315472 -9.78533 -0.889639 
0.0331042 -0.889639 -9.99571 
-9.90558 0.0123303 0.063474 
0.0123303 -9.83716 -0.861462 
0.063474 -0.861462 -9.94524 
-9.90213 0.0024558 0.0508067 
0.0024558 -9.83068 -0.848797 
0.0508067 -0.848797 -9.95518 
-9.91438 0.0172161 0.0831944 
0.0172161 -9.84187 -0.852064 
0.0831944 -0.852064 -9.93174 
-9.9477 -0.0986436 -0.241597 
-0.0986436 -9.9921 -0.350818 
-0.241597 -0.350818 -10.1807 
-10.2676 -0.000545528 -0.211835 
-0.000545528 -10.1175 -0.473741 
-0.211835 -0.473741 -9.73542 
-10.0959 -0.0457224 -0.320328 
-0.0457224 -9.97571 -0.437814 
-0.320328 -0.437814 -10.0489 
-10.1733 0.0758707 -0.367639 
0.0758707 -10.116 -0.369645 
-0.367639 -0.369645 -9.83125 
-9.84954 0.0185821 -0.371754 
0.0185821 -9.90877 0.818583 
-0.371754 0.818583 -10.0151 
-9.89312 -0.0111587 -0.351722 
-0.0111587 -9.92811 0.791283 
-0.351722 0.791283 -9.95223 
-9.92275 0.00251339 -0.343917 
0.00251339 -9.91812 0.782302 
-0.343917 0.782302 -9.93259 
-9.90514 0.00104406 -0.36733 
0.00104406 -9.90635 0.794997 
-0.36733 0.794997 -9.96197 
-8.86715 -0.282274 -0.0774585 
-0.282274 -8.40265 0.535506 
-0.0774585 0.535506 -3.65021 
-8.68268 -0.188856 -0.418463 
-0.188856 -8.00269 0.361544 
-0.418463 0.361544 -4.23463 
-9.05055 0.0567182 0.0781849 
0.0567182 -8.76715 0.811182 
0.0781849 0.811182 -3.1023 
-8.8948 -0.139412 -0.262181 
-0.139412 -8.71885 0.598058 
-0.262181 0.598058 -3.30635 
-9.53392 -0.0526799 -0.190838 
-0.0526799 -9.37562 0.771111 
-0.190838 0.771111 -9.66391 
-9.48983 -0.00850609 -0.239524 
-0.00850609 -9.48366 0.738826 
-0.239524 0.738826 -9.59996 
-9.51986 -0.0749805 -0.199076 
-0.0749805 -9.3608 0.708321 
-0.199076 0.708321 -9.69279 
-9.50085 0.041017 -0.217461 
0.041017 -9.42477 0.72642 
-0.217461 0.72642 -9.64783 
-9.48558 -0.0451778 -0.5696 
-0.0451778 -9.4278 -0.234839 
-0.5696 -0.234839 -9.52227 
-9.03636 0.243135 -0.691209 
0.243135 -9.62302 -0.335487 
-0.691209 -0.335487 -9.77628 
-9.49035 0.0172315 -0.57913 
0.0172315 -9.43209 -0.251288 
-0.57913 -0.251288 -9.51322 
-9.43782 0.103239 -0.362405 
0.103239 -9.35157 -0.273807 
-0.362405 -0.273807 -9.64626 
-10.194 0.728225 2.4445 
0.728225 -9.81528 -0.265461 
2.4445 -0.265461 -21.266 
-12.7649 0.527053 0.347064 
0.527053 -12.9214 0.385189 
0.347064 0.385189 -15.5889 
-15.1526 0.839468 1.46681 
0.839468 -15.1513 2.04817 
1.46681 2.04817 -10.9714 
-13.1867 0.813661 -1.34276 
0.813661 -13.8336 0.453913 
-1.34276 0.453913 -14.255 
-9.83184 -0.0503375 0.161985 
-0.0503375 -8.78809 -0.2502 
0.161985 -0.2502 -9.86264 
-9.18746 -0.00990298 0.0716943 
-0.00990298 -9.80089 -0.303418 
0.0716943 -0.303418 -9.49422 
-9.40483 -0.0591645 -0.0567972 
-0.0591645 -9.35774 -0.409727 
-0.0567972 -0.409727 -9.72 
-9.38694 -0.00422866 0.127271 
-0.00422866 -9.27076 -0.65638 
0.127271 -0.65638 -9.82487 
-9.56712 -0.0999831 0.169955 
-0.0999831 -9.80993 -0.0575294 
0.169955 -0.0575294 -9.90343 
-9.39133 -0.096332 0.148629 
-0.096332 -9.64118 0.021761 
0.148629 0.021761 -10.248 
-9.53555 -0.104063 0.217119 
-0.104063 -9.79383 -0.0648195 
0.217119 -0.0648195 -9.9511 
-9.54323 -0.0922732 0.240046 
-0.0922732 -9.77539 -0.0422869 
0.240046 -0.0422869 -9.96186 
-9.3136 -0.0237495 0.843087 
-0.0237495 -9.66203 -0.191419 
0.843087 -0.191419 -9.91176 
-9.77368 0.0422621 0.784557 
0.0422621 -9.52957 -0.192008 
0.784557 -0.192008 -9.58414 
-9.61203 -0.0374783 0.806697 
-0.0374783 -9.66098 -0.127408 
0.806697 -0.127408 -9.61438 
-9.5666 -0.163679 0.685653 
-0.163679 -9.61956 -0.25204 
0.685653 -0.25204 -9.70124 
-10.0918 0.0623458 -0.0411661 
0.0623458 -10.0213 -0.00542691 
-0.0411661 -0.00542691 -10.1696 
-10.0632 0.0168934 0.0377834 
0.0168934 -10.0661 0.00366807 
0.0377834 0.00366807 -10.1534 
-10.0392 0.0191883 0.03417 
0.0191883 -10.1073 0.000155744 
0.03417 0.000155744 -10.1361 
-10.0435 0.0213652 0.0233656 
0.0213652 -10.062 -0.0212563 
0.0233656 -0.0212563 -10.1772 
-9.92953 0.420479 -0.0739371 
0.420479 -9.59442 -0.0466336 
-0.0739371 -0.0466336 -10.1625 
-9.79657 0.13784 0.0423015 
0.13784 -9.85008 0.0288815 
0.0423015 0.0288815 -10.0398 
-10.0111 -0.531039 0.0931618 
-0.531039 -10.0224 0.0475596 
0.0931618 0.0475596 -9.65293 
-9.47299 0.19902 -0.0215838 
0.19902 -10.1066 0.197187 
-0.0215838 0.197187 -10.1068 
-7.19643 0.0527627 -0.00440051 
0.0527627 -3.65327 1.67877 
-0.00440051 1.67877 -2.42947 
-6.18219 -0.374108 0.795554 
-0.374108 -9.55435 2.18611 
0.795554 2.18611 2.45737 
-3.94404 0.42666 -0.746151 
0.42666 -5.95575 1.90405 
-0.746151 1.90405 -3.37938 
-3.71116 0.38203 -1.7162 
0.38203 -5.78843 2.85638 
-1.7162 2.85638 -3.77959 
-10.1441 -0.0127857 -0.0562841 
-0.0127857 -10.2271 -0.0902059 
-0.0562841 -0.0902059 -10.1526 
-10.2016 0.0766094 0.0492368 
0.0766094 -10.1549 0.0568623 
0.0492368 0.0568623 -10.1673 
-10.1669 -0.017077 -0.0263054 
-0.017077 -10.0606 -0.0315532 
-0.0263054 -0.0315532 -10.2965 
-10.1738 0.0193766 0.00417193 
0.0193766 -10.0981 -0.0240585 
0.00417193 -0.0240585 -10.2519 
-10.0992 -0.0022219 0.644352 
-0.0022219 -10.116 -0.147191 
0.644352 -0.147191 -9.80118 
-10.002 -0.0240769 0.677718 
-0.0240769 -10.2223 -0.198829 
0.677718 -0.198829 -9.79205 
-9.87478 -0.144231 0.505607 
-0.144231 -9.76551 -0.110807 
0.505607 -0.110807 -10.3761 
-10.0921 0.0234578 0.698508 
0.0234578 -10.1401 -0.0290461 
0.698508 -0.0290461 -9.78426 
-9.8601 0.0110813 0.00976397 
0.0110813 -9.83418 -0.89739 
0.00976397 -0.89739 -10.0683 
-9.98315 -0.0407177 -0.00188317 
-0.0407177 -9.73777 -0.900196 
-0.00188317 -0.900196 -10.0416 
-9.99085 -0.0386534 0.0208326 
-0.0386534 -9.76773 -0.890866 
0.0208326 -0.890866 -10.004 
-9.90225 0.0090197 0.00738301 
0.0090197 -9.87825 -0.955419 
0.00738301 -0.955419 -9.98204 
-10.0306 0.00272489 -0.319346 
0.00272489 -9.94276 0.665828 
-0.319346 0.665828 -8.21783 
-10.0873 -0.0525361 -0.0877405 
-0.0525361 -9.98182 0.430848 
-0.0877405 0.430848 -8.12216 
-9.9425 -0.00177691 -0.271289 
-0.00177691 -9.65274 0.51714 
-0.271289 0.51714 -8.596 
-10.0238 0.0935127 -0.293367 
0.0935127 -10.087 1.01326 
-0.293367 1.01326 -8.08048 
-9.61641 -0.00297264 0.87647 
-0.00297264 -9.73901 0.0791921 
0.87647 0.0791921 -9.80698 
-9.60843 -0.0120138 0.820274 
-0.0120138 -9.78385 0.0874916 
0.820274 0.0874916 -9.77013 
-9.70997 0.0164788 0.782403 
0.0164788 -9.64034 0.139576 
0.782403 0.139576 -9.81208 
-9.60581 0.0184504 0.873552 
0.0184504 -9.76124 0.0837287 
0.873552 0.0837287 -9.79535 
-9.39945 0.0351552 0.200806 
0.0351552 -9.14357 1.1928 
0.200806 1.1928 -6.63895 
-9.39981 0.0450811 0.226526 
0.0450811 -8.96682 1.26089 
0.226526 1.26089 -6.81534 
-9.18693 -0.0401937 0.0896187 
-0.0401937 -9.07082 1.17951 
0.0896187 1.17951 -6.92421 
-9.26558 0.0514392 0.224846 
0.0514392 -8.97823 1.19685 
0.224846 1.19685 -6.93816 
-10.2681 0.0541995 -0.0148139 
0.0541995 -10.3122 0.0942472 
-0.0148139 0.0942472 -9.74592 
-10.0074 0.0178416 -0.0855057 
0.0178416 -10.0037 0.193224 
-0.0855057 0.193224 -10.3151 
-10.3399 0.0161633 -0.00729939 
0.0161633 -10.0374 0.182972 
-0.00729939 0.182972 -9.94902 
-10.1688 -0.00521732 0.125212 
-0.00521732 -10.2889 0.257419 
0.125212 0.257419 -9.86862 
-9.18932 0.426963 -0.174381 
0.426963 -9.23584 -0.153183 
-0.174381 -0.153183 -9.91083 
-9.32648 0.0948683 -0.306163 
0.0948683 -9.33171 -0.316623 
-0.306163 -0.316623 -9.67779 
-9.4918 -0.487228 -0.250451 
-0.487228 -9.61046 -0.25465 
-0.250451 -0.25465 -9.23373 
-9.28019 0.0936814 -0.603437 
0.0936814 -9.2932 -0.495009 
-0.603437 -0.495009 -9.76259 
-9.61939 -0.0443267 -0.875947 
-0.0443267 -9.79129 0.152163 
-0.875947 0.152163 -9.95017 
-9.60066 -0.041196 -0.902718 
-0.041196 -9.85284 0.16889 
-0.902718 0.16889 -9.90734 
-9.67161 -0.0334819 -0.932076 
-0.0334819 -9.86927 0.151938 
-0.932076 0.151938 -9.81997 
-9.58308 -0.0625539 -0.933139 
-0.0625539 -9.83181 0.18511 
-0.933139 0.18511 -9.94596 
-9.73307 -0.000230008 0.791896 
-0.000230008 -9.72046 -0.180016 
0.791896 -0.180016 -9.81963 
-9.67035 -0.0221744 0.800515 
-0.0221744 -9.80142 -0.229329 
0.800515 -0.229329 -9.8014 
-9.68299 -0.0325119 0.833642 
-0.0325119 -9.75454 -0.198938 
0.833642 -0.198938 -9.83562 
-9.70115 -0.0626315 0.832677 
-0.0626315 -9.76818 -0.204477 
0.832677 -0.204477 -9.80383 
-9.69357 -0.0316239 -0.792846 
-0.0316239 -9.7502 0.170481 
-0.792846 0.170481 -9.79835 
-9.64755 -0.0423661 -0.818827 
-0.0423661 -9.77746 0.19406 
-0.818827 0.19406 -9.81711 
-9.66204 -0.0189163 -0.815339 
-0.0189163 -9.72698 0.195402 
-0.815339 0.195402 -9.85309 
-9.6966 -0.0670404 -0.846617 
-0.0670404 -9.77872 0.190209 
-0.846617 0.190209 -9.7668 
-9.15727 0.0904465 -0.261751 
0.0904465 -9.49423 -0.119267 
-0.261751 -0.119267 -9.9082 
-9.22276 0.0878978 -0.284593 
0.0878978 -9.56408 -0.039832 
-0.284593 -0.039832 -9.77286 
-9.15638 0.107438 -0.247403 
0.107438 -9.4802 -0.0870307 
-0.247403 -0.0870307 -9.92312 
-9.09359 0.0823302 -0.254238 
0.0823302 -9.47031 -0.108739 
-0.254238 -0.108739 -9.9958 
-2.36853 -0.146878 0.574092 
-0.146878 -2.82715 -0.168031 
0.574092 -0.168031 0.959689 
-1.40798 0.0159278 -0.0376733 
0.0159278 -1.27848 0.873022 
-0.0376733 0.873022 -1.54953 
-1.89987 0.172603 0.127053 
0.172603 -1.85751 0.766758 
0.127053 0.766758 -0.478611 
-1.76836 0.570306 -0.353353 
0.570306 -2.31205 1.12681 
-0.353353 1.12681 -0.155581 
-9.99622 0.804384 -0.459239 
0.804384 -9.15834 -1.2315 
-0.459239 -1.2315 -10.9142 
-10.3593 0.625393 -0.475272 
0.625393 -8.316 -0.782229 
-0.475272 -0.782229 -11.3934 
-10.062 0.585205 -0.475134 
0.585205 -9.22 -1.02041 
-0.475134 -1.02041 -10.7867 
-9.99292 0.737771 -0.587698 
0.737771 -9.11668 -1.66798 
-0.587698 -1.66798 -10.9591 
-9.61653 0.205623 -0.0207743 
0.205623 -9.69917 0.32853 
-0.0207743 0.32853 -10.2827 
-9.63614 0.137206 -0.201319 
0.137206 -10.0679 -0.266599 
-0.201319 -0.266599 -9.89437 
-9.83658 0.120819 0.107992 
0.120819 -9.86943 -0.193815 
0.107992 -0.193815 -9.89241 
-9.76283 -0.0867159 -0.340183 
-0.0867159 -9.73897 -0.00161184 
-0.340183 -0.00161184 -10.0966 
-9.52374 0.206137 0.483441 
0.206137 -9.31557 0.380169 
0.483441 0.380169 -9.31406 
-9.75093 -0.150459 0.0992365 
-0.150459 -8.63635 0.785832 
0.0992365 0.785832 -9.76609 
-9.52909 -0.146352 -0.710738 
-0.146352 -8.82138 -0.143404 
-0.710738 -0.143404 -9.8029 
-8.98857 -0.118749 -0.685183 
-0.118749 -9.04564 0.905661 
-0.685183 0.905661 -10.1192 
-11.1478 -0.0679139 0.105414 
-0.0679139 -11.082 -0.0496658 
0.105414 -0.0496658 -10.7836 
-9.98098 0.0701828 0.199382 
0.0701828 -10.0283 0.286853 
0.199382 0.286853 -13.004 
-11.2921 0.0108034 -0.0965517 
0.0108034 -11.1639 -0.229627 
-0.0965517 -0.229627 -10.5574 
-11.3935 -0.147861 0.704232 
-0.147861 -11.1359 -0.372623 
0.704232 -0.372623 -10.484 
-9.86922 -0.0248867 -0.0434263 
-0.0248867 -9.84317 -0.0230601 
-0.0434263 -0.0230601 -10.2114 
-10.0366 0.0267826 -0.045026 
0.0267826 -9.90239 -0.0705388 
-0.045026 -0.0705388 -9.9848 
-9.9276 0.0661981 0.0394967 
0.0661981 -9.75206 -0.15297 
0.0394967 -0.15297 -10.2441 
-9.87947 -0.0371668 0.0256786 
-0.0371668 -9.88441 -0.00207118 
0.0256786 -0.00207118 -10.1599 
-8.97245 0.0530317 -0.196454 
0.0530317 -8.69458 0.941551 
-0.196454 0.941551 -3.48617 
-9.02072 -0.0654016 -0.0096574 
-0.0654016 -8.93035 0.882507 
-0.0096574 0.882507 -3.20212 
-8.71076 -0.107773 -0.631753 
-0.107773 -8.35331 0.97254 
-0.631753 0.97254 -4.08913 
-9.03326 0.040219 -0.333463 
0.040219 -8.82634 0.869108 
-0.333463 0.869108 -3.29359 
-9.14696 0.166525 -0.878505 
0.166525 -9.49302 -0.334728 
-0.878505 -0.334728 -9.79495 
-9.26086 0.168077 -0.935233 
0.168077 -9.48119 -0.298056 
-0.935233 -0.298056 -9.69287 
-9.10693 0.235129 -0.943935 
0.235129 -9.50658 -0.339059 
-0.943935 -0.339059 -9.82141 
-9.13632 0.200195 -0.876502 
0.200195 -9.53533 -0.34323 
-0.876502 -0.34323 -9.76327 
-9.9034 -0.0179537 0.575329 
-0.0179537 -9.91003 -0.813357 
0.575329 -0.813357 -10.0726 
-9.98394 -0.0326052 0.541774 
-0.0326052 -9.94421 -0.777664 
0.541774 -0.777664 -9.95784 
-9.99212 -0.0260089 0.549048 
-0.0260089 -9.98104 -0.783373 
0.549048 -0.783373 -9.91283 
-9.98982 -0.0303457 0.506711 
-0.0303457 -9.95919 -0.769193 
0.506711 -0.769193 -9.93698 
-9.6466 0.0302042 0.111237 
0.0302042 -9.49481 0.800535 
0.111237 0.800535 -9.53594 
-9.62286 0.0134764 0.0834025 
0.0134764 -9.4222 0.742643 
0.0834025 0.742643 -9.63231 
-9.45968 0.0781786 0.108494 
0.0781786 -9.37616 0.847294 
0.108494 0.847294 -9.84152 
-9.65035 0.00534293 0.109485 
0.00534293 -9.40878 0.773304 
0.109485 0.773304 -9.61822 
-7.95612 0.0757066 1.58628 
0.0757066 -8.34851 1.07188 
1.58628 1.07188 -3.31368 
-7.96615 0.140815 1.59706 
0.140815 -8.57563 1.14404 
1.59706 1.14404 -3.07653 
-8.04088 0.0412463 1.50243 
0.0412463 -8.27511 0.95447 
1.50243 0.95447 -3.30233 
-8.0538 0.0982272 1.49936 
0.0982272 -8.3715 0.978087 
1.49936 0.978087 -3.19301 
-9.47388 -0.198572 -0.464848 
-0.198572 -9.38837 0.522893 
-0.464848 0.522893 -9.65613 
-9.46383 -0.0201343 -0.556511 
-0.0201343 -9.45793 0.556206 
-0.556511 0.556206 -9.59662 
-9.48224 0.077352 -0.532936 
0.077352 -9.51911 0.563506 
-0.532936 0.563506 -9.51704 
-9.39976 -0.0509607 -0.560644 
-0.0509607 -9.46678 0.666426 
-0.560644 0.666426 -9.65185 
-9.59279 0.225676 0.0192834 
0.225676 -9.69654 0.011369 
0.0192834 0.011369 -9.59301 
-9.46943 -0.0588622 0.115877 
-0.0588622 -9.51557 -0.199124 
0.115877 -0.199124 -9.89734 
-9.73632 -0.246281 -0.142383 
-0.246281 -9.53077 -0.204028 
-0.142383 -0.204028 -9.61525 
-9.37402 -0.0924238 0.149513 
-0.0924238 -9.74293 -0.170499 
0.149513 -0.170499 -9.76539 
-12.3373 2.4478 -0.4263 
2.4478 -8.70856 0.174556 
-0.4263 0.174556 -21.8735 
-15.2648 -0.15749 -0.0962269 
-0.15749 -4.34424 -1.10716 
-0.0962269 -1.10716 -23.3103 
-14.743 0.913793 -0.831017 
0.913793 -8.15655 -1.06897 
-0.831017 -1.06897 -20.0198 
-15.1185 0.169643 -0.92539 
0.169643 -10.2444 -0.398975 
-0.92539 -0.398975 -17.5564 
-9.43969 0.174045 -0.402843 
0.174045 -9.43662 0.389945 
-0.402843 0.389945 -9.50655 
-9.39907 -0.0435385 -0.409625 
-0.0435385 -9.46114 0.35469 
-0.409625 0.35469 -9.52264 
-9.34162 -0.276947 -0.293365 
-0.276947 -9.14829 0.27011 
-0.293365 0.27011 -9.89295 
-9.18157 -0.0831615 -0.370462 
-0.0831615 -9.48872 0.528553 
-0.370462 0.528553 -9.71257 
-4.50747 -0.811956 -0.00649506 
-0.811956 -3.77517 0.827528 
-0.00649506 0.827528 0.264487 
-3.81458 -0.0667549 0.891982 
-0.0667549 -3.64395 0.908195 
0.891982 0.908195 -0.559624 
-2.86321 0.626767 0.954012 
0.626767 -4.3466 0.369972 
0.954012 0.369972 -0.808349 
-4.27385 -0.0613597 1.5606 
-0.0613597 -3.3114 0.752398 
1.5606 0.752398 -0.4329 
-9.97971 -0.173161 0.416969 
-0.173161 -8.17912 2.12885 
0.416969 2.12885 -9.8707 
-9.47936 -0.162417 0.0890386 
-0.162417 -8.90602 1.40327 
0.0890386 1.40327 -9.64415 
-10.0408 0.136318 0.214098 
0.136318 -8.46527 2.35911 
0.214098 2.35911 -9.52344 
-10.4844 -0.413891 -0.305797 
-0.413891 -8.61471 2.70068 
-0.305797 2.70068 -8.93042 
-10.2005 -0.00858555 0.0248885 
-0.00858555 -10.0977 -0.0955929 
0.0248885 -0.0955929 -10.1515 
-10.0971 -0.0233189 0.00995009 
-0.0233189 -10.1276 -0.0415983 
0.00995009 -0.0415983 -10.225 
-10.1849 0.0274637 -0.00586314 
0.0274637 -10.1214 0.103373 
-0.00586314 0.103373 -10.1433 
-10.1132 -0.0210558 0.0142662 
-0.0210558 -10.0801 -0.020252 
0.0142662 -0.020252 -10.2564 
-10.0814 0.165932 0.141243 
0.165932 -9.6302 1.22501 
0.141243 1.22501 -6.1541 
-9.78808 0.0924654 0.691837 
0.0924654 -10.0065 1.22626 
0.691837 1.22626 -6.07117 
-9.91876 -0.0496709 0.457707 
-0.0496709 -9.38157 0.984439 
0.457707 0.984439 -6.56538 
-9.4726 -0.37859 0.20306 
-0.37859 -9.39289 0.673229 
0.20306 0.673229 -7.00022 
-10.2347 0.0644667 0.0681781 
0.0644667 -10.1368 0.0653029 
0.0681781 0.0653029 -10.2087 
-10.1734 -0.0803332 0.0927782 
-0.0803332 -10.1578 0.125805 
0.0927782 0.125805 -10.249 
-10.1018 -0.0200655 -0.0721146 
-0.0200655 -10.2134 -0.121148 
-0.0721146 -0.121148 -10.265 
-10.2191 0.109147 0.0294392 
0.109147 -10.0039 0.0222749 
0.0294392 0.0222749 -10.3572 
-9.71087 -0.081399 0.0824804 
-0.081399 -9.76159 -0.105447 
0.0824804 -0.105447 -9.83986 
-9.92264 0.0354226 0.106583 
0.0354226 -9.59181 -0.123452 
0.106583 -0.123452 -9.79786 
-9.51541 -0.0753842 0.0259282 
-0.0753842 -9.79691 -0.0230316 
0.0259282 -0.0230316 -10 
-9.69403 -0.189371 0.0693044 
-0.189371 -9.74892 -0.0120843 
0.0693044 -0.0120843 -9.86937 
-9.54011 -0.0927588 0.595678 
-0.0927588 -9.43835 0.459312 
0.595678 0.459312 -9.56501 
-9.48103 0.000530531 0.661374 
0.000530531 -9.45235 0.381032 
0.661374 0.381032 -9.61009 
-9.36713 0.235356 0.547823 
0.235356 -9.55138 0.432553 
0.547823 0.432553 -9.62495 
-9.40725 -0.000673386 0.682838 
-0.000673386 -9.49481 0.512627 
0.682838 0.512627 -9.64141 
-9.88492 -0.00386046 -0.00698713 
-0.00386046 -9.90875 -0.88043 
-0.00698713 -0.88043 -9.95799 
-9.87291 -0.0047765 -0.0013415 
-0.0047765 -9.87268 -0.867968 
-0.0013415 -0.867968 -10.0061 
-9.9146 -0.00283666 -0.00355839 
-0.00283666 -9.91399 -0.875011 
-0.00355839 -0.875011 -9.92307 
-9.87829 0.0106756 0.00714509 
0.0106756 -9.90539 -0.882667 
0.00714509 -0.882667 -9.96799 
-11.7729 0.0271307 0.57181 
0.0271307 -8.82422 0.524049 
0.57181 0.524049 -11.2645 
-11.4812 -0.491386 -0.195723 
-0.491386 -9.11443 -0.670133 
-0.195723 -0.670133 -11.266 
-9.55359 0.0940788 0.289014 
0.0940788 -10.2828 0.723079 
0.289014 0.723079 -12.0252 
-10.3923 0.0612914 -0.332031 
0.0612914 -10.7891 -0.603614 
-0.332031 -0.603614 -10.6802 
-9.37814 -2.4217 0.238782 
-2.4217 -12.0268 0.0577022 
0.238782 0.0577022 -19.9036 
-8.2237 -3.7431 1.03996 
-3.7431 -11.821 0.419331 
1.03996 0.419331 -21.2638 
-8.8012 -4.94269 0.258598 
-4.94269 -9.25377 -0.53914 
0.258598 -0.53914 -23.2535 
-11.4276 -1.95765 0.138637 
-1.95765 -12.1652 0.613319 
0.138637 0.613319 -17.7157 
-7.45143 -0.00183416 -0.763514 
-0.00183416 -7.56694 1.77214 
-0.763514 1.77214 -2.36509 
-7.26043 -0.144262 -0.539664 
-0.144262 -7.41672 1.77109 
-0.539664 1.77109 -2.70631 
-7.90037 0.218502 -0.490422 
0.218502 -7.76017 1.87648 
-0.490422 1.87648 -1.72293 
-7.55627 0.13113 -1.12129 
0.13113 -7.19236 1.66107 
-1.12129 1.66107 -2.63484 
-9.48056 0.000905199 -0.72256 
0.000905199 -9.46238 -0.359243 
-0.72256 -0.359243 -9.60246 
-9.40171 0.0879163 -0.66713 
0.0879163 -9.48196 -0.306329 
-0.66713 -0.306329 -9.66173 
-9.47667 -0.0224218 -0.734613 
-0.0224218 -9.49894 -0.298616 
-0.734613 -0.298616 -9.56978 
-9.39 0.00352034 -0.716507 
0.00352034 -9.49815 -0.36461 
-0.716507 -0.36461 -9.65724 
-8.87273 0.769448 -0.901214 
0.769448 -9.24379 -0.47307 
-0.901214 -0.47307 -10.8719 
-7.74063 1.66224 -0.858526 
1.66224 -10.3084 -0.247673 
-0.858526 -0.247673 -10.9393 
-8.49707 0.42788 -1.36539 
0.42788 -9.61224 -0.63277 
-1.36539 -0.63277 -10.8791 
-8.34761 0.129436 -1.1636 
0.129436 -9.70631 -0.396663 
-1.1636 -0.396663 -10.9345 
-9.82154 0.0454791 -0.00849205 
0.0454791 -9.65722 -0.781359 
-0.00849205 -0.781359 -9.71594 
-9.67118 0.0164454 -0.08138 
0.0164454 -9.72592 -0.789621 
-0.08138 -0.789621 -9.79761 
-9.76459 -0.010943 -0.0845062 
-0.010943 -9.63735 -0.890309 
-0.0845062 -0.890309 -9.79277 
-9.73292 0.00340028 -0.0748732 
0.00340028 -9.64551 -0.845145 
-0.0748732 -0.845145 -9.81628 
-9.18235 -0.192626 -0.326946 
-0.192626 -9.16441 0.295589 
-0.326946 0.295589 -9.84043 
-9.18837 -0.211987 -0.354139 
-0.211987 -9.18398 0.354574 
-0.354139 0.354574 -9.81485 
-9.25973 -0.170068 -0.360187 
-0.170068 -9.22876 0.371275 
-0.360187 0.371275 -9.69871 
-9.2292 -0.146707 -0.377306 
-0.146707 -9.05633 0.402341 
-0.377306 0.402341 -9.90166 
-9.9264 0.0167078 0.787677 
0.0167078 -9.89498 0.364148 
0.787677 0.364148 -9.95746 
-9.91684 0.000117627 0.78469 
0.000117627 -9.92772 0.354735 
0.78469 0.354735 -9.93429 
-9.90374 -0.0151552 0.813743 
-0.0151552 -9.87021 0.377996 
0.813743 0.377996 -10.0049 
-9.90191 -0.00824638 0.786136 
-0.00824638 -9.91072 0.376088 
0.786136 0.376088 -9.96622 
-9.43756 -0.145825 -0.611076 
-0.145825 -9.54619 0.607033 
-0.611076 0.607033 -9.89252 
-9.63503 0.0649141 -0.544849 
0.0649141 -9.63575 0.569421 
-0.544849 0.569421 -9.60549 
-9.65609 -0.045873 -0.636744 
-0.045873 -9.63917 0.485895 
-0.636744 0.485895 -9.58101 
-9.67906 -0.0663913 -0.474479 
-0.0663913 -9.50636 0.560931 
-0.474479 0.560931 -9.69085 
-9.29855 0.131947 -0.401452 
0.131947 -9.1837 -0.43275 
-0.401452 -0.43275 -9.62837 
-9.3552 0.405564 -0.351863 
0.405564 -9.24103 -0.248081 
-0.351863 -0.248081 -9.51439 
-9.29024 -0.277382 -0.192168 
-0.277382 -9.54722 -0.641011 
-0.192168 -0.641011 -9.27316 
-9.49386 -0.0167286 -0.481336 
-0.0167286 -8.99771 -0.432716 
-0.481336 -0.432716 -9.61905 
-7.98288 0.0187881 2.57209 
0.0187881 -9.12944 -0.0134278 
2.57209 -0.0134278 -4.30517 
-8.5931 0.0544779 2.63787 
0.0544779 -9.26692 0.750079 
2.63787 0.750079 -3.55747 
-7.81616 0.0551709 3.14793 
0.0551709 -9.14147 -0.283268 
3.14793 -0.283268 -4.45986 
-8.1065 -0.139189 1.86287 
-0.139189 -8.21785 -0.0204272 
1.86287 -0.0204272 -5.09314 
-8.86224 0.192591 -1.17061 
0.192591 -9.18154 -0.420778 
-1.17061 -0.420778 -7.28187 
-8.61122 0.0880028 -1.45622 
0.0880028 -9.23204 -0.319192 
-1.45622 -0.319192 -7.48239 
-8.99637 0.110732 -1.74047 
0.110732 -9.27428 -0.403306 
-1.74047 -0.403306 -7.05499 
-8.785 0.0523276 -1.49885 
0.0523276 -9.23818 -0.415959 
-1.49885 -0.415959 -7.30247 
-7.2283 -0.0308788 0.576325 
-0.0308788 -6.86432 0.852574 
0.576325 0.852574 -1.87839 
-7.24342 -0.0596307 1.03343 
-0.0596307 -7.22435 0.914322 
1.03343 0.914322 -1.50323 
-7.20171 -0.0138801 0.838967 
-0.0138801 -7.0896 0.933902 
0.838967 0.933902 -1.67969 
-7.13749 0.0595103 0.86157 
0.0595103 -7.25039 0.808663 
0.86157 0.808663 -1.58313 
-9.65017 0.0324853 -0.804634 
0.0324853 -9.80103 -0.245737 
-0.804634 -0.245737 -9.84328 
-9.6952 0.0246209 -0.81136 
0.0246209 -9.80072 -0.253363 
-0.81136 -0.253363 -9.79856 
-9.6536 0.0322209 -0.828115 
0.0322209 -9.79515 -0.280745 
-0.828115 -0.280745 -9.84574 
-9.6967 0.021976 -0.818466 
0.021976 -9.79481 -0.280162 
-0.818466 -0.280162 -9.80297 
-8.12544 0.261095 -0.339719 
0.261095 -8.40722 0.265702 
-0.339719 0.265702 -2.0601 
-7.94939 -0.022411 0.372793 
-0.022411 -8.06999 0.118638 
0.372793 0.118638 -2.57338 
-8.11691 -0.0892646 0.158944 
-0.0892646 -7.89654 0.163629 
0.158944 0.163629 -2.57931 
-7.62326 0.477989 0.496932 
0.477989 -7.87425 -0.174741 
0.496932 -0.174741 -3.09525 
-9.82093 0.00782152 -0.315299 
0.00782152 -9.82554 0.850513 
-0.315299 0.850513 -9.82261 
-9.80358 -0.0265479 -0.34396 
-0.0265479 -9.80525 0.799757 
-0.34396 0.799757 -9.86026 
-9.84424 -0.0604794 -0.320917 
-0.0604794 -9.79 0.787074 
-0.320917 0.787074 -9.83485 
-9.79234 -0.0119596 -0.31375 
-0.0119596 -9.82755 0.858307 
-0.31375 0.858307 -9.84919 
-9.86493 0.0847401 -0.531394 
0.0847401 -9.84989 -0.769493 
-0.531394 -0.769493 -9.92274 
-9.94869 0.0376075 -0.559726 
0.0376075 -9.82955 -0.801633 
-0.559726 -0.801633 -9.85932 
-9.88034 0.0823407 -0.568268 
0.0823407 -9.83355 -0.791927 
-0.568268 -0.791927 -9.92367 
-9.85103 0.15689 -0.626273 
0.15689 -9.85389 -0.777972 
-0.626273 -0.777972 -9.93265 
-9.83006 0.0210523 -0.502325 
0.0210523 -9.77727 -0.728603 
-0.502325 -0.728603 -9.89313 
-9.81775 -0.0276311 -0.514382 
-0.0276311 -9.81307 -0.730739 
-0.514382 -0.730739 -9.86964 
-9.84324 0.0383584 -0.468459 
0.0383584 -9.79591 -0.713741 
-0.468459 -0.713741 -9.8613 
-9.82247 0.00272789 -0.523462 
0.00272789 -9.83892 -0.733879 
-0.523462 -0.733879 -9.83906 
-9.59174 -0.0427547 0.0759672 
-0.0427547 -9.56587 0.824695 
0.0759672 0.824695 -9.57033 
-9.49154 -0.0373356 0.0758674 
-0.0373356 -9.65917 0.812843 
0.0758674 0.812843 -9.57722 
-9.60602 0.0766969 0.094469 
0.0766969 -9.29251 0.848857 
0.094469 0.848857 -9.82941 
-9.62291 -0.108459 -0.035223 
-0.108459 -9.44184 0.711993 
-0.035223 0.711993 -9.66318 
-9.78899 -0.00593335 0.0711113 
-0.00593335 -9.8232 0.0415344 
0.0711113 0.0415344 -9.90196 
-9.94825 -0.00734389 0.0454157 
-0.00734389 -9.71339 -0.0200912 
0.0454157 -0.0200912 -9.85251 
-9.50311 0.00740471 -0.00650617 
0.00740471 -9.97341 0.00589939 
-0.00650617 0.00589939 -10.0376 
-9.80708 0.0506485 0.241519 
0.0506485 -9.78002 -0.0178959 
0.241519 -0.0178959 -9.92705 
-9.89664 0.273485 -0.435337 
0.273485 -9.2254 0.348458 
-0.435337 0.348458 -9.12291 
-9.28807 -0.060694 -0.383977 
-0.060694 -9.35621 0.211148 
-0.383977 0.211148 -9.60067 
-8.94224 -0.216258 -0.183166 
-0.216258 -9.5715 0.105561 
-0.183166 0.105561 -9.73122 
-8.98523 -0.121732 -0.690103 
-0.121732 -9.42121 0.247523 
-0.690103 0.247523 -9.83851 
-9.52448 -0.122268 0.0684116 
-0.122268 -9.6392 -0.0559767 
0.0684116 -0.0559767 -9.79811 
-9.53533 -0.0628413 0.170246 
-0.0628413 -9.51192 -0.145559 
0.170246 -0.145559 -9.91453 
-9.74273 0.197534 -0.0859225 
0.197534 -9.62718 -0.127584 
-0.0859225 -0.127584 -9.59188 
-9.65987 -0.0595511 0.0399857 
-0.0595511 -9.49515 -0.144982 
0.0399857 -0.144982 -9.80677 
-9.65039 -0.0616309 0.209026 
-0.0616309 -9.36428 -0.730177 
0.209026 -0.730177 -9.64188 
-9.49033 -0.00283438 0.241945 
-0.00283438 -9.56285 -0.770202 
0.241945 -0.770202 -9.60336 
-9.50531 -0.0155753 0.227966 
-0.0155753 -9.5353 -0.783595 
0.227966 -0.783595 -9.61594 
-9.51949 0.0115315 0.2468 
0.0115315 -9.506 -0.806151 
0.2468 -0.806151 -9.63105 
-9.85934 0.0854837 0.373671 
0.0854837 -9.80892 0.840468 
0.373671 0.840468 -9.97759 
-9.81852 0.191091 0.393369 
0.191091 -9.82215 0.778321 
0.393369 0.778321 -10.0052 
-9.83387 0.0205736 0.314139 
0.0205736 -9.84651 0.780525 
0.314139 0.780525 -9.96547 
-9.96885 -0.0461735 0.431966 
-0.0461735 -9.72779 0.949654 
0.431966 0.949654 -9.94922 
-9.63636 -0.014419 -0.897616 
-0.014419 -9.66313 -0.285937 
-0.897616 -0.285937 -9.83818 
-9.63561 0.0438562 -0.69482 
0.0438562 -9.78108 -0.237633 
-0.69482 -0.237633 -9.72098 
-9.57216 0.048277 -0.808097 
0.048277 -9.72926 -0.267335 
-0.808097 -0.267335 -9.83625 
-9.59004 0.0714271 -0.799853 
0.0714271 -9.71664 -0.279477 
-0.799853 -0.279477 -9.831 
-10.0549 0.0541157 0.00721386 
0.0541157 -10.0654 -0.0510055 
0.00721386 -0.0510055 -10.1496 
-10.0874 0.0776619 -0.116198 
0.0776619 -10.0962 -0.0887802 
-0.116198 -0.0887802 -10.0863 
-10.1077 -0.116793 0.107461 
-0.116793 -10.0234 0.0354589 
0.107461 0.0354589 -10.1387 
-10.0824 0.0555432 -0.00854941 
0.0555432 -10.0178 -0.0496868 
-0.00854941 -0.0496868 -10.1697 
-9.61787 0.249968 0.539193 
0.249968 -9.50849 0.707325 
0.539193 0.707325 -9.99401 
-9.60417 0.262453 0.536938 
0.262453 -9.50206 0.69809 
0.536938 0.69809 -10.0141 
-9.61057 0.260972 0.54853 
0.260972 -9.49393 0.693191 
0.54853 0.693191 -10.0159 
-9.6205 0.333462 0.596406 
0.333462 -9.43653 0.708777 
0.596406 0.708777 -10.0633 
-9.24804 0.226054 -0.815771 
0.226054 -9.47346 -0.456097 
-0.815771 -0.456097 -9.70869 
-9.13401 0.27635 -0.915685 
0.27635 -9.54073 -0.467502 
-0.915685 -0.467502 -9.75545 
-9.2104 0.106746 -0.884965 
0.106746 -9.49549 -0.417299 
-0.884965 -0.417299 -9.7243 
-9.22143 0.283884 -0.919202 
0.283884 -9.56921 -0.426771 
-0.919202 -0.426771 -9.63955 
-10.2528 -0.251512 -0.0652765 
-0.251512 -10.1254 0.161702 
-0.0652765 0.161702 -10.6276 
-10.2207 -0.0677863 -0.011971 
-0.0677863 -10.2107 0.0253787 
-0.011971 0.0253787 -10.5744 
-10.2378 0.0564058 -0.052933 
0.0564058 -10.3346 0.0422895 
-0.052933 0.0422895 -10.4334 
-10.3247 -0.129781 -0.00969314 
-0.129781 -10.1344 -0.0119957 
-0.00969314 -0.0119957 -10.5467 
-8.9488 0.114239 -0.229515 
0.114239 -8.76164 -0.418741 
-0.229515 -0.418741 -7.09997 
-9.33658 -0.049007 0.293646 
-0.049007 -9.23304 -1.5114 
0.293646 -1.5114 -6.2408 
-10.1159 -0.168126 0.353584 
-0.168126 -10.0146 -1.04064 
0.353584 -1.04064 -4.67993 
-9.63455 -0.131751 0.0777502 
-0.131751 -9.12637 -1.51685 
0.0777502 -1.51685 -6.04949 
-10.4702 0.129052 -0.129588 
0.129052 -9.63167 0.0831027 
-0.129588 0.0831027 -9.77894 
-9.50052 0.0205035 0.0905423 
0.0205035 -10.2465 -0.0364862 
0.0905423 -0.0364862 -10.1338 
-9.8157 -0.0347427 -0.0282281 
-0.0347427 -10.0251 0.00787741 
-0.0282281 0.00787741 -10.04 
-9.77137 -0.298022 -0.097573 
-0.298022 -10.0262 -0.163663 
-0.097573 -0.163663 -10.0832 
-9.48241 0.0472983 -0.423497 
0.0472983 -9.41287 0.399497 
-0.423497 0.399497 -9.48383 
-9.30518 -0.295796 -0.50805 
-0.295796 -9.34507 0.522396 
-0.50805 0.522396 -9.72886 
-9.42287 -0.0375864 -0.436115 
-0.0375864 -9.37021 0.381416 
-0.436115 0.381416 -9.58603 
-9.42594 -0.0685274 -0.261842 
-0.0685274 -9.27463 0.360604 
-0.261842 0.360604 -9.67854 
-9.76265 0.00821586 0.0282967 
0.00821586 -9.55171 0.133602 
0.0282967 0.133602 -9.89477 
-9.66423 -0.00779185 0.024087 
-0.00779185 -9.75997 0.0413526 
0.024087 0.0413526 -9.78494 
-9.8393 -0.0126315 0.00811802 
-0.0126315 -9.47154 0.0493833 
0.00811802 0.0493833 -9.8983 
-9.69435 0.0900829 0.066739 
0.0900829 -9.62524 0.0427341 
0.066739 0.0427341 -9.88954 
-10.6915 -0.0731023 0.0626267 
-0.0731023 -10.0446 -0.00761938 
0.0626267 -0.00761938 -10.7829 
-10.7273 -0.361009 0.0133745 
-0.361009 -9.86211 -0.0388074 
0.0133745 -0.0388074 -10.9296 
-10.5991 0.00536741 0.114188 
0.00536741 -10.2338 0.138435 
0.114188 0.138435 -10.6861 
-10.8174 -0.225393 0.105528 
-0.225393 -10.1131 0.119652 
0.105528 0.119652 -10.5885 
-10.2055 -0.0425935 0.107128 
-0.0425935 -9.99745 -0.0249489 
0.107128 -0.0249489 -10.2042 
-10.0683 0.0225144 0.0363265 
0.0225144 -10.1823 -0.0619733 
0.0363265 -0.0619733 -10.1565 
-10.0793 0.0591927 -0.176227 
0.0591927 -10.1952 -0.0236541 
-0.176227 -0.0236541 -10.1327 
-10.0907 0.0466684 -0.0129621 
0.0466684 -10.0892 -0.0478779 
-0.0129621 -0.0478779 -10.2273 
-9.15901 0.29474 -0.212402 
0.29474 -9.32351 -0.20912 
-0.212402 -0.20912 -9.54433 
-9.18221 0.180439 -0.360231 
0.180439 -9.32762 -0.255715 
-0.360231 -0.255715 -9.51702 
-9.40838 -0.104377 -0.396237 
-0.104377 -9.25382 -0.215652 
-0.396237 -0.215652 -9.36466 
-9.11828 -0.0231977 -0.3482 
-0.0231977 -9.38042 -0.331839 
-0.3482 -0.331839 -9.52816 
-9.90219 0.00420727 -0.88039 
0.00420727 -9.8882 0.00167985 
-0.88039 0.00167985 -9.95405 
-9.86545 0.00827484 -0.868317 
0.00827484 -9.87609 -0.00535177 
-0.868317 -0.00535177 -10.0029 
-9.91232 0.00270949 -0.881846 
0.00270949 -9.92095 0.000737972 
-0.881846 0.000737972 -9.91117 
-9.90772 -0.010427 -0.889169 
-0.010427 -9.86155 -0.0129413 
-0.889169 -0.0129413 -9.97516 
-8.78829 0.0892012 -0.0362214 
0.0892012 -8.77828 0.692509 
-0.0362214 0.692509 -3.80133 
-8.51399 0.0413281 -0.540961 
0.0413281 -8.35233 0.495232 
-0.540961 0.495232 -4.50159 
-8.48915 0.0267074 -0.304819 
0.0267074 -8.78308 0.517851 
-0.304819 0.517851 -4.09567 
-8.27115 0.126899 -0.0330679 
0.126899 -8.69108 0.148843 
-0.0330679 0.148843 -4.40567 
-1.72181 -0.700691 -0.228872 
-0.700691 -1.50127 -0.744256 
-0.228872 -0.744256 -0.935023 
-1.54115 0.286982 -0.577316 
0.286982 -1.79254 -0.5854 
-0.577316 -0.5854 -0.824412 
-3.66641 0.875614 -1.5067 
0.875614 -1.05004 0.000330921 
-1.5067 0.000330921 0.558343 
-1.82652 0.573887 -0.301095 
0.573887 -2.08333 -0.622899 
-0.301095 -0.622899 -0.248257 
-9.80925 0.0388582 0.136568 
0.0388582 -9.79845 -0.0668313 
0.136568 -0.0668313 -9.98915 
-9.5804 0.178788 0.150068 
0.178788 -9.95848 0.145898 
0.150068 0.145898 -10.058 
-9.80883 0.0114338 0.0674829 
0.0114338 -9.81154 0.051071 
0.0674829 0.051071 -9.97647 
-9.72797 0.0552932 -0.0702713 
0.0552932 -9.79248 0.0451403 
-0.0702713 0.0451403 -10.0764 
-10.1846 0.0618465 0.0679365 
0.0618465 -10.3882 0.0692661 
0.0679365 0.0692661 -10.3861 
-10.274 0.0861103 0.0829194 
0.0861103 -10.1391 -0.0236119 
0.0829194 -0.0236119 -10.5457 
-10.2119 0.0999298 0.0385515 
0.0999298 -10.2546 0.0242393 
0.0385515 0.0242393 -10.4924 
-10.263 -0.0133642 0.0864924 
-0.0133642 -10.2708 0.0779502 
0.0864924 0.0779502 -10.4251 
-9.9275 0.00767404 0.879445 
0.00767404 -9.86375 0.00561441 
0.879445 0.00561441 -9.98012 
-9.90532 -0.0208672 0.864724 
-0.0208672 -9.90586 0.011945 
0.864724 0.011945 -9.96019 
-9.91996 0.0134627 0.869186 
0.0134627 -9.91121 0.00430824 
0.869186 0.00430824 -9.9402 
-9.90192 -0.00689932 0.886362 
-0.00689932 -9.87536 0.0249321 
0.886362 0.0249321 -9.99408 
-9.48502 -0.00875216 -0.106551 
-0.00875216 -9.51624 -0.801223 
-0.106551 -0.801223 -9.60876 
-9.66145 0.00312757 -0.0141496 
0.00312757 -9.29129 -0.717503 
-0.0141496 -0.717503 -9.65729 
-9.4438 0.00622469 -0.0558758 
0.00622469 -9.60945 -0.788662 
-0.0558758 -0.788662 -9.55677 
-9.48973 0.0382745 -0.0209248 
0.0382745 -9.43635 -0.860811 
-0.0209248 -0.860811 -9.68394 
-9.79355 -0.0479769 -0.0263951 
-0.0479769 -9.67787 -0.105661 
-0.0263951 -0.105661 -9.95982 
-9.80463 0.0218994 0.0323114 
0.0218994 -9.60794 -0.155391 
0.0323114 -0.155391 -10.0187 
-9.83577 0.0124853 0.0212656 
0.0124853 -9.68646 -0.0606307 
0.0212656 -0.0606307 -9.90901 
-9.7768 -0.0167108 0.0921642 
-0.0167108 -9.69587 -0.025061 
0.0921642 -0.025061 -9.95858 
-9.62868 0.372253 -0.0714092 
0.372253 -9.95666 -0.000886448 
-0.0714092 -0.000886448 -10.2512 
-9.86313 0.00959775 0.0532117 
0.00959775 -9.98553 0.0200634 
0.0532117 0.0200634 -9.98787 
-10.2044 -0.213574 0.083577 
-0.213574 -9.79915 0.0192635 
0.083577 0.0192635 -9.83294 
-9.56927 -0.100116 0.162951 
-0.100116 -10.1455 0.26889 
0.162951 0.26889 -10.1217 
-10.08 -0.0773844 -0.374429 
-0.0773844 -9.99731 -0.313955 
-0.374429 -0.313955 -10.0886 
-10.0886 -0.0136715 -0.39695 
-0.0136715 -10.0877 -0.343627 
-0.39695 -0.343627 -9.98961 
-10.0812 -0.0105196 -0.403143 
-0.0105196 -10.1685 -0.314111 
-0.403143 -0.314111 -9.91622 
-10.1162 0.015589 -0.379813 
0.015589 -10.1007 -0.37962 
-0.379813 -0.37962 -9.94899 
-10.1013 -0.0585566 -0.122084 
-0.0585566 -10.1346 0.0655273 
-0.122084 0.0655273 -10.6646 
-10.257 -0.0597724 -0.0343444 
-0.0597724 -10.2754 0.0552766 
-0.0343444 0.0552766 -10.3681 
-10.2385 -0.0798633 -0.0292637 
-0.0798633 -10.194 0.0356408 
-0.0292637 0.0356408 -10.468 
-10.2181 -0.0769964 -0.0459911 
-0.0769964 -10.2505 0.0178262 
-0.0459911 0.0178262 -10.4319 
-9.49579 -0.693555 0.477615 
-0.693555 -9.32692 -0.688513 
0.477615 -0.688513 -10.7108 
-9.44288 -0.982871 0.28588 
-0.982871 -8.95427 -0.294357 
0.28588 -0.294357 -11.1364 
-9.69848 -0.313173 0.737093 
-0.313173 -9.09521 -0.691591 
0.737093 -0.691591 -10.7398 
-9.00998 -0.523419 0.175326 
-0.523419 -9.71073 -0.41903 
0.175326 -0.41903 -10.8128 
-9.8226 0.00373134 -0.803798 
0.00373134 -9.80577 0.35804 
-0.803798 0.35804 -9.85028 
-9.80097 0.0097667 -0.814059 
0.0097667 -9.81415 0.364142 
-0.814059 0.364142 -9.86354 
-9.7759 -0.00586642 -0.800578 
-0.00586642 -9.82363 0.340859 
-0.800578 0.340859 -9.87913 
-9.76959 -0.0263574 -0.79274 
-0.0263574 -9.86124 0.310838 
-0.79274 0.310838 -9.84783 
-9.53066 0.0482246 -0.341084 
0.0482246 -9.43598 -0.731669 
-0.341084 -0.731669 -9.62334 
-9.45575 -0.0986303 -0.373801 
-0.0986303 -9.64277 -0.798278 
-0.373801 -0.798278 -9.49145 
-9.60511 0.0647119 -0.282595 
0.0647119 -9.36729 -0.684331 
-0.282595 -0.684331 -9.61758 
-9.47473 0.0985168 -0.303865 
0.0985168 -9.45734 -0.750606 
-0.303865 -0.750606 -9.65791 
-9.55776 0.0581594 -0.883405 
0.0581594 -9.79893 -0.0737182 
-0.883405 -0.0737182 -9.8819 
-9.65815 0.0254193 -0.817575 
0.0254193 -9.7467 -0.088519 
-0.817575 -0.088519 -9.83375 
-9.7218 0.0245625 -0.853237 
0.0245625 -9.71255 -0.0621413 
-0.853237 -0.0621413 -9.80425 
-9.61812 0.0488131 -0.841847 
0.0488131 -9.82686 -0.0576868 
-0.841847 -0.0576868 -9.79362 
-9.52492 0.0985712 0.325424 
0.0985712 -9.49122 -0.719569 
0.325424 -0.719569 -9.56266 
-9.50034 0.0367631 0.306402 
0.0367631 -9.47324 -0.751521 
0.306402 -0.751521 -9.60523 
-9.51574 -0.0774081 0.305929 
-0.0774081 -9.42254 -0.671362 
0.305929 -0.671362 -9.64052 
-9.51126 -0.0229457 0.37839 
-0.0229457 -9.41397 -0.740051 
0.37839 -0.740051 -9.65357 
-10.476 -0.00526084 0.0271614 
-0.00526084 -10.3087 -0.0434408 
0.0271614 -0.0434408 -10.6486 
-10.4372 0.144153 0.0530407 
0.144153 -10.3437 -0.0343082 
0.0530407 -0.0343082 -10.6525 
-10.7684 -0.0843347 -0.0614632 
-0.0843347 -10.2265 -0.0902562 
-0.0614632 -0.0902562 -10.4385 
-10.4983 -0.0206878 0.000535066 
-0.0206878 -10.3939 -0.13405 
0.000535066 -0.13405 -10.5412 
-7.40331 0.152339 0.960476 
0.152339 -2.06532 0.423017 
0.960476 0.423017 1.64023 
-2.3188 -0.334653 0.378608 
-0.334653 -5.41755 1.2788 
0.378608 1.2788 -0.0920445 
-3.57481 0.882966 -1.01204 
0.882966 0.115625 -1.89689 
-1.01204 -1.89689 -4.36922 
-5.63509 -0.264297 0.695196 
-0.264297 -2.06573 -2.54817 
0.695196 -2.54817 -0.127584 
-9.71488 0.0372701 0.195181 
0.0372701 -9.64632 0.833102 
0.195181 0.833102 -9.79135 
-9.71714 0.00401143 0.173421 
0.00401143 -9.66115 0.775996 
0.173421 0.775996 -9.77426 
-9.7551 0.00926434 0.228076 
0.00926434 -9.62998 0.759122 
0.228076 0.759122 -9.76747 
-9.72986 0.0343227 0.208817 
0.0343227 -9.66287 0.816864 
0.208817 0.816864 -9.75981 
-9.45111 -0.3642 -0.110155 
-0.3642 -9.1762 0.169988 
-0.110155 0.169988 -9.69895 
-9.51633 0.283732 -0.172776 
0.283732 -9.57002 0.517427 
-0.172776 0.517427 -9.2399 
-9.39384 0.074292 -0.0745664 
0.074292 -9.46466 0.571014 
-0.0745664 0.571014 -9.46776 
-9.40765 -0.110261 -0.340744 
-0.110261 -9.14015 0.43995 
-0.340744 0.43995 -9.77845 
-9.79921 0.0106275 0.395656 
0.0106275 -9.76343 0.81431 
0.395656 0.81431 -10.0442 
-9.7719 0.00108351 0.37249 
0.00108351 -9.83869 0.752335 
0.37249 0.752335 -9.99621 
-9.89234 0.0278037 0.379065 
0.0278037 -9.83233 0.771956 
0.379065 0.771956 -9.88213 
-9.90555 0.0541736 0.408231 
0.0541736 -9.83193 0.744529 
0.408231 0.744529 -9.86932 
-9.22093 0.0238693 -0.32745 
0.0238693 -8.96012 -0.368211 
-0.32745 -0.368211 -7.32977 
-10.3889 -0.0472375 0.160722 
-0.0472375 -10.3572 -0.929678 
0.160722 -0.929678 -4.76475 
-9.88167 -0.0841416 -0.757786 
-0.0841416 -9.4568 -1.0467 
-0.757786 -1.0467 -6.17235 
-9.88801 0.0359575 -0.647702 
0.0359575 -9.46774 -1.37604 
-0.647702 -1.37604 -6.15507 
-9.80909 0.00834028 0.844376 
0.00834028 -9.81315 0.315644 
0.844376 0.315644 -9.80172 
-9.78659 0.0274586 0.801147 
0.0274586 -9.79019 0.346748 
0.801147 0.346748 -9.84718 
-9.78306 0.0355417 0.800793 
0.0355417 -9.81728 0.32377 
0.800793 0.32377 -9.82361 
-9.80689 0.0164272 0.855783 
0.0164272 -9.77896 0.324486 
0.855783 0.324486 -9.83811 
-9.47539 0.0539436 0.257824 
0.0539436 -9.37871 0.519036 
0.257824 0.519036 -9.52349 
-9.54619 0.278698 0.201623 
0.278698 -9.08316 0.449439 
0.201623 0.449439 -9.74823 
-9.41416 -0.0520904 0.230178 
-0.0520904 -9.47757 0.501909 
0.230178 0.501909 -9.48585 
-9.48016 -0.0396429 0.305811 
-0.0396429 -9.34951 0.72465 
0.305811 0.72465 -9.54791 
-9.95816 0.0943213 -0.0263785 
0.0943213 -9.68148 -0.154348 
-0.0263785 -0.154348 -10.0027 
-10.0418 0.157946 -0.00554122 
0.157946 -9.45034 -0.00534633 
-0.00554122 -0.00534633 -10.1502 
-9.7797 -0.0158038 -0.0117164 
-0.0158038 -9.98753 -0.0696258 
-0.0117164 -0.0696258 -9.87513 
-9.87513 -0.14744 0.00539987 
-0.14744 -9.77247 -0.178856 
0.00539987 -0.178856 -9.99477 
-10.196 0.00663632 0.386776 
0.00663632 -9.99856 0.673517 
0.386776 0.673517 -8.44487 
-9.88966 0.116724 0.438979 
0.116724 -10.0354 0.464293 
0.438979 0.464293 -8.71429 
-9.83896 0.0841189 0.380909 
0.0841189 -10.123 0.346995 
0.380909 0.346995 -8.67746 
-9.76276 0.186748 0.61851 
0.186748 -9.90055 0.326851 
0.61851 0.326851 -8.97609 
-9.24432 0.614967 -0.863876 
0.614967 -9.83404 -0.377072 
-0.863876 -0.377072 -11.0783 
-9.00056 0.284004 -0.802965 
0.284004 -9.98359 -0.142667 
-0.802965 -0.142667 -11.1725 
-9.32216 0.0761591 -0.611497 
0.0761591 -10.1016 0.0154757 
-0.611497 0.0154757 -10.7328 
-8.38662 0.841265 -0.453043 
0.841265 -10.6491 0.328794 
-0.453043 0.328794 -11.1209 
-9.40767 -0.118743 -0.211594 
-0.118743 -8.50739 -1.5085 
-0.211594 -1.5085 -7.06391 
-9.11213 -0.0714971 0.0745074 
-0.0714971 -8.34555 -1.91202 
0.0745074 -1.91202 -7.52131 
-8.86924 -0.13104 0.106928 
-0.13104 -8.73079 -1.84296 
0.106928 -1.84296 -7.37895 
-9.64502 -0.313513 0.220708 
-0.313513 -8.69859 -2.06741 
0.220708 -2.06741 -6.63537 
-7.10162 0.212423 -0.559484 
0.212423 -6.45214 -0.476938 
-0.559484 -0.476938 -2.11265 
-6.83709 0.304971 -0.86845 
0.304971 -7.26981 -0.220813 
-0.86845 -0.220813 -1.55951 
-6.72227 -0.34139 -0.764572 
-0.34139 -6.61063 -0.102501 
-0.764572 -0.102501 -2.3335 
-7.31196 0.231748 -0.539332 
0.231748 -7.07671 0.0774632 
-0.539332 0.0774632 -1.27773 
-9.55965 0.183834 0.449961 
0.183834 -9.30356 -0.178951 
0.449961 -0.178951 -9.47631 
-9.38373 0.0252384 0.381325 
0.0252384 -9.4313 -0.3909 
0.381325 -0.3909 -9.52449 
-9.02815 -0.368041 0.370772 
-0.368041 -9.58584 -0.0397884 
0.370772 -0.0397884 -9.72553 
-9.32322 -0.050742 0.643532 
-0.050742 -9.31334 -0.249735 
0.643532 -0.249735 -9.70296 
-8.11621 0.0849263 -0.66746 
0.0849263 -7.49113 0.0294584 
-0.66746 0.0294584 -2.48022 
-8.05218 -0.0422257 -0.427671 
-0.0422257 -7.6615 0.0099762 
-0.427671 0.0099762 -2.37388 
-8.12762 -0.184604 -0.0420324 
-0.184604 -8.42291 0.325907 
-0.0420324 0.325907 -1.53703 
-6.97463 -0.295641 -0.181142 
-0.295641 -8.02946 -0.407994 
-0.181142 -0.407994 -3.08347 
-9.81985 0.0487033 -0.0115143 
0.0487033 -9.68019 0.793893 
-0.0115143 0.793893 -9.69156 
-9.64946 0.00743642 0.0569329 
0.00743642 -9.75074 0.794984 
0.0569329 0.794984 -9.79141 
-9.76607 -0.00411278 0.0799471 
-0.00411278 -9.62733 0.89689 
0.0799471 0.89689 -9.7982 
-9.73061 0.0134926 0.0595696 
0.0134926 -9.66477 0.848045 
0.0595696 0.848045 -9.79622 
-9.74494 0.0385925 0.865057 
0.0385925 -9.87666 0.13056 
0.865057 0.13056 -10.1609 
-9.93101 0.0281011 0.980728 
0.0281011 -9.95516 0.147518 
0.980728 0.147518 -9.89629 
-9.90984 0.000457615 0.982766 
0.000457615 -10.0274 0.1355 
0.982766 0.1355 -9.8452 
-9.78886 0.050412 1.0761 
0.050412 -10.0532 0.192889 
1.0761 0.192889 -9.94037 
-9.53265 -0.0829501 -0.257812 
-0.0829501 -9.01185 1.72222 
-0.257812 1.72222 -8.0242 
-9.28256 0.0110667 -0.373896 
0.0110667 -8.4142 1.56446 
-0.373896 1.56446 -8.87195 
-9.66344 -0.27752 -0.461087 
-0.27752 -9.042 1.71707 
-0.461087 1.71707 -7.86327 
-10.2306 0.00483122 -0.501539 
0.00483122 -8.52956 2.85593 
-0.501539 2.85593 -7.80857 
-3.54387 -0.244037 1.89836 
-0.244037 -5.43136 -1.554 
1.89836 -1.554 1.63812 
-3.61361 0.031549 0.413863 
0.031549 -3.64154 -0.079121 
0.413863 -0.079121 -0.0819642 
-2.38912 -0.200041 -0.174301 
-0.200041 -1.94131 0.727729 
-0.174301 0.727729 -3.00669 
-3.53749 1.62947 0.0541842 
1.62947 -3.86398 1.39909 
0.0541842 1.39909 0.0643607 
-9.81642 0.0011129 -0.538086 
0.0011129 -9.75314 0.75017 
-0.538086 0.75017 -9.85963 
-9.79991 0.00216192 -0.51186 
0.00216192 -9.80355 0.734103 
-0.51186 0.734103 -9.82574 
-9.80916 -0.00366072 -0.471901 
-0.00366072 -9.78273 0.736231 
-0.471901 0.736231 -9.83731 
-9.84585 -0.0577028 -0.463941 
-0.0577028 -9.75744 0.695159 
-0.463941 0.695159 -9.82591 
-9.94747 -0.00506645 0.825958 
-0.00506645 -9.84222 -0.397328 
0.825958 -0.397328 -10.0415 
-9.9499 0.0003493 0.795286 
0.0003493 -9.94204 -0.346204 
0.795286 -0.346204 -9.93927 
-9.93319 -0.016927 0.805249 
-0.016927 -9.93487 -0.366886 
0.805249 -0.366886 -9.96315 
-9.93998 0.00212497 0.782962 
0.00212497 -9.95574 -0.356705 
0.782962 -0.356705 -9.93549 
-9.61407 0.0335848 -0.575573 
0.0335848 -9.63421 -0.687087 
-0.575573 -0.687087 -9.81822 
-9.70445 0.0657248 -0.484806 
0.0657248 -9.61291 -0.638714 
-0.484806 -0.638714 -9.74914 
-9.63017 0.05177 -0.534605 
0.05177 -9.60813 -0.677339 
-0.534605 -0.677339 -9.8282 
-9.68611 0.0844188 -0.506108 
0.0844188 -9.62949 -0.698139 
-0.506108 -0.698139 -9.7509 
-10.0954 -0.396965 -0.291547 
-0.396965 -9.17555 -0.0721526 
-0.291547 -0.0721526 -9.1946 
-8.8709 0.491459 -0.274349 
0.491459 -9.66853 -0.30197 
-0.274349 -0.30197 -9.92609 
-9.15982 0.0903241 -0.532451 
0.0903241 -9.50057 -0.184097 
-0.532451 -0.184097 -9.80513 
-9.09039 -0.206831 -0.752439 
-0.206831 -9.6244 -0.343133 
-0.752439 -0.343133 -9.75074 
-9.43425 -0.377197 0.072173 
-0.377197 -9.81659 -0.124859 
0.072173 -0.124859 -9.96916 
-9.81015 -0.0104701 -0.0704463 
-0.0104701 -9.64524 0.0989373 
-0.0704463 0.0989373 -9.76461 
-9.82313 0.353021 -0.139208 
0.353021 -9.71675 0.300831 
-0.139208 0.300831 -9.68012 
-9.76053 -0.224626 -0.262649 
-0.224626 -9.40701 -0.102048 
-0.262649 -0.102048 -10.0525 
-9.65545 0.0197204 -0.841994 
0.0197204 -9.78855 0.110271 
-0.841994 0.110271 -9.85867 
-9.63931 0.000535279 -0.890984 
0.000535279 -9.91173 0.148461 
-0.890984 0.148461 -9.75163 
-9.59235 0.0200764 -0.895348 
0.0200764 -9.85451 0.151444 
-0.895348 0.151444 -9.85581 
-9.69288 -0.00503469 -0.823879 
-0.00503469 -9.77744 0.146807 
-0.823879 0.146807 -9.83234 
-9.87325 0.0227686 -0.0152376 
0.0227686 -9.89539 0.878095 
-0.0152376 0.878095 -9.96497 
-9.91702 -0.0067892 -0.0038213 
-0.0067892 -9.90522 0.876337 
-0.0038213 0.876337 -9.91136 
-9.8677 0.00109654 -0.00736122 
0.00109654 -9.85321 0.866441 
-0.00736122 0.866441 -10.0127 
-9.87856 -0.00268378 -0.00208911 
-0.00268378 -9.90605 0.878077 
-0.00208911 0.878077 -9.949 
-9.11036 0.00274831 -0.401985 
0.00274831 -9.69495 0.0826306 
-0.401985 0.0826306 -9.65768 
-9.81099 -0.0230444 -0.359796 
-0.0230444 -9.25451 -0.0170478 
-0.359796 -0.0170478 -9.3975 
-9.04977 0.0299778 -0.595887 
0.0299778 -9.51618 0.0542568 
-0.595887 0.0542568 -9.89705 
-9.2602 0.220658 -0.447076 
0.220658 -9.48635 -0.0334205 
-0.447076 -0.0334205 -9.71645 
-9.82516 0.0323123 -0.434683 
0.0323123 -9.72488 -0.820378 
-0.434683 -0.820378 -9.89951 
-9.81089 0.0750644 -0.487515 
0.0750644 -9.74702 -0.733027 
-0.487515 -0.733027 -9.89164 
-9.82556 0.077097 -0.431746 
0.077097 -9.75478 -0.775551 
-0.431746 -0.775551 -9.86922 
-9.89742 0.0559054 -0.5074 
0.0559054 -9.69543 -0.787934 
-0.5074 -0.787934 -9.85669 
-9.79694 -0.00785195 -0.615311 
-0.00785195 -9.81362 0.615217 
-0.615311 0.615217 -9.85411 
-9.82529 0.0015047 -0.614902 
0.0015047 -9.80685 0.651095 
-0.614902 0.651095 -9.83252 
-9.7665 0.000247872 -0.623886 
0.000247872 -9.82319 0.674912 
-0.623886 0.674912 -9.87497 
-9.78818 -0.0720796 -0.580239 
-0.0720796 -9.83418 0.585846 
-0.580239 0.585846 -9.8423 
-9.00865 -0.189931 -0.894863 
-0.189931 -8.48414 1.9987 
-0.894863 1.9987 -6.9092 
-9.23214 -0.674498 -0.889858 
-0.674498 -8.46183 2.20678 
-0.889858 2.20678 -6.70802 
-9.26737 -0.513612 -1.19445 
-0.513612 -8.73475 2.45913 
-1.19445 2.45913 -6.39987 
-9.00451 -0.46719 -0.70216 
-0.46719 -8.51045 2.29904 
-0.70216 2.29904 -6.88704 
-8.75184 -0.233164 -2.46698 
-0.233164 -9.06802 1.30717 
-2.46698 1.30717 -6.08659 
-9.56498 -0.445631 -2.83037 
-0.445631 -8.664 1.97073 
-2.83037 1.97073 -5.67746 
-8.41291 -0.760137 -3.14292 
-0.760137 -9.17445 2.09061 
-3.14292 2.09061 -6.31908 
-8.57584 -0.558909 -1.4459 
-0.558909 -8.81176 1.43137 
-1.4459 1.43137 -6.51885 
-9.13643 0.0848102 -0.543893 
0.0848102 -10.2387 -0.372896 
-0.543893 -0.372896 -10.8443 
-9.1769 0.237044 -0.463106 
0.237044 -9.97838 -0.081755 
-0.463106 -0.081755 -11.0641 
-8.90015 0.176139 -0.543277 
0.176139 -10.3194 -0.0509327 
-0.543277 -0.0509327 -10.9998 
-8.78001 0.32825 -0.300903 
0.32825 -10.3475 -0.0967206 
-0.300903 -0.0967206 -11.0919 
-10.0125 0.0302507 0.460268 
0.0302507 -9.72367 0.0990154 
0.460268 0.0990154 -10.2917 
-10.0831 0.0992828 0.55285 
0.0992828 -10.1579 0.225097 
0.55285 0.225097 -9.78682 
-10.0762 0.0416224 0.569016 
0.0416224 -10.0545 0.136632 
0.569016 0.136632 -9.89703 
-10.0703 0.00134132 0.62381 
0.00134132 -10.1612 0.0802158 
0.62381 0.0802158 -9.79623 
-9.93633 -0.00205195 0.586425 
-0.00205195 -9.90762 0.630131 
0.586425 0.630131 -9.95934 
-9.9344 0.00122874 0.591803 
0.00122874 -9.93948 0.618818 
0.591803 0.618818 -9.92941 
-9.90632 -0.0345052 0.600626 
-0.0345052 -9.88601 0.665372 
0.600626 0.665372 -10.011 
-9.92645 0.000968764 0.588036 
0.000968764 -9.91933 0.641471 
0.588036 0.641471 -9.95751 
-9.84395 -0.0149631 0.621695 
-0.0149631 -9.81519 -0.615168 
0.621695 -0.615168 -9.87481 
-9.84064 0.00448296 0.648558 
0.00448296 -9.85032 -0.613677 
0.648558 -0.613677 -9.84299 
-9.843 -0.0554729 0.592775 
-0.0554729 -9.82124 -0.58973 
0.592775 -0.58973 -9.8697 
-9.85592 0.0170414 0.657288 
0.0170414 -9.80548 -0.610735 
0.657288 -0.610735 -9.87255 
-9.70617 -0.153116 0.0124338 
-0.153116 -8.84888 0.19187 
0.0124338 0.19187 -9.94381 
-9.34239 0.15007 0.0574261 
0.15007 -9.93018 0.45114 
0.0574261 0.45114 -9.22629 
-9.49252 0.00159168 0.0451828 
0.00159168 -9.32617 0.464835 
0.0451828 0.464835 -9.68017 
-9.47611 -0.0020227 -0.169674 
-0.0020227 -9.16014 0.699646 
-0.169674 0.699646 -9.86261 
-12.0553 -1.16047 -0.0620643 
-1.16047 -9.4124 0.188072 
-0.0620643 0.188072 -13.3327 
-5.53433 -1.70422 0.0844336 
-1.70422 -12.8558 1.87477 
0.0844336 1.87477 -16.4102 
-10.1489 -0.606477 -2.2141 
-0.606477 -10.7856 0.719022 
-2.2141 0.719022 -13.866 
-9.45359 -1.56245 -1.58261 
-1.56245 -11.8093 1.47992 
-1.58261 1.47992 -13.5375 
-9.40523 0.0171375 0.509927 
0.0171375 -9.41987 0.294767 
0.509927 0.294767 -9.5107 
-9.46403 -0.0161743 0.532186 
-0.0161743 -9.38537 0.242024 
0.532186 0.242024 -9.48639 
-9.21718 0.134104 0.611472 
0.134104 -9.47336 0.312311 
0.611472 0.312311 -9.64525 
-9.37669 -0.00587421 0.438414 
-0.00587421 -9.44357 0.220404 
0.438414 0.220404 -9.51554 
-9.60928 -0.0943571 -0.24654 
-0.0943571 -9.81485 -0.0915418 
-0.24654 -0.0915418 -10.4106 
-10.1246 -0.141913 0.128748 
-0.141913 -9.75248 -0.243833 
0.128748 -0.243833 -9.95767 
-9.89318 -0.126474 0.10043 
-0.126474 -10.1866 0.0537268 
0.10043 0.0537268 -9.75492 
-9.84133 0.168539 0.0802034 
0.168539 -9.76464 -0.296683 
0.0802034 -0.296683 -10.2287 
-10.2279 0.531308 0.252246 
0.531308 -10.0528 0.77345 
0.252246 0.77345 -12.274 
-11.2556 -0.159758 0.0622089 
-0.159758 -10.8912 -0.456328 
0.0622089 -0.456328 -10.4079 
-10.6429 -0.535433 0.261535 
-0.535433 -11.6748 -0.723617 
0.261535 -0.723617 -10.237 
-11.1221 -0.19207 0.0163312 
-0.19207 -9.52967 -0.403681 
0.0163312 -0.403681 -11.9029 
-9.87105 -0.0150848 -0.965361 
-0.0150848 -9.93544 0.192172 
-0.965361 0.192172 -9.92918 
-9.95163 -0.0667578 -0.929945 
-0.0667578 -9.97511 0.219755 
-0.929945 0.219755 -9.80892 
-9.72728 0.00232642 -0.877613 
0.00232642 -9.82151 0.191392 
-0.877613 0.191392 -10.1869 
-9.83559 -0.0247584 -1.0458 
-0.0247584 -10.0178 0.133655 
-1.0458 0.133655 -9.8823 
-9.63871 0.0173717 -0.866816 
0.0173717 -9.74648 0.0921818 
-0.866816 0.0921818 -9.80568 
-9.64764 -0.0342812 -0.790854 
-0.0342812 -9.78271 0.0316867 
-0.790854 0.0316867 -9.76052 
-9.67124 -0.0121223 -0.831467 
-0.0121223 -9.69931 0.0910648 
-0.831467 0.0910648 -9.82033 
-9.65808 -0.0151884 -0.85179 
-0.0151884 -9.74916 0.0763345 
-0.85179 0.0763345 -9.78363 
-9.76595 0.0292524 0.480571 
0.0292524 -9.77585 0.750009 
0.480571 0.750009 -10.0761 
-9.85009 0.0365448 0.455943 
0.0365448 -9.85158 0.699929 
0.455943 0.699929 -9.91622 
-9.82921 -0.0105704 0.464499 
-0.0105704 -9.86706 0.702946 
0.464499 0.702946 -9.92161 
-9.87102 0.0415106 0.439883 
0.0415106 -9.85517 0.665695 
0.439883 0.665695 -9.89171 
-2.38796 0.165328 0.424149 
0.165328 -3.48853 -0.2958 
0.424149 -0.2958 0.606667 
-2.60401 0.154201 0.882837 
0.154201 -1.39521 0.945244 
0.882837 0.945244 -1.27059 
-1.79048 -0.333789 0.911749 
-0.333789 -2.37739 0.794377 
0.911749 0.794377 -1.10195 
-1.79071 -0.437061 0.834502 
-0.437061 -2.871 1.27562 
0.834502 1.27562 -0.608098 
-12.3962 0.619076 0.508706 
0.619076 -12.9485 0.073211 
0.508706 0.073211 -14.6376 
-13.1231 0.776244 0.68594 
0.776244 -13.7222 0.513427 
0.68594 0.513427 -13.1369 
-11.2177 1.02977 1.56064 
1.02977 -11.2817 -0.0975771 
1.56064 -0.0975771 -17.4829 
-12.4274 0.777312 -0.361324 
0.777312 -13.508 0.437444 
-0.361324 0.437444 -14.0469 
-9.2694 -0.226643 -0.0922792 
-0.226643 -8.39222 2.18978 
-0.0922792 2.18978 -6.52667 
-9.18189 -0.0225965 -0.853384 
-0.0225965 -8.95758 2.24234 
-0.853384 2.24234 -6.04882 
-9.72041 -0.49273 0.0118363 
-0.49273 -8.65576 2.50114 
0.0118363 2.50114 -5.81212 
-9.48758 0.264253 -0.729636 
0.264253 -8.27358 2.51224 
-0.729636 2.51224 -6.42713 
-9.84458 0.0643774 0.469408 
0.0643774 -9.82317 0.693279 
0.469408 0.693279 -9.86617 
-9.81841 0.0207965 0.486546 
0.0207965 -9.83045 0.714776 
0.486546 0.714776 -9.88506 
-9.84197 -0.0178202 0.475268 
-0.0178202 -9.83506 0.74903 
0.475268 0.74903 -9.85689 
-9.81278 -0.00626439 0.469044 
-0.00626439 -9.84758 0.757269 
0.469044 0.757269 -9.87356 
-9.63976 0.12985 -0.483806 
0.12985 -9.17103 0.164181 
-0.483806 0.164181 -9.30872 
-9.19193 -0.0214876 -0.437957 
-0.0214876 -9.41855 0.151251 
-0.437957 0.151251 -9.50903 
-8.98153 -0.107969 -0.546708 
-0.107969 -9.49081 0.196357 
-0.546708 0.196357 -9.64718 
-9.24447 -0.132569 -0.244919 
-0.132569 -9.31615 0.0967893 
-0.244919 0.0967893 -9.55889 
-9.88805 0.017643 -0.00795318 
0.017643 -9.95517 -0.0816359 
-0.00795318 -0.0816359 -9.974 
-9.84053 0.0660781 0.0288127 
0.0660781 -9.83348 -0.0308214 
0.0288127 -0.0308214 -10.1432 
-9.86817 -0.0525027 -0.135403 
-0.0525027 -9.91303 0.0867632 
-0.135403 0.0867632 -10.036 
-9.79724 0.0033569 -0.0408346 
0.0033569 -9.97639 -0.0997019 
-0.0408346 -0.0997019 -10.0436 
-9.91988 0.00618485 0.311102 
0.00618485 -9.91822 0.79551 
0.311102 0.79551 -9.92174 
-9.86156 -0.0247784 0.310419 
-0.0247784 -9.89879 0.828416 
0.310419 0.828416 -9.99948 
-9.90877 -0.00938865 0.299253 
-0.00938865 -9.88423 0.800357 
0.299253 0.800357 -9.96684 
-9.89974 0.00363783 0.297678 
0.00363783 -9.90389 0.810366 
0.297678 0.810366 -9.9562 
-9.53278 -0.0550757 -0.611892 
-0.0550757 -9.55857 0.459927 
-0.611892 0.459927 -9.62819 
-9.57488 0.126212 -0.697795 
0.126212 -9.57532 0.48026 
-0.697795 0.48026 -9.56934 
-9.49212 -0.0817438 -0.620071 
-0.0817438 -9.52344 0.495261 
-0.620071 0.495261 -9.70398 
-9.4203 -0.00955552 -0.584097 
-0.00955552 -9.6508 0.47939 
-0.584097 0.47939 -9.64844 
-9.87532 -0.0449787 -0.646668 
-0.0449787 -9.83801 0.60997 
-0.646668 0.60997 -9.96514 
-9.88283 -0.0218251 -0.614545 
-0.0218251 -9.87879 0.608783 
-0.614545 0.608783 -9.91685 
-9.82704 -0.0836715 -0.640985 
-0.0836715 -9.81529 0.677607 
-0.640985 0.677607 -10.0361 
-9.92726 -0.0497745 -0.616084 
-0.0497745 -9.81645 0.564585 
-0.616084 0.564585 -9.93475 
-2.30212 -0.413159 0.0423177 
-0.413159 -2.68684 0.746415 
0.0423177 0.746415 0.298449 
-1.13277 -0.0215652 0.310625 
-0.0215652 -1.37891 -0.0330878 
0.310625 -0.0330878 -2.17883 
-2.22843 -0.068335 -0.15956 
-0.068335 -2.44719 0.107084 
-0.15956 0.107084 -0.0148975 
-1.86118 0.0339041 0.63494 
0.0339041 -2.28324 -0.0904959 
0.63494 -0.0904959 -0.546086 
-12.2126 -0.261774 -1.96765 
-0.261774 -12.0942 0.0960551 
-1.96765 0.0960551 -9.65155 
-12.4519 0.805109 -1.84816 
0.805109 -11.1339 -0.260106 
-1.84816 -0.260106 -10.3727 
-9.1586 -1.44497 1.81099 
-1.44497 -9.67099 0.154746 
1.81099 0.154746 -15.1288 
-8.09331 0.585566 -1.68566 
0.585566 -12.2039 0.323426 
-1.68566 0.323426 -13.6611 
-10.2961 0.342372 0.150175 
0.342372 -9.6938 -0.357579 
0.150175 -0.357579 -10.3276 
-10.6013 0.203974 -0.145985 
0.203974 -9.76262 0.375987 
-0.145985 0.375987 -9.95354 
-10.0362 -0.365367 0.102712 
-0.365367 -10.2538 -0.201833 
0.102712 -0.201833 -10.0275 
-9.69899 -0.430747 -0.16121 
-0.430747 -10.27 0.368276 
-0.16121 0.368276 -10.3485 
-10.0002 -0.00678208 -0.00571862 
-0.00678208 -9.98893 0.00587538 
-0.00571862 0.00587538 -9.98254 
-9.98136 -0.0223639 -0.0030275 
-0.0223639 -10.0009 0.0306572 
-0.0030275 0.0306572 -9.98941 
-9.99746 0.0363319 -0.0158467 
0.0363319 -9.97443 0.0139951 
-0.0158467 0.0139951 -9.99973 
-10.0165 -0.079629 -0.0104048 
-0.079629 -9.97204 -0.0348143 
-0.0104048 -0.0348143 -9.98306 
-9.66993 0.0991388 -0.133571 
0.0991388 -8.36761 -1.36004 
-0.133571 -1.36004 -9.71224 
-9.44122 0.014346 -0.0751005 
0.014346 -8.46425 -1.13225 
-0.0751005 -1.13225 -9.84431 
-9.42902 0.0828901 -0.144145 
0.0828901 -8.57895 -1.18319 
-0.144145 -1.18319 -9.74182 
-9.36833 0.0365863 -0.114367 
0.0365863 -8.66686 -1.21667 
-0.114367 -1.21667 -9.71459 
-4.37031 1.02868 -1.18251 
1.02868 -3.4068 -0.469421 
-1.18251 -0.469421 -0.174331 
-3.6737 0.0215697 0.76063 
0.0215697 -3.42187 0.0660234 
0.76063 0.0660234 -0.855865 
-2.93448 -0.30667 0.175001 
-0.30667 -4.40481 -0.0210054 
0.175001 -0.0210054 -0.612142 
-3.47484 0.250227 -0.430239 
0.250227 -3.43456 -0.505291 
-0.430239 -0.505291 -1.04204 
-9.82432 -0.176398 0.266445 
-0.176398 -9.97802 0.689051 
0.266445 0.689051 -10.1954 
-10.1893 -0.0193822 0.177472 
-0.0193822 -10.0019 0.863079 
0.177472 0.863079 -9.80655 
-10.0574 -0.0412423 0.258247 
-0.0412423 -10.0095 0.82357 
0.258247 0.82357 -9.93082 
-10.0986 0.0566132 0.292056 
0.0566132 -10.0876 0.847257 
0.292056 0.847257 -9.81155 
-9.27576 0.456302 0.312153 
0.456302 -10.4257 0.149699 
0.312153 0.149699 -12.2889 
-9.86731 0.688679 0.203791 
0.688679 -10.6928 0.235328 
0.203791 0.235328 -11.4303 
-9.50802 0.654558 -0.0721431 
0.654558 -10.5938 -0.313587 
-0.0721431 -0.313587 -11.8886 
-9.99377 0.504467 0.344491 
0.504467 -10.4155 -0.0250608 
0.344491 -0.0250608 -11.5811 
-9.8141 0.00135954 -0.881611 
0.00135954 -9.85189 -0.0666482 
-0.881611 -0.0666482 -9.84884 
-9.76277 -0.0141765 -0.870995 
-0.0141765 -9.84329 -0.0510139 
-0.870995 -0.0510139 -9.90877 
-9.84468 -0.000348805 -0.913118 
-0.000348805 -9.86921 -0.0663531 
-0.913118 -0.0663531 -9.80094 
-9.82984 -0.0134091 -0.902025 
-0.0134091 -9.83841 -0.0852798 
-0.902025 -0.0852798 -9.84658 
-9.53856 0.152461 0.62152 
0.152461 -9.42958 0.616513 
0.62152 0.616513 -9.8388 
-9.61514 -0.0899547 0.544413 
-0.0899547 -9.60318 0.544258 
0.544413 0.544258 -9.58861 
-9.59836 0.0480646 0.495209 
0.0480646 -9.62619 0.617557 
0.495209 0.617557 -9.58238 
-9.46583 0.0720931 0.574783 
0.0720931 -9.64677 0.475074 
0.574783 0.475074 -9.69433 
-9.8284 -0.252399 -0.469959 
-0.252399 -8.7576 1.94635 
-0.469959 1.94635 -7.01082 
-9.27574 -0.108338 -0.484587 
-0.108338 -8.99826 1.70892 
-0.484587 1.70892 -7.32282 
-9.36533 -0.459423 -1.04581 
-0.459423 -9.53449 2.39026 
-1.04581 2.39026 -6.697 
-9.78535 -0.0790042 -0.692761 
-0.0790042 -8.5647 2.26302 
-0.692761 2.26302 -7.24677 
-9.80503 0.0066067 0.61516 
0.0066067 -9.78805 0.619023 
0.61516 0.619023 -9.85014 
-9.80229 0.000534403 0.653131 
0.000534403 -9.81321 0.614582 
0.653131 0.614582 -9.82772 
-9.81415 0.0018266 0.674431 
0.0018266 -9.75848 0.624916 
0.674431 0.624916 -9.87059 
-9.81893 0.0648201 0.588264 
0.0648201 -9.78579 0.583636 
0.588264 0.583636 -9.8385 
-9.63161 0.0881926 0.0680801 
0.0881926 -9.95518 0.0114465 
0.0680801 0.0114465 -9.79519 
-9.8735 -0.0777537 -0.112959 
-0.0777537 -9.59743 0.0214694 
-0.112959 0.0214694 -9.91105 
-9.7235 -0.0259337 -0.0716875 
-0.0259337 -9.55024 0.179318 
-0.0716875 0.179318 -10.1082 
-9.84013 0.0916485 0.0627174 
0.0916485 -9.51524 0.116381 
0.0627174 0.116381 -10.0266 
-10.0236 0.0291166 0.00352179 
0.0291166 -10.0125 0.00312777 
0.00352179 0.00312777 -10.0502 
-10.0868 -0.136838 0.0190239 
-0.136838 -10.0874 0.0174593 
0.0190239 0.0174593 -9.91217 
-10.0353 0.0785187 0.0599125 
0.0785187 -9.99776 0.038557 
0.0599125 0.038557 -10.0532 
-9.96839 0.0970946 -0.0200394 
0.0970946 -10.046 -0.0313293 
-0.0200394 -0.0313293 -10.0719 
-9.72251 -0.1558 0.14494 
-0.1558 -8.98597 -0.985246 
0.14494 -0.985246 -9.99092 
-9.67048 0.0432296 -0.00707191 
0.0432296 -9.17213 -0.929726 
-0.00707191 -0.929726 -9.85679 
-9.73357 -0.0922721 0.105212 
-0.0922721 -8.84691 -0.95086 
0.105212 -0.95086 -10.1189 
-9.85879 0.0354536 0.0049183 
0.0354536 -9.07523 -1.15355 
0.0049183 -1.15355 -9.76538 
-9.7295 0.268038 0.369889 
0.268038 -9.5061 1.28061 
0.369889 1.28061 -9.76769 
-9.81061 0.0782889 0.250656 
0.0782889 -9.37812 1.16866 
0.250656 1.16866 -9.81457 
-9.89647 0.12037 0.138534 
0.12037 -9.30279 1.07043 
0.138534 1.07043 -9.80402 
-9.72634 0.00948372 0.230926 
0.00948372 -9.51959 0.856198 
0.230926 0.856198 -9.75737 
-9.87389 0.0560732 -0.493442 
0.0560732 -9.87413 -0.624676 
-0.493442 -0.624676 -10.0936 
-9.93808 0.0379519 -0.567655 
0.0379519 -9.93158 -0.694888 
-0.567655 -0.694888 -9.97196 
-9.96326 -0.00255928 -0.594328 
-0.00255928 -10.0113 -0.715148 
-0.594328 -0.715148 -9.86703 
-9.86665 0.110325 -0.58753 
0.110325 -9.92777 -0.714862 
-0.58753 -0.714862 -10.0472 
-2.54536 -0.0250964 -0.0115504 
-0.0250964 -2.7727 0.242858 
-0.0115504 0.242858 -0.435972 
-3.03946 -0.232589 -0.153712 
-0.232589 -3.10952 -0.6039 
-0.153712 -0.6039 0.394955 
-2.54991 -0.135466 -0.412725 
-0.135466 -2.26139 0.222402 
-0.412725 0.222402 -0.942725 
-2.16252 0.141549 -0.470079 
0.141549 -2.74096 0.627125 
-0.470079 0.627125 -0.850547 
-9.97086 0.00778283 -0.0537833 
0.00778283 -9.86512 0.00270881 
-0.0537833 0.00270881 -10.0433 
-9.99576 0.0405159 -0.0539499 
0.0405159 -9.8849 0.0914998 
-0.0539499 0.0914998 -9.9986 
-9.6469 -0.00755355 0.00393668 
-0.00755355 -10.1602 -0.0193258 
0.00393668 -0.0193258 -10.0722 
-9.9765 -0.0826103 -0.170171 
-0.0826103 -9.83775 0.0127931 
-0.170171 0.0127931 -10.065 
-9.83855 -0.0841643 0.901276 
-0.0841643 -9.91622 -0.290603 
0.901276 -0.290603 -9.94609 
-9.83504 -0.0292625 0.859643 
-0.0292625 -9.88094 -0.289302 
0.859643 -0.289302 -9.98487 
-9.86413 -0.00296571 0.940666 
-0.00296571 -9.93664 -0.267458 
0.940666 -0.267458 -9.90008 
-9.80415 -0.117436 0.902129 
-0.117436 -9.92854 -0.3167 
0.902129 -0.3167 -9.96817 
-9.90055 -0.0265559 0.311096 
-0.0265559 -9.83792 -0.755032 
0.311096 -0.755032 -10.022 
-9.92888 -0.0181015 0.332379 
-0.0181015 -9.907 -0.831189 
0.332379 -0.831189 -9.92453 
-9.94411 0.00067228 0.349599 
0.00067228 -9.89499 -0.825767 
0.349599 -0.825767 -9.92131 
-9.96487 -0.0407733 0.345661 
-0.0407733 -9.85603 -0.849829 
0.345661 -0.849829 -9.93952 
-9.92238 0.00299921 -0.622617 
0.00299921 -9.93751 0.58754 
-0.622617 0.58754 -9.952 
-9.94973 -0.00290253 -0.615954 
-0.00290253 -9.93299 0.588504 
-0.615954 0.588504 -9.92916 
-9.89116 0.043863 -0.666021 
0.043863 -9.90375 0.596991 
-0.666021 0.596991 -10.017 
-9.92302 -0.00447805 -0.635016 
-0.00447805 -9.93473 0.589895 
-0.635016 0.589895 -9.95413 
-9.90377 -0.00528554 -0.82366 
-0.00528554 -9.89599 0.300722 
-0.82366 0.300722 -9.94796 
-9.87694 0.00343084 -0.818369 
0.00343084 -9.89673 0.296409 
-0.818369 0.296409 -9.97405 
-9.88907 0.0161455 -0.845597 
0.0161455 -9.86365 0.313729 
-0.845597 0.313729 -9.99499 
-9.9144 -0.00970999 -0.811269 
-0.00970999 -9.91362 0.308268 
-0.811269 0.308268 -9.91971 
-9.88962 -0.00468881 -0.839884 
-0.00468881 -9.83241 -0.16852 
-0.839884 -0.16852 -9.98529 
-9.82047 -0.0010818 -0.80657 
-0.0010818 -9.82961 -0.16658 
-0.80657 -0.16658 -10.0572 
-9.9089 0.0218373 -0.809921 
0.0218373 -9.90764 -0.149075 
-0.809921 -0.149075 -9.89078 
-9.88513 0.034344 -0.829052 
0.034344 -9.91242 -0.113705 
-0.829052 -0.113705 -9.90977 
-10.0543 -0.0213088 0.00117576 
-0.0213088 -10.1179 -0.0154933 
0.00117576 -0.0154933 -10.0199 
-10.0998 0.0443672 0.0385122 
0.0443672 -10.0686 -0.0178255 
0.0385122 -0.0178255 -10.0236 
-9.99503 -0.0563107 0.00988033 
-0.0563107 -10.1168 -0.00555519 
0.00988033 -0.00555519 -10.0803 
-10.0841 -0.00221495 0.0149128 
-0.00221495 -10.0827 0.00869352 
0.0149128 0.00869352 -10.0253 
-10.0391 -0.0186894 0.29671 
-0.0186894 -10.0159 -0.609183 
0.29671 -0.609183 -10.0782 
-10.0903 0.00775784 0.300522 
0.00775784 -10.0912 -0.583126 
0.300522 -0.583126 -9.95177 
-10.0754 0.00476547 0.312928 
0.00476547 -10.1055 -0.589051 
0.312928 -0.589051 -9.95235 
-10.0886 0.0138846 0.312357 
0.0138846 -10.078 -0.550108 
0.312357 -0.550108 -9.96662 
-9.6541 0.0724138 0.53238 
0.0724138 -9.2523 -0.0750772 
0.53238 -0.0750772 -9.4518 
-9.34098 -0.0826666 0.559804 
-0.0826666 -9.47358 -0.111526 
0.559804 -0.111526 -9.54363 
-9.02051 -0.0800795 0.735041 
-0.0800795 -9.52274 -0.191251 
0.735041 -0.191251 -9.81495 
-9.34271 -0.196302 0.48283 
-0.196302 -9.31806 -0.240369 
0.48283 -0.240369 -9.69744 
-9.66255 -0.216912 0.228783 
-0.216912 -9.23807 -1.08373 
0.228783 -1.08373 -9.68611 
-9.68508 -0.0814771 0.0758426 
-0.0814771 -9.24419 -1.09582 
0.0758426 -1.09582 -9.65746 
-9.62557 0.0451965 -0.0303443 
0.0451965 -9.10776 -1.01952 
-0.0303443 -1.01952 -9.8534 
-9.87941 0.0533693 -0.0180382 
0.0533693 -8.97246 -1.16925 
-0.0180382 -1.16925 -9.73485 
-9.63948 -0.0115344 -0.0851683 
-0.0115344 -9.73471 0.802167 
-0.0851683 0.802167 -9.8472 
-9.84281 -0.0594371 -0.0299591 
-0.0594371 -9.65484 0.793572 
-0.0299591 0.793572 -9.72375 
-9.75714 0.0100203 -0.0969696 
0.0100203 -9.64031 0.873538 
-0.0969696 0.873538 -9.82395 
-9.75767 -0.00582347 -0.0845337 
-0.00582347 -9.6631 0.853899 
-0.0845337 0.853899 -9.80062 
-9.95932 0.00995999 -0.15971 
0.00995999 -9.94982 -0.866669 
-0.15971 -0.866669 -9.90585 
-9.92976 -0.0224691 -0.147055 
-0.0224691 -9.90779 -0.872812 
-0.147055 -0.872812 -9.97745 
-9.92179 0.00198894 -0.128571 
0.00198894 -9.90335 -0.850399 
-0.128571 -0.850399 -9.98985 
-9.94079 -0.0126475 -0.14326 
-0.0126475 -9.93572 -0.843754 
-0.14326 -0.843754 -9.93849 
-9.89224 -0.0274709 0.791539 
-0.0274709 -9.83703 -0.355515 
0.791539 -0.355515 -9.97072 
-9.85664 0.00260962 0.819011 
0.00260962 -9.88653 -0.354022 
0.819011 -0.354022 -9.95682 
-9.81597 -0.0466167 0.774211 
-0.0466167 -9.89409 -0.323245 
0.774211 -0.323245 -9.98993 
-9.88583 -0.0311477 0.810567 
-0.0311477 -9.88031 -0.38276 
0.810567 -0.38276 -9.93385 
-7.0469 -0.000826735 -0.813872 
-0.000826735 -6.62056 0.525254 
-0.813872 0.525254 -1.88641 
-6.88498 0.070635 -1.17606 
0.070635 -6.85371 0.428397 
-1.17606 0.428397 -1.81516 
-6.53694 -0.0976593 -1.16417 
-0.0976593 -7.16534 0.274009 
-1.16417 0.274009 -1.85159 
-7.04685 0.00269383 -1.01822 
0.00269383 -6.85066 0.552394 
-1.01822 0.552394 -1.65636 
-9.95424 -0.00541915 -0.0271454 
-0.00541915 -9.97433 0.121832 
-0.0271454 0.121832 -10.1435 
-9.94079 -0.0395947 -0.0120304 
-0.0395947 -9.85706 0.0591685 
-0.0120304 0.0591685 -10.2742 
-10.2133 -0.0428838 0.0306217 
-0.0428838 -9.86301 -0.258684 
0.0306217 -0.258684 -9.99577 
-10.0087 -0.18859 -0.0408092 
-0.18859 -9.82503 0.0531798 
-0.0408092 0.0531798 -10.2384 
-10.0313 -0.0386999 -0.0150312 
-0.0386999 -10.176 -0.0023435 
-0.0150312 -0.0023435 -10.2416 
-10.1426 -0.0150618 -0.000609009 
-0.0150618 -10.1302 0.0151735 
-0.000609009 0.0151735 -10.1762 
-10.1903 -0.0166984 -0.0343846 
-0.0166984 -10.1084 -0.0127733 
-0.0343846 -0.0127733 -10.1503 
-10.1271 -0.0284893 -0.000404312 
-0.0284893 -10.175 0.00278062 
-0.000404312 0.00278062 -10.1468 
-9.81301 0.004275 -0.796245 
0.004275 -9.87025 -0.329985 
-0.796245 -0.329985 -10.0139 
-9.838 0.00193701 -0.753803 
0.00193701 -9.87392 -0.315476 
-0.753803 -0.315476 -9.98525 
-9.86671 0.0102022 -0.783516 
0.0102022 -9.90972 -0.295841 
-0.783516 -0.295841 -9.92074 
-9.85801 0.000795426 -0.793438 
0.000795426 -9.92297 -0.275648 
-0.793438 -0.275648 -9.91618 
-10.132 -0.0190048 0.000206321 
-0.0190048 -10.1083 -0.0401704 
0.000206321 -0.0401704 -10.0609 
-10.1231 0.0139591 0.0156204 
0.0139591 -10.0989 -0.0332707 
0.0156204 -0.0332707 -10.0794 
-10.123 -0.00621002 -0.0323747 
-0.00621002 -10.1091 -0.00536071 
-0.0323747 -0.00536071 -10.0692 
-10.1516 0.0123494 0.016872 
0.0123494 -10.0542 0.00238378 
0.016872 0.00238378 -10.0955 
-9.49382 -0.0514466 0.110776 
-0.0514466 -9.61522 -0.497247 
0.110776 -0.497247 -9.34746 
-9.4033 0.126825 0.185028 
0.126825 -9.60365 -0.423267 
0.185028 -0.423267 -9.44954 
-9.54736 -0.111218 0.34177 
-0.111218 -9.18304 -0.644262 
0.34177 -0.644262 -9.7261 
-9.40333 -0.124714 0.338225 
-0.124714 -9.36272 -0.394816 
0.338225 -0.394816 -9.69045 
-9.4979 0.0245326 -0.0614477 
0.0245326 -9.7706 0.809065 
-0.0614477 0.809065 -9.57699 
-9.65682 0.00160499 -0.0959439 
0.00160499 -9.56567 0.802465 
-0.0959439 0.802465 -9.623 
-9.6382 -0.0768283 -0.101575 
-0.0768283 -9.345 0.843194 
-0.101575 0.843194 -9.8623 
-9.65476 0.108084 0.0062396 
0.108084 -9.48061 0.719184 
0.0062396 0.719184 -9.71012 
-9.88347 -0.0554448 0.0576403 
-0.0554448 -9.93716 -0.013041 
0.0576403 -0.013041 -10.1051 
-10.1126 0.0592477 0.0138617 
0.0592477 -9.84292 0.00389218 
0.0138617 0.00389218 -9.9703 
-9.89906 -0.00961309 -0.0609228 
-0.00961309 -9.86771 0.0522646 
-0.0609228 0.0522646 -10.159 
-9.85092 0.0138426 -0.00951806 
0.0138426 -9.9792 0.0372623 
-0.00951806 0.0372623 -10.0957 
-9.78203 0.000694625 -0.816184 
0.000694625 -9.81546 -0.343716 
-0.816184 -0.343716 -9.86961 
-9.78224 -0.0209853 -0.837148 
-0.0209853 -9.81152 -0.384281 
-0.837148 -0.384281 -9.87334 
-9.81164 0.00833728 -0.824468 
0.00833728 -9.82753 -0.384132 
-0.824468 -0.384132 -9.82793 
-9.76361 0.0331992 -0.780468 
0.0331992 -9.84652 -0.323129 
-0.780468 -0.323129 -9.85696 
-9.78221 0.013568 -0.860867 
0.013568 -9.85923 -0.154164 
-0.860867 -0.154164 -9.90574 
-9.80476 0.00626494 -0.864702 
0.00626494 -9.82154 -0.168486 
-0.864702 -0.168486 -9.92088 
-9.82607 0.00934784 -0.77867 
0.00934784 -9.82208 -0.165073 
-0.77867 -0.165073 -9.89903 
-9.76741 0.00970941 -0.861091 
0.00970941 -9.87494 -0.165978 
-0.861091 -0.165978 -9.90483 
-9.73462 -0.00361869 -0.899429 
-0.00361869 -9.83844 0.0172985 
-0.899429 0.0172985 -10.0451 
-9.82274 0.00915379 -0.857942 
0.00915379 -9.8838 -0.0294813 
-0.857942 -0.0294813 -9.91158 
-9.80683 -0.0130326 -0.853585 
-0.0130326 -9.88671 -0.011821 
-0.853585 -0.011821 -9.9246 
-9.79906 -0.0262763 -0.812259 
-0.0262763 -9.92418 -0.0459562 
-0.812259 -0.0459562 -9.89489 
-9.80798 -0.00566984 0.819884 
-0.00566984 -9.89355 -0.166232 
0.819884 -0.166232 -9.95044 
-9.78759 0.00382992 0.858465 
0.00382992 -9.84624 -0.196899 
0.858465 -0.196899 -10.0181 
-9.84549 0.0270594 0.83582 
0.0270594 -9.86064 -0.155661 
0.83582 -0.155661 -9.94583 
-9.84701 -0.00475256 0.83284 
-0.00475256 -9.89559 -0.13603 
0.83284 -0.13603 -9.90936 
-2.4482 0.0952121 -0.261107 
0.0952121 -2.64594 0.616572 
-0.261107 0.616572 -0.170537 
-1.62971 -0.113967 0.38836 
-0.113967 -1.46338 0.496016 
0.38836 0.496016 -2.17157 
-2.62387 -0.269497 0.124021 
-0.269497 -2.55093 0.00965008 
0.124021 0.00965008 -0.0898707 
-2.11182 -0.0891411 0.68313 
-0.0891411 -2.03931 0.91986 
0.68313 0.91986 -1.11354 
-8.77701 -0.189068 -1.11812 
-0.189068 -8.41531 1.7172 
-1.11812 1.7172 -6.27306 
-8.89925 -0.501426 -1.74459 
-0.501426 -8.75426 2.11423 
-1.74459 2.11423 -5.81188 
-8.49631 -0.697639 -1.42591 
-0.697639 -8.64819 1.74477 
-1.42591 1.74477 -6.32088 
-8.5893 -0.525456 -1.52645 
-0.525456 -8.51241 1.53056 
-1.52645 1.53056 -6.36367 
-9.8478 0.00441112 -0.789795 
0.00441112 -9.89565 -0.188885 
-0.789795 -0.188885 -9.97701 
-9.83593 0.015638 -0.832435 
0.015638 -9.89053 -0.192811 
-0.832435 -0.192811 -9.99401 
-9.86618 0.002351 -0.792228 
0.002351 -9.91085 -0.22143 
-0.792228 -0.22143 -9.94344 
-9.88318 0.00441572 -0.794373 
0.00441572 -9.92575 -0.220061 
-0.794373 -0.220061 -9.91154 
-2.49353 0.163367 -0.520029 
0.163367 -2.23246 0.232197 
-0.520029 0.232197 0.250785 
-1.36102 0.11362 -0.345723 
0.11362 -1.23256 0.562751 
-0.345723 0.562751 -1.88163 
-2.8075 -0.00340385 0.342375 
-0.00340385 -2.38671 0.164461 
0.342375 0.164461 0.718999 
-2.23493 0.269501 -0.434252 
0.269501 -1.86087 1.39978 
-0.434252 1.39978 -0.379408 
-9.87563 -0.0260432 0.525586 
-0.0260432 -9.9182 0.717655 
0.525586 0.717655 -10.0082 
-9.94442 -0.000422814 0.490669 
-0.000422814 -9.92919 0.705098 
0.490669 0.705098 -9.92845 
-9.89984 0.00661249 0.504426 
0.00661249 -9.93021 0.697209 
0.504426 0.697209 -9.97201 
-9.92217 0.00087223 0.508102 
0.00087223 -9.92068 0.70122 
0.508102 0.70122 -9.9592 
-9.72824 0.294573 -0.147241 
0.294573 -9.59659 0.0212458 
-0.147241 0.0212458 -9.54168 
-9.59307 -0.120046 -0.157487 
-0.120046 -9.50462 0.179004 
-0.157487 0.179004 -9.76881 
-9.44107 -0.2566 -0.289092 
-0.2566 -9.50715 0.340216 
-0.289092 0.340216 -9.91829 
-9.67133 -0.117034 -0.0499625 
-0.117034 -9.29429 0.249333 
-0.0499625 0.249333 -9.90089 
-10.1327 0.00558579 -0.0199382 
0.00558579 -10.1682 0.0552069 
-0.0199382 0.0552069 -10.1639 
-10.1047 0.0286424 -0.0402996 
0.0286424 -10.1963 0.0130775 
-0.0402996 0.0130775 -10.1638 
-10.1147 0.044073 -0.0362893 
0.044073 -10.1163 -0.0743159 
-0.0362893 -0.0743159 -10.2337 
-10.0574 0.024183 -0.0500178 
0.024183 -10.3226 -0.015323 
-0.0500178 -0.015323 -10.0848 
-8.75289 0.701211 -0.175537 
0.701211 -10.5715 0.0299872 
-0.175537 0.0299872 -10.3588 
-8.60075 0.649088 -1.47467 
0.649088 -10.556 -1.64493 
-1.47467 -1.64493 -10.5265 
-9.73503 -0.425609 0.150667 
-0.425609 -9.03276 0.538568 
0.150667 0.538568 -10.9154 
-6.67882 0.0280819 -0.921159 
0.0280819 -10.2039 0.706623 
-0.921159 0.706623 -12.8005 
-9.79643 0.207284 -0.203483 
0.207284 -8.91126 -0.91437 
-0.203483 -0.91437 -10.2248 
-9.71022 0.0412087 -0.0659072 
0.0412087 -9.24557 -0.888105 
-0.0659072 -0.888105 -9.97672 
-9.78981 0.205093 -0.199301 
0.205093 -9.09899 -0.957211 
-0.199301 -0.957211 -10.0437 
-9.86202 0.053405 -0.0748696 
0.053405 -9.17216 -1.1094 
-0.0748696 -1.1094 -9.89833 
-2.48242 0.158814 0.23718 
0.158814 -2.47381 -0.0299889 
0.23718 -0.0299889 -0.324009 
-2.49655 0.0367591 -0.153801 
0.0367591 -2.31755 0.0267062 
-0.153801 0.0267062 -0.466134 
-2.58679 -0.114121 0.0493412 
-0.114121 -2.23847 0.322365 
0.0493412 0.322365 -0.454976 
-2.24949 0.145185 0.233128 
0.145185 -2.02521 0.186679 
0.233128 0.186679 -1.00554 
-9.60276 0.0786711 -0.282423 
0.0786711 -8.82952 -0.971423 
-0.282423 -0.971423 -10.0487 
-9.7054 0.158767 -0.259034 
0.158767 -8.97547 -1.10171 
-0.259034 -1.10171 -9.80016 
-9.682 0.192684 -0.134079 
0.192684 -8.82786 -1.07544 
-0.134079 -1.07544 -9.97117 
-9.60135 0.166203 -0.255533 
0.166203 -8.97389 -1.09901 
-0.255533 -1.09901 -9.90579 
-10.175 -0.0718738 0.0535534 
-0.0718738 -10.0662 0.0286577 
0.0535534 0.0286577 -10.1577 
-10.128 0.019114 -0.0365652 
0.019114 -10.1158 0.0578212 
-0.0365652 0.0578212 -10.1551 
-10.1137 0.064267 0.0585486 
0.064267 -10.0835 -0.0304047 
0.0585486 -0.0304047 -10.2017 
-10.1433 -0.0229541 0.0237341 
-0.0229541 -10.0709 0.0123016 
0.0237341 0.0123016 -10.1846 
-9.52172 -0.01853 -0.78453 
-0.01853 -9.4389 0.0668654 
-0.78453 0.0668654 -9.5673 
-9.49936 0.02283 -0.811999 
0.02283 -9.46 0.0894253 
-0.811999 0.0894253 -9.56856 
-9.27033 0.00994202 -0.716921 
0.00994202 -9.62077 0.04234 
-0.716921 0.04234 -9.63683 
-9.39854 -0.0517501 -0.838166 
-0.0517501 -9.47454 0.0346855 
-0.838166 0.0346855 -9.65484 
-9.8361 0.067034 -0.567058 
0.067034 -9.77845 -0.634636 
-0.567058 -0.634636 -9.95457 
-9.78177 0.062177 -0.638823 
0.062177 -9.86685 -0.632632 
-0.638823 -0.632632 -9.9205 
-9.81311 0.0771001 -0.584652 
0.0771001 -9.83212 -0.63481 
-0.584652 -0.63481 -9.92389 
-9.84516 0.0766019 -0.593151 
0.0766019 -9.8056 -0.670177 
-0.593151 -0.670177 -9.91835 
-9.90243 -0.105811 -0.0615759 
-0.105811 -9.89047 -0.00833944 
-0.0615759 -0.00833944 -10.0344 
-9.99929 -0.0933446 0.12684 
-0.0933446 -9.78622 -0.0638448 
0.12684 -0.0638448 -10.0418 
-9.88309 -0.124366 -0.0180332 
-0.124366 -9.85714 -0.0194412 
-0.0180332 -0.0194412 -10.087 
-9.82809 -0.150704 -0.0305753 
-0.150704 -9.91086 -0.0040991 
-0.0305753 -0.0040991 -10.0883 
-9.66493 0.0211663 -0.0651182 
0.0211663 -9.13838 -0.952427 
-0.0651182 -0.952427 -9.91697 
-9.68005 0.149123 -0.153 
0.149123 -9.47852 -1.10185 
-0.153 -1.10185 -9.56171 
-9.7048 0.239005 -0.281615 
0.239005 -9.34979 -1.09231 
-0.281615 -1.09231 -9.66569 
-9.88689 -0.000400598 -0.0363769 
-0.000400598 -8.99639 -1.21584 
-0.0363769 -1.21584 -9.837 
-9.34162 0.176284 0.382792 
0.176284 -9.33099 0.434338 
0.382792 0.434338 -9.64945 
-9.54509 -0.196752 0.38051 
-0.196752 -9.32454 0.437735 
0.38051 0.437735 -9.45243 
-9.35943 0.0713197 0.442842 
0.0713197 -9.36389 0.475695 
0.442842 0.475695 -9.59874 
-9.44044 0.0842578 0.506881 
0.0842578 -9.31035 0.540747 
0.506881 0.540747 -9.57126 
-9.9128 0.0722686 -0.0720474 
0.0722686 -10.002 0.108141 
-0.0720474 0.108141 -10.104 
-9.9516 0.0279723 0.157798 
0.0279723 -9.97674 -0.0772104 
0.157798 -0.0772104 -10.0904 
-9.89671 -0.0983624 -0.00196379 
-0.0983624 -10.0552 0.0842145 
-0.00196379 0.0842145 -10.0668 
-9.8085 -0.133599 0.0128002 
-0.133599 -10.0287 0.0548248 
0.0128002 0.0548248 -10.1815 
-14.065 -5.17202 8.89701 
-5.17202 -15.5775 2.57257 
8.89701 2.57257 7.38878 
-19.6525 -2.17568 6.42612 
-2.17568 -11.878 6.78908 
6.42612 6.78908 9.27674 
-2.13051 0.0781842 -6.71978 
0.0781842 2.91722 -2.11561 
-6.71978 -2.11561 -23.0405 
2.91416 9.1875 12.4482 
9.1875 -8.49219 9.43705 
12.4482 9.43705 -16.6757 
-9.97111 0.0226458 0.520506 
0.0226458 -9.99154 0.712984 
0.520506 0.712984 -9.9736 
-10.0639 0.0699761 0.594172 
0.0699761 -10.0188 0.686104 
0.594172 0.686104 -9.85356 
-9.77024 0.0135664 0.472392 
0.0135664 -10.0586 0.632881 
0.472392 0.632881 -10.1074 
-10.0883 -0.0126018 0.533632 
-0.0126018 -10.0088 0.711958 
0.533632 0.711958 -9.83919 
-9.76228 0.148326 0.114736 
0.148326 -9.65149 0.028409 
0.114736 0.028409 -9.68243 
-9.54354 -0.0838567 0.18409 
-0.0838567 -9.57284 -0.164726 
0.18409 -0.164726 -9.97983 
-9.60066 -0.207415 0.0886019 
-0.207415 -9.56719 -0.0798853 
0.0886019 -0.0798853 -9.92836 
-9.47914 -0.0344586 0.167428 
-0.0344586 -9.7334 -0.0495473 
0.167428 -0.0495473 -9.88366 
-9.23188 -0.121826 0.35756 
-0.121826 -9.60582 0.492316 
0.35756 0.492316 -9.23462 
-9.30255 -0.124553 0.508623 
-0.124553 -9.40237 0.453501 
0.508623 0.453501 -9.3674 
-9.48948 0.246782 0.145799 
0.246782 -9.03797 0.34097 
0.145799 0.34097 -9.54488 
-9.25402 0.123552 0.252261 
0.123552 -9.19545 0.589397 
0.252261 0.589397 -9.62284 
-10.0739 0.0280085 0.0909109 
0.0280085 -10.1251 -0.0321647 
0.0909109 -0.0321647 -10.2091 
-10.1185 -0.0244596 0.0106428 
-0.0244596 -10.1037 0.0570186 
0.0106428 0.0570186 -10.186 
-10.1154 0.0415149 -0.0670693 
0.0415149 -10.1843 0.00267572 
-0.0670693 0.00267572 -10.1084 
-10.1477 0.0746574 -0.0213995 
0.0746574 -10.1535 0.0338455 
-0.0213995 0.0338455 -10.1069 
-10.0223 0.0186612 -0.163204 
0.0186612 -9.95992 0.0999207 
-0.163204 0.0999207 -10.1491 
-10.0925 -0.126037 0.0689354 
-0.126037 -9.99878 -0.133933 
0.0689354 -0.133933 -10.04 
-9.94045 -0.0235971 -0.0275559 
-0.0235971 -9.76517 -0.0524884 
-0.0275559 -0.0524884 -10.4257 
-10.1897 -0.039912 0.002435 
-0.039912 -9.64371 -0.051174 
0.002435 -0.051174 -10.2978 
-11.0537 -0.0722234 0.114862 
-0.0722234 -10.9394 -0.135822 
0.114862 -0.135822 -10.5405 
-9.94089 0.00434614 -0.161853 
0.00434614 -10.2385 0.311735 
-0.161853 0.311735 -12.3541 
-10.8662 -0.0492334 -0.05521 
-0.0492334 -10.9754 -0.0533885 
-0.05521 -0.0533885 -10.692 
-11.0837 0.0806241 -0.315151 
0.0806241 -10.8852 -0.464184 
-0.315151 -0.464184 -10.5646 
-9.42187 -0.00268174 0.21238 
-0.00268174 -9.41089 0.495401 
0.21238 0.495401 -9.51669 
-9.47387 0.0203926 0.224811 
0.0203926 -9.32666 0.474344 
0.224811 0.474344 -9.54892 
-9.5683 0.160821 0.229082 
0.160821 -9.06117 0.547106 
0.229082 0.547106 -9.71998 
-9.38602 0.0359479 0.143882 
0.0359479 -9.41456 0.340826 
0.143882 0.340826 -9.54887 
-10.0612 -0.0801329 -0.0220805 
-0.0801329 -9.82593 -0.0533984 
-0.0220805 -0.0533984 -9.9265 
-9.8598 0.00934991 -0.061429 
0.00934991 -9.9309 -0.0122915 
-0.061429 -0.0122915 -10.0229 
-9.7007 0.174898 0.0108203 
0.174898 -10.0156 -0.00306741 
0.0108203 -0.00306741 -10.0973 
-9.88123 0.0252429 -0.202847 
0.0252429 -9.94326 -0.096368 
-0.202847 -0.096368 -9.9891 
-10.0521 -0.0185033 0.0174643 
-0.0185033 -10.0241 -0.0147452 
0.0174643 -0.0147452 -10.0044 
-10.0126 0.0192505 0.000533136 
0.0192505 -10.0409 0.00224813 
0.000533136 0.00224813 -10.027 
-10.0101 0.00933696 0.000431632 
0.00933696 -10.0437 0.00371938 
0.000431632 0.00371938 -10.0268 
-10.0087 0.0114456 0.0167394 
0.0114456 -10.0449 0.0111431 
0.0167394 0.0111431 -10.027 
-10.0064 -0.0415582 -0.0568589 
-0.0415582 -10.0743 -0.00848599 
-0.0568589 -0.00848599 -10.1153 
-9.9816 -0.0142381 0.0299626 
-0.0142381 -10.0711 0.0438382 
0.0299626 0.0438382 -10.1433 
-9.99204 0.0261374 0.025704 
0.0261374 -10.081 0.0455368 
0.025704 0.0455368 -10.123 
-9.94294 0.0553529 0.00964864 
0.0553529 -10.0863 0.0248549 
0.00964864 0.0248549 -10.1667 
-9.93515 0.00869825 0.0124495 
0.00869825 -9.88004 -0.0277714 
0.0124495 -0.0277714 -10.0527 
-9.99193 -0.162104 -0.0366725 
-0.162104 -9.82692 0.000367134 
-0.0366725 0.000367134 -10.049 
-9.87095 0.110293 0.139811 
0.110293 -10.0915 0.00426659 
0.139811 0.00426659 -9.90544 
-9.96917 -0.00636607 0.0774424 
-0.00636607 -9.88039 -0.125109 
0.0774424 -0.125109 -10.0183 
-10.0196 0.0194433 0.031338 
0.0194433 -10.0322 -0.00825157 
0.031338 -0.00825157 -9.99505 
-10.0389 -0.022437 0.0444442 
-0.022437 -9.98772 0.00185814 
0.0444442 0.00185814 -10.0202 
-10.0222 0.0101837 -0.045733 
0.0101837 -10.0089 -0.0557261 
-0.045733 -0.0557261 -10.0157 
-9.98282 -0.0641066 -0.0153156 
-0.0641066 -10.0236 0.0262659 
-0.0153156 0.0262659 -10.0404 
-7.56617 1.96351 4.67492 
1.96351 -7.90385 -0.329292 
4.67492 -0.329292 -3.41501 
-6.16043 1.35826 4.55393 
1.35826 -7.10228 -0.385001 
4.55393 -0.385001 -5.62232 
-7.27095 -1.83554 4.17693 
-1.83554 -5.80013 -0.459282 
4.17693 -0.459282 -5.81395 
-6.49362 0.0181002 4.20932 
0.0181002 -7.09493 -2.58162 
4.20932 -2.58162 -5.29648 
-9.87522 0.0269628 -0.323783 
0.0269628 -9.77009 -0.79229 
-0.323783 -0.79229 -9.85823 
-9.81401 -0.00321528 -0.372512 
-0.00321528 -9.83687 -0.813044 
-0.372512 -0.813044 -9.85266 
-9.82576 -0.00016267 -0.33395 
-0.00016267 -9.80105 -0.805251 
-0.33395 -0.805251 -9.87673 
-9.82756 -0.0113387 -0.376552 
-0.0113387 -9.80975 -0.821038 
-0.376552 -0.821038 -9.86623 
-9.82311 0.0223815 -0.757875 
0.0223815 -9.86493 -0.362226 
-0.757875 -0.362226 -9.98682 
-9.84104 0.0167334 -0.794264 
0.0167334 -9.85538 -0.362106 
-0.794264 -0.362106 -9.97845 
-9.84074 0.0202939 -0.774135 
0.0202939 -9.88151 -0.397926 
-0.774135 -0.397926 -9.95261 
-9.85882 0.0189957 -0.764458 
0.0189957 -9.90664 -0.392456 
-0.764458 -0.392456 -9.90941 
-9.54303 0.0186673 0.802715 
0.0186673 -9.69484 0.107269 
0.802715 0.107269 -9.72695 
-9.65446 0.0196176 0.816623 
0.0196176 -9.57787 0.121475 
0.816623 0.121475 -9.73248 
-9.57771 0.00746369 0.81918 
0.00746369 -9.66133 0.100049 
0.81918 0.100049 -9.72577 
-9.59046 0.0234127 0.835727 
0.0234127 -9.65592 0.101163 
0.835727 0.101163 -9.71843 
-9.51194 0.0798471 0.401366 
0.0798471 -9.29774 1.02055 
0.401366 1.02055 -8.50448 
-9.35392 -0.0338348 0.47127 
-0.0338348 -9.34696 0.986748 
0.47127 0.986748 -8.61329 
-9.27752 0.149104 0.480194 
0.149104 -9.26662 1.02485 
0.480194 1.02485 -8.77002 
-9.48963 0.188148 0.476189 
0.188148 -9.14488 0.679565 
0.476189 0.679565 -8.67965 
-9.84275 0.0200141 -0.808311 
0.0200141 -9.84284 0.169546 
-0.808311 0.169546 -9.98181 
-9.82174 -0.00579787 -0.81889 
-0.00579787 -9.93271 0.157395 
-0.81889 0.157395 -9.91295 
-9.79386 0.0238749 -0.84746 
0.0238749 -9.87307 0.208265 
-0.84746 0.208265 -10.0005 
-9.86718 -0.0212535 -0.824134 
-0.0212535 -9.9206 0.167267 
-0.824134 0.167267 -9.87963 
-9.07478 0.261549 -0.213363 
0.261549 -11.1143 -0.278338 
-0.213363 -0.278338 -12.2619 
-8.41785 0.514481 0.559574 
0.514481 -11.4759 0.197848 
0.559574 0.197848 -12.5572 
-9.21896 0.658314 -0.213859 
0.658314 -11.126 -0.263435 
-0.213859 -0.263435 -12.106 
-11.463 0.250419 0.90639 
0.250419 -9.87125 0.452872 
0.90639 0.452872 -11.1167 
-9.87687 0.00934352 -0.0163948 
0.00934352 -9.83044 -0.928771 
-0.0163948 -0.928771 -10.0874 
-9.92302 -0.0498734 -0.0693926 
-0.0498734 -9.91923 -0.965006 
-0.0693926 -0.965006 -9.95241 
-9.99339 -0.000286497 -0.0752806 
-0.000286497 -9.92464 -0.945383 
-0.0752806 -0.945383 -9.87663 
-9.99525 0.021701 -0.075086 
0.021701 -9.93815 -0.98842 
-0.075086 -0.98842 -9.86127 
-10.1405 0.00176089 0.0221199 
0.00176089 -10.136 0.0291354 
0.0221199 0.0291354 -10.1534 
-10.1753 -0.0222253 -0.0586504 
-0.0222253 -10.117 -0.0310323 
-0.0586504 -0.0310323 -10.1376 
-10.0654 -0.0160871 0.0298158 
-0.0160871 -10.1563 -0.0192717 
0.0298158 -0.0192717 -10.2082 
-10.1436 -0.0136086 0.00232728 
-0.0136086 -10.1434 0.00986268 
0.00232728 0.00986268 -10.143 
-9.495 -0.0143069 0.552204 
-0.0143069 -9.46741 0.533794 
0.552204 0.533794 -9.57454 
-9.40975 0.169607 0.516584 
0.169607 -9.47876 0.485279 
0.516584 0.485279 -9.64843 
-9.47306 0.00759887 0.538027 
0.00759887 -9.47283 0.563348 
0.538027 0.563348 -9.59106 
-9.49112 0.0392186 0.6277 
0.0392186 -9.41578 0.559659 
0.6277 0.559659 -9.63004 
-9.82348 -0.0142821 -0.565256 
-0.0142821 -9.81311 0.59636 
-0.565256 0.59636 -10.0198 
-9.87953 -0.0258453 -0.575357 
-0.0258453 -9.87676 0.64204 
-0.575357 0.64204 -9.90013 
-9.82085 -0.0109799 -0.613994 
-0.0109799 -9.83719 0.644678 
-0.613994 0.644678 -9.99838 
-9.89924 -0.0431864 -0.566517 
-0.0431864 -9.86793 0.679396 
-0.566517 0.679396 -9.88925 
-10.1372 -0.00375232 0.0308269 
-0.00375232 -10.1225 -0.00436471 
0.0308269 -0.00436471 -10.1042 
-10.171 0.00442739 -0.00223414 
0.00442739 -10.0197 0.000850326 
-0.00223414 0.000850326 -10.1731 
-10.0738 -0.00454151 -0.0160566 
-0.00454151 -10.1834 -0.0212965 
-0.0160566 -0.0212965 -10.1067 
-10.1184 -0.0124131 -0.0190068 
-0.0124131 -10.1584 0.0211085 
-0.0190068 0.0211085 -10.087 
-10.0296 0.0157281 -0.00942606 
0.0157281 -10.0235 -0.0174882 
-0.00942606 -0.0174882 -10.0432 
-10.0668 0.0138046 -0.00598849 
0.0138046 -10.0193 -0.00353326 
-0.00598849 -0.00353326 -10.0102 
-9.9664 0.00895497 0.0375882 
0.00895497 -10.0513 -0.0199412 
0.0375882 -0.0199412 -10.0786 
-10.001 -0.00455947 -0.032552 
-0.00455947 -10.0195 -0.0364805 
-0.032552 -0.0364805 -10.0757 
-9.95255 0.0041997 -0.0478976 
0.0041997 -9.86421 0.852058 
-0.0478976 0.852058 -9.90355 
-9.90811 -0.000824631 -0.0418712 
-0.000824631 -9.87356 0.848802 
-0.0418712 0.848802 -9.93864 
-9.89348 -0.00512324 -0.0337354 
-0.00512324 -9.78134 0.926377 
-0.0337354 0.926377 -10.0455 
-9.95945 0.0260912 -0.0898015 
0.0260912 -9.82238 0.830117 
-0.0898015 0.830117 -9.93848 
-10.0122 0.0245923 0.00980712 
0.0245923 -10.1009 0.0365336 
0.00980712 0.0365336 -10.0717 
-10.083 0.00916774 0.00339529 
0.00916774 -10.0013 -0.0176274 
0.00339529 -0.0176274 -10.1006 
-10.0622 0.0121751 0.0019656 
0.0121751 -10.0655 -0.00148189 
0.0019656 -0.00148189 -10.0572 
-10.0346 -0.00989514 -0.00343304 
-0.00989514 -10.0906 -0.0129852 
-0.00343304 -0.0129852 -10.0597 
-9.81581 -0.0339591 0.396554 
-0.0339591 -9.78818 -0.798652 
0.396554 -0.798652 -9.87148 
-9.83926 -0.0205411 0.396538 
-0.0205411 -9.73893 -0.763379 
0.396538 -0.763379 -9.89728 
-9.85821 -0.0093092 0.342073 
-0.0093092 -9.78006 -0.783122 
0.342073 -0.783122 -9.8372 
-9.81886 -0.048495 0.368151 
-0.048495 -9.79255 -0.799008 
0.368151 -0.799008 -9.86407 
-10.1159 -0.0162035 -0.00873912 
-0.0162035 -10.1514 0.00347402 
-0.00873912 0.00347402 -10.1395 
-10.1221 -0.00597787 0.00080307 
-0.00597787 -10.1426 0.0049152 
0.00080307 0.0049152 -10.142 
-10.1576 -0.00403726 0.0127721 
-0.00403726 -10.1217 -0.00492798 
0.0127721 -0.00492798 -10.1274 
-10.13 0.00931729 -0.000201739 
0.00931729 -10.1545 -0.0109868 
-0.000201739 -0.0109868 -10.1222 
-9.54197 0.114714 -0.0708485 
0.114714 -8.99416 -0.774886 
-0.0708485 -0.774886 -9.79916 
-9.45664 -0.0128247 -0.0681025 
-0.0128247 -9.29784 -0.58199 
-0.0681025 -0.58199 -9.5808 
-9.22069 -0.0488312 -0.149184 
-0.0488312 -9.68286 -0.54372 
-0.149184 -0.54372 -9.43173 
-9.4139 -0.186409 0.0546042 
-0.186409 -9.219 -0.523078 
0.0546042 -0.523078 -9.70238 
-9.74974 0.00364434 -0.932269 
0.00364434 -9.85256 0.0500018 
-0.932269 0.0500018 -10.0572 
-9.81389 -0.020839 -0.858859 
-0.020839 -9.8715 0.0684828 
-0.858859 0.0684828 -9.9741 
-9.85229 0.0337402 -0.851295 
0.0337402 -9.91616 0.0580854 
-0.851295 0.0580854 -9.89105 
-9.80291 0.0368464 -0.856271 
0.0368464 -9.93211 0.129742 
-0.856271 0.129742 -9.92447 
-10.1673 -0.00745375 -0.00752217 
-0.00745375 -9.97863 -0.00290323 
-0.00752217 -0.00290323 -10.1703 
-10.0888 0.00150067 0.00674334 
0.00150067 -10.1531 -0.0231382 
0.00674334 -0.0231382 -10.0744 
-10.104 0.00286156 0.010244 
0.00286156 -10.1402 0.0126257 
0.010244 0.0126257 -10.0721 
-10.1117 0.00906126 -0.0117935 
0.00906126 -10.1289 -0.0131001 
-0.0117935 -0.0131001 -10.0757 
-10.0805 0.0039078 0.0326138 
0.0039078 -10.355 0.0624158 
0.0326138 0.0624158 -10.1068 
-10.371 0.0346247 -0.0147681 
0.0346247 -9.80639 -0.00600148 
-0.0147681 -0.00600148 -10.3649 
-10.1795 -0.00627387 0.0402003 
-0.00627387 -10.2982 -0.0694738 
0.0402003 -0.0694738 -10.0645 
-10.207 -0.0131459 -0.0394983 
-0.0131459 -10.2419 0.0228 
-0.0394983 0.0228 -10.0934 
-18.0441 -0.703083 9.37501 
-0.703083 -9.54337 -3.51891 
9.37501 -3.51891 8.89281 
-16.5423 4.75163 9.95296 
4.75163 -9.03186 0.587274 
9.95296 0.587274 6.87956 
-2.90922 -2.3346 -3.91472 
-2.3346 1.07854 0.219506 
-3.91472 0.219506 -16.864 
3.4179 -1.6489 11.5331 
-1.6489 -10.4611 -2.58966 
11.5331 -2.58966 -11.6514 
-9.34902 0.978266 0.715594 
0.978266 -10.6597 0.842724 
0.715594 0.842724 -11.302 
-9.90881 0.783558 0.484932 
0.783558 -10.6075 0.0436885 
0.484932 0.0436885 -10.7945 
-9.66314 1.19192 0.314217 
1.19192 -9.63009 0.158426 
0.314217 0.158426 -12.0176 
-9.55408 0.929317 0.604174 
0.929317 -10.2491 0.286042 
0.604174 0.286042 -11.5076 
-10.1338 -0.00862371 0.00888724 
-0.00862371 -10.1051 -0.000494729 
0.00888724 -0.000494729 -10.1206 
-10.0889 -0.0032647 -0.0108892 
-0.0032647 -10.1461 -0.0178429 
-0.0108892 -0.0178429 -10.1243 
-10.1121 -0.00475198 0.00698435 
-0.00475198 -10.127 -0.00417432 
0.00698435 -0.00417432 -10.1202 
-10.1196 0.00924845 0.0156837 
0.00924845 -10.104 -0.0241699 
0.0156837 -0.0241699 -10.1358 
-10.1463 0.0132485 0.0167837 
0.0132485 -10.1491 0.012447 
0.0167837 0.012447 -10.125 
-10.1376 0.0151415 -0.0057087 
0.0151415 -10.1715 0.0209061 
-0.0057087 0.0209061 -10.1113 
-10.1571 0.0113775 -0.00141123 
0.0113775 -10.0837 0.0118918 
-0.00141123 0.0118918 -10.1795 
-10.1197 0.0164582 -0.0151351 
0.0164582 -10.1851 -0.00212422 
-0.0151351 -0.00212422 -10.1156 
-9.63653 -0.0995308 0.1631 
-0.0995308 -9.72654 0.240866 
0.1631 0.240866 -9.56846 
-9.50196 0.329861 0.132363 
0.329861 -9.30115 0.191637 
0.132363 0.191637 -10.1284 
-9.52612 0.0684531 0.354789 
0.0684531 -9.55054 0.252629 
0.354789 0.252629 -9.85487 
-9.53981 0.0640408 0.397531 
0.0640408 -9.49836 0.417241 
0.397531 0.417241 -9.89337 
-9.15721 -0.335271 1.04821 
-0.335271 -9.47808 -0.520636 
1.04821 -0.520636 -10.668 
-8.71093 -0.840009 0.692643 
-0.840009 -9.95215 -0.704025 
0.692643 -0.704025 -10.6402 
-9.00615 -0.657795 0.565485 
-0.657795 -9.55822 -0.421321 
0.565485 -0.421321 -10.7389 
-9.14615 -0.903767 0.732775 
-0.903767 -9.24181 -0.135116 
0.732775 -0.135116 -10.9153 
-9.87173 -0.0116731 -0.308422 
-0.0116731 -9.9122 -0.832833 
-0.308422 -0.832833 -9.98431 
-9.91148 -0.0130588 -0.297471 
-0.0130588 -9.88064 -0.815608 
-0.297471 -0.815608 -9.97612 
-9.92613 0.00208863 -0.318767 
0.00208863 -9.91969 -0.812488 
-0.318767 -0.812488 -9.92241 
-9.89504 0.00817646 -0.29529 
0.00817646 -9.91036 -0.820469 
-0.29529 -0.820469 -9.96285 
-12.5335 0.124776 -1.32313 
0.124776 -14.3985 -0.238354 
-1.32313 -0.238354 -13.7671 
-11.3723 0.679711 -0.248666 
0.679711 -13.409 -0.556492 
-0.248666 -0.556492 -15.9178 
-11.7784 1.35049 -1.33876 
1.35049 -12.3677 -0.634942 
-1.33876 -0.634942 -16.5529 
-11.9123 0.483068 -0.98737 
0.483068 -14.0662 0.512901 
-0.98737 0.512901 -14.7206 
-9.94375 -0.0116582 0.00384325 
-0.0116582 -9.99156 -0.0187096 
0.00384325 -0.0187096 -9.97898 
-9.95557 -0.0161041 0.00216392 
-0.0161041 -9.98594 0.0184496 
0.00216392 0.0184496 -9.97278 
-9.96218 -0.0219634 -0.0234063 
-0.0219634 -9.98316 -0.0110891 
-0.0234063 -0.0110891 -9.96895 
-9.9703 -0.00296808 -0.00871519 
-0.00296808 -9.97595 -0.0062971 
-0.00871519 -0.0062971 -9.96805 
-7.83848 0.641792 1.27284 
0.641792 -9.19755 1.54399 
1.27284 1.54399 -7.38544 
-9.02582 0.505822 1.63529 
0.505822 -8.7017 1.25775 
1.63529 1.25775 -6.69395 
-8.91222 0.415891 1.82012 
0.415891 -9.05135 1.36281 
1.82012 1.36281 -6.4579 
-9.3624 0.148771 1.15551 
0.148771 -8.55537 1.33123 
1.15551 1.33123 -6.50369 
-10.0373 0.0126536 0.0246424 
0.0126536 -10.0009 -0.0146106 
0.0246424 -0.0146106 -10.1057 
-10.015 0.0341985 0.0147737 
0.0341985 -10.0272 -0.0748651 
0.0147737 -0.0748651 -10.1017 
-10.0745 -0.00995003 -0.0524348 
-0.00995003 -10.0233 0.0838963 
-0.0524348 0.0838963 -10.0461 
-10.0203 0.0147315 0.0283611 
0.0147315 -9.94829 0.0210639 
0.0283611 0.0210639 -10.1753 
-9.51072 -0.100451 0.247122 
-0.100451 -9.54572 0.589154 
0.247122 0.589154 -8.49636 
-9.55359 -0.0224682 0.424551 
-0.0224682 -9.58166 0.768516 
0.424551 0.768516 -8.41754 
-9.68272 -0.0711169 0.319288 
-0.0711169 -9.50759 0.855045 
0.319288 0.855045 -8.36247 
-9.56676 0.211623 0.477404 
0.211623 -9.2576 0.558155 
0.477404 0.558155 -8.72843 
-2.35595 0.146462 0.24762 
0.146462 -2.83138 0.638011 
0.24762 0.638011 -0.245835 
-2.89793 0.693712 -0.0437263 
0.693712 -2.74535 -0.268132 
-0.0437263 -0.268132 0.210115 
-2.30845 0.0333996 -0.302242 
0.0333996 -1.61552 0.672061 
-0.302242 0.672061 -1.5092 
-1.66103 0.284461 -0.468529 
0.284461 -2.3214 1.21822 
-0.468529 1.21822 -1.45073 
-9.6277 -0.0251765 -0.081274 
-0.0251765 -9.60795 -0.817359 
-0.081274 -0.817359 -9.60022 
-9.57674 -0.0130989 -0.0767824 
-0.0130989 -9.6197 -0.806243 
-0.0767824 -0.806243 -9.63943 
-9.63209 0.0518076 -0.0989898 
0.0518076 -9.37818 -0.856545 
-0.0989898 -0.856545 -9.82559 
-9.63444 -0.0733606 0.00789758 
-0.0733606 -9.51057 -0.72723 
0.00789758 -0.72723 -9.69085 
-10.022 -0.0191093 0.00071912 
-0.0191093 -9.97844 -0.0593002 
0.00071912 -0.0593002 -10.0594 
-10.0401 -0.00370861 -0.0278716 
-0.00370861 -10.0005 0.05948 
-0.0278716 0.05948 -10.0192 
-9.98274 0.0355626 0.0940039 
0.0355626 -10.0116 -0.110717 
0.0940039 -0.110717 -10.0654 
-9.97664 -0.00981872 -0.0246102 
-0.00981872 -9.96512 0.0104182 
-0.0246102 0.0104182 -10.1181 
-9.83417 -0.0415741 0.254321 
-0.0415741 -9.77825 -0.822304 
0.254321 -0.822304 -9.9131 
-9.85262 0.00169131 0.294707 
0.00169131 -9.7867 -0.831999 
0.294707 -0.831999 -9.8862 
-9.82903 -0.029948 0.335153 
-0.029948 -9.84207 -0.768691 
0.335153 -0.768691 -9.85442 
-9.87522 0.0141667 0.300969 
0.0141667 -9.76701 -0.815321 
0.300969 -0.815321 -9.88329 
-9.717 0.0284743 -0.752533 
0.0284743 -9.83169 -0.185254 
-0.752533 -0.185254 -9.74299 
-9.71116 0.0299146 -0.870015 
0.0299146 -9.77014 -0.218457 
-0.870015 -0.218457 -9.81038 
-9.7532 0.00769599 -0.768661 
0.00769599 -9.72994 -0.19948 
-0.768661 -0.19948 -9.80854 
-9.69606 0.03064 -0.844132 
0.03064 -9.75547 -0.189663 
-0.844132 -0.189663 -9.84015 
-10.4217 -0.0374339 0.0247261 
-0.0374339 -10.2723 0.0371116 
0.0247261 0.0371116 -10.3903 
-10.269 -0.0981496 -0.0264929 
-0.0981496 -10.4086 0.0182154 
-0.0264929 0.0182154 -10.4068 
-10.2383 -0.0191995 -0.0476818 
-0.0191995 -10.1714 0.0121619 
-0.0476818 0.0121619 -10.6747 
-10.4044 0.0278637 0.00786805 
0.0278637 -10.2863 0.185365 
0.00786805 0.185365 -10.3937 
-9.33609 -0.936294 -1.51247 
-0.936294 -9.62569 2.42468 
-1.51247 2.42468 -5.46158 
-9.32335 -0.456915 -1.70964 
-0.456915 -9.47595 1.89329 
-1.70964 1.89329 -5.62407 
-9.31592 -0.361357 -2.23406 
-0.361357 -9.69339 1.56364 
-2.23406 1.56364 -5.41405 
-9.23087 -0.400855 -1.40465 
-0.400855 -8.63999 1.50458 
-1.40465 1.50458 -6.55251 
-10.2452 -0.0321474 -0.0583757 
-0.0321474 -10.1018 -0.0595551 
-0.0583757 -0.0595551 -10.2473 
-10.1649 0.0736204 0.0299285 
0.0736204 -10.1623 0.0182619 
0.0299285 0.0182619 -10.2672 
-10.2257 0.0953035 -0.0593033 
0.0953035 -10.1021 0.0340661 
-0.0593033 0.0340661 -10.2665 
-10.273 0.0142931 -0.0192363 
0.0142931 -10.1171 -0.0304752 
-0.0192363 -0.0304752 -10.2043 
-10.1253 -0.0265749 -0.0342056 
-0.0265749 -10.0656 -0.0521495 
-0.0342056 -0.0521495 -10.1303 
-10.1063 0.0387611 0.0120075 
0.0387611 -10.0531 0.0251131 
0.0120075 0.0251131 -10.1617 
-10.1683 0.0250804 -0.0514093 
0.0250804 -10.0188 -0.00101541 
-0.0514093 -0.00101541 -10.1341 
-10.163 -0.0402858 -0.0130857 
-0.0402858 -10.0683 -0.0428416 
-0.0130857 -0.0428416 -10.0899 
-9.92825 -0.0247627 0.0998641 
-0.0247627 -9.85379 0.914735 
0.0998641 0.914735 -10.0424 
-9.88369 -0.0972972 0.143 
-0.0972972 -9.93427 0.968416 
0.143 0.968416 -10.0065 
-10.0429 -0.0113667 0.186357 
-0.0113667 -9.90632 0.934154 
0.186357 0.934154 -9.87525 
-10.0209 0.0314185 0.165065 
0.0314185 -9.95154 0.965806 
0.165065 0.965806 -9.852 
-9.97633 -0.0279257 0.0372639 
-0.0279257 -9.84809 0.824905 
0.0372639 0.824905 -10.0955 
-10.0045 -0.0200129 0.0545322 
-0.0200129 -9.95039 0.92745 
0.0545322 0.92745 -9.96506 
-10.0013 0.0236443 0.0635669 
0.0236443 -10.0318 0.951554 
0.0635669 0.951554 -9.88686 
-10.0374 0.0348135 0.0321021 
0.0348135 -9.83714 0.951559 
0.0321021 0.951559 -10.0454 
-10.0986 -0.0142913 -0.0292953 
-0.0142913 -10.1255 -0.00639958 
-0.0292953 -0.00639958 -10.0242 
-10.1199 -0.0342377 -0.0197672 
-0.0342377 -10.0961 -0.0244559 
-0.0197672 -0.0244559 -10.0324 
-10.0505 0.126336 -0.0223408 
0.126336 -10.0515 0.0185621 
-0.0223408 0.0185621 -10.1463 
-10.1136 -0.0309987 0.0135716 
-0.0309987 -10.0982 0.0134869 
0.0135716 0.0134869 -10.0366 
-9.82576 0.00232783 0.0594548 
0.00232783 -9.82332 -0.887489 
0.0594548 -0.887489 -9.86276 
-9.87415 0.00777935 0.0444693 
0.00777935 -9.82176 -0.886178 
0.0444693 -0.886178 -9.81592 
-9.82787 0.00557407 0.0450923 
0.00557407 -9.78731 -0.869877 
0.0450923 -0.869877 -9.89665 
-9.82757 -0.0039038 0.058259 
-0.0039038 -9.82825 -0.876131 
0.058259 -0.876131 -9.85601 
-9.43063 0.0282723 0.769976 
0.0282723 -9.55061 0.215944 
0.769976 0.215944 -9.65223 
-9.44979 0.0436966 0.766945 
0.0436966 -9.52811 0.184164 
0.766945 0.184164 -9.65557 
-9.54874 -0.0513154 0.782299 
-0.0513154 -9.48797 0.191927 
0.782299 0.191927 -9.59677 
-9.45828 0.017381 0.810118 
0.017381 -9.52074 0.21441 
0.810118 0.21441 -9.65446 
-9.10917 -0.209318 0.0299617 
-0.209318 -8.97425 -0.377592 
0.0299617 -0.377592 -10.1366 
-9.59032 -0.267719 0.151934 
-0.267719 -9.37721 -0.371683 
0.151934 -0.371683 -9.25244 
-9.3945 -0.102891 0.21052 
-0.102891 -9.11699 -0.604254 
0.21052 -0.604254 -9.70848 
-9.53704 -0.153988 0.12836 
-0.153988 -9.03855 -0.614454 
0.12836 -0.614454 -9.64438 
-9.39183 -0.0976658 -0.717122 
-0.0976658 -9.57187 0.375392 
-0.717122 0.375392 -9.70593 
-9.61129 0.062378 -0.711012 
0.062378 -9.49035 0.440753 
-0.711012 0.440753 -9.568 
-9.51989 -0.0546413 -0.682122 
-0.0546413 -9.59806 0.417622 
-0.682122 0.417622 -9.55168 
-9.58774 -0.0454004 -0.649925 
-0.0454004 -9.47498 0.374443 
-0.649925 0.374443 -9.60691 
-9.88533 -0.00535978 0.891075 
-0.00535978 -9.9574 -0.222075 
0.891075 -0.222075 -10.0538 
-9.92959 0.0202192 0.895257 
0.0202192 -10.0469 -0.277711 
0.895257 -0.277711 -9.92008 
-9.94278 -0.00193549 0.913942 
-0.00193549 -10.0216 -0.273119 
0.913942 -0.273119 -9.9322 
-9.96646 -0.0142938 0.909585 
-0.0142938 -10.0378 -0.309572 
0.909585 -0.309572 -9.89234 
-7.85302 -0.0866969 -1.12076 
-0.0866969 -8.09978 1.11646 
-1.12076 1.11646 -2.76674 
-8.63795 0.335529 -0.61419 
0.335529 -7.88326 1.31685 
-0.61419 1.31685 -2.19833 
-7.76908 -0.247591 -0.93695 
-0.247591 -8.11877 1.14824 
-0.93695 1.14824 -2.8317 
-8.02775 0.0453633 -1.22417 
0.0453633 -7.65201 1.04606 
-1.22417 1.04606 -3.03978 
-11.6437 0.164921 -0.212597 
0.164921 -11.137 0.742419 
-0.212597 0.742419 -10.1168 
-11.1571 0.094279 -0.620586 
0.094279 -11.6343 0.332266 
-0.620586 0.332266 -10.106 
-8.90621 -0.150391 0.5808 
-0.150391 -9.41438 -0.894669 
0.5808 -0.894669 -14.5769 
-10.6324 -1.39515 -1.75951 
-1.39515 -10.2069 1.75835 
-1.75951 1.75835 -12.0582 
-8.84225 0.117598 -0.201554 
0.117598 -9.77043 -0.0915353 
-0.201554 -0.0915353 -9.92438 
-9.7359 -0.0584479 -0.340806 
-0.0584479 -9.32292 -0.0324618 
-0.340806 -0.0324618 -9.47825 
-9.44366 0.0486758 -0.431835 
0.0486758 -9.40394 0.0404953 
-0.431835 0.0404953 -9.68947 
-9.28781 -0.0465084 -0.623892 
-0.0465084 -9.40346 -0.150906 
-0.623892 -0.150906 -9.8458 
-9.8043 -0.0183356 0.907846 
-0.0183356 -9.84083 0.0638535 
0.907846 0.0638535 -9.851 
-9.80146 -0.0200454 0.891756 
-0.0200454 -9.90142 0.0515074 
0.891756 0.0515074 -9.79324 
-9.81227 -0.00269884 0.875997 
-0.00269884 -9.81194 0.0433308 
0.875997 0.0433308 -9.87191 
-9.81717 0.00079697 0.881483 
0.00079697 -9.83399 0.0757355 
0.881483 0.0757355 -9.84497 
-9.7488 0.0404813 0.73612 
0.0404813 -9.81435 -0.561214 
0.73612 -0.561214 -10.1015 
-9.85311 -0.00190965 0.708916 
-0.00190965 -9.8366 -0.503592 
0.708916 -0.503592 -9.97493 
-9.89954 -0.0413055 0.737716 
-0.0413055 -9.8793 -0.499321 
0.737716 -0.499321 -9.8858 
-9.87714 -0.0678847 0.679863 
-0.0678847 -9.92513 -0.510058 
0.679863 -0.510058 -9.86237 
-15.2769 -1.54923 -0.366682 
-1.54923 -12.3558 -1.80593 
-0.366682 -1.80593 -14.5821 
-13.3727 -1.00227 0.921018 
-1.00227 -11.507 -2.08614 
0.921018 -2.08614 -17.3351 
-12.7565 -1.86406 0.964803 
-1.86406 -11.9445 -1.35178 
0.964803 -1.35178 -17.5139 
-14.9297 -1.41284 0.391151 
-1.41284 -11.8259 0.0171586 
0.391151 0.0171586 -15.4593 
-9.4708 -0.0548873 -0.347596 
-0.0548873 -9.42418 -0.232124 
-0.347596 -0.232124 -9.69806 
-9.56368 -0.0352014 -0.34861 
-0.0352014 -9.39897 -0.0912888 
-0.34861 -0.0912888 -9.63039 
-9.04554 0.152229 -0.243567 
0.152229 -9.71796 -0.0350706 
-0.243567 -0.0350706 -9.82954 
-9.39425 0.0942855 -0.501332 
0.0942855 -9.41248 -0.070095 
-0.501332 -0.070095 -9.78631 
-9.993 0.0130156 -0.171556 
0.0130156 -9.89832 0.947413 
-0.171556 0.947413 -9.86772 
-9.83177 -0.00020836 -0.106915 
-0.00020836 -9.9542 0.948493 
-0.106915 0.948493 -9.97307 
-9.79822 0.0674194 -0.0587131 
0.0674194 -9.80266 0.899712 
-0.0587131 0.899712 -10.1582 
-10.0393 -0.0270226 -0.114255 
-0.0270226 -9.86353 0.997665 
-0.114255 0.997665 -9.85626 
-9.81591 -0.00180877 -0.882095 
-0.00180877 -9.82051 0.0660128 
-0.882095 0.0660128 -9.83953 
-9.80358 0.0123406 -0.893423 
0.0123406 -9.87906 0.0464771 
-0.893423 0.0464771 -9.7933 
-9.78418 0.00551188 -0.876755 
0.00551188 -9.81199 0.0396615 
-0.876755 0.0396615 -9.87977 
-9.80525 0.0110371 -0.9007 
0.0110371 -9.82457 0.0615279 
-0.9007 0.0615279 -9.84612 
-10.0883 0.0169335 0.00975821 
0.0169335 -10.0175 0.00823201 
0.00975821 0.00823201 -10.1457 
-10.0744 0.0159376 0.00423518 
0.0159376 -10.0178 0.0209418 
0.00423518 0.0209418 -10.1594 
-10.0521 0.0186062 -0.00654117 
0.0186062 -10.0342 0.0101458 
-0.00654117 0.0101458 -10.1652 
-10.1619 -0.0353007 -0.00489406 
-0.0353007 -9.99756 0.00545679 
-0.00489406 0.00545679 -10.0921 
-10.038 0.00502797 0.00305057 
0.00502797 -9.98257 -0.014663 
0.00305057 -0.014663 -10.1508 
-10.0276 0.023184 0.0126962 
0.023184 -10.0709 0.0760316 
0.0126962 0.0760316 -10.0729 
-10.0511 0.0149353 -0.0578293 
0.0149353 -10.0309 -0.0812094 
-0.0578293 -0.0812094 -10.0895 
-10.0504 0.0184679 -0.0189297 
0.0184679 -9.96572 -0.0149475 
-0.0189297 -0.0149475 -10.1553 
-9.39338 0.172138 -0.393446 
0.172138 -9.16814 -0.632428 
-0.393446 -0.632428 -9.71859 
-9.37379 0.0378265 -0.315194 
0.0378265 -9.40811 -0.536059 
-0.315194 -0.536059 -9.49822 
-9.4085 0.049889 -0.333237 
0.049889 -9.40699 -0.514132 
-0.333237 -0.514132 -9.46461 
-9.34625 0.0587346 -0.347321 
0.0587346 -9.40608 -0.402857 
-0.347321 -0.402857 -9.52777 
-9.63842 0.0284226 -0.0209714 
0.0284226 -9.08662 0.410817 
-0.0209714 0.410817 -9.67102 
-9.34439 0.02357 -0.101161 
0.02357 -9.57284 0.470175 
-0.101161 0.470175 -9.47883 
-9.51402 0.00289721 -0.0407246 
0.00289721 -9.14988 0.571551 
-0.0407246 0.571551 -9.73217 
-9.40799 -0.165785 -0.0581501 
-0.165785 -9.35902 0.505432 
-0.0581501 0.505432 -9.62905 
-9.09784 -0.2114 0.361652 
-0.2114 -9.55897 -0.119499 
0.361652 -0.119499 -9.74842 
-9.43189 0.00153207 0.561249 
0.00153207 -9.38643 0.0181441 
0.561249 0.0181441 -9.5869 
-9.53367 0.0955647 0.492992 
0.0955647 -9.35643 -0.108188 
0.492992 -0.108188 -9.51512 
-9.2937 -0.00743873 0.621225 
-0.00743873 -9.40657 -0.215332 
0.621225 -0.215332 -9.70494 
-12.9993 -0.748788 -0.815697 
-0.748788 -12.2262 0.852265 
-0.815697 0.852265 -15.3415 
-12.9515 -1.10352 -0.233648 
-1.10352 -13.178 0.566024 
-0.233648 0.566024 -14.4376 
-13.1341 -0.784749 -0.611525 
-0.784749 -12.6753 0.181749 
-0.611525 0.181749 -14.7577 
-13.6092 -0.774771 -0.088331 
-0.774771 -13.0224 0.617804 
-0.088331 0.617804 -13.9355 
-9.7384 -0.0458086 -0.0172555 
-0.0458086 -9.72404 -0.0627104 
-0.0172555 -0.0627104 -9.84971 
-9.75479 -0.0697649 0.0119384 
-0.0697649 -9.62916 -0.132131 
0.0119384 -0.132131 -9.92821 
-9.72078 -0.0300655 -0.00139417 
-0.0300655 -9.80606 -0.0536733 
-0.00139417 -0.0536733 -9.78532 
-9.73208 -0.0526306 0.0550102 
-0.0526306 -9.62719 0.020053 
0.0550102 0.020053 -9.95289 
-9.85423 -0.0463084 0.113886 
-0.0463084 -9.86789 -0.0181406 
0.113886 -0.0181406 -9.96692 
-9.86625 -0.036154 0.089504 
-0.036154 -9.88324 -0.0967376 
0.089504 -0.0967376 -9.93955 
-9.86935 -0.0622519 -0.0303639 
-0.0622519 -9.87086 0.074478 
-0.0303639 0.074478 -9.94883 
-9.79529 -0.0597819 0.0101816 
-0.0597819 -9.74587 -0.0262822 
0.0101816 -0.0262822 -10.1479 
-10.9331 -0.226295 -0.778266 
-0.226295 -12.4025 1.00339 
-0.778266 1.00339 -10.3388 
-10.2607 0.421508 0.714267 
0.421508 -8.56986 -1.40721 
0.714267 -1.40721 -14.8439 
-11.9473 0.0785895 -0.377971 
0.0785895 -11.6889 1.17879 
-0.377971 1.17879 -10.0382 
-11.2619 -1.72305 -0.69531 
-1.72305 -9.29249 1.84487 
-0.69531 1.84487 -13.1201 
-10.1025 -0.0547906 0.0195215 
-0.0547906 -10.1652 0.0285553 
0.0195215 0.0285553 -10.1006 
-10.118 -0.00363319 -0.0217012 
-0.00363319 -10.1582 0.00440696 
-0.0217012 0.00440696 -10.0921 
-10.1662 0.0525132 -0.00736222 
0.0525132 -10.0438 0.00899653 
-0.00736222 0.00899653 -10.1583 
-10.1714 0.0168485 0.0183912 
0.0168485 -10.1111 -0.0070021 
0.0183912 -0.0070021 -10.0858 
-9.90662 0.00323513 -0.0217484 
0.00323513 -9.85572 -0.844689 
-0.0217484 -0.844689 -9.92152 
-9.86168 -0.00778576 -0.010517 
-0.00778576 -9.81414 -0.865975 
-0.010517 -0.865975 -10.008 
-9.87065 -0.00285472 0.000332802 
-0.00285472 -9.8434 -0.831874 
0.000332802 -0.831874 -9.9698 
-9.9287 0.00763806 -0.032004 
0.00763806 -9.86154 -0.833807 
-0.032004 -0.833807 -9.89361 
-9.84705 0.160432 -0.0505604 
0.160432 -9.97865 0.0373785 
-0.0505604 0.0373785 -9.71902 
-9.78634 -0.241112 0.0301144 
-0.241112 -9.66907 0.0220877 
0.0301144 0.0220877 -10.0893 
-9.7947 -0.0359709 0.00397854 
-0.0359709 -9.77477 -0.109723 
0.00397854 -0.109723 -9.97526 
-9.91486 -0.00489791 0.0771653 
-0.00489791 -9.71747 -0.195559 
0.0771653 -0.195559 -9.9124 
-9.47918 -0.144235 0.237089 
-0.144235 -9.60991 0.657937 
0.237089 0.657937 -9.58894 
-9.54249 0.0360527 0.319203 
0.0360527 -9.46037 0.662931 
0.319203 0.662931 -9.67518 
-9.57804 0.108163 0.21761 
0.108163 -9.38357 0.684351 
0.21761 0.684351 -9.71643 
-9.5568 0.00684816 0.288776 
0.00684816 -9.42833 0.779257 
0.288776 0.779257 -9.6929 
-9.90961 -0.036853 0.178196 
-0.036853 -9.60046 0.86752 
0.178196 0.86752 -9.82894 
-9.84116 0.0460452 0.295871 
0.0460452 -9.76695 0.98274 
0.295871 0.98274 -9.7309 
-9.80608 -0.00875108 0.308883 
-0.00875108 -9.75374 0.935954 
0.308883 0.935954 -9.77919 
-9.89522 0.0257924 0.256025 
0.0257924 -9.67721 0.84428 
0.256025 0.84428 -9.76658 
-10.1853 -0.0138439 0.012976 
-0.0138439 -10.1893 -0.0250456 
0.012976 -0.0250456 -10.1692 
-10.1563 -0.0180045 -0.00207248 
-0.0180045 -10.1881 0.0126096 
-0.00207248 0.0126096 -10.1995 
-10.0942 -0.00358633 0.0186139 
-0.00358633 -10.2335 -0.0228931 
0.0186139 -0.0228931 -10.2162 
-10.1706 -0.00724614 -0.0124148 
-0.00724614 -10.167 -0.00699808 
-0.0124148 -0.00699808 -10.2063 
-9.49479 -0.152763 0.308883 
-0.152763 -9.3958 -0.422543 
0.308883 -0.422543 -9.62247 
-9.4259 -0.00550004 0.272996 
-0.00550004 -9.38634 -0.37212 
0.272996 -0.37212 -9.70083 
-9.46366 -0.0196531 0.217912 
-0.0196531 -9.4239 -0.472404 
0.217912 -0.472404 -9.62551 
-9.49994 -0.0326059 0.265858 
-0.0326059 -9.40585 -0.423303 
0.265858 -0.423303 -9.60726 
-10.8526 0.0684414 -0.058809 
0.0684414 -10.0504 0.0717171 
-0.058809 0.0717171 -10.2243 
-10.4418 -0.227135 -0.0454455 
-0.227135 -10.2191 0.0504453 
-0.0454455 0.0504453 -10.4665 
-10.1759 0.119642 0.0583647 
0.119642 -10.1427 0.0910132 
0.0583647 0.0910132 -10.8088 
-10.5106 -0.00589095 0.0136581 
-0.00589095 -10.2043 0.252085 
0.0136581 0.252085 -10.4125 
-9.91776 -0.00458023 0.150535 
-0.00458023 -9.95338 -0.826426 
0.150535 -0.826426 -9.96624 
-9.89655 0.018057 0.15572 
0.018057 -9.92998 -0.860962 
0.15572 -0.860962 -10.0109 
-9.94568 0.0296796 0.151362 
0.0296796 -9.91051 -0.844261 
0.151362 -0.844261 -9.9812 
-9.94859 -0.0221522 0.157761 
-0.0221522 -9.95694 -0.840273 
0.157761 -0.840273 -9.93185 
-10.1009 0.0323627 -0.0321297 
0.0323627 -9.87101 0.0827364 
-0.0321297 0.0827364 -10.0452 
-10.1802 -0.0315228 -0.027232 
-0.0315228 -9.85075 0.0899166 
-0.027232 0.0899166 -9.9861 
-9.74802 -0.0269809 0.0930171 
-0.0269809 -10.1802 -0.228862 
0.0930171 -0.228862 -10.0888 
-10.1803 -0.125031 0.0504363 
-0.125031 -9.55589 0.0931249 
0.0504363 0.0931249 -10.2809 
-9.21943 -0.107584 -1.17235 
-0.107584 -8.85502 0.883911 
-1.17235 0.883911 -4.3018 
-8.56773 -0.16391 -2.16544 
-0.16391 -9.49416 1.52704 
-2.16544 1.52704 -4.31434 
-9.01695 -0.313144 -1.38619 
-0.313144 -8.79227 1.23274 
-1.38619 1.23274 -4.56702 
-8.46109 -0.370917 -1.33279 
-0.370917 -8.59337 1.34975 
-1.33279 1.34975 -5.32178 
-9.62422 0.0473426 -0.0682803 
0.0473426 -9.83623 -0.0635533 
-0.0682803 -0.0635533 -9.94553 
-9.64192 0.00759809 -0.152338 
0.00759809 -9.76265 -0.0531961 
-0.152338 -0.0531961 -10.0014 
-9.81217 -0.0457243 -0.0769241 
-0.0457243 -9.72426 0.0108643 
-0.0769241 0.0108643 -9.86956 
-9.6357 -0.0799323 -0.100884 
-0.0799323 -9.80345 0.0231454 
-0.100884 0.0231454 -9.96683 
-2.14587 0.231572 -0.686479 
0.231572 -3.50993 -1.22593 
-0.686479 -1.22593 -0.436757 
-2.92992 -0.220757 -0.199744 
-0.220757 -2.5009 -1.45905 
-0.199744 -1.45905 -0.661728 
-2.50657 -0.657199 -0.452683 
-0.657199 -2.83186 -1.38379 
-0.452683 -1.38379 -0.754133 
-2.49115 -0.210944 -0.601764 
-0.210944 -2.67049 -1.39011 
-0.601764 -1.39011 -0.930913 
-2.00916 0.0449851 -2.2669 
0.0449851 -1.12667 -0.0571832 
-2.2669 -0.0571832 -1.76002 
-1.911 1.0135 -1.40633 
1.0135 -3.44923 -0.933738 
-1.40633 -0.933738 0.464372 
-3.9929 1.23169 -1.69637 
1.23169 -2.72655 -1.10911 
-1.69637 -1.10911 1.82359 
-2.50113 0.946114 -1.29884 
0.946114 -2.14854 0.637814 
-1.29884 0.637814 -0.246176 
-9.88098 -0.0695463 0.560212 
-0.0695463 -9.87507 -0.609642 
0.560212 -0.609642 -9.99137 
-9.91884 -0.0239435 0.563996 
-0.0239435 -9.88446 -0.654044 
0.563996 -0.654044 -9.94413 
-9.89327 -0.0285164 0.60826 
-0.0285164 -9.86546 -0.641873 
0.60826 -0.641873 -9.98869 
-9.93863 -0.0266355 0.580633 
-0.0266355 -9.8828 -0.671142 
0.580633 -0.671142 -9.926 
-10.2307 0.0397588 0.377519 
0.0397588 -10.1295 0.522454 
0.377519 0.522454 -9.76527 
-10.1204 0.113187 0.325855 
0.113187 -9.93726 0.638989 
0.325855 0.638989 -10.0678 
-10.1495 0.0408502 0.460492 
0.0408502 -9.95794 0.591594 
0.460492 0.591594 -10.0181 
-10.1713 0.0108389 0.405189 
0.0108389 -10.1806 0.61492 
0.405189 0.61492 -9.7736 
-9.50792 -0.0226452 -0.644903 
-0.0226452 -9.53328 -0.55965 
-0.644903 -0.55965 -9.5731 
-9.55103 0.129005 -0.526398 
0.129005 -9.47456 -0.561559 
-0.526398 -0.561559 -9.58871 
-9.46478 -0.0186035 -0.567738 
-0.0186035 -9.55736 -0.581903 
-0.567738 -0.581903 -9.59216 
-9.45192 0.0623898 -0.567495 
0.0623898 -9.51138 -0.620782 
-0.567495 -0.620782 -9.65101 
-9.84333 -0.000238493 -0.207582 
-0.000238493 -9.8174 -0.853201 
-0.207582 -0.853201 -9.83952 
-9.82708 -0.00293877 -0.189701 
-0.00293877 -9.7941 -0.846765 
-0.189701 -0.846765 -9.87907 
-9.83375 0.0072296 -0.178122 
0.0072296 -9.7963 -0.831167 
-0.178122 -0.831167 -9.8702 
-9.80871 -0.0146036 -0.193966 
-0.0146036 -9.82801 -0.846166 
-0.193966 -0.846166 -9.86353 
-9.49364 0.0432308 -0.73784 
0.0432308 -9.61367 -0.260726 
-0.73784 -0.260726 -9.76849 
-9.52446 0.0448462 -0.773891 
0.0448462 -9.59546 -0.260576 
-0.773891 -0.260576 -9.75588 
-9.51104 0.0351477 -0.750375 
0.0351477 -9.6367 -0.242246 
-0.750375 -0.242246 -9.72805 
-9.51767 0.0618046 -0.767463 
0.0618046 -9.61755 -0.264275 
-0.767463 -0.264275 -9.74057 
-8.77747 0.44346 -1.10768 
0.44346 -9.51293 -0.586784 
-1.10768 -0.586784 -9.97218 
-8.68042 0.646086 -0.837322 
0.646086 -9.45583 -0.710643 
-0.837322 -0.710643 -10.1263 
-9.11946 0.370738 -1.02761 
0.370738 -9.0559 -0.426326 
-1.02761 -0.426326 -10.0872 
-8.70165 0.317399 -1.01503 
0.317399 -9.5762 -0.68661 
-1.01503 -0.68661 -9.98472 
-9.84746 -0.00893734 -0.0636202 
-0.00893734 -9.8107 0.867776 
-0.0636202 0.867776 -9.85345 
-9.83812 0.00874701 -0.0441322 
0.00874701 -9.76144 0.86542 
-0.0441322 0.86542 -9.91205 
-9.8788 0.00157044 -0.0590499 
0.00157044 -9.84115 0.906794 
-0.0590499 0.906794 -9.79167 
-9.83352 0.00745864 -0.0829065 
0.00745864 -9.83511 0.886569 
-0.0829065 0.886569 -9.84299 
-9.64437 -0.0908928 0.08812 
-0.0908928 -9.05822 -0.238971 
0.08812 -0.238971 -9.84712 
-9.40248 0.0352208 0.235046 
0.0352208 -9.49058 -0.355263 
0.235046 -0.355263 -9.65665 
-9.46635 -0.0363136 0.172077 
-0.0363136 -9.47616 -0.342688 
0.172077 -0.342688 -9.60719 
-9.41667 -0.132608 0.0736956 
-0.132608 -9.37607 -0.485039 
0.0736956 -0.485039 -9.75697 
-10.0577 0.00950585 0.00562548 
0.00950585 -10.0047 -0.0159528 
0.00562548 -0.0159528 -10.0907 
-10.0575 -0.0306001 -0.00403501 
-0.0306001 -10.0152 0.000840877 
-0.00403501 0.000840877 -10.0803 
-10.035 0.0357492 0.0116209 
0.0357492 -9.97571 0.00570782 
0.0116209 0.00570782 -10.1424 
-10.0796 0.039689 -0.0117103 
0.039689 -10.0106 -0.0349893 
-0.0117103 -0.0349893 -10.0629 
-9.83288 0.00109539 0.833568 
0.00109539 -9.82713 -0.328968 
0.833568 -0.328968 -9.84584 
-9.83363 0.00393938 0.824983 
0.00393938 -9.81601 -0.331731 
0.824983 -0.331731 -9.85621 
-9.83773 -0.0136694 0.857461 
-0.0136694 -9.79174 -0.329565 
0.857461 -0.329565 -9.87638 
-9.79559 -0.0574709 0.779345 
-0.0574709 -9.85639 -0.323929 
0.779345 -0.323929 -9.85387 
-9.79141 -0.0413891 0.923464 
-0.0413891 -9.90643 -0.32647 
0.923464 -0.32647 -10.0368 
-9.91498 0.0496342 0.826333 
0.0496342 -9.87951 -0.271995 
0.826333 -0.271995 -9.94011 
-9.84661 0.000520956 0.828001 
0.000520956 -9.98679 -0.306509 
0.828001 -0.306509 -9.90121 
-9.78912 -0.0121957 0.79182 
-0.0121957 -9.99137 -0.306664 
0.79182 -0.306664 -9.95411 
-10.7263 -0.103536 -0.0652917 
-0.103536 -10.9936 0.0327681 
-0.0652917 0.0327681 -10.4617 
-10.6295 0.0141356 -0.0980682 
0.0141356 -10.9133 -0.0968836 
-0.0980682 -0.0968836 -10.6388 
-10.2092 0.207163 -0.0079284 
0.207163 -10.1001 0.158602 
-0.0079284 0.158602 -11.8723 
-10.6703 0.0786898 -0.481113 
0.0786898 -11.0033 -0.312813 
-0.481113 -0.312813 -10.508 
-10.1634 -0.0312981 -0.0258509 
-0.0312981 -10.1499 0.0156382 
-0.0258509 0.0156382 -10.108 
-10.0433 0.058459 -0.000262345 
0.058459 -10.1678 0.010254 
-0.000262345 0.010254 -10.2101 
-10.1875 -0.0247047 0.0219818 
-0.0247047 -10.1106 0.0185719 
0.0219818 0.0185719 -10.1232 
-10.1573 -0.0152704 -0.0013686 
-0.0152704 -10.1358 7.4022e-05 
-0.0013686 7.4022e-05 -10.1281 
-9.88573 0.0184602 -0.887959 
0.0184602 -9.97258 -0.314093 
-0.887959 -0.314093 -10.0198 
-9.85299 -0.0406839 -0.932376 
-0.0406839 -10.0037 -0.349084 
-0.932376 -0.349084 -10.0215 
-9.98529 0.0152222 -0.887082 
0.0152222 -10.0057 -0.332253 
-0.887082 -0.332253 -9.88709 
-9.92683 0.0361153 -0.85409 
0.0361153 -10.032 -0.361585 
-0.85409 -0.361585 -9.91933 
-9.94114 0.0115872 -0.884369 
0.0115872 -9.98261 -0.333858 
-0.884369 -0.333858 -9.94443 
-9.96527 -0.0409732 -0.888821 
-0.0409732 -10.0136 -0.326767 
-0.888821 -0.326767 -9.8893 
-9.86272 0.0695359 -0.803517 
0.0695359 -9.90605 -0.321856 
-0.803517 -0.321856 -10.0994 
-9.8486 0.0216226 -0.927047 
0.0216226 -10.0446 -0.377471 
-0.927047 -0.377471 -9.97498 
-9.88338 0.024104 -0.459199 
0.024104 -9.8526 -0.732331 
-0.459199 -0.732331 -9.92191 
-9.84808 -0.0048185 -0.464146 
-0.0048185 -9.84487 -0.720115 
-0.464146 -0.720115 -9.96493 
-9.8261 0.0196231 -0.469663 
0.0196231 -9.80218 -0.75831 
-0.469663 -0.75831 -10.0296 
-9.91231 0.0304871 -0.439788 
0.0304871 -9.85336 -0.704274 
-0.439788 -0.704274 -9.89221 
-9.26054 0.272411 -0.815308 
0.272411 -9.47765 -0.517511 
-0.815308 -0.517511 -10.0531 
-9.29866 0.405327 -0.947903 
0.405327 -9.48232 -0.553983 
-0.947903 -0.553983 -10.0103 
-9.25674 0.509434 -0.9286 
0.509434 -9.49894 -0.605993 
-0.9286 -0.605993 -10.0356 
-9.34057 0.383304 -0.972919 
0.383304 -9.5338 -0.669261 
-0.972919 -0.669261 -9.91692 
-9.33893 -0.0722283 -0.141223 
-0.0722283 -9.35468 0.556277 
-0.141223 0.556277 -9.62462 
-9.56416 -0.19425 -0.136929 
-0.19425 -8.9294 0.378318 
-0.136929 0.378318 -9.82468 
-9.18844 0.0397723 -0.139962 
0.0397723 -9.67375 0.423933 
-0.139962 0.423933 -9.45604 
-9.35525 -0.0800056 -0.234927 
-0.0800056 -9.33221 0.694753 
-0.234927 0.694753 -9.63078 
-9.94768 0.00971205 -0.866928 
0.00971205 -9.95665 -0.174495 
-0.866928 -0.174495 -9.9059 
-9.94363 0.00648956 -0.844804 
0.00648956 -9.92101 -0.162199 
-0.844804 -0.162199 -9.94558 
-9.88868 -0.00926817 -0.856241 
-0.00926817 -9.90273 -0.140298 
-0.856241 -0.140298 -10.0188 
-9.94522 -0.0244272 -0.864309 
-0.0244272 -9.88416 -0.151858 
-0.864309 -0.151858 -9.98085 
-9.69794 -0.0717373 -0.791031 
-0.0717373 -9.7745 0.400914 
-0.791031 0.400914 -9.89813 
-9.73632 -0.0586218 -0.772873 
-0.0586218 -9.79533 0.378376 
-0.772873 0.378376 -9.83892 
-9.75446 -0.0286175 -0.774534 
-0.0286175 -9.75477 0.385988 
-0.774534 0.385988 -9.86134 
-9.74445 -0.0412551 -0.751701 
-0.0412551 -9.77736 0.408173 
-0.751701 0.408173 -9.84876 
-9.75443 -0.0638133 0.340507 
-0.0638133 -9.62516 -0.858753 
0.340507 -0.858753 -9.84893 
-9.7568 0.0186934 0.377584 
0.0186934 -9.80523 -0.738251 
0.377584 -0.738251 -9.66649 
-9.75367 0.0327915 0.308461 
0.0327915 -9.75745 -0.779844 
0.308461 -0.779844 -9.71741 
-9.73516 0.0184235 0.31436 
0.0184235 -9.65696 -0.758518 
0.31436 -0.758518 -9.8364 
-12.651 0.0571019 -0.690102 
0.0571019 -13.9571 -0.0116759 
-0.690102 -0.0116759 -15.2423 
-13.7162 0.501121 -1.55802 
0.501121 -15.3271 -0.203817 
-1.55802 -0.203817 -12.8072 
-10.2685 0.301962 -1.81876 
0.301962 -12.2333 0.869297 
-1.81876 0.869297 -19.3486 
-12.6433 0.355721 0.465264 
0.355721 -14.8421 -1.23752 
0.465264 -1.23752 -14.3649 
-12.3198 -1.2997 -0.980337 
-1.2997 -10.5225 0.423165 
-0.980337 0.423165 -21.9713 
-16.0212 -0.475041 0.213571 
-0.475041 -13.0964 1.87792 
0.213571 1.87792 -15.6959 
-16.1455 -0.111636 0.016352 
-0.111636 -10.8455 2.72527 
0.016352 2.72527 -17.8225 
-15.4074 -0.0684311 -0.715081 
-0.0684311 -13.0594 0.581368 
-0.715081 0.581368 -16.3468 
-9.8883 -0.02165 -0.690149 
-0.02165 -9.81793 0.477779 
-0.690149 0.477779 -9.85975 
-9.81178 -0.0124292 -0.749682 
-0.0124292 -9.85758 0.450507 
-0.749682 0.450507 -9.89663 
-9.82174 -0.0392262 -0.753688 
-0.0392262 -9.82437 0.419131 
-0.753688 0.419131 -9.91988 
-9.79833 -0.0117314 -0.735823 
-0.0117314 -9.87405 0.448283 
-0.735823 0.448283 -9.8936 
-10.0843 0.00295981 0.0819573 
0.00295981 -9.88039 0.0409842 
0.0819573 0.0409842 -10.0312 
-9.99791 -0.13583 -0.0821001 
-0.13583 -9.91589 0.0173665 
-0.0821001 0.0173665 -10.0821 
-10.0329 0.00922703 -0.078761 
0.00922703 -9.94919 0.0107873 
-0.078761 0.0107873 -10.0139 
-10.0426 -0.140204 0.0711466 
-0.140204 -9.99698 0.013125 
0.0711466 0.013125 -9.95639 
-9.62872 -0.388282 0.20822 
-0.388282 -8.84145 -0.328158 
0.20822 -0.328158 -9.78172 
-9.45915 -0.0485719 0.150687 
-0.0485719 -9.21094 -0.479339 
0.150687 -0.479339 -9.58181 
-9.29214 0.0973759 0.0816085 
0.0973759 -9.64845 -0.359657 
0.0816085 -0.359657 -9.3113 
-9.46566 0.134354 0.24971 
0.134354 -9.23951 -0.656905 
0.24971 -0.656905 -9.54672 
-9.84928 0.0100503 -0.00158747 
0.0100503 -9.82244 0.79645 
-0.00158747 0.79645 -10.0447 
-9.94772 0.0097907 0.0370915 
0.0097907 -9.89215 0.847338 
0.0370915 0.847338 -9.87653 
-9.8643 -0.010127 0.0179306 
-0.010127 -9.85516 0.857947 
0.0179306 0.857947 -9.99694 
-9.93679 0.0297229 0.0837211 
0.0297229 -9.85507 0.862155 
0.0837211 0.862155 -9.92453 
-10.2475 -0.294851 0.175004 
-0.294851 -9.00515 -2.62175 
0.175004 -2.62175 -6.95511 
-9.9995 0.0515834 0.363479 
0.0515834 -9.71935 -1.88613 
0.363479 -1.88613 -6.48895 
-9.73792 0.0811282 -0.0316454 
0.0811282 -9.05232 -1.75654 
-0.0316454 -1.75654 -7.41756 
-9.78462 0.2162 0.169117 
0.2162 -9.34841 -2.05277 
0.169117 -2.05277 -7.07477 
-14.832 -0.703892 -0.57806 
-0.703892 -13.6759 0.749011 
-0.57806 0.749011 -13.6162 
-12.3349 -0.96025 -0.495546 
-0.96025 -12.1741 1.49024 
-0.495546 1.49024 -17.6151 
-13.5681 -0.5445 0.152349 
-0.5445 -12.8838 0.568263 
0.152349 0.568263 -15.6722 
-14.3494 -0.777779 -0.623883 
-0.777779 -13.3431 -0.115274 
-0.623883 -0.115274 -14.4315 
-9.22791 -0.0301219 -0.520288 
-0.0301219 -9.38253 0.268074 
-0.520288 0.268074 -9.47916 
-9.30318 -0.0246116 -0.471372 
-0.0246116 -9.39892 0.268171 
-0.471372 0.268171 -9.38749 
-9.13317 -0.13259 -0.500027 
-0.13259 -9.47055 0.171204 
-0.500027 0.171204 -9.48587 
-9.29935 -0.00568986 -0.497488 
-0.00568986 -9.38518 0.231815 
-0.497488 0.231815 -9.40507 
-10.0084 0.0264013 -0.87001 
0.0264013 -10.058 -0.00503605 
-0.87001 -0.00503605 -9.93764 
-10.0147 0.0168108 -0.74085 
0.0168108 -9.71613 0.0121102 
-0.74085 0.0121102 -10.2732 
-10.0478 0.0888123 -0.856628 
0.0888123 -10.1938 -0.115337 
-0.856628 -0.115337 -9.7624 
-10.0018 -0.0280218 -0.899623 
-0.0280218 -10.186 0.0556777 
-0.899623 0.0556777 -9.81621 
-10.0703 0.018931 -0.0202346 
0.018931 -10.0051 -0.0240187 
-0.0202346 -0.0240187 -9.98424 
-10.0515 0.00233515 0.0464131 
0.00233515 -10.0567 -0.00474432 
0.0464131 -0.00474432 -9.95137 
-9.93331 -0.011354 -0.0340032 
-0.011354 -9.98006 -0.0180297 
-0.0340032 -0.0180297 -10.1462 
-9.9774 0.0262836 -0.0125651 
0.0262836 -10.0328 0.0159208 
-0.0125651 0.0159208 -10.0494 
-9.82559 -0.0192012 -0.062513 
-0.0192012 -9.80272 -0.902411 
-0.062513 -0.902411 -9.85149 
-9.81258 -0.00879453 -0.0409208 
-0.00879453 -9.78283 -0.870257 
-0.0409208 -0.870257 -9.88439 
-9.88704 -0.0213847 -0.0444459 
-0.0213847 -9.80555 -0.899299 
-0.0444459 -0.899299 -9.7872 
-9.81976 0.00502101 -0.0696281 
0.00502101 -9.81375 -0.877046 
-0.0696281 -0.877046 -9.84628 
-10.0941 0.00663818 -0.030991 
0.00663818 -10.1164 -0.00855268 
-0.030991 -0.00855268 -10.0873 
-10.1302 -0.0228188 0.000728921 
-0.0228188 -10.0511 -0.00647453 
0.000728921 -0.00647453 -10.1166 
-10.1177 0.00588159 -0.0225797 
0.00588159 -10.0714 0.00283033 
-0.0225797 0.00283033 -10.1087 
-10.1333 0.0272827 -0.0271054 
0.0272827 -10.1052 -0.0445969 
-0.0271054 -0.0445969 -10.0594 
-9.82748 -0.0334289 -0.688781 
-0.0334289 -9.78704 -0.603124 
-0.688781 -0.603124 -10.0951 
-9.93691 0.0928567 -0.667402 
0.0928567 -9.83836 -0.567505 
-0.667402 -0.567505 -9.93438 
-9.89067 0.0294819 -0.652418 
0.0294819 -9.94622 -0.532664 
-0.652418 -0.532664 -9.87276 
-9.87999 0.0352709 -0.6107 
0.0352709 -9.90413 -0.544148 
-0.6107 -0.544148 -9.92553 
-9.90906 -0.0304185 0.0147246 
-0.0304185 -9.94759 0.0280003 
0.0147246 0.0280003 -9.98338 
-10.044 -0.0191351 0.00925387 
-0.0191351 -9.68101 -0.0348186 
0.00925387 -0.0348186 -10.115 
-9.92367 -0.0104496 0.00229654 
-0.0104496 -9.92107 0.0217581 
0.00229654 0.0217581 -9.99528 
-9.87277 0.0643845 -0.0131639 
0.0643845 -9.93477 0.109245 
-0.0131639 0.109245 -10.0325 
-9.9007 0.0702189 0.0508499 
0.0702189 -9.61121 0.011759 
0.0508499 0.011759 -9.68581 
-9.6078 0.000512229 0.137614 
0.000512229 -9.74006 -0.0427061 
0.137614 -0.0427061 -9.84986 
-9.31459 -0.1979 0.0100439 
-0.1979 -9.86394 -0.0426186 
0.0100439 -0.0426186 -10.0192 
-9.57029 0.149489 0.181539 
0.149489 -9.76833 -0.0161311 
0.181539 -0.0161311 -9.8591 
-0.584084 1.50124 0.518524 
1.50124 -1.41173 -0.673285 
0.518524 -0.673285 -13.0001 
-9.20688 2.17695 1.17035 
2.17695 -13.0305 4.19445 
1.17035 4.19445 7.24145 
-5.45489 -0.208187 -3.14721 
-0.208187 -13.356 3.50539 
-3.14721 3.50539 3.81497 
-7.82582 -1.26631 -3.0225 
-1.26631 -3.41433 9.89847 
-3.0225 9.89847 -3.75577 
-10.1562 0.0198588 -0.0222882 
0.0198588 -10.1396 -0.0116792 
-0.0222882 -0.0116792 -10.0306 
-10.0747 0.0190797 -0.0157831 
0.0190797 -10.0038 0.0482017 
-0.0157831 0.0482017 -10.248 
-10.1223 -0.022014 0.00872852 
-0.022014 -10.0672 0.0305458 
0.00872852 0.0305458 -10.137 
-10.131 0.0115428 -0.0320346 
0.0115428 -10.0326 -0.00451978 
-0.0320346 -0.00451978 -10.1628 
-9.45264 0.324655 0.175954 
0.324655 -9.37198 0.150813 
0.175954 0.150813 -9.99679 
-9.58886 0.00846648 0.278089 
0.00846648 -9.61227 0.16842 
0.278089 0.16842 -9.62028 
-9.54869 0.0340681 0.228585 
0.0340681 -9.50156 0.305117 
0.228585 0.305117 -9.77117 
-9.46296 0.0709503 0.307772 
0.0709503 -9.53248 0.348684 
0.307772 0.348684 -9.82597 
-10.4574 1.11265 1.54147 
1.11265 -14.6782 0.575138 
1.54147 0.575138 -16.4215 
-9.89511 0.46462 1.94291 
0.46462 -14.2807 -0.0905804 
1.94291 -0.0905804 -17.3813 
-11.4418 0.575409 1.33471 
0.575409 -14.7401 0.230385 
1.33471 0.230385 -15.3752 
-11.488 0.361954 -0.480683 
0.361954 -13.9124 0.166328 
-0.480683 0.166328 -16.1567 
-9.95387 0.000532296 -0.500236 
0.000532296 -9.9141 0.818956 
-0.500236 0.818956 -9.90873 
-9.9662 -0.0121794 -0.516808 
-0.0121794 -9.89916 0.807993 
-0.516808 0.807993 -9.91133 
-9.90561 -0.0213761 -0.441446 
-0.0213761 -9.81189 0.790873 
-0.441446 0.790873 -10.0592 
-9.97127 -0.0345662 -0.542422 
-0.0345662 -9.92714 0.828339 
-0.542422 0.828339 -9.87828 
-10.1139 0.0300199 -0.0799332 
0.0300199 -10.0828 0.053466 
-0.0799332 0.053466 -10.167 
-10.0552 -0.0153919 0.047835 
-0.0153919 -10.2046 -0.0445823 
0.047835 -0.0445823 -10.1039 
-10.0864 0.110938 0.0793892 
0.110938 -10.131 -0.0664566 
0.0793892 -0.0664566 -10.1463 
-9.94483 -0.0503546 0.0397343 
-0.0503546 -10.1898 -0.00997295 
0.0397343 -0.00997295 -10.2291 
-9.5432 0.0260611 0.00467611 
0.0260611 -9.02134 -0.421842 
0.00467611 -0.421842 -9.59174 
-9.43064 0.0341758 -0.0355823 
0.0341758 -9.10804 -0.574729 
-0.0355823 -0.574729 -9.6176 
-9.25469 -0.0299913 -0.147533 
-0.0299913 -9.48119 -0.550991 
-0.147533 -0.550991 -9.4204 
-9.28011 0.143046 0.00460915 
0.143046 -9.29606 -0.598616 
0.00460915 -0.598616 -9.58011 
-9.7542 -0.0813875 0.487956 
-0.0813875 -9.84458 0.860699 
0.487956 0.860699 -10.0694 
-10.0023 0.0444991 0.570856 
0.0444991 -9.83531 0.756018 
0.570856 0.756018 -9.83054 
-9.86565 0.00499525 0.450401 
0.00499525 -9.76365 0.777313 
0.450401 0.777313 -10.0389 
-9.95513 0.104354 0.52261 
0.104354 -9.90348 0.808462 
0.52261 0.808462 -9.80955 
-9.99731 0.0327653 0.345776 
0.0327653 -9.95829 0.869338 
0.345776 0.869338 -9.944 
-9.97215 0.0427205 0.330416 
0.0427205 -9.91514 0.820509 
0.330416 0.820509 -10.0123 
-9.95063 -0.0184786 0.349096 
-0.0184786 -10.0205 0.880967 
0.349096 0.880967 -9.92844 
-10.0032 0.0324537 0.337954 
0.0324537 -9.90756 0.872327 
0.337954 0.872327 -9.98885 
-9.78491 0.0168323 -0.0741064 
0.0168323 -9.84031 0.0356006 
-0.0741064 0.0356006 -9.92164 
-9.40928 -0.111926 0.0158741 
-0.111926 -10.0117 0.0093098 
0.0158741 0.0093098 -10.1259 
-9.85956 0.0117649 -0.058375 
0.0117649 -9.81332 0.013689 
-0.058375 0.013689 -9.87398 
-9.81007 0.0431596 -0.171311 
0.0431596 -9.80528 0.0622796 
-0.171311 0.0622796 -9.93151 
-9.92123 -0.067001 -0.224285 
-0.067001 -10.1313 0.075363 
-0.224285 0.075363 -10.7531 
-10.1324 0.0234008 -0.085473 
0.0234008 -10.4213 -0.078057 
-0.085473 -0.078057 -10.2519 
-10.1634 -0.0383256 -0.088856 
-0.0383256 -10.2494 0.0220279 
-0.088856 0.0220279 -10.3927 
-10.0489 -0.071984 0.00203973 
-0.071984 -10.4152 0.100253 
0.00203973 0.100253 -10.3415 
-9.36318 -0.0356394 -0.861195 
-0.0356394 -9.62887 0.100295 
-0.861195 0.100295 -9.83441 
-9.55491 0.00933367 -0.807468 
0.00933367 -9.63201 0.0865975 
-0.807468 0.0865975 -9.63954 
-9.6527 0.00622088 -0.801921 
0.00622088 -9.5378 0.064172 
-0.801921 0.064172 -9.63595 
-9.49871 0.106075 -0.736238 
0.106075 -9.59942 0.0168421 
-0.736238 0.0168421 -9.72833 
-9.90922 0.0202356 0.0147205 
0.0202356 -9.85039 -0.83772 
0.0147205 -0.83772 -10.1306 
-10.0186 -0.0129121 0.0174904 
-0.0129121 -9.94722 -0.944765 
0.0174904 -0.944765 -9.92433 
-9.97519 0.00939187 -0.002342 
0.00939187 -9.95961 -0.932558 
-0.002342 -0.932558 -9.95537 
-10.0188 0.0422801 -0.0322704 
0.0422801 -9.81089 -0.984271 
-0.0322704 -0.984271 -10.0605 
-2.13485 -0.0959366 -0.552217 
-0.0959366 -2.20911 0.134041 
-0.552217 0.134041 -1.14713 
-2.52483 -0.364932 -0.205739 
-0.364932 -2.88014 1.01768 
-0.205739 1.01768 -0.0861119 
-2.29584 -0.175828 0.120978 
-0.175828 -2.67177 0.154514 
0.120978 0.154514 -0.52346 
-1.44858 -0.143185 -0.399332 
-0.143185 -2.24997 -0.178073 
-0.399332 -0.178073 -1.79253 
-9.92467 -0.018781 0.14571 
-0.018781 -9.8968 0.853998 
0.14571 0.853998 -10.0129 
-9.91284 -0.0474448 0.160163 
-0.0474448 -9.92031 0.870062 
0.160163 0.870062 -10.0012 
-9.93905 -0.0103605 0.166404 
-0.0103605 -9.95997 0.830434 
0.166404 0.830434 -9.93531 
-9.95303 0.02555 0.171432 
0.02555 -9.97919 0.863208 
0.171432 0.863208 -9.90212 
-3.10898 -0.0893102 0.738025 
-0.0893102 -2.63948 0.186808 
0.738025 0.186808 -0.0507994 
-2.8149 -0.273639 0.303106 
-0.273639 -2.82022 -0.600569 
0.303106 -0.600569 -0.16413 
-1.53629 0.163735 0.00441396 
0.163735 -2.25732 -0.437815 
0.00441396 -0.437815 -2.00565 
-2.41531 -0.473933 -0.625181 
-0.473933 -2.24265 -0.0577139 
-0.625181 -0.0577139 -1.1413 
-9.81529 -0.000381496 0.89314 
-0.000381496 -9.82671 -0.06928 
0.89314 -0.06928 -9.84399 
-9.80734 0.0191513 0.909597 
0.0191513 -9.88417 -0.0517681 
0.909597 -0.0517681 -9.79448 
-9.78358 0.00818119 0.880779 
0.00818119 -9.8172 -0.0455244 
0.880779 -0.0455244 -9.8852 
-9.80227 0.0171879 0.912233 
0.0171879 -9.83032 -0.0660082 
0.912233 -0.0660082 -9.8534 
-9.75599 0.0557089 -0.5633 
0.0557089 -9.81412 -0.662592 
-0.5633 -0.662592 -9.88273 
-9.79695 0.023214 -0.631815 
0.023214 -9.83417 -0.602874 
-0.631815 -0.602874 -9.82173 
-9.80165 0.0367685 -0.613701 
0.0367685 -9.79098 -0.633354 
-0.613701 -0.633354 -9.86021 
-9.81591 0.0294131 -0.59011 
0.0294131 -9.80873 -0.649521 
-0.59011 -0.649521 -9.82821 
-9.62406 0.224695 0.0128428 
0.224695 -9.93983 -0.00659358 
0.0128428 -0.00659358 -10.101 
-9.89717 -0.0494608 -0.0455847 
-0.0494608 -9.89751 -0.0719326 
-0.0455847 -0.0719326 -9.87022 
-9.85266 0.0244625 -0.070812 
0.0244625 -9.90033 -0.0612313 
-0.070812 -0.0612313 -9.91192 
-9.89703 0.00365979 -0.186896 
0.00365979 -9.79382 -0.125653 
-0.186896 -0.125653 -9.97406 
-9.8656 -0.0335915 -0.767734 
-0.0335915 -9.92547 0.524502 
-0.767734 0.524502 -10.037 
-9.93011 0.00475877 -0.700213 
0.00475877 -9.95286 0.490932 
-0.700213 0.490932 -9.94507 
-9.88752 -0.0130698 -0.710207 
-0.0130698 -9.96934 0.498511 
-0.710207 0.498511 -9.97118 
-9.8562 -0.0274288 -0.687158 
-0.0274288 -9.98412 0.510818 
-0.687158 0.510818 -9.98772 
-9.6715 -0.0346135 0.115632 
-0.0346135 -9.63914 -0.104692 
0.115632 -0.104692 -9.78766 
-9.72397 -0.0200558 0.0788941 
-0.0200558 -9.69176 -0.0940272 
0.0788941 -0.0940272 -9.68257 
-9.43265 -0.195118 0.0544743 
-0.195118 -9.76213 -0.0445905 
0.0544743 -0.0445905 -9.90352 
-9.72579 -0.125739 0.124898 
-0.125739 -9.62885 -0.146013 
0.124898 -0.146013 -9.74367 
-9.92041 -0.00496914 -0.371889 
-0.00496914 -9.8805 -0.754513 
-0.371889 -0.754513 -9.88323 
-9.85329 -0.0100713 -0.373605 
-0.0100713 -9.84674 -0.776532 
-0.373605 -0.776532 -9.9841 
-9.78643 -0.00363224 -0.36027 
-0.00363224 -9.84843 -0.72481 
-0.36027 -0.72481 -10.0493 
-9.93631 0.0176641 -0.410224 
0.0176641 -9.87403 -0.774884 
-0.410224 -0.774884 -9.87379 
-9.77051 0.0483734 -0.0563836 
0.0483734 -9.78358 -0.0306543 
-0.0563836 -0.0306543 -10.0224 
-9.74848 -0.00561488 0.0160502 
-0.00561488 -9.80654 0.0716579 
0.0160502 0.0716579 -10.0215 
-9.66129 -0.0568427 0.0159673 
-0.0568427 -9.96075 0.0415521 
0.0159673 0.0415521 -9.95445 
-9.74221 0.0428982 -0.0261288 
0.0428982 -9.88223 0.0582819 
-0.0261288 0.0582819 -9.95204 
-9.90062 0.0103464 -0.615177 
0.0103464 -9.92636 -0.614153 
-0.615177 -0.614153 -9.9529 
-9.89951 0.026712 -0.596731 
0.026712 -9.89674 -0.57288 
-0.596731 -0.57288 -9.98363 
-9.91452 0.0258272 -0.634898 
0.0258272 -9.91516 -0.598683 
-0.634898 -0.598683 -9.95021 
-9.92652 0.0341952 -0.627325 
0.0341952 -9.92642 -0.616273 
-0.627325 -0.616273 -9.92694 
-10.1167 -0.0159658 -0.0150903 
-0.0159658 -10.12 0.0300019 
-0.0150903 0.0300019 -10.0273 
-10.1122 0.0137511 -0.00438379 
0.0137511 -10.1126 -0.00981227 
-0.00438379 -0.00981227 -10.0392 
-10.0592 -0.0185853 -0.0180545 
-0.0185853 -10.0332 -0.0412966 
-0.0180545 -0.0412966 -10.1717 
-10.135 -0.0107757 -0.0023163 
-0.0107757 -10.0387 -0.0135115 
-0.0023163 -0.0135115 -10.0903 
-1.88662 -0.071134 1.01483 
-0.071134 -1.11336 0.365403 
1.01483 0.365403 -3.6405 
-3.35085 -0.551608 0.139912 
-0.551608 -3.03392 0.153753 
0.139912 0.153753 -0.255712 
-3.85515 -0.264063 1.13549 
-0.264063 -2.95758 1.04848 
1.13549 1.04848 0.172251 
-2.93721 -0.328313 1.36137 
-0.328313 -2.44076 -0.997763 
1.36137 -0.997763 -1.26251 
-9.4752 -0.0201251 -0.302465 
-0.0201251 -9.38535 0.489578 
-0.302465 0.489578 -9.49597 
-9.37576 -0.231086 -0.31384 
-0.231086 -9.23763 0.675269 
-0.31384 0.675269 -9.74314 
-9.36065 0.0835382 -0.261268 
0.0835382 -9.47444 0.471072 
-0.261268 0.471072 -9.52143 
-9.49114 -0.0366227 -0.108545 
-0.0366227 -9.21534 0.516067 
-0.108545 0.516067 -9.65005 
-9.67257 0.0373309 0.871382 
0.0373309 -9.75108 0.209672 
0.871382 0.209672 -9.80173 
-9.69162 0.0288284 0.799987 
0.0288284 -9.74779 0.204437 
0.799987 0.204437 -9.78596 
-9.69456 0.039257 0.773752 
0.039257 -9.80233 0.175452 
0.773752 0.175452 -9.72848 
-9.67431 0.0511913 0.840068 
0.0511913 -9.73635 0.188035 
0.840068 0.188035 -9.81471 
-9.9151 0.018769 0.85876 
0.018769 -9.93659 -0.155057 
0.85876 -0.155057 -9.98362 
-9.95447 -0.0189585 0.860595 
-0.0189585 -9.95552 -0.161283 
0.860595 -0.161283 -9.92532 
-9.93237 0.0369274 0.880905 
0.0369274 -9.89013 -0.159052 
0.880905 -0.159052 -10.0128 
-9.94821 0.000526353 0.849448 
0.000526353 -9.93324 -0.161626 
0.849448 -0.161626 -9.95387 
-10.1197 8.63938e-05 -0.00075376 
8.63938e-05 -10.1176 7.00935e-05 
-0.00075376 7.00935e-05 -10.1102 
-10.1587 0.0397291 0.00886878 
0.0397291 -10.0831 -0.023985 
0.00886878 -0.023985 -10.1057 
-10.1043 0.0112202 -0.0230365 
0.0112202 -10.109 0.0435353 
-0.0230365 0.0435353 -10.1342 
-10.0778 0.0152028 -0.014333 
0.0152028 -10.1375 -0.00327471 
-0.014333 -0.00327471 -10.1322 
-9.86502 -0.00274699 0.226687 
-0.00274699 -9.85776 -0.86426 
0.226687 -0.86426 -9.82896 
-9.84092 0.00612653 0.149604 
0.00612653 -9.82444 -0.838814 
0.149604 -0.838814 -9.88637 
-9.8309 0.0235856 0.221011 
0.0235856 -9.85346 -0.852752 
0.221011 -0.852752 -9.86737 
-9.8574 -0.0128187 0.19277 
-0.0128187 -9.80656 -0.814169 
0.19277 -0.814169 -9.88778 
-10.2846 0.0925123 0.0720366 
0.0925123 -10.3986 0.00684382 
0.0720366 0.00684382 -10.4656 
-10.2463 0.0134435 0.0243251 
0.0134435 -10.3313 0.00657988 
0.0243251 0.00657988 -10.5711 
-10.2241 -0.0719154 0.0262946 
-0.0719154 -10.3936 0.0237512 
0.0262946 0.0237512 -10.5311 
-10.3425 0.0185365 0.0969096 
0.0185365 -10.3787 0.0469993 
0.0969096 0.0469993 -10.4276 
-9.10326 -0.234892 -0.355483 
-0.234892 -9.36086 0.169709 
-0.355483 0.169709 -9.6311 
-9.54667 0.231732 -0.498375 
0.231732 -9.25834 0.182205 
-0.498375 0.182205 -9.29021 
-9.15309 -0.13856 -0.502208 
-0.13856 -9.37722 0.242484 
-0.502208 0.242484 -9.56491 
-9.00485 0.0795097 -0.453797 
0.0795097 -9.54118 0.285635 
-0.453797 0.285635 -9.54919 
-9.08736 0.230212 1.20706 
0.230212 -9.21737 0.989338 
1.20706 0.989338 -5.85054 
-9.4065 0.144543 1.52793 
0.144543 -9.28894 0.822637 
1.52793 0.822637 -5.45983 
-8.72548 0.343088 1.4476 
0.343088 -9.61523 0.872595 
1.4476 0.872595 -5.81457 
-8.93806 0.131323 1.04999 
0.131323 -9.45841 0.766469 
1.04999 0.766469 -5.7588 
-10.1154 -0.0483856 0.543621 
-0.0483856 -10.0725 -0.0331809 
0.543621 -0.0331809 -9.92219 
-9.98949 0.037548 0.500673 
0.037548 -9.97557 -0.0328251 
0.500673 -0.0328251 -10.145 
-10.1175 0.00675658 0.543973 
0.00675658 -10.0717 -0.0121846 
0.543973 -0.0121846 -9.92081 
-10.0558 0.0160041 0.636987 
0.0160041 -10.1308 0.0046274 
0.636987 0.0046274 -9.92342 
-9.85269 0.00650132 0.247597 
0.00650132 -9.84747 0.878436 
0.247597 0.878436 -9.79661 
-9.8184 -0.0380172 0.240921 
-0.0380172 -9.83055 0.85524 
0.240921 0.85524 -9.84781 
-9.83742 -0.00420525 0.169265 
-0.00420525 -9.78473 0.84569 
0.169265 0.84569 -9.87461 
-9.83824 0.0165626 0.196971 
0.0165626 -9.78573 0.81237 
0.196971 0.81237 -9.87281 
-9.49023 0.0449187 -0.78665 
0.0449187 -9.60364 -0.334224 
-0.78665 -0.334224 -9.83857 
-9.60673 0.0448189 -0.793976 
0.0448189 -9.69402 -0.219197 
-0.793976 -0.219197 -9.63169 
-9.64042 0.00946688 -0.741763 
0.00946688 -9.64315 -0.33834 
-0.741763 -0.33834 -9.64887 
-9.62518 0.0572055 -0.734423 
0.0572055 -9.61634 -0.317362 
-0.734423 -0.317362 -9.69092 
-9.96385 -0.00616299 0.0361694 
-0.00616299 -9.91512 -0.962956 
0.0361694 -0.962956 -9.96935 
-9.96214 -0.0196149 0.0594199 
-0.0196149 -9.91199 -0.942925 
0.0594199 -0.942925 -9.97419 
-9.9818 -0.0107554 0.0296577 
-0.0107554 -9.88975 -0.928911 
0.0296577 -0.928911 -9.97676 
-9.98773 -0.0139632 0.0487404 
-0.0139632 -9.93186 -0.948729 
0.0487404 -0.948729 -9.92872 
-9.93177 0.0188577 -0.151937 
0.0188577 -9.91606 0.850388 
-0.151937 0.850388 -9.97622 
-9.94732 -0.0124 -0.158384 
-0.0124 -9.94548 0.85379 
-0.158384 0.85379 -9.93126 
-9.92619 -0.00653154 -0.15281 
-0.00653154 -9.93688 0.846447 
-0.15281 0.846447 -9.96099 
-9.88228 0.0161261 -0.156682 
0.0161261 -9.93902 0.869894 
-0.156682 0.869894 -10.0028 
-10.1108 -0.0405203 -0.000429928 
-0.0405203 -10.0928 -0.0406365 
-0.000429928 -0.0406365 -10.1359 
-10.08 -0.024463 0.0222565 
-0.024463 -10.1319 -0.0316278 
0.0222565 -0.0316278 -10.1275 
-10.0444 0.0395049 0.00892796 
0.0395049 -10.1373 -0.0236132 
0.00892796 -0.0236132 -10.1578 
-10.081 0.0209809 0.0276969 
0.0209809 -10.1586 -0.0439205 
0.0276969 -0.0439205 -10.0998 
-9.39367 -0.0855106 0.15018 
-0.0855106 -9.20636 -0.362468 
0.15018 -0.362468 -9.42056 
-9.23565 0.0503051 0.18651 
0.0503051 -9.40261 -0.440249 
0.18651 -0.440249 -9.38233 
-9.39955 -0.139475 0.172188 
-0.139475 -9.07406 -0.41474 
0.172188 -0.41474 -9.54698 
-9.24736 -0.056177 0.12878 
-0.056177 -9.34492 -0.389159 
0.12878 -0.389159 -9.4283 
-15.4594 -0.731032 -0.340194 
-0.731032 -4.44714 -0.66417 
-0.340194 -0.66417 -22.3488 
-14.3069 -1.15249 0.124259 
-1.15249 -8.11376 -0.214179 
0.124259 -0.214179 -19.8346 
-14.058 -3.31754 1.54227 
-3.31754 -4.28169 -0.176964 
1.54227 -0.176964 -23.9156 
-12.7575 -0.15691 -0.641513 
-0.15691 -13.2245 2.39336 
-0.641513 2.39336 -16.2733 
-9.76017 0.0149704 0.866569 
0.0149704 -9.85372 0.150653 
0.866569 0.150653 -9.92995 
-9.79703 0.0102264 0.896779 
0.0102264 -9.83102 0.171048 
0.896779 0.171048 -9.9158 
-9.79437 0.0350053 0.815195 
0.0350053 -9.85222 0.153423 
0.815195 0.153423 -9.89725 
-9.75754 0.0138664 0.876689 
0.0138664 -9.88039 0.175891 
0.876689 0.175891 -9.90591 
-10.0071 -0.0159613 -0.0460171 
-0.0159613 -10.0015 -0.0447757 
-0.0460171 -0.0447757 -10.087 
-9.97304 0.0120961 -0.0668089 
0.0120961 -10.0663 0.00238281 
-0.0668089 0.00238281 -10.0562 
-10.0066 0.0368024 0.0621715 
0.0368024 -10.0509 0.000175431 
0.0621715 0.000175431 -10.038 
-9.94713 0.0275562 0.000769583 
0.0275562 -9.97757 -0.0232078 
0.000769583 -0.0232078 -10.1708 
-9.85137 -0.0180261 -0.878399 
-0.0180261 -9.82023 -0.230726 
-0.878399 -0.230726 -9.87748 
-9.81932 -0.00284869 -0.852978 
-0.00284869 -9.84005 -0.183331 
-0.852978 -0.183331 -9.88971 
-9.77661 0.0115542 -0.819123 
0.0115542 -9.89536 -0.18376 
-0.819123 -0.18376 -9.8771 
-9.86314 0.0107625 -0.885052 
0.0107625 -9.84573 -0.229269 
-0.885052 -0.229269 -9.8402 
-9.65795 -0.060031 -0.146841 
-0.060031 -9.6177 0.149074 
-0.146841 0.149074 -9.90273 
-9.68141 0.00489983 -0.0589555 
0.00489983 -9.72434 0.141249 
-0.0589555 0.141249 -9.77263 
-9.74189 -0.210738 -0.0752564 
-0.210738 -9.58062 0.0174955 
-0.0752564 0.0174955 -9.85588 
-9.691 -0.00292552 -0.105688 
-0.00292552 -9.69228 0.133383 
-0.105688 0.133383 -9.7951 
-9.81244 0.0490982 0.944533 
0.0490982 -9.89911 0.206347 
0.944533 0.206347 -10.0741 
-9.91937 0.0374369 0.851914 
0.0374369 -9.97521 0.157715 
0.851914 0.157715 -9.89106 
-9.8837 -0.018169 0.853347 
-0.018169 -9.98353 0.154547 
0.853347 0.154547 -9.91842 
-9.82859 0.0953949 0.827869 
0.0953949 -9.97101 0.123829 
0.827869 0.123829 -9.98604 
-9.89145 -0.00462305 -0.436658 
-0.00462305 -9.89211 0.852236 
-0.436658 0.852236 -10.0015 
-9.94559 -0.0194607 -0.408039 
-0.0194607 -9.87242 0.807897 
-0.408039 0.807897 -9.9671 
-9.95188 0.0108892 -0.391467 
0.0108892 -9.89946 0.839417 
-0.391467 0.839417 -9.93377 
-9.96168 -0.00247319 -0.398755 
-0.00247319 -9.91608 0.843353 
-0.398755 0.843353 -9.90735 
-10.1131 -0.0703999 -0.029362 
-0.0703999 -9.52632 0.0632308 
-0.029362 0.0632308 -10.2397 
-9.89941 0.0155583 -0.0211269 
0.0155583 -10.0379 -0.031407 
-0.0211269 -0.031407 -9.94179 
-9.89584 -0.0218139 -0.0177134 
-0.0218139 -9.9983 -0.0644607 
-0.0177134 -0.0644607 -9.98496 
-9.86887 0.129397 0.0529827 
0.129397 -9.9395 -0.227809 
0.0529827 -0.227809 -10.0707 
-2.7805 0.396185 -0.271147 
0.396185 -2.46484 0.0207303 
-0.271147 0.0207303 -0.172139 
-2.32246 0.112411 0.00218475 
0.112411 -2.30408 -0.325603 
0.00218475 -0.325603 -0.790948 
-2.96138 0.0928622 -0.662331 
0.0928622 -2.81315 -0.498787 
-0.662331 -0.498787 0.357043 
-1.91207 -0.00898738 -0.0342682 
-0.00898738 -2.14604 -0.481448 
-0.0342682 -0.481448 -1.35937 
-10.0134 -0.0369494 -0.0136715 
-0.0369494 -10.0955 -0.0100585 
-0.0136715 -0.0100585 -10.0542 
-10.0217 -0.0187965 0.00908554 
-0.0187965 -10.0786 0.000896108 
0.00908554 0.000896108 -10.0628 
-10.0201 -0.0133331 0.0256196 
-0.0133331 -10.0561 0.0133895 
0.0256196 0.0133895 -10.0869 
-10.0466 -0.0164892 0.000187304 
-0.0164892 -10.0807 -0.0261051 
0.000187304 -0.0261051 -10.0358 
-9.81794 0.0191759 -0.656061 
0.0191759 -9.85238 -0.588365 
-0.656061 -0.588365 -9.901 
-9.86921 0.00817234 -0.602026 
0.00817234 -9.82437 -0.600284 
-0.602026 -0.600284 -9.87775 
-9.83782 0.0377597 -0.665342 
0.0377597 -9.81245 -0.552567 
-0.665342 -0.552567 -9.92105 
-9.80683 0.0207828 -0.652785 
0.0207828 -9.87111 -0.583686 
-0.652785 -0.583686 -9.89337 
-10.1189 0.02113 0.0132666 
0.02113 -10.0647 -0.00905406 
0.0132666 -0.00905406 -10.004 
-10.0035 0.0110868 0.056698 
0.0110868 -9.9562 0.0246387 
0.056698 0.0246387 -10.2278 
-10.1129 0.00599255 -0.0233671 
0.00599255 -10.0747 0.017542 
-0.0233671 0.017542 -9.99995 
-10.1034 0.0296224 0.004307 
0.0296224 -10.0774 -0.0202103 
0.004307 -0.0202103 -10.0067 
-9.19269 0.213338 0.358327 
0.213338 -9.2759 0.310702 
0.358327 0.310702 -9.4232 
-9.14758 0.150115 0.479393 
0.150115 -9.23798 0.359439 
0.479393 0.359439 -9.50622 
-9.36828 -0.12369 0.569706 
-0.12369 -9.24856 0.254063 
0.569706 0.254063 -9.27494 
-9.10175 0.0281372 0.481108 
0.0281372 -9.31945 0.422941 
0.481108 0.422941 -9.47059 
-9.65186 0.0187863 -0.348956 
0.0187863 -9.59882 -0.748149 
-0.348956 -0.748149 -9.70549 
-9.61658 0.0462146 -0.389826 
0.0462146 -9.53003 -0.767453 
-0.389826 -0.767453 -9.80955 
-9.65348 0.0184039 -0.365623 
0.0184039 -9.61995 -0.746857 
-0.365623 -0.746857 -9.68274 
-9.64498 -0.00375565 -0.336679 
-0.00375565 -9.60324 -0.718282 
-0.336679 -0.718282 -9.70795 
-10.1574 -0.0186169 0.0271929 
-0.0186169 -10.3866 0.0142773 
0.0271929 0.0142773 -10.516 
-10.6267 -0.0519819 -0.000303572 
-0.0519819 -10.1898 0.000177469 
-0.000303572 0.000177469 -10.2436 
-10.2593 -0.133966 -0.0629094 
-0.133966 -10.3853 -0.0300774 
-0.0629094 -0.0300774 -10.4155 
-10.2263 -0.0802569 -0.138469 
-0.0802569 -10.3521 -0.0230225 
-0.138469 -0.0230225 -10.4817 
-9.93008 -0.0157664 0.928854 
-0.0157664 -9.99682 -0.211447 
0.928854 -0.211447 -9.9415 
-9.85995 -0.0300345 0.866021 
-0.0300345 -9.95174 -0.214809 
0.866021 -0.214809 -10.0567 
-9.98268 -0.00389723 0.923859 
-0.00389723 -9.96996 -0.203475 
0.923859 -0.203475 -9.91576 
-9.89118 0.000353123 0.960564 
0.000353123 -10.0123 -0.205715 
0.960564 -0.205715 -9.96493 
-9.95047 0.0402874 0.0715602 
0.0402874 -9.87383 -0.0412993 
0.0715602 -0.0412993 -10.0292 
-9.92937 -0.0454438 -0.0671236 
-0.0454438 -9.96257 -0.00772376 
-0.0671236 -0.00772376 -9.96157 
-9.8567 -0.0255244 0.0796948 
-0.0255244 -10.0647 0.0101486 
0.0796948 0.0101486 -9.93213 
-9.87901 -0.0536777 -0.00285798 
-0.0536777 -9.88943 0.00514064 
-0.00285798 0.00514064 -10.0851 
-9.97007 -0.136904 -0.0728924 
-0.136904 -10.3985 0.0201786 
-0.0728924 0.0201786 -10.339 
-10.3697 0.0276705 -0.0810919 
0.0276705 -10.0279 0.069151 
-0.0810919 0.069151 -10.31 
-10.041 -0.38402 -0.188312 
-0.38402 -9.98681 0.127766 
-0.188312 0.127766 -10.6798 
-10.071 -0.205089 0.0315692 
-0.205089 -10.2138 0.118988 
0.0315692 0.118988 -10.4227 
-10.0406 -0.01631 -0.00421219 
-0.01631 -10.0814 -0.00861542 
-0.00421219 -0.00861542 -10.0571 
-10.0633 0.00143404 -0.00654757 
0.00143404 -10.0908 -0.00856481 
-0.00654757 -0.00856481 -10.025 
-10.0143 -0.0132447 0.0104874 
-0.0132447 -10.0565 -0.0221756 
0.0104874 -0.0221756 -10.1083 
-10.0659 -0.0405964 0.00286733 
-0.0405964 -10.0521 -0.01809 
0.00286733 -0.01809 -10.0611 
-9.75641 0.00655743 -0.846229 
0.00655743 -9.82512 0.159854 
-0.846229 0.159854 -9.85921 
-9.82091 -0.00438616 -0.879707 
-0.00438616 -9.83449 0.236511 
-0.879707 0.236511 -9.78534 
-9.80021 0.0343904 -0.871677 
0.0343904 -9.80598 0.234524 
-0.871677 0.234524 -9.83456 
-9.77355 -0.0113922 -0.820591 
-0.0113922 -9.82073 0.190836 
-0.820591 0.190836 -9.84647 
-9.67519 0.0409565 -0.413049 
0.0409565 -9.6255 -0.735229 
-0.413049 -0.735229 -9.6281 
-9.56737 0.0355806 -0.457622 
0.0355806 -9.51773 -0.739516 
-0.457622 -0.739516 -9.84369 
-9.63418 0.0434894 -0.474488 
0.0434894 -9.6127 -0.673893 
-0.474488 -0.673893 -9.68191 
-9.63344 0.0267419 -0.430528 
0.0267419 -9.61273 -0.659006 
-0.430528 -0.659006 -9.68261 
-9.90509 -0.00808179 -0.715054 
-0.00808179 -9.92444 0.491849 
-0.715054 0.491849 -9.94765 
-9.90324 -0.0261617 -0.73575 
-0.0261617 -9.91101 0.471045 
-0.73575 0.471045 -9.96293 
-9.89952 -0.0246147 -0.692724 
-0.0246147 -9.90085 0.457444 
-0.692724 0.457444 -9.97681 
-9.92266 -0.0279347 -0.721836 
-0.0279347 -9.93253 0.493049 
-0.721836 0.493049 -9.92198 
-10.1015 0.0396124 -0.000651116 
0.0396124 -10.0035 -0.00591082 
-0.000651116 -0.00591082 -10.0202 
-10.0593 -0.0165159 0.0238985 
-0.0165159 -10.0395 0.00412244 
0.0238985 0.00412244 -10.0264 
-10.0676 -0.0138986 -0.00856321 
-0.0138986 -10.0331 0.0181636 
-0.00856321 0.0181636 -10.0245 
-10.0538 -0.0382198 0.0046196 
-0.0382198 -10.0344 0.0362808 
0.0046196 0.0362808 -10.037 
-9.95776 0.0114215 -0.0123036 
0.0114215 -9.92825 0.00492328 
-0.0123036 0.00492328 -9.94264 
-9.9527 -0.020147 0.000793936 
-0.020147 -9.94341 0.0037909 
0.000793936 0.0037909 -9.93254 
-9.95264 -0.00421869 -0.00787802 
-0.00421869 -9.93941 0.00776871 
-0.00787802 0.00776871 -9.93661 
-9.94144 -0.017342 -0.0146273 
-0.017342 -9.93978 0.0221338 
-0.0146273 0.0221338 -9.94744 
-9.76544 -0.0256078 -0.558587 
-0.0256078 -9.77707 -0.634032 
-0.558587 -0.634032 -9.70141 
-9.7291 -0.0375565 -0.616248 
-0.0375565 -9.78544 -0.589123 
-0.616248 -0.589123 -9.72939 
-9.69277 0.0773497 -0.670625 
0.0773497 -9.70127 -0.644979 
-0.670625 -0.644979 -9.84988 
-9.66811 0.00641257 -0.603191 
0.00641257 -9.73977 -0.583466 
-0.603191 -0.583466 -9.83605 
-9.91156 0.0096794 0.00273492 
0.0096794 -10.0453 0.0441354 
0.00273492 0.0441354 -9.93589 
-10.0015 -0.0156271 -0.0201561 
-0.0156271 -9.98102 0.0279118 
-0.0201561 0.0279118 -9.91015 
-10.0808 0.0710923 -0.0481421 
0.0710923 -9.57177 -0.0738453 
-0.0481421 -0.0738453 -10.2402 
-9.93877 -0.142977 0.0800678 
-0.142977 -9.89826 0.196945 
0.0800678 0.196945 -10.0557 
-9.91935 0.00450656 0.0232408 
0.00450656 -9.9326 -0.0495878 
0.0232408 -0.0495878 -9.97437 
-9.91177 0.00687797 0.0343273 
0.00687797 -9.9662 -0.028002 
0.0343273 -0.028002 -9.94834 
-10.0633 -0.0925571 0.0044718 
-0.0925571 -9.62415 0.0471509 
0.0044718 0.0471509 -10.1388 
-9.8831 -0.0445473 0.0204107 
-0.0445473 -9.95049 -0.139425 
0.0204107 -0.139425 -9.99273 
-9.81902 0.0240692 -0.677643 
0.0240692 -9.78609 0.491402 
-0.677643 0.491402 -9.73458 
-9.71714 -0.0531097 -0.752537 
-0.0531097 -9.76271 0.502937 
-0.752537 0.502937 -9.85984 
-9.79821 0.0330696 -0.709336 
0.0330696 -9.80045 0.446807 
-0.709336 0.446807 -9.74104 
-9.73945 -0.000428075 -0.688718 
-0.000428075 -9.74871 0.458963 
-0.688718 0.458963 -9.85154 
-9.9461 -0.000858756 -0.833469 
-0.000858756 -9.91464 0.145757 
-0.833469 0.145757 -9.95192 
-9.95258 -0.0126128 -0.853271 
-0.0126128 -9.95149 0.159584 
-0.853271 0.159584 -9.90858 
-9.89924 0.0216711 -0.84579 
0.0216711 -9.92577 0.139642 
-0.84579 0.139642 -9.98765 
-9.93234 0.02555 -0.858791 
0.02555 -9.89329 0.14782 
-0.858791 0.14782 -9.98703 
-10.0559 -0.00263703 -0.0129845 
-0.00263703 -10.1048 0.00507844 
-0.0129845 0.00507844 -10.1474 
-10.1142 -0.00307406 0.0195644 
-0.00307406 -10.0972 -0.0299986 
0.0195644 -0.0299986 -10.0966 
-10.0911 -0.00829341 -0.0108793 
-0.00829341 -10.0909 0.0103225 
-0.0108793 0.0103225 -10.126 
-10.1071 0.00546149 -0.00431239 
0.00546149 -10.0956 0.00442127 
-0.00431239 0.00442127 -10.1054 
-10.6527 0.223715 0.00656298 
0.223715 -10.5434 0.100683 
0.00656298 0.100683 -10.3479 
-10.6512 0.00948855 -0.067436 
0.00948855 -10.547 0.071095 
-0.067436 0.071095 -10.3459 
-10.1982 0.0232662 0.107573 
0.0232662 -10.0186 -0.146838 
0.107573 -0.146838 -11.3273 
-10.65 -0.16108 -0.208996 
-0.16108 -10.2875 0.502603 
-0.208996 0.502603 -10.6066 
-9.8963 -0.0253677 0.353856 
-0.0253677 -9.88416 -0.790944 
0.353856 -0.790944 -9.94664 
-9.91635 -0.00442811 0.321054 
-0.00442811 -9.88566 -0.80571 
0.321054 -0.80571 -9.9251 
-9.86809 -0.0260571 0.353088 
-0.0260571 -9.82295 -0.852739 
0.353088 -0.852739 -10.0361 
-9.95696 -0.0366159 0.319936 
-0.0366159 -9.88307 -0.764906 
0.319936 -0.764906 -9.88707 
-10.04 -0.0372872 0.0138652 
-0.0372872 -10.0141 0.0149507 
0.0138652 0.0149507 -10.0247 
-10.0008 -0.017884 0.0114556 
-0.017884 -9.97987 0.0336072 
0.0114556 0.0336072 -10.0982 
-10.0299 -0.0500425 -0.0190812 
-0.0500425 -10.0423 0.00428231 
-0.0190812 0.00428231 -10.0066 
-10.0718 -0.0428088 -0.000907347 
-0.0428088 -9.9898 0.0151705 
-0.000907347 0.0151705 -10.0172 
-2.66926 -0.216692 0.0795017 
-0.216692 -1.38664 0.299229 
0.0795017 0.299229 -1.69426 
-3.07411 -0.219774 0.179973 
-0.219774 -2.36988 0.938866 
0.179973 0.938866 -0.306173 
-2.99461 0.312891 0.783645 
0.312891 -2.69153 0.248801 
0.783645 0.248801 -0.0640245 
-2.74049 -0.102199 -0.312537 
-0.102199 -1.71877 -0.0395172 
-0.312537 -0.0395172 -1.2909 
-9.81324 -0.0174205 0.577946 
-0.0174205 -9.82157 -0.593518 
0.577946 -0.593518 -10.0794 
-9.89054 0.054918 0.634965 
0.054918 -9.85558 -0.638618 
0.634965 -0.638618 -9.96804 
-9.90273 -0.0352166 0.634825 
-0.0352166 -9.94047 -0.622365 
0.634825 -0.622365 -9.87097 
-9.91998 -0.0502364 0.684202 
-0.0502364 -9.91695 -0.613575 
0.684202 -0.613575 -9.87723 
-10.0431 0.00696719 -0.0140979 
0.00696719 -10.0427 0.0261083 
-0.0140979 0.0261083 -9.95111 
-9.97851 -0.035937 -0.0336646 
-0.035937 -9.90125 -0.0561771 
-0.0336646 -0.0561771 -10.1571 
-10.0448 0.0184464 -0.00925097 
0.0184464 -9.99742 -0.00879834 
-0.00925097 -0.00879834 -9.99468 
-10.0207 0.00535206 -0.000406318 
0.00535206 -10.0594 -0.00721074 
-0.000406318 -0.00721074 -9.95682 
-10.0163 -0.00217769 0.0149443 
-0.00217769 -10.1788 0.015014 
0.0149443 0.015014 -10.1959 
-10.2213 0.0368529 -0.0559401 
0.0368529 -10.1252 -0.016601 
-0.0559401 -0.016601 -10.0444 
-10.0981 -0.0100207 0.0091346 
-0.0100207 -10.1228 -0.0152565 
0.0091346 -0.0152565 -10.17 
-10.1567 -0.0487897 0.0238591 
-0.0487897 -10.1458 -0.0171857 
0.0238591 -0.0171857 -10.0883 
-1.60816 -0.135473 -1.02682 
-0.135473 -1.43082 -0.86382 
-1.02682 -0.86382 -1.14886 
-2.31832 -0.598186 -0.533418 
-0.598186 -1.77102 -0.1699 
-0.533418 -0.1699 -0.0984989 
-1.47291 -0.42658 -0.706991 
-0.42658 -2.78349 -0.60183 
-0.706991 -0.60183 0.0685577 
-1.58892 -0.385756 -0.745861 
-0.385756 -1.61267 -0.923722 
-0.745861 -0.923722 -0.98624 
-9.82215 -0.0193777 -0.770982 
-0.0193777 -9.86084 0.263451 
-0.770982 0.263451 -10.041 
-9.88873 -0.0132883 -0.82095 
-0.0132883 -9.91793 0.272687 
-0.82095 0.272687 -9.91735 
-9.90538 -0.0308805 -0.821384 
-0.0308805 -9.88324 0.251349 
-0.821384 0.251349 -9.93539 
-9.88589 -0.0138534 -0.848722 
-0.0138534 -9.95229 0.265289 
-0.848722 0.265289 -9.88583 
-9.8162 -0.00399157 0.0653798 
-0.00399157 -9.81242 0.903607 
0.0653798 0.903607 -9.83772 
-9.81781 -0.015536 0.0374027 
-0.015536 -9.75638 0.874423 
0.0374027 0.874423 -9.89214 
-9.87493 -0.0163443 0.0485363 
-0.0163443 -9.8107 0.914116 
0.0485363 0.914116 -9.7807 
-9.82046 0.00548271 0.0616389 
0.00548271 -9.81232 0.888377 
0.0616389 0.888377 -9.83356 
-1.71422 -0.780266 3.96581 
-0.780266 1.66143 3.51699 
3.96581 3.51699 -17.9823 
-13.3329 -5.37716 -8.45992 
-5.37716 -14.8995 -2.2441 
-8.45992 -2.2441 10.1974 
-17.5102 -2.77048 -5.4244 
-2.77048 -9.96283 -6.35312 
-5.4244 -6.35312 9.43802 
-0.42559 7.51153 -11.8256 
7.51153 -6.54042 -8.14179 
-11.8256 -8.14179 -11.069 
-10.1122 0.0047687 0.0224809 
0.0047687 -10.0993 0.0176626 
0.0224809 0.0176626 -10.0369 
-10.1255 -0.0075493 -0.006102 
-0.0075493 -10.0766 0.028762 
-0.006102 0.028762 -10.0463 
-10.0526 0.0142928 -0.016776 
0.0142928 -10.0758 0.0224403 
-0.016776 0.0224403 -10.12 
-10.0655 -0.012735 -0.0125346 
-0.012735 -10.0819 -0.00373155 
-0.0125346 -0.00373155 -10.1011 
-9.93096 0.0123167 0.850988 
0.0123167 -9.90395 0.147939 
0.850988 0.147939 -9.94562 
-9.93592 -0.0130144 0.857702 
-0.0130144 -9.88845 0.145744 
0.857702 0.145744 -9.95616 
-9.86205 -0.0168373 0.862167 
-0.0168373 -9.88716 0.129884 
0.862167 0.129884 -10.0313 
-9.93865 0.00257248 0.879573 
0.00257248 -9.9537 0.168554 
0.879573 0.168554 -9.88818 
-10.153 -0.0204059 -0.00880827 
-0.0204059 -10.1046 -0.00633896 
-0.00880827 -0.00633896 -10.1792 
-10.1925 0.00327275 0.048144 
0.00327275 -10.1512 0.00647558 
0.048144 0.00647558 -10.0931 
-10.1064 -0.00746956 -0.00440157 
-0.00746956 -10.1287 0.0197974 
-0.00440157 0.0197974 -10.2017 
-10.2074 0.0042827 0.00977956 
0.0042827 -10.1009 0.0429172 
0.00977956 0.0429172 -10.1285 
-9.34223 0.0610419 -0.286244 
0.0610419 -9.45692 0.440599 
-0.286244 0.440599 -9.44997 
-9.38674 -0.125824 -0.220548 
-0.125824 -9.24497 0.543456 
-0.220548 0.543456 -9.6174 
-9.46985 -0.14955 -0.161551 
-0.14955 -9.22573 0.410628 
-0.161551 0.410628 -9.55353 
-9.25712 -0.105602 -0.199585 
-0.105602 -9.44582 0.504897 
-0.199585 0.504897 -9.54617 
-9.49488 0.03374 -0.772959 
0.03374 -9.58609 -0.196632 
-0.772959 -0.196632 -9.52152 
-9.35623 0.105153 -0.77218 
0.105153 -9.54211 -0.25672 
-0.77218 -0.25672 -9.70416 
-9.58586 -0.0523175 -0.800068 
-0.0523175 -9.46049 -0.195279 
-0.800068 -0.195279 -9.55614 
-9.482 -0.0255978 -0.748561 
-0.0255978 -9.52698 -0.203855 
-0.748561 -0.203855 -9.59352 
-9.85416 -0.00231058 -0.225214 
-0.00231058 -9.83694 0.877223 
-0.225214 0.877223 -9.82045 
-9.87154 -0.0135243 -0.186224 
-0.0135243 -9.77942 0.817782 
-0.186224 0.817782 -9.86058 
-9.81961 0.00240406 -0.173409 
0.00240406 -9.83073 0.849214 
-0.173409 0.849214 -9.86121 
-9.83148 0.0233862 -0.227265 
0.0233862 -9.8185 0.883396 
-0.227265 0.883396 -9.86158 
-3.53161 0.0511703 0.592298 
0.0511703 -3.7748 -0.674589 
0.592298 -0.674589 -0.338019 
-3.56375 0.201485 0.457021 
0.201485 -3.4517 -0.418566 
0.457021 -0.418566 -0.628987 
-3.77152 0.11095 0.177347 
0.11095 -3.67839 -0.669652 
0.177347 -0.669652 -0.194524 
-3.63874 -0.347765 -0.482626 
-0.347765 -3.31819 -0.00291733 
-0.482626 -0.00291733 -0.687498 
-9.82231 -0.00167269 -0.71762 
-0.00167269 -9.8741 0.461244 
-0.71762 0.461244 -9.85541 
-9.7944 -0.0339374 -0.672154 
-0.0339374 -9.84989 0.536312 
-0.672154 0.536312 -9.90753 
-9.83154 -0.0283109 -0.711158 
-0.0283109 -9.82642 0.499736 
-0.711158 0.499736 -9.89386 
-9.85267 -0.0236024 -0.689556 
-0.0236024 -9.82694 0.517423 
-0.689556 0.517423 -9.87221 
-9.4096 0.100663 0.406192 
0.100663 -9.27064 0.518065 
0.406192 0.518065 -9.60006 
-9.42744 0.144334 0.48985 
0.144334 -9.27843 0.580878 
0.48985 0.580878 -9.57443 
-9.3896 -0.0888274 0.346535 
-0.0888274 -9.4478 0.532991 
0.346535 0.532991 -9.44289 
-9.27393 0.0503341 0.412064 
0.0503341 -9.41355 0.457072 
0.412064 0.457072 -9.59282 
-10.0535 0.00738773 -0.0143238 
0.00738773 -10.0526 0.0344853 
-0.0143238 0.0344853 -9.99902 
-10.072 0.0532878 0.0250442 
0.0532878 -10.0211 -0.0155514 
0.0250442 -0.0155514 -10.012 
-9.92162 0.0127614 -0.0370159 
0.0127614 -9.99371 -0.0490354 
-0.0370159 -0.0490354 -10.1898 
-10.0596 0.00496621 0.0201221 
0.00496621 -10.0627 -0.0119049 
0.0201221 -0.0119049 -9.98275 
-10.0998 0.0316809 -0.0531314 
0.0316809 -10.04 -0.014472 
-0.0531314 -0.014472 -10.2338 
-10.1494 0.0121809 -0.0219012 
0.0121809 -10.1511 0.0184676 
-0.0219012 0.0184676 -10.073 
-10.1057 0.0752358 -0.0398185 
0.0752358 -10.1702 0.0274493 
-0.0398185 0.0274493 -10.0977 
-10.1503 0.0263166 0.00850118 
0.0263166 -10.1523 -0.00681162 
0.00850118 -0.00681162 -10.071 
-2.7111 0.00446525 0.525835 
0.00446525 -2.70057 0.813783 
0.525835 0.813783 -0.159043 
-2.69477 0.0219438 0.867023 
0.0219438 -2.36815 0.138896 
0.867023 0.138896 -0.507795 
-2.46299 0.0323621 0.202864 
0.0323621 -2.52314 0.310996 
0.202864 0.310996 -0.58458 
-1.9104 0.0975619 0.529163 
0.0975619 -2.02746 0.31681 
0.529163 0.31681 -1.63285 
-10.0391 -0.00643699 -0.00947344 
-0.00643699 -10.0604 0.0107344 
-0.00947344 0.0107344 -10.0866 
-10.0667 0.00931839 0.00272439 
0.00931839 -10.0866 -0.00139304 
0.00272439 -0.00139304 -10.0328 
-10.0668 -0.0595347 -0.0416116 
-0.0595347 -10.0051 0.0272039 
-0.0416116 0.0272039 -10.1142 
-10.0323 -0.00198384 -0.00499367 
-0.00198384 -10.1291 -0.0539412 
-0.00499367 -0.0539412 -10.0247 
-9.92107 0.0104848 -0.562808 
0.0104848 -9.91309 -0.712398 
-0.562808 -0.712398 -9.97455 
-9.92563 0.023022 -0.597287 
0.023022 -9.90855 -0.684328 
-0.597287 -0.684328 -9.97452 
-9.92814 0.0165762 -0.595413 
0.0165762 -9.93176 -0.712572 
-0.595413 -0.712572 -9.9488 
-9.94771 0.0104483 -0.585756 
0.0104483 -9.94629 -0.699414 
-0.585756 -0.699414 -9.9147 
-9.6937 -0.167283 -0.0407941 
-0.167283 -9.63307 0.0587559 
-0.0407941 0.0587559 -9.88238 
-9.71477 0.0178111 -0.141552 
0.0178111 -9.71057 0.0942677 
-0.141552 0.0942677 -9.78381 
-9.66557 -0.0865056 -0.145511 
-0.0865056 -9.63739 0.168417 
-0.145511 0.168417 -9.90618 
-9.6937 0.00763367 -0.123207 
0.00763367 -9.71516 0.12047 
-0.123207 0.12047 -9.80029 
-9.7994 0.00786628 0.855595 
0.00786628 -9.83438 -0.168763 
0.855595 -0.168763 -9.86283 
-9.83397 -0.00261218 0.892901 
-0.00261218 -9.86498 -0.243251 
0.892901 -0.243251 -9.79766 
-9.81676 0.0324219 0.892097 
0.0324219 -9.82929 -0.239007 
0.892097 -0.239007 -9.85055 
-9.77991 -0.0148772 0.820973 
-0.0148772 -9.85704 -0.192329 
0.820973 -0.192329 -9.85965 
-9.47231 0.923246 -0.0573444 
0.923246 -11.8214 0.707087 
-0.0573444 0.707087 -23.9553 
-13.9928 2.64239 -1.91566 
2.64239 -14.1297 -1.47106 
-1.91566 -1.47106 -17.1265 
-13.593 1.42804 -1.88876 
1.42804 -14.3922 -1.289 
-1.88876 -1.289 -17.2639 
-13.9639 0.567061 -0.475209 
0.567061 -14.1879 -0.171297 
-0.475209 -0.171297 -17.0973 
-10.6498 0.00138439 0.00777522 
0.00138439 -10.3454 -0.0302818 
0.00777522 -0.0302818 -10.4055 
-10.4872 -0.171158 0.0561145 
-0.171158 -10.4572 -0.0148755 
0.0561145 -0.0148755 -10.4562 
-10.1793 -0.00438667 -0.0192633 
-0.00438667 -10.1909 0.0196646 
-0.0192633 0.0196646 -11.0304 
-10.5689 -0.0401031 -0.0857956 
-0.0401031 -10.4169 -0.203648 
-0.0857956 -0.203648 -10.4149 
-10.2332 0.00165114 0.00997016 
0.00165114 -10.2776 -0.0632193 
0.00997016 -0.0632193 -10.149 
-10.1947 0.00479835 -0.00264709 
0.00479835 -10.2908 -0.0578125 
-0.00264709 -0.0578125 -10.1743 
-10.1582 0.0315249 0.104963 
0.0315249 -10.1465 0.00357685 
0.104963 0.00357685 -10.3551 
-10.2244 -0.0216858 -0.0527134 
-0.0216858 -10.2701 0.0328451 
-0.0527134 0.0328451 -10.1654 
-9.96788 0.051262 -0.580613 
0.051262 -9.92002 -0.744283 
-0.580613 -0.744283 -9.89384 
-9.90978 0.0534728 -0.610317 
0.0534728 -9.87894 -0.791859 
-0.610317 -0.791859 -9.99303 
-9.8838 0.00499259 -0.552706 
0.00499259 -9.90613 -0.74735 
-0.552706 -0.74735 -9.99181 
-9.96049 0.0687946 -0.61556 
0.0687946 -9.9118 -0.718327 
-0.61556 -0.718327 -9.90946 
-9.87374 -0.0167289 -0.782026 
-0.0167289 -9.87012 0.352875 
-0.782026 0.352875 -9.9509 
-9.83039 -0.0115843 -0.819385 
-0.0115843 -9.86152 0.332373 
-0.819385 0.332373 -10.0029 
-9.83387 -0.0267665 -0.775468 
-0.0267665 -9.89362 0.326443 
-0.775468 0.326443 -9.96728 
-9.8744 -0.0163401 -0.781911 
-0.0163401 -9.90182 0.362997 
-0.781911 0.362997 -9.91854 
-10.1238 -0.0590605 0.0131236 
-0.0590605 -10.1335 0.0235959 
0.0131236 0.0235959 -10.7695 
-10.1568 -0.0333194 0.0683114 
-0.0333194 -10.5215 -0.00222968 
0.0683114 -0.00222968 -10.3485 
-10.2473 0.169285 0.0459759 
0.169285 -10.3802 0.0192748 
0.0459759 0.0192748 -10.3992 
-10.2386 -0.0165138 0.207193 
-0.0165138 -10.4494 -0.0815921 
0.207193 -0.0815921 -10.3388 
-9.39424 -0.0365087 0.166956 
-0.0365087 -9.56036 0.760694 
0.166956 0.760694 -9.50645 
-9.51085 0.0613698 0.221459 
0.0613698 -9.30657 0.774343 
0.221459 0.774343 -9.64364 
-9.53817 0.0590161 0.21062 
0.0590161 -9.36803 0.694582 
0.21062 0.694582 -9.55486 
-9.49129 -0.0712096 0.233383 
-0.0712096 -9.37864 0.737488 
0.233383 0.737488 -9.59112 
-9.8989 -0.0266553 0.835403 
-0.0266553 -9.90079 -0.256544 
0.835403 -0.256544 -9.90128 
-9.80229 0.000328456 0.775009 
0.000328456 -9.85625 -0.256783 
0.775009 -0.256783 -10.0424 
-9.86724 -0.0111346 0.8408 
-0.0111346 -9.89188 -0.296034 
0.8408 -0.296034 -9.94184 
-9.88167 -0.0334895 0.870532 
-0.0334895 -9.942 -0.252944 
0.870532 -0.252944 -9.8773 
-10.2937 0.0792651 0.0261049 
0.0792651 -10.3056 0.013774 
0.0261049 0.013774 -10.5469 
-10.169 0.0227252 -0.00363874 
0.0227252 -10.2427 0.0757517 
-0.00363874 0.0757517 -10.7345 
-10.419 0.0560538 -0.00959271 
0.0560538 -10.3204 0.0173593 
-0.00959271 0.0173593 -10.4069 
-10.4016 0.0124906 0.0781414 
0.0124906 -10.2675 0.0295766 
0.0781414 0.0295766 -10.4772 
-9.77642 -0.00176784 0.859888 
-0.00176784 -9.81477 0.178586 
0.859888 0.178586 -9.85956 
-9.76137 0.0146922 0.834954 
0.0146922 -9.848 0.18855 
0.834954 0.18855 -9.84139 
-9.80002 -0.0213324 0.890511 
-0.0213324 -9.80604 0.230563 
0.890511 0.230563 -9.8447 
-9.82019 0.00815686 0.892902 
0.00815686 -9.83422 0.23139 
0.892902 0.23139 -9.79634 
-10.1727 -0.0266416 -0.0255782 
-0.0266416 -10.1896 -0.0170256 
-0.0255782 -0.0170256 -10.1592 
-10.1741 -0.0203336 -0.0197581 
-0.0203336 -10.1815 -0.00902562 
-0.0197581 -0.00902562 -10.166 
-10.1768 -0.0207439 -0.0254239 
-0.0207439 -10.1679 -0.00689816 
-0.0254239 -0.00689816 -10.1769 
-10.1738 -0.0187605 -0.0258776 
-0.0187605 -10.188 -0.0114415 
-0.0258776 -0.0114415 -10.1597 
-9.56643 0.0021376 -0.819084 
0.0021376 -9.62067 -0.0784081 
-0.819084 -0.0784081 -9.63937 
-9.61224 0.0073833 -0.83164 
0.0073833 -9.61738 -0.0774823 
-0.83164 -0.0774823 -9.59684 
-9.46252 0.00676849 -0.869271 
0.00676849 -9.59439 -0.125494 
-0.869271 -0.125494 -9.76955 
-9.59165 -0.00693527 -0.781222 
-0.00693527 -9.59542 -0.0626342 
-0.781222 -0.0626342 -9.6394 
-10.0986 0.0445456 -0.0155941 
0.0445456 -10.1161 -0.0640152 
-0.0155941 -0.0640152 -10.2207 
-10.1768 -0.00373802 0.0466903 
-0.00373802 -10.1876 0.00461852 
0.0466903 0.00461852 -10.0709 
-10.1647 0.0223436 -0.0161018 
0.0223436 -10.1387 0.0109659 
-0.0161018 0.0109659 -10.1319 
-10.2311 0.0304494 0.0309981 
0.0304494 -10.0614 -0.0527134 
0.0309981 -0.0527134 -10.1429 
-9.95072 0.00576056 0.796963 
0.00576056 -9.95289 0.422139 
0.796963 0.422139 -9.91472 
-9.91367 0.0311619 0.795622 
0.0311619 -9.9307 0.406885 
0.795622 0.406885 -9.97396 
-9.91364 0.0131208 0.77713 
0.0131208 -9.92312 0.441327 
0.77713 0.441327 -9.98158 
-9.93134 0.0149121 0.80174 
0.0149121 -9.94168 0.429711 
0.80174 0.429711 -9.94531 
-9.94193 -0.00869648 -0.269893 
-0.00869648 -9.95799 -0.862732 
-0.269893 -0.862732 -9.90477 
-9.94584 0.00815836 -0.279508 
0.00815836 -9.88182 -0.841256 
-0.279508 -0.841256 -9.97704 
-9.92467 0.0164702 -0.241856 
0.0164702 -9.88942 -0.852849 
-0.241856 -0.852849 -9.99061 
-9.95554 -0.00120746 -0.259093 
-0.00120746 -9.92684 -0.846291 
-0.259093 -0.846291 -9.92231 
-10.1178 0.0177437 0.00473167 
0.0177437 -10.1264 0.0231773 
0.00473167 0.0231773 -10.1634 
-10.1461 0.0447374 0.028419 
0.0447374 -10.0848 0.0245066 
0.028419 0.0245066 -10.1768 
-10.1527 -0.00438316 -0.0194054 
-0.00438316 -10.1439 0.0185539 
-0.0194054 0.0185539 -10.111 
-10.1232 0.00603575 -0.00574007 
0.00603575 -10.1822 -0.0332027 
-0.00574007 -0.0332027 -10.1023 
-10.0642 -0.0298187 -0.00923591 
-0.0298187 -10.1446 0.059455 
-0.00923591 0.059455 -10.2228 
-10.1559 0.0436755 -0.0281496 
0.0436755 -10.1916 -0.0486705 
-0.0281496 -0.0486705 -10.0841 
-10.1305 -0.0305368 -0.0349049 
-0.0305368 -10.0934 0.017168 
-0.0349049 0.017168 -10.2077 
-10.1949 0.00701633 0.0653452 
0.00701633 -10.1725 -0.058209 
0.0653452 -0.058209 -10.0642 
-9.91758 0.0107505 0.238868 
0.0107505 -9.89502 0.848 
0.238868 0.848 -9.9854 
-9.93255 0.0079061 0.279856 
0.0079061 -9.88584 0.835564 
0.279856 0.835564 -9.97961 
-9.94147 0.00113081 0.262629 
0.00113081 -9.91687 0.855596 
0.262629 0.855596 -9.93967 
-9.94398 -0.000220401 0.265185 
-0.000220401 -9.9438 0.849805 
0.265185 0.849805 -9.91023 
-10.1306 -0.00744444 -0.00189807 
-0.00744444 -10.1551 -0.00592039 
-0.00189807 -0.00592039 -10.1403 
-10.1193 -0.0359185 0.0537295 
-0.0359185 -10.0895 -0.0159691 
0.0537295 -0.0159691 -10.2173 
-10.1234 -0.0105486 -0.00537298 
-0.0105486 -10.2018 0.0464319 
-0.00537298 0.0464319 -10.1008 
-10.1479 0.0126892 0.00346219 
0.0126892 -10.1754 0.0131119 
0.00346219 0.0131119 -10.1027 
-9.84016 -0.00456136 0.0496397 
-0.00456136 -9.82785 -0.0019343 
0.0496397 -0.0019343 -9.86783 
-9.82849 0.00120946 0.0436355 
0.00120946 -9.79914 -0.0336695 
0.0436355 -0.0336695 -9.90821 
-9.57899 -0.0200558 -0.0172283 
-0.0200558 -9.9437 0.0191886 
-0.0172283 0.0191886 -10.0132 
-9.81626 -0.0984678 0.145271 
-0.0984678 -9.81059 0.0502487 
0.145271 0.0502487 -9.90899 
-10.1052 -0.053368 -0.0128374 
-0.053368 -10.0417 -0.0103758 
-0.0128374 -0.0103758 -10.1468 
-10.1141 0.0432828 0.00102544 
0.0432828 -10.1027 0.0276928 
0.00102544 0.0276928 -10.0769 
-10.1145 0.00523338 0.0045405 
0.00523338 -10.0958 0.00160852 
0.0045405 0.00160852 -10.0833 
-10.1006 0.0341022 0.0217524 
0.0341022 -10.1102 -0.0021003 
0.0217524 -0.0021003 -10.0829 
-10.0959 -0.00868604 -0.77554 
-0.00868604 -10.1049 0.145739 
-0.77554 0.145739 -9.87407 
-9.97804 0.00863662 -0.73897 
0.00863662 -10.0203 0.104691 
-0.73897 0.104691 -10.0765 
-10.0696 0.0145106 -0.804379 
0.0145106 -9.99342 0.118918 
-0.804379 0.118918 -10.0119 
-10.0188 0.0119305 -0.837205 
0.0119305 -10.1161 0.0746477 
-0.837205 0.0746477 -9.93994 
-9.92122 0.0177789 -0.595696 
0.0177789 -9.92703 -0.576074 
-0.595696 -0.576074 -9.91885 
-9.88472 -0.0103295 -0.604599 
-0.0103295 -9.93014 -0.568376 
-0.604599 -0.568376 -9.95225 
-9.87187 0.0205729 -0.638172 
0.0205729 -9.8664 -0.613224 
-0.638172 -0.613224 -10.0288 
-9.91282 0.0359816 -0.578796 
0.0359816 -9.91898 -0.559789 
-0.578796 -0.559789 -9.93531 
-8.61443 1.3088 -0.419961 
1.3088 -6.87206 -0.980682 
-0.419961 -0.980682 5.79936 
-6.21072 3.80486 1.53136 
3.80486 -5.16465 0.102071 
1.53136 0.102071 1.68824 
-3.24377 0.239052 -0.18736 
0.239052 -0.184001 -1.68239 
-0.18736 -1.68239 -6.25936 
-4.22486 -0.145444 6.7635 
-0.145444 -5.16518 -2.01644 
6.7635 -2.01644 -0.29708 
-10.1427 -0.00574223 0.0164039 
-0.00574223 -10.115 -0.0126184 
0.0164039 -0.0126184 -10.0538 
-10.0795 -0.0137647 -0.00126135 
-0.0137647 -10.1284 0.0080243 
-0.00126135 0.0080243 -10.1035 
-10.033 -0.0418184 -0.0473222 
-0.0418184 -10.0814 0.00240659 
-0.0473222 0.00240659 -10.1971 
-9.99424 0.0463584 -0.0256844 
0.0463584 -10.2028 -0.0453248 
-0.0256844 -0.0453248 -10.1144 
-10.406 0.0269363 0.0564865 
0.0269363 -10.2318 -0.000286089 
0.0564865 -0.000286089 -10.6483 
-10.4442 -0.140711 0.0050784 
-0.140711 -10.3583 -0.0343008 
0.0050784 -0.0343008 -10.4836 
-10.4425 -0.0718881 0.00109545 
-0.0718881 -10.3445 -0.017764 
0.00109545 -0.017764 -10.4989 
-10.3875 -0.0677564 -0.00727108 
-0.0677564 -10.4018 -0.032877 
-0.00727108 -0.032877 -10.4967 
-10.022 0.0277121 0.0076815 
0.0277121 -9.98717 -0.00438329 
0.0076815 -0.00438329 -10.1024 
-10.0425 -0.00302039 -0.0110264 
-0.00302039 -10.0304 0.00905653 
-0.0110264 0.00905653 -10.0387 
-10.0593 -0.00112498 -0.0117361 
-0.00112498 -10.0311 0.00590928 
-0.0117361 0.00590928 -10.0212 
-10.0665 -0.0343785 0.016246 
-0.0343785 -10.0387 0.0263904 
0.016246 0.0263904 -10.0065 
-9.97429 0.00737063 0.00256216 
0.00737063 -9.96022 0.0028728 
0.00256216 0.0028728 -9.96218 
-9.95037 -0.0414852 0.00536594 
-0.0414852 -9.94869 0.00815368 
0.00536594 0.00815368 -9.99763 
-9.98237 0.00876714 -0.00357802 
0.00876714 -9.96073 0.0122159 
-0.00357802 0.0122159 -9.9536 
-9.99027 0.00302578 0.00641136 
0.00302578 -9.95084 0.00333054 
0.00641136 0.00333054 -9.95558 
-10.1358 -0.0154377 -0.0131838 
-0.0154377 -10.1621 0.0255546 
-0.0131838 0.0255546 -10.1328 
-10.1255 -0.00658259 0.00217175 
-0.00658259 -10.1478 -0.0024513 
0.00217175 -0.0024513 -10.1573 
-10.1358 0.00906503 -0.0104187 
0.00906503 -10.1318 -0.00036766 
-0.0104187 -0.00036766 -10.1631 
-10.1254 -0.00366458 0.00426861 
-0.00366458 -10.182 0.0413198 
0.00426861 0.0413198 -10.1233 
-10.1993 -0.00157948 0.00575421 
-0.00157948 -10.1621 0.0106864 
0.00575421 0.0106864 -10.1529 
-10.1902 0.00844923 -0.024396 
0.00844923 -10.1796 0.000912464 
-0.024396 0.000912464 -10.1445 
-10.1539 -0.0276193 0.00386576 
-0.0276193 -10.1529 -0.0342833 
0.00386576 -0.0342833 -10.2074 
-10.2406 -0.014115 -0.0435111 
-0.014115 -10.112 -0.0317758 
-0.0435111 -0.0317758 -10.1616 
-10.4491 0.0319365 0.0341786 
0.0319365 -10.3423 -0.0233396 
0.0341786 -0.0233396 -10.6273 
-10.5595 0.109218 0.0596802 
0.109218 -10.3978 -0.0120511 
0.0596802 -0.0120511 -10.4614 
-10.4163 0.03932 0.0265879 
0.03932 -10.3923 0.0221829 
0.0265879 0.0221829 -10.6101 
-10.4906 0.0162946 -0.0686582 
0.0162946 -10.4008 -0.00821466 
-0.0686582 -0.00821466 -10.5273 
-9.92474 -0.0163456 0.674508 
-0.0163456 -9.93675 -0.577215 
0.674508 -0.577215 -9.98602 
-9.9344 -0.0178879 0.697694 
-0.0178879 -9.93756 -0.548646 
0.697694 -0.548646 -9.97554 
-9.95703 -0.00720816 0.692668 
-0.00720816 -9.96198 -0.562796 
0.692668 -0.562796 -9.92849 
-9.94147 -0.0129742 0.700232 
-0.0129742 -9.94946 -0.571395 
0.700232 -0.571395 -9.95657 
-10.0799 -0.0122298 0.00796471 
-0.0122298 -10.1057 -0.0173236 
0.00796471 -0.0173236 -10.0703 
-10.0804 0.00267216 0.0029806 
0.00267216 -10.0795 -0.00184619 
0.0029806 -0.00184619 -10.096 
-10.0875 0.000533023 -0.00197138 
0.000533023 -10.0867 0.0011175 
-0.00197138 0.0011175 -10.0817 
-10.088 0.00847609 -0.00222972 
0.00847609 -10.0936 0.00405231 
-0.00222972 0.00405231 -10.0743 
-10.083 0.022841 0.0278842 
0.022841 -10.0652 0.024027 
0.0278842 0.024027 -10.0335 
-10.0287 -0.0343669 0.0030286 
-0.0343669 -10.0844 0.00423277 
0.0030286 0.00423277 -10.0687 
-10.0491 0.00546971 -0.00324671 
0.00546971 -10.0576 -0.00656743 
-0.00324671 -0.00656743 -10.0749 
-10.0663 0.00889276 -0.00428697 
0.00889276 -10.0818 0.00789994 
-0.00428697 0.00789994 -10.0336 
-10.0205 0.0576054 0.0681649 
0.0576054 -10.0886 -0.0330126 
0.0681649 -0.0330126 -9.84732 
-10.0131 -0.0384094 0.00434583 
-0.0384094 -9.93743 -0.0236975 
0.00434583 -0.0236975 -10.0059 
-10.0209 -0.0531759 -0.0406404 
-0.0531759 -9.93616 0.00747804 
-0.0406404 0.00747804 -9.99935 
-9.93139 -0.0887564 0.00798333 
-0.0887564 -10.0588 -0.00412797 
0.00798333 -0.00412797 -9.96622 
-9.67287 -0.118967 0.0381047 
-0.118967 -9.82145 -0.0410136 
0.0381047 -0.0410136 -9.95232 
-9.79773 0.00840652 0.0931517 
0.00840652 -9.73514 -0.0373013 
0.0931517 -0.0373013 -9.91375 
-9.78788 -0.0545364 0.0564141 
-0.0545364 -9.7044 -0.0622453 
0.0564141 -0.0622453 -9.95435 
-9.79882 -0.00718284 0.115781 
-0.00718284 -9.75215 -0.0718016 
0.115781 -0.0718016 -9.89567 
-10.1034 0.00693497 -0.0248906 
0.00693497 -10.0687 0.0160045 
-0.0248906 0.0160045 -10.1054 
-10.0607 0.0280831 -0.00378615 
0.0280831 -10.029 0.0471458 
-0.00378615 0.0471458 -10.1877 
-10.1085 0.00681204 -0.0140709 
0.00681204 -10.121 -0.0112768 
-0.0140709 -0.0112768 -10.048 
-10.1434 -0.0189692 -0.0182718 
-0.0189692 -10.0441 0.00773983 
-0.0182718 0.00773983 -10.0899 
-9.59385 0.0263364 0.128486 
0.0263364 -9.65534 0.791701 
0.128486 0.791701 -9.50687 
-9.62643 0.0219435 0.205263 
0.0219435 -9.34928 0.881939 
0.205263 0.881939 -9.78035 
-9.55949 -0.00259348 0.164138 
-0.00259348 -9.60253 0.766616 
0.164138 0.766616 -9.59403 
-9.58295 0.0850516 0.239427 
0.0850516 -9.51649 0.711361 
0.239427 0.711361 -9.65661 
-10.0867 -0.0149266 0.0301407 
-0.0149266 -10.0068 0.0451582 
0.0301407 0.0451582 -10.17 
-10.116 0.0669653 0.0379017 
0.0669653 -10.0514 0.0240376 
0.0379017 0.0240376 -10.0961 
-10.1169 0.000208348 0.0278855 
0.000208348 -10.0509 0.00683939 
0.0278855 0.00683939 -10.0957 
-10.114 -0.0242031 0.0221609 
-0.0242031 -10.1354 -0.0204374 
0.0221609 -0.0204374 -10.0141 
-9.91032 0.0018994 -0.868245 
0.0018994 -9.93596 0.268415 
-0.868245 0.268415 -9.95515 
-9.89516 -0.012226 -0.8546 
-0.012226 -9.91813 0.244114 
-0.8546 0.244114 -9.98814 
-9.89169 -0.00605504 -0.842868 
-0.00605504 -9.93247 0.282278 
-0.842868 0.282278 -9.97727 
-9.93885 -0.00239524 -0.852817 
-0.00239524 -9.94492 0.268377 
-0.852817 0.268377 -9.91767 
-10.0908 0.010929 -0.00257455 
0.010929 -10.0966 -0.00598033 
-0.00257455 -0.00598033 -10.0659 
-10.0859 0.033115 0.00550216 
0.033115 -10.069 -0.0138226 
0.00550216 -0.0138226 -10.0983 
-10.081 -0.0112535 -0.0238057 
-0.0112535 -10.1178 -0.0197435 
-0.0238057 -0.0197435 -10.0544 
-10.0884 -0.0168968 -0.00916097 
-0.0168968 -10.1108 0.0148694 
-0.00916097 0.0148694 -10.0539 
-10.1048 0.0246458 -0.00630583 
0.0246458 -10.0842 -0.00239081 
-0.00630583 -0.00239081 -10.0388 
-10.1024 0.0259058 0.0244764 
0.0259058 -10.0734 -0.0174022 
0.0244764 -0.0174022 -10.0521 
-10.0484 -0.0421274 0.0162908 
-0.0421274 -10.0873 0.000577851 
0.0162908 0.000577851 -10.0922 
-10.0842 -0.0043867 0.0383045 
-0.0043867 -10.111 0.00948464 
0.0383045 0.00948464 -10.0327 
-10.1377 0.00785783 -0.0168296 
0.00785783 -10.1351 -0.034519 
-0.0168296 -0.034519 -10.0414 
-10.0611 -0.0827472 0.0266994 
-0.0827472 -10.1342 -0.0534261 
0.0266994 -0.0534261 -10.1189 
-10.0428 0.00499264 0.0268616 
0.00499264 -10.1389 -0.0221456 
0.0268616 -0.0221456 -10.1326 
-10.0696 -0.0106408 0.00377124 
-0.0106408 -10.1465 -0.00701197 
0.00377124 -0.00701197 -10.0981 
-10.1791 0.142929 -0.0928739 
0.142929 -10.1915 0.0335869 
-0.0928739 0.0335869 -10.4607 
-10.1502 -0.236301 -0.0359088 
-0.236301 -10.4546 0.110309 
-0.0359088 0.110309 -10.2265 
-9.68788 0.00586895 -0.233232 
0.00586895 -10.4056 0.0635966 
-0.233232 0.0635966 -10.7378 
-9.95601 -0.091664 -0.0603981 
-0.091664 -10.4668 -0.134574 
-0.0603981 -0.134574 -10.4085 
-9.89085 -0.0208376 -0.735959 
-0.0208376 -9.88853 0.468073 
-0.735959 0.468073 -9.99593 
-9.92529 -0.0191448 -0.719559 
-0.0191448 -9.92941 0.42233 
-0.719559 0.42233 -9.9206 
-9.90037 -0.00123264 -0.695382 
-0.00123264 -9.89263 0.441603 
-0.695382 0.441603 -9.98231 
-9.92888 -0.0288942 -0.714835 
-0.0288942 -9.92277 0.413558 
-0.714835 0.413558 -9.92364 
-10.0305 0.00652387 -0.0015285 
0.00652387 -10.0977 0.0121633 
-0.0015285 0.0121633 -10.0363 
-10.0474 0.00263692 0.0177848 
0.00263692 -10.063 -0.00692116 
0.0177848 -0.00692116 -10.0542 
-10.0427 -0.000550786 0.00533843 
-0.000550786 -10.0682 0.0042007 
0.00533843 0.0042007 -10.0536 
-10.0704 -0.0191964 0.016263 
-0.0191964 -10.0404 -0.000304184 
0.016263 -0.000304184 -10.0538 
-10.1201 -0.0108824 0.000862337 
-0.0108824 -10.0313 0.0147257 
0.000862337 0.0147257 -10.0801 
-10.0518 0.0354756 -0.00734981 
0.0354756 -10.1143 0.0341971 
-0.00734981 0.0341971 -10.0653 
-10.1735 -0.0220551 -0.0455032 
-0.0220551 -10.0491 0.0127675 
-0.0455032 0.0127675 -10.0088 
-10.092 -0.00133411 0.0118761 
-0.00133411 -10.0842 0.0231428 
0.0118761 0.0231428 -10.0553 
-10.0877 -0.0106937 0.00234404 
-0.0106937 -10.0804 0.0129155 
0.00234404 0.0129155 -10.0637 
-10.0873 -0.0185567 -0.00543389 
-0.0185567 -10.0768 -0.00226545 
-0.00543389 -0.00226545 -10.0677 
-10.0472 0.028479 0.0159418 
0.028479 -10.0827 -0.0221388 
0.0159418 -0.0221388 -10.1019 
-10.0798 -0.0141421 0.00192264 
-0.0141421 -10.082 0.00610562 
0.00192264 0.00610562 -10.07 
-9.9091 0.017188 -0.822625 
0.017188 -9.9146 -0.449131 
-0.822625 -0.449131 -9.96877 
-9.88364 0.0234394 -0.788096 
0.0234394 -9.9341 -0.448984 
-0.788096 -0.448984 -9.97473 
-9.90283 -0.0016989 -0.807886 
-0.0016989 -9.91474 -0.411159 
-0.807886 -0.411159 -9.9749 
-9.9327 0.0178801 -0.792118 
0.0178801 -9.94406 -0.434073 
-0.792118 -0.434073 -9.9157 
-9.61069 0.0107838 0.324282 
0.0107838 -9.61689 -0.776652 
0.324282 -0.776652 -9.65203 
-9.62833 -0.0246978 0.341705 
-0.0246978 -9.5478 -0.78382 
0.341705 -0.78382 -9.70347 
-9.65105 -0.0482537 0.3139 
-0.0482537 -9.53281 -0.745418 
0.3139 -0.745418 -9.69574 
-9.6034 -0.0158549 0.337252 
-0.0158549 -9.60659 -0.790609 
0.337252 -0.790609 -9.66961 
-9.41827 0.130024 0.352373 
0.130024 -9.33117 0.454715 
0.352373 0.454715 -9.47292 
-9.40887 -0.0439437 0.342374 
-0.0439437 -9.41859 0.530092 
0.342374 0.530092 -9.3949 
-9.35281 0.129484 0.417287 
0.129484 -9.27485 0.542349 
0.417287 0.542349 -9.5947 
-9.4675 -0.00687278 0.391222 
-0.00687278 -9.28046 0.520925 
0.391222 0.520925 -9.4744 
-9.88169 0.00935003 0.719996 
0.00935003 -9.93036 0.578463 
0.719996 0.578463 -9.98051 
-9.92302 0.00289738 0.683806 
0.00289738 -9.91508 0.57439 
0.683806 0.57439 -9.95445 
-9.8973 0.025174 0.709373 
0.025174 -9.90065 0.544753 
0.709373 0.544753 -9.9946 
-9.92707 0.0196763 0.682203 
0.0196763 -9.94109 0.560838 
0.682203 0.560838 -9.92439 
-9.91451 -0.154693 -0.146093 
-0.154693 -10.2236 -0.161796 
-0.146093 -0.161796 -11.4074 
-10.6776 -0.214785 0.0680611 
-0.214785 -10.613 0.00153667 
0.0680611 0.00153667 -10.2551 
-10.7151 -0.0167112 0.0170546 
-0.0167112 -10.5742 0.128012 
0.0170546 0.128012 -10.2564 
-10.4357 0.199102 0.471983 
0.199102 -10.5569 0.23786 
0.471983 0.23786 -10.553 
-4.52557 1.72402 -1.07043 
1.72402 -5.63506 0.347597 
-1.07043 0.347597 3.16104 
-2.91971 0.933418 0.924613 
0.933418 -2.67717 0.0352413 
0.924613 0.0352413 -1.4027 
-3.26948 -2.16526 -0.0656437 
-2.16526 -2.37144 -0.0120492 
-0.0656437 -0.0120492 -1.35867 
-3.08132 1.8868 2.49838 
1.8868 -1.82422 -1.01661 
2.49838 -1.01661 -2.09404 
-10.1289 -0.0379876 0.0028365 
-0.0379876 -10.1369 0.0267194 
0.0028365 0.0267194 -10.0607 
-10.1218 -0.0668461 -0.0556098 
-0.0668461 -10.1524 -0.0154074 
-0.0556098 -0.0154074 -10.0522 
-10.0102 0.116311 0.0173054 
0.116311 -10.1365 -0.0281088 
0.0173054 -0.0281088 -10.1797 
-10.1204 0.00547284 -0.00609592 
0.00547284 -10.1466 -0.011415 
-0.00609592 -0.011415 -10.0595 
-10.1148 -0.0503563 0.00540535 
-0.0503563 -10.0153 0.0155956 
0.00540535 0.0155956 -10.0306 
-10.0741 0.0128171 -0.0197217 
0.0128171 -10.0483 -0.02238 
-0.0197217 -0.02238 -10.0384 
-10.0613 -0.0094738 0.0659721 
-0.0094738 -10.0296 0.0337686 
0.0659721 0.0337686 -10.0699 
-10.0765 0.0624614 0.00383857 
0.0624614 -10.0546 -0.0566687 
0.00383857 -0.0566687 -10.0296 
-11.5973 -0.39206 0.946584 
-0.39206 -12.2419 -1.01257 
0.946584 -1.01257 -16.1984 
-12.9723 -0.526501 0.563025 
-0.526501 -13.4492 -0.139599 
0.563025 -0.139599 -13.6161 
-12.9362 -0.44197 0.415776 
-0.44197 -13.0898 -0.215798 
0.415776 -0.215798 -14.0116 
-13.0304 -0.84607 -0.263577 
-0.84607 -13.0265 0.374539 
-0.263577 0.374539 -13.9807 
-10.067 -0.00174211 -0.00516434 
-0.00174211 -10.0424 -0.0076975 
-0.00516434 -0.0076975 -10.0226 
-10.0403 -0.00794523 0.00370575 
-0.00794523 -10.0332 -0.0116137 
0.00370575 -0.0116137 -10.0586 
-9.98319 0.0203452 0.000812662 
0.0203452 -10.0688 0.00150577 
0.000812662 0.00150577 -10.0802 
-10.0628 -0.0164832 0.0132313 
-0.0164832 -10.0441 0.00153682 
0.0132313 0.00153682 -10.0252 
-10.1051 -0.0358961 -0.000847243 
-0.0358961 -9.97299 0.0014094 
-0.000847243 0.0014094 -10.0968 
-10.0335 0.00745607 0.0196159 
0.00745607 -10.0461 0.00652953 
0.0196159 0.00652953 -10.0953 
-10.0593 0.0211238 -0.0167855 
0.0211238 -10.0944 0.0140391 
-0.0167855 0.0140391 -10.0212 
-10.0561 -0.00166889 0.00787824 
-0.00166889 -10.0994 -0.0096548 
0.00787824 -0.0096548 -10.0195 
-10.1072 0.0218576 -0.00255803 
0.0218576 -10.1648 0.0137714 
-0.00255803 0.0137714 -10.124 
-10.1256 0.0160445 -0.00348387 
0.0160445 -10.1369 0.0341391 
-0.00348387 0.0341391 -10.1334 
-10.1388 0.00446017 -0.0205419 
0.00446017 -10.173 0.0307855 
-0.0205419 0.0307855 -10.0842 
-10.1184 0.0302397 0.0197874 
0.0302397 -10.137 0.0306934 
0.0197874 0.0306934 -10.1406 
-10.0773 -0.0462748 -0.00860719 
-0.0462748 -9.73577 -0.0343512 
-0.00860719 -0.0343512 -10.0497 
-9.90696 0.00424377 -0.0459067 
0.00424377 -9.93714 0.00534297 
-0.0459067 0.00534297 -10.0187 
-9.91159 -0.0107409 -0.0102513 
-0.0107409 -9.91118 0.0197957 
-0.0102513 0.0197957 -10.04 
-9.88152 -0.0488243 -0.0109606 
-0.0488243 -9.94825 0.036137 
-0.0109606 0.036137 -10.033 
-9.91177 -0.0207559 0.445366 
-0.0207559 -9.9255 -0.798828 
0.445366 -0.798828 -9.9824 
-9.94133 -0.0249123 0.438861 
-0.0249123 -9.90676 -0.769846 
0.438861 -0.769846 -9.97159 
-9.91684 0.0130104 0.411652 
0.0130104 -9.92446 -0.783939 
0.411652 -0.783939 -9.97837 
-9.94055 -0.0223556 0.431461 
-0.0223556 -9.94235 -0.76673 
0.431461 -0.76673 -9.93677 
-10.9567 1.34436 0.387287 
1.34436 -12.7069 0.0496528 
0.387287 0.0496528 -21.2687 
-11.6655 2.43662 1.84728 
2.43662 -12.9936 2.15696 
1.84728 2.15696 -20.2732 
-11.6421 2.45003 1.79475 
2.45003 -16.055 1.28404 
1.79475 1.28404 -17.2352 
-14.1118 -0.51724 -1.2874 
-0.51724 -13.4768 -1.87467 
-1.2874 -1.87467 -17.3437 
-9.88001 0.00143272 0.0468059 
0.00143272 -9.83818 -0.0509607 
0.0468059 -0.0509607 -9.92346 
-9.89763 0.0272925 0.0372082 
0.0272925 -9.85407 -0.0321128 
0.0372082 -0.0321128 -9.88995 
-9.85555 -0.158795 -0.0101215 
-0.158795 -9.79205 -0.00135472 
-0.0101215 -0.00135472 -9.99405 
-9.89963 -0.0263284 0.0571508 
-0.0263284 -9.83111 -0.0559318 
0.0571508 -0.0559318 -9.91091 
-9.64762 -0.0442209 -0.722677 
-0.0442209 -9.64704 0.455674 
-0.722677 0.455674 -9.71446 
-9.66789 -0.0212025 -0.689808 
-0.0212025 -9.68152 0.480672 
-0.689808 0.480672 -9.6597 
-9.62511 -0.0330889 -0.697811 
-0.0330889 -9.68558 0.490448 
-0.697811 0.490448 -9.69842 
-9.67392 -0.0188036 -0.672486 
-0.0188036 -9.69465 0.455996 
-0.672486 0.455996 -9.64054 
-10.1925 -0.0399632 -0.00489881 
-0.0399632 -10.1416 -0.00344001 
-0.00489881 -0.00344001 -10.1347 
-10.1268 -0.0838042 0.0568793 
-0.0838042 -10.1765 -0.00687233 
0.0568793 -0.00687233 -10.1654 
-10.1506 -0.0354192 0.0584637 
-0.0354192 -10.0929 -0.0175115 
0.0584637 -0.0175115 -10.2253 
-10.2103 0.0132137 0.0344238 
0.0132137 -10.1969 0.044431 
0.0344238 0.044431 -10.0615 
-9.93116 -0.0176608 -0.435871 
-0.0176608 -9.93452 0.806168 
-0.435871 0.806168 -9.93989 
-9.90877 -0.0131512 -0.454219 
-0.0131512 -9.89323 0.776367 
-0.454219 0.776367 -10.0036 
-9.92932 -0.0235952 -0.407806 
-0.0235952 -9.91563 0.80036 
-0.407806 0.80036 -9.96062 
-9.95606 -0.00665223 -0.420729 
-0.00665223 -9.94589 0.800866 
-0.420729 0.800866 -9.90362 
-11.2267 -0.00279619 0.489598 
-0.00279619 -11.6685 -0.364836 
0.489598 -0.364836 -11.2899 
-10.8997 -0.172957 -0.296033 
-0.172957 -10.1556 0.468524 
-0.296033 0.468524 -13.1297 
-11.1597 -0.216812 0.475944 
-0.216812 -11.3692 -0.271863 
0.475944 -0.271863 -11.6561 
-10.9857 -0.689258 0.790201 
-0.689258 -11.2406 -0.66993 
0.790201 -0.66993 -11.9586 
-10.0044 0.0138862 -0.00152939 
0.0138862 -9.98517 -0.00551871 
-0.00152939 -0.00551871 -10.0008 
-9.93001 -0.0267659 -0.00155229 
-0.0267659 -10.0277 0.000274194 
-0.00155229 0.000274194 -10.0327 
-10.011 0.0105212 -0.0103044 
0.0105212 -9.99164 -0.00632541 
-0.0103044 -0.00632541 -9.98777 
-10.0322 -0.000211829 0.0124642 
-0.000211829 -9.98524 -0.00641267 
0.0124642 -0.00641267 -9.97299 
-9.4341 0.00331682 0.500688 
0.00331682 -9.40766 0.347011 
0.500688 0.347011 -9.40393 
-9.38402 0.0114496 0.506395 
0.0114496 -9.35153 0.338801 
0.506395 0.338801 -9.51014 
-9.1318 0.161621 0.63711 
0.161621 -9.33643 0.396534 
0.63711 0.396534 -9.77745 
-9.3866 0.0367778 0.339329 
0.0367778 -9.30234 0.358155 
0.339329 0.358155 -9.55675 
-9.93341 0.0320535 0.0437473 
0.0320535 -9.90169 1.00532 
0.0437473 1.00532 -10.009 
-9.98307 -0.0127491 0.0375732 
-0.0127491 -9.94673 0.977231 
0.0375732 0.977231 -9.91431 
-9.94931 0.00410619 0.0521622 
0.00410619 -9.89894 0.949261 
0.0521622 0.949261 -9.99586 
-10.0051 -0.00246206 0.00624833 
-0.00246206 -9.91331 0.95563 
0.00624833 0.95563 -9.92572 
-9.96134 -0.0197537 -0.0414526 
-0.0197537 -9.89457 -0.0564646 
-0.0414526 -0.0564646 -10.0022 
-9.91368 0.00875247 -0.0546823 
0.00875247 -9.9327 -0.0156215 
-0.0546823 -0.0156215 -10.0117 
-9.7288 0.0187427 0.00850167 
0.0187427 -10.0438 0.000692621 
0.00850167 0.000692621 -10.0855 
-9.93604 0.0470214 -0.0974163 
0.0470214 -9.90478 0.00729698 
-0.0974163 0.00729698 -10.0173 
-9.92283 -0.0143401 -0.586019 
-0.0143401 -9.89665 0.722081 
-0.586019 0.722081 -9.99307 
-9.91423 -0.00403477 -0.579701 
-0.00403477 -9.92597 0.685429 
-0.579701 0.685429 -9.97234 
-9.92371 -0.0193548 -0.554785 
-0.0193548 -9.91797 0.706095 
-0.554785 0.706095 -9.97087 
-9.9444 -0.0248127 -0.55698 
-0.0248127 -9.93226 0.685341 
-0.55698 0.685341 -9.93589 
-10.1443 -0.0080182 0.0302775 
-0.0080182 -10.1424 -0.0251253 
0.0302775 -0.0251253 -10.0531 
-10.111 0.0149312 -0.000157933 
0.0149312 -10.1475 0.00668618 
-0.000157933 0.00668618 -10.0812 
-10.1689 -0.0313173 -0.00699384 
-0.0313173 -10.0175 -0.00739591 
-0.00699384 -0.00739591 -10.1533 
-10.1015 0.0239069 0.00870437 
0.0239069 -10.1492 -0.0228982 
0.00870437 -0.0228982 -10.0891 
-10.2055 -0.00918016 -0.0385302 
-0.00918016 -10.0897 -0.00571415 
-0.0385302 -0.00571415 -10.0773 
-10.1805 -0.0297448 0.0286041 
-0.0297448 -10.112 -0.00317426 
0.0286041 -0.00317426 -10.0801 
-9.97148 0.0543008 0.000941584 
0.0543008 -10.206 -0.00763678 
0.000941584 -0.00763678 -10.1951 
-10.1591 -0.0167676 -0.0266868 
-0.0167676 -10.14 0.00210924 
-0.0266868 0.00210924 -10.0735 
-9.86994 0.00452263 0.823363 
0.00452263 -9.93864 0.194839 
0.823363 0.194839 -9.91036 
-9.8265 0.00534606 0.805067 
0.00534606 -9.86529 0.144453 
0.805067 0.144453 -10.0272 
-9.85561 -0.0126823 0.855768 
-0.0126823 -9.88991 0.166848 
0.855768 0.166848 -9.97342 
-9.87701 0.0173604 0.838285 
0.0173604 -9.95036 0.216792 
0.838285 0.216792 -9.89157 
-1.17221 -0.0901055 0.940225 
-0.0901055 -0.927903 -0.0881092 
0.940225 -0.0881092 -1.13099 
-1.59759 0.537168 0.0048645 
0.537168 -2.57334 -0.290884 
0.0048645 -0.290884 0.939839 
-2.98599 0.254111 -0.0779609 
0.254111 -0.358654 0.131428 
-0.0779609 0.131428 0.113552 
-1.42906 0.354476 1.17193 
0.354476 -1.03383 -0.271941 
1.17193 -0.271941 -0.768203 
-10.4707 -0.0688633 -0.011106 
-0.0688633 -10.6414 0.0608324 
-0.011106 0.0608324 -10.2911 
-10.4898 -0.106527 0.00022542 
-0.106527 -10.3949 4.80069e-05 
0.00022542 4.80069e-05 -10.5186 
-10.4278 0.0120477 0.0944311 
0.0120477 -10.0963 0.0522649 
0.0944311 0.0522649 -10.8792 
-10.3972 0.0634325 -0.123363 
0.0634325 -10.5541 -0.129867 
-0.123363 -0.129867 -10.452 
-10.1399 0.0067683 -0.0509813 
0.0067683 -10.102 0.0413627 
-0.0509813 0.0413627 -9.96649 
-9.89461 -0.0264673 0.0955407 
-0.0264673 -10.0064 0.0540005 
0.0955407 0.0540005 -10.3074 
-10.0678 0.125001 -0.053497 
0.125001 -10.1137 0.0675123 
-0.053497 0.0675123 -10.0269 
-10.1392 0.0145633 -0.0292392 
0.0145633 -10.1244 -0.175144 
-0.0292392 -0.175144 -9.94479 
-10.188 -0.00836843 -0.00445901 
-0.00836843 -10.0725 -0.0121925 
-0.00445901 -0.0121925 -10.183 
-10.117 0.00554685 0.0119416 
0.00554685 -10.1023 -0.0264826 
0.0119416 -0.0264826 -10.2241 
-10.1476 0.00672562 0.01653 
0.00672562 -10.2043 0.062385 
0.01653 0.062385 -10.0916 
-10.1617 -0.0327384 -0.00237123 
-0.0327384 -10.1684 0.016092 
-0.00237123 0.016092 -10.1133 
-9.97276 -0.00561663 -0.136262 
-0.00561663 -9.97532 0.9018 
-0.136262 0.9018 -9.90158 
-9.90926 -0.00217322 -0.0693393 
-0.00217322 -9.89229 0.894794 
-0.0693393 0.894794 -10.0481 
-9.98802 0.00335182 -0.0900634 
0.00335182 -9.92839 0.890844 
-0.0900634 0.890844 -9.93325 
-9.97286 0.0165882 -0.0920271 
0.0165882 -9.94511 0.884644 
-0.0920271 0.884644 -9.93169 
-9.93182 0.00755018 -0.566984 
0.00755018 -9.87834 -0.754357 
-0.566984 -0.754357 -9.97816 
-9.95324 0.0269119 -0.534393 
0.0269119 -9.9314 -0.765871 
-0.534393 -0.765871 -9.90369 
-9.90512 0.0150115 -0.535923 
0.0150115 -9.8349 -0.691054 
-0.535923 -0.691054 -10.0483 
-9.98909 0.0287613 -0.541838 
0.0287613 -9.85595 -0.80889 
-0.541838 -0.80889 -9.94328 
-9.93477 -0.0100276 -0.243052 
-0.0100276 -9.9161 0.8722 
-0.243052 0.8722 -9.99574 
-9.94488 -0.00601623 -0.284302 
-0.00601623 -9.92754 0.859162 
-0.284302 0.859162 -9.97419 
-9.96271 -0.00475747 -0.26949 
-0.00475747 -9.95238 0.866642 
-0.26949 0.866642 -9.93152 
-9.9499 -0.00785675 -0.272334 
-0.00785675 -9.9364 0.8786 
-0.272334 0.8786 -9.9603 
-10.0942 0.0039998 -0.00936564 
0.0039998 -10.1087 -0.00303456 
-0.00936564 -0.00303456 -10.1244 
-10.1347 -0.0252683 0.00544247 
-0.0252683 -10.0509 0.000360831 
0.00544247 0.000360831 -10.1416 
-10.1103 -0.00123832 -0.00757292 
-0.00123832 -10.1397 0.00987354 
-0.00757292 0.00987354 -10.0773 
-10.1071 0.0158549 0.00958949 
0.0158549 -10.1374 -0.0122511 
0.00958949 -0.0122511 -10.0827 
-10.1222 0.0156717 -0.000947625 
0.0156717 -10.1228 0.00108848 
-0.000947625 0.00108848 -10.1603 
-10.1598 -0.00221611 0.00166808 
-0.00221611 -10.1349 -0.00339946 
0.00166808 -0.00339946 -10.1107 
-10.1175 -0.0021076 0.00160024 
-0.0021076 -10.1602 -0.00154732 
0.00160024 -0.00154732 -10.1276 
-10.1521 -0.000110667 0.00808761 
-0.000110667 -10.1358 -0.0298089 
0.00808761 -0.0298089 -10.1175 
-10.0754 0.0106103 0.373065 
0.0106103 -10.0201 0.662271 
0.373065 0.662271 -9.98484 
-10.0553 0.0172583 0.398523 
0.0172583 -10.0374 0.68831 
0.398523 0.68831 -9.98755 
-10.0385 0.0298548 0.370491 
0.0298548 -10.1097 0.684269 
0.370491 0.684269 -9.93205 
-10.0944 0.0429004 0.370713 
0.0429004 -10.0401 0.713082 
0.370713 0.713082 -9.9457 
-9.94478 -0.0291504 0.871586 
-0.0291504 -9.97137 0.0736536 
0.871586 0.0736536 -9.91154 
-9.90401 -0.0105497 0.89249 
-0.0105497 -9.98105 0.0851799 
0.89249 0.0851799 -9.94262 
-9.8669 0.0115321 0.896696 
0.0115321 -9.91821 0.0604767 
0.896696 0.0604767 -10.0426 
-9.98662 -0.00625196 0.914 
-0.00625196 -9.95395 0.120584 
0.914 0.120584 -9.88711 
-9.6263 0.00625695 0.812209 
0.00625695 -9.63228 0.185372 
0.812209 0.185372 -9.69442 
-9.52932 0.0259888 0.830642 
0.0259888 -9.64751 0.192566 
0.830642 0.192566 -9.77618 
-9.57896 0.0270746 0.807668 
0.0270746 -9.67324 0.166611 
0.807668 0.166611 -9.70081 
-9.61803 0.0553676 0.798588 
0.0553676 -9.62361 0.198949 
0.798588 0.198949 -9.71137 
-9.98124 -0.000961968 -0.00426118 
-0.000961968 -10.0152 0.000833522 
-0.00426118 0.000833522 -9.97483 
-10.0032 0.0122 -0.0137076 
0.0122 -9.98681 0.00369202 
-0.0137076 0.00369202 -9.98129 
-9.97892 -0.00145256 -0.0093586 
-0.00145256 -10.008 -0.00284368 
-0.0093586 -0.00284368 -9.98439 
-9.98118 -0.00242395 -0.019597 
-0.00242395 -10.0067 -0.000292492 
-0.019597 -0.000292492 -9.9834 
-10.1094 -0.0314082 -0.0181782 
-0.0314082 -10.0544 0.00683997 
-0.0181782 0.00683997 -10.0721 
-10.0818 -0.017462 -0.0159227 
-0.017462 -10.0954 0.00781093 
-0.0159227 0.00781093 -10.0586 
-10.1162 0.020888 -0.00723226 
0.020888 -10.0342 0.00459409 
-0.00723226 0.00459409 -10.0853 
-10.1 -0.0183013 -0.0224074 
-0.0183013 -10.0659 0.0171966 
-0.0224074 0.0171966 -10.0699 
-9.90396 -0.0537434 -0.00833101 
-0.0537434 -9.95863 -0.0109481 
-0.00833101 -0.0109481 -10.0424 
-9.97252 0.00657974 0.00731424 
0.00657974 -9.9529 0.0138454 
0.00731424 0.0138454 -9.97958 
-10.0124 0.0180548 -0.0191584 
0.0180548 -9.9551 0.0158099 
-0.0191584 0.0158099 -9.93748 
-9.98389 0.0278415 0.01498 
0.0278415 -9.98602 0.00142909 
0.01498 0.00142909 -9.93509 
-9.56074 0.0554635 -0.621053 
0.0554635 -9.58085 -0.614394 
-0.621053 -0.614394 -9.75906 
-9.61194 0.060354 -0.606214 
0.060354 -9.62888 -0.570294 
-0.606214 -0.570294 -9.65982 
-9.6283 -0.00329081 -0.593836 
-0.00329081 -9.62019 -0.608583 
-0.593836 -0.608583 -9.65216 
-9.64691 0.0108872 -0.609629 
0.0108872 -9.56857 -0.608793 
-0.609629 -0.608793 -9.68517 
-10.0939 0.0685338 0.137791 
0.0685338 -10.2651 -0.10097 
0.137791 -0.10097 -11.0349 
-10.6236 0.0214357 -0.0656127 
0.0214357 -10.3461 0.0321609 
-0.0656127 0.0321609 -10.4242 
-10.6869 0.127606 -0.0970593 
0.127606 -10.6506 -0.0363007 
-0.0970593 -0.0363007 -10.0564 
-10.2793 -0.132025 -0.257363 
-0.132025 -10.4636 0.229995 
-0.257363 0.229995 -10.651 
-10.0752 0.00466871 -0.034266 
0.00466871 -10.0618 -0.0170776 
-0.034266 -0.0170776 -10.0812 
-10.0544 0.0249232 0.0112613 
0.0249232 -10.1247 0.00439331 
0.0112613 0.00439331 -10.0392 
-10.0865 -0.0787516 0.00222438 
-0.0787516 -9.98084 0.0049985 
0.00222438 0.0049985 -10.151 
-10.0843 0.0302307 0.00671268 
0.0302307 -10.0785 -0.0144883 
0.00671268 -0.0144883 -10.0555 
-10.1435 0.0134218 0.00577019 
0.0134218 -10.1394 0.0362501 
0.00577019 0.0362501 -10.0763 
-10.099 -0.0075499 0.0393786 
-0.0075499 -10.0727 -0.0246326 
0.0393786 -0.0246326 -10.1874 
-10.1384 -0.0138382 -0.0275139 
-0.0138382 -10.15 0.0079933 
-0.0275139 0.0079933 -10.0708 
-10.1538 -0.0358622 0.0325188 
-0.0358622 -10.0894 -0.00337585 
0.0325188 -0.00337585 -10.1159 
-10.0789 -0.0161631 0.0449623 
-0.0161631 -10.1107 0.0091034 
0.0449623 0.0091034 -10.2529 
-10.1763 -0.0181008 -0.0543036 
-0.0181008 -10.1751 0.00984464 
-0.0543036 0.00984464 -10.091 
-10.0851 -0.0107832 0.0101465 
-0.0107832 -10.2057 0.00268259 
0.0101465 0.00268259 -10.1516 
-10.1626 0.0158931 -0.00572717 
0.0158931 -10.1692 -0.00717329 
-0.00572717 -0.00717329 -10.1106 
-9.91549 0.00269214 0.881787 
0.00269214 -9.9408 -0.270196 
0.881787 -0.270196 -9.9606 
-9.89974 -0.00957019 0.869717 
-0.00957019 -9.91666 -0.242943 
0.869717 -0.242943 -10.0005 
-9.90583 -0.00651408 0.857434 
-0.00651408 -9.94356 -0.281586 
0.857434 -0.281586 -9.9675 
-9.94337 -0.00700285 0.862967 
-0.00700285 -9.95144 -0.27443 
0.862967 -0.27443 -9.92207 
-9.98256 0.0129468 0.0906565 
0.0129468 -9.9515 -0.884974 
0.0906565 -0.884974 -9.92322 
-9.99171 0.00507242 0.093806 
0.00507242 -9.93014 -0.893136 
0.093806 -0.893136 -9.93543 
-9.92377 -0.00866045 0.0622933 
-0.00866045 -9.88635 -0.898589 
0.0622933 -0.898589 -10.0472 
-9.97491 -0.00288174 0.140105 
-0.00288174 -9.98707 -0.907379 
0.140105 -0.907379 -9.8953 
-10.0999 0.0284236 -0.00829762 
0.0284236 -10.0802 0.0114374 
-0.00829762 0.0114374 -10.048 
-10.0784 -0.0431592 -0.000491042 
-0.0431592 -10.0334 0.00169719 
-0.000491042 0.00169719 -10.1163 
-10.0741 0.00264112 0.0152617 
0.00264112 -10.068 0.01278 
0.0152617 0.01278 -10.086 
-10.1031 0.00583123 0.022161 
0.00583123 -10.0819 -0.000670053 
0.022161 -0.000670053 -10.0431 
-9.9706 0.0172025 0.373145 
0.0172025 -9.96536 0.872477 
0.373145 0.872477 -9.93187 
-9.97565 0.00935335 0.372012 
0.00935335 -9.92511 0.899616 
0.372012 0.899616 -9.96707 
-9.97188 0.0130543 0.343148 
0.0130543 -9.92787 0.866784 
0.343148 0.866784 -9.96808 
-9.9989 0.0214508 0.374703 
0.0214508 -9.94382 0.860492 
0.374703 0.860492 -9.92511 
-9.98149 -0.000604175 -0.00125602 
-0.000604175 -10.0372 -0.00770352 
-0.00125602 -0.00770352 -10.0216 
-10.015 0.00569686 -0.000155521 
0.00569686 -10.0102 -0.00170275 
-0.000155521 -0.00170275 -10.0151 
-10.0302 0.00877534 -0.00812442 
0.00877534 -10.0076 -0.0136217 
-0.00812442 -0.0136217 -10.0025 
-10.0239 0.014997 0.00665309 
0.014997 -10.016 -0.00990217 
0.00665309 -0.00990217 -10.0005 
-9.92072 0.00463905 -0.893389 
0.00463905 -9.98026 0.0946225 
-0.893389 0.0946225 -9.93741 
-9.87232 -0.0128152 -0.898843 
-0.0128152 -9.92178 0.0612771 
-0.898843 0.0612771 -10.0443 
-9.98653 0.00307565 -0.910328 
0.00307565 -9.96613 0.134149 
-0.910328 0.134149 -9.88573 
-9.94367 0.0216179 -0.879934 
0.0216179 -9.98141 0.0813289 
-0.879934 0.0813289 -9.91332 
-9.46346 -0.106252 0.291317 
-0.106252 -9.34431 -0.506305 
0.291317 -0.506305 -9.70307 
-9.43514 0.0570035 0.255548 
0.0570035 -9.57207 -0.434056 
0.255548 -0.434056 -9.50363 
-9.52153 -0.177921 0.215075 
-0.177921 -9.34698 -0.353041 
0.215075 -0.353041 -9.64233 
-9.53412 0.0720422 0.228462 
0.0720422 -9.38751 -0.456005 
0.228462 -0.456005 -9.58921 
-10.1035 -0.0250136 0.0156376 
-0.0250136 -10.1226 -0.0348511 
0.0156376 -0.0348511 -10.0589 
-10.0985 -0.0111297 -0.00074299 
-0.0111297 -10.1152 0.0018463 
-0.00074299 0.0018463 -10.0713 
-10.0786 0.0237834 -0.0159103 
0.0237834 -10.0654 0.0174783 
-0.0159103 0.0174783 -10.141 
-10.0727 0.0125822 -0.00443675 
0.0125822 -10.14 0.00920756 
-0.00443675 0.00920756 -10.0722 
-10.0229 -0.0215089 0.0020959 
-0.0215089 -9.96052 -0.0101938 
0.0020959 -0.0101938 -9.96613 
-9.94354 -0.034178 -0.0268728 
-0.034178 -9.95929 -0.0242449 
-0.0268728 -0.0242449 -10.0467 
-10.0129 -0.0224879 -0.00621381 
-0.0224879 -9.98366 -0.00474786 
-0.00621381 -0.00474786 -9.95296 
-10.0181 0.0287213 0.0571718 
0.0287213 -10.0048 0.0283125 
0.0571718 0.0283125 -9.92661 
-10.1546 0.00477357 -0.000666431 
0.00477357 -10.1902 -0.0107986 
-0.000666431 -0.0107986 -10.14 
-10.1812 0.0192098 0.00336688 
0.0192098 -10.1285 -0.000232297 
0.00336688 -0.000232297 -10.175 
-10.1477 -0.0036721 -0.00515461 
-0.0036721 -10.1617 0.00175485 
-0.00515461 0.00175485 -10.1753 
-10.1572 -0.00584694 0.0103412 
-0.00584694 -10.18 0.00393351 
0.0103412 0.00393351 -10.1475 
-9.97998 0.00612843 -0.911684 
0.00612843 -9.96636 -0.122355 
-0.911684 -0.122355 -9.91302 
-9.92303 -0.00237001 -0.901656 
-0.00237001 -9.91862 -0.0696112 
-0.901656 -0.0696112 -10.0177 
-9.90765 -0.0110947 -0.898286 
-0.0110947 -9.99704 -0.0962577 
-0.898286 -0.0962577 -9.95468 
-9.95616 2.1451e-05 -0.892039 
2.1451e-05 -9.97271 -0.0957617 
-0.892039 -0.0957617 -9.9305 
-2.11182 0.329015 -0.179967 
0.329015 -2.53881 -0.268631 
-0.179967 -0.268631 -0.115765 
-2.10039 0.12798 0.425543 
0.12798 -1.86188 -0.0579412 
0.425543 -0.0579412 -0.804117 
-2.24477 -0.0759998 0.250426 
-0.0759998 -2.2871 -0.742086 
0.250426 -0.742086 -0.234526 
-1.78725 0.164673 0.637731 
0.164673 -2.01801 0.128928 
0.637731 0.128928 -0.961135 
-10.068 -0.012578 -0.00937247 
-0.012578 -10.076 -0.00650943 
-0.00937247 -0.00650943 -10.0406 
-10.0131 0.0479537 0.00312542 
0.0479537 -10.0786 -0.00231713 
0.00312542 -0.00231713 -10.0929 
-10.0676 -0.00966118 -0.00218754 
-0.00966118 -10.0506 0.00391129 
-0.00218754 0.00391129 -10.0664 
-10.0767 -0.0168549 0.013465 
-0.0168549 -10.0624 -0.0097351 
0.013465 -0.0097351 -10.0455 
-9.91265 0.00689836 0.880723 
0.00689836 -9.92053 0.251135 
0.880723 0.251135 -9.98357 
-9.89509 0.0104173 0.866836 
0.0104173 -9.94048 0.297602 
0.866836 0.297602 -9.98117 
-9.94753 0.00828176 0.87716 
0.00828176 -9.9499 0.278833 
0.87716 0.278833 -9.91931 
-9.93405 0.0224849 0.888903 
0.0224849 -9.92963 0.28607 
0.888903 0.28607 -9.95306 
-9.96991 -0.00147767 0.566467 
-0.00147767 -9.96964 0.702409 
0.566467 0.702409 -9.90887 
-9.93683 0.0234997 0.58691 
0.0234997 -9.91685 0.668783 
0.58691 0.668783 -9.99474 
-9.93699 0.0272116 0.548184 
0.0272116 -9.94076 0.699883 
0.548184 0.699883 -9.97067 
-9.96035 0.0154883 0.566775 
0.0154883 -9.96066 0.689548 
0.566775 0.689548 -9.92741 
-10.482 -1.61652 -2.72479 
-1.61652 -14.983 1.3895 
-2.72479 1.3895 -19.7815 
-10.8044 -0.0407651 -0.721385 
-0.0407651 -14.3307 -0.180724 
-0.721385 -0.180724 -20.1113 
-11.3032 -0.489138 -2.25711 
-0.489138 -16.7917 0.354147 
-2.25711 0.354147 -17.1514 
-14.2475 0.0689362 1.75218 
0.0689362 -14.2417 -1.32762 
1.75218 -1.32762 -16.7572 
-10.0785 -0.0162912 0.000300593 
-0.0162912 -10.0903 -0.0016191 
0.000300593 -0.0016191 -10.0468 
-10.0263 0.0399977 -0.000716848 
0.0399977 -10.0589 0.00398245 
-0.000716848 0.00398245 -10.1304 
-10.0886 -0.0144802 -0.00181846 
-0.0144802 -10.0756 -0.0176364 
-0.00181846 -0.0176364 -10.0513 
-10.0676 -0.00952566 0.0315154 
-0.00952566 -10.0828 -0.0239408 
0.0315154 -0.0239408 -10.0651 
-10.2026 0.0270915 -0.00689709 
0.0270915 -10.0919 0.00385785 
-0.00689709 0.00385785 -10.1903 
-10.1691 -0.00545821 0.0120371 
-0.00545821 -10.1756 -0.00382142 
0.0120371 -0.00382142 -10.14 
-10.1842 0.0103434 0.0258141 
0.0103434 -10.1923 0.0238743 
0.0258141 0.0238743 -10.1083 
-10.1399 -0.0154031 0.017269 
-0.0154031 -10.1924 0.0101276 
0.017269 0.0101276 -10.1524 
-2.37539 -0.479327 0.140638 
-0.479327 -1.93916 -0.00904632 
0.140638 -0.00904632 -0.455708 
-2.52017 -0.16891 0.658693 
-0.16891 -1.99998 -0.877707 
0.658693 -0.877707 -0.250104 
-1.27147 -0.0682994 0.123709 
-0.0682994 -1.12249 -0.428336 
0.123709 -0.428336 -2.3763 
-1.36284 0.469298 -1.07475 
0.469298 -1.66579 -0.761429 
-1.07475 -0.761429 -1.74162 
-10.1623 0.146245 0.150049 
0.146245 -10.105 -0.00900849 
0.150049 -0.00900849 -10.9608 
-10.5878 -0.0775658 -0.0488542 
-0.0775658 -10.2733 0.00295118 
-0.0488542 0.00295118 -10.367 
-10.6466 0.0479029 -0.0385437 
0.0479029 -10.4404 -0.0701973 
-0.0385437 -0.0701973 -10.141 
-10.2857 0.00605976 -0.298557 
0.00605976 -10.4446 0.145629 
-0.298557 0.145629 -10.4977 
-9.96813 0.000941856 -0.702416 
0.000941856 -9.96903 0.553942 
-0.702416 0.553942 -9.92068 
-9.91621 -0.0232471 -0.664634 
-0.0232471 -9.93164 0.58333 
-0.664634 0.58333 -10.01 
-9.95348 -0.0160237 -0.688751 
-0.0160237 -9.95286 0.551641 
-0.688751 0.551641 -9.9515 
-9.96944 -0.0155891 -0.682519 
-0.0155891 -9.95444 0.560725 
-0.682519 0.560725 -9.93396 
-9.93323 0.00127699 0.272111 
0.00127699 -9.94963 -0.846281 
0.272111 -0.846281 -9.97111 
-9.95814 -0.0224976 0.235325 
-0.0224976 -9.90965 -0.858448 
0.235325 -0.858448 -9.98618 
-9.97678 0.0136386 0.248879 
0.0136386 -9.92855 -0.862805 
0.248879 -0.862805 -9.94864 
-9.96891 0.00419063 0.253367 
0.00419063 -9.95383 -0.858924 
0.253367 -0.858924 -9.93123 
-9.66845 0.00607427 -0.827349 
0.00607427 -9.65297 -0.16061 
-0.827349 -0.16061 -9.63092 
-9.60411 0.0375085 -0.818569 
0.0375085 -9.6551 -0.178012 
-0.818569 -0.178012 -9.69313 
-9.52376 0.0126197 -0.85658 
0.0126197 -9.60994 -0.197956 
-0.85658 -0.197956 -9.81864 
-9.63676 0.0333535 -0.776722 
0.0333535 -9.64474 -0.191973 
-0.776722 -0.191973 -9.67083 
-2.04616 0.103203 -0.610324 
0.103203 -1.95132 0.137669 
-0.610324 0.137669 -1.51453 
-2.35086 0.285569 -0.0274413 
0.285569 -2.03553 0.0891723 
-0.0274413 0.0891723 -1.12563 
-2.5276 0.111699 -0.510359 
0.111699 -2.49041 -0.64575 
-0.510359 -0.64575 -0.493995 
-1.6984 0.0321571 -0.489706 
0.0321571 -1.8438 0.246806 
-0.489706 0.246806 -1.96982 
-10.1867 -0.0131711 -0.00524327 
-0.0131711 -10.2172 -0.011368 
-0.00524327 -0.011368 -10.1794 
-10.1811 0.000357135 0.00644913 
0.000357135 -10.2005 -0.000617133 
0.00644913 -0.000617133 -10.2017 
-10.201 0.00420776 -0.00299253 
0.00420776 -10.183 0.000506819 
-0.00299253 0.000506819 -10.1993 
-10.1858 -0.000595057 -0.00130282 
-0.000595057 -10.2131 0.00561015 
-0.00130282 0.00561015 -10.1844 
-10.135 0.00370397 -0.0042115 
0.00370397 -10.1405 0.0115451 
-0.0042115 0.0115451 -10.1078 
-10.1415 -0.0016147 -0.00738037 
-0.0016147 -10.0979 -0.00134943 
-0.00738037 -0.00134943 -10.1439 
-10.125 0.00558565 -0.00542005 
0.00558565 -10.1356 -0.000346635 
-0.00542005 -0.000346635 -10.1228 
-10.1238 0.00532119 -0.00194542 
0.00532119 -10.1435 -0.00641558 
-0.00194542 -0.00641558 -10.116 
-10.141 0.00139018 0.0200342 
0.00139018 -10.125 -0.00410482 
0.0200342 -0.00410482 -10.0868 
-10.0572 0.011653 -0.00214058 
0.011653 -10.1284 0.00635881 
-0.00214058 0.00635881 -10.1671 
-10.1292 -0.00387247 0.000262898 
-0.00387247 -10.1133 2.69249e-05 
0.000262898 2.69249e-05 -10.1103 
-10.1329 0.0008153 -0.00373898 
0.0008153 -10.117 -0.015959 
-0.00373898 -0.015959 -10.1028 
-9.97753 0.0112831 0.425302 
0.0112831 -9.96664 0.788499 
0.425302 0.788499 -9.93905 
-9.96826 0.0154535 0.434444 
0.0154535 -9.94153 0.780866 
0.434444 0.780866 -9.97344 
-9.95827 0.00227795 0.402562 
0.00227795 -9.94306 0.797881 
0.402562 0.797881 -9.98189 
-9.96873 0.0138715 0.427859 
0.0138715 -9.95406 0.79944 
0.427859 0.79944 -9.96043 
-9.93648 -0.00802247 -0.809687 
-0.00802247 -9.97229 0.434521 
-0.809687 0.434521 -9.96183 
-9.92512 -0.0176473 -0.808523 
-0.0176473 -9.94551 0.404232 
-0.808523 0.404232 -9.99998 
-9.95203 -0.00933064 -0.789423 
-0.00933064 -9.96205 0.437446 
-0.789423 0.437446 -9.95653 
-9.96303 -0.0108956 -0.79067 
-0.0108956 -9.97357 0.441796 
-0.79067 0.441796 -9.93401 
-10.0591 -0.00339941 0.00163337 
-0.00339941 -10.093 -0.00972087 
0.00163337 -0.00972087 -10.1096 
-10.0969 -0.00418475 0.000416538 
-0.00418475 -10.0862 -0.00688146 
0.000416538 -0.00688146 -10.0785 
-10.0954 -0.0167582 -0.00447054 
-0.0167582 -10.0862 -0.00711796 
-0.00447054 -0.00711796 -10.08 
-10.099 -0.0080292 0.0068524 
-0.0080292 -10.0845 -0.00448778 
0.0068524 -0.00448778 -10.0781 
-10.1233 0.0125679 0.00878773 
0.0125679 -10.1265 0.0062537 
0.00878773 0.0062537 -10.115 
-10.125 0.0103606 0.0196681 
0.0103606 -10.1299 0.00163756 
0.0196681 0.00163756 -10.1099 
-10.1278 0.0133042 0.0127761 
0.0133042 -10.1207 0.00116278 
0.0127761 0.00116278 -10.1163 
-10.1273 0.0118177 0.013307 
0.0118177 -10.1208 -0.00135307 
0.013307 -0.00135307 -10.1167 
-9.82619 0.004197 0.00384332 
0.004197 -9.84108 -0.0239237 
0.00384332 -0.0239237 -9.90174 
-9.83015 -0.105484 -0.0257078 
-0.105484 -9.7652 0.00156164 
-0.0257078 0.00156164 -9.97366 
-9.84345 -0.0342741 -0.0262892 
-0.0342741 -9.80717 -0.0500874 
-0.0262892 -0.0500874 -9.91839 
-9.82634 0.00324991 -0.0143394 
0.00324991 -9.82768 -0.0249719 
-0.0143394 -0.0249719 -9.915 
-10.1598 0.00484088 0.0079436 
0.00484088 -10.1536 0.00657109 
0.0079436 0.00657109 -10.1376 
-10.1414 -0.00488551 0.00430391 
-0.00488551 -10.1517 -0.000502091 
0.00430391 -0.000502091 -10.1578 
-10.1741 -0.00120482 0.00212418 
-0.00120482 -10.1486 0.000100546 
0.00212418 0.000100546 -10.1282 
-10.1412 -0.00821785 0.023139 
-0.00821785 -10.1596 -0.00152602 
0.023139 -0.00152602 -10.1501 
-10.1796 -9.22347e-05 0.00040754 
-9.22347e-05 -10.1464 0.0097328 
0.00040754 0.0097328 -10.1421 
-10.1221 -0.00196535 0.00144751 
-0.00196535 -10.1556 0.0043878 
0.00144751 0.0043878 -10.1905 
-10.1663 0.00565747 -0.00628974 
0.00565747 -10.1491 -0.000721042 
-0.00628974 -0.000721042 -10.1527 
-10.1389 0.000180969 -0.00722159 
0.000180969 -10.1697 -0.0303091 
-0.00722159 -0.0303091 -10.1595 
-10.0987 -0.0165668 -0.00532528 
-0.0165668 -10.0975 0.00503416 
-0.00532528 0.00503416 -10.0849 
-10.0886 0.0307665 -0.00338318 
0.0307665 -10.0931 0.00190907 
-0.00338318 0.00190907 -10.0995 
-10.09 -0.0129972 -0.0179876 
-0.0129972 -10.11 0.00544373 
-0.0179876 0.00544373 -10.0812 
-10.0743 -0.00801746 -0.00441552 
-0.00801746 -10.1243 0.0126379 
-0.00441552 0.0126379 -10.0825 
-10.0897 0.024291 -0.0134191 
0.024291 -10.0333 -0.00415385 
-0.0134191 -0.00415385 -10.0541 
-10.0315 -0.0723411 0.00788255 
-0.0723411 -10.0599 0.00646667 
0.00788255 0.00646667 -10.0858 
-10.0656 0.0466435 -0.014141 
0.0466435 -10.0884 -0.0145432 
-0.014141 -0.0145432 -10.0231 
-10.0572 -0.0050765 0.021457 
-0.0050765 -10.044 0.0286049 
0.021457 0.0286049 -10.0758 
-10.1462 -0.0220263 0.00521874 
-0.0220263 -10.1706 -0.0166324 
0.00521874 -0.0166324 -10.1221 
-10.1438 -0.00221019 0.00990198 
-0.00221019 -10.1508 -0.00289008 
0.00990198 -0.00289008 -10.1443 
-10.1528 0.0108143 -0.00951117 
0.0108143 -10.095 0.0013242 
-0.00951117 0.0013242 -10.1911 
-10.1537 -0.00582729 0.0157819 
-0.00582729 -10.1705 0.0109525 
0.0157819 0.0109525 -10.1147 
-10.1586 0.00491218 -0.0121445 
0.00491218 -10.1326 0.0133941 
-0.0121445 0.0133941 -10.0932 
-10.0809 -0.00974781 0.00052301 
-0.00974781 -10.15 -0.00209738 
0.00052301 -0.00209738 -10.1535 
-10.1082 -0.00264745 0.0087902 
-0.00264745 -10.1129 0.0260018 
0.0087902 0.0260018 -10.1633 
-10.1571 0.0256939 0.0100209 
0.0256939 -10.1304 -0.0129868 
0.0100209 -0.0129868 -10.097 
-10.2237 0.0438142 0.025716 
0.0438142 -9.99767 -0.00371841 
0.025716 -0.00371841 -10.2186 
-10.1176 -0.0389523 -0.016698 
-0.0389523 -10.2021 -0.0220797 
-0.016698 -0.0220797 -10.1203 
-10.1326 -0.0184339 0.00669147 
-0.0184339 -10.1999 0.0241981 
0.00669147 0.0241981 -10.1075 
-10.1793 0.00614126 -0.0320309 
0.00614126 -10.1824 -0.0200726 
-0.0320309 -0.0200726 -10.0783 
-10.1897 0.0410325 0.020716 
0.0410325 -10.1033 -0.00100409 
0.020716 -0.00100409 -10.1396 
-10.1617 0.00856406 -0.00519392 
0.00856406 -10.1318 0.0188642 
-0.00519392 0.0188642 -10.1391 
-10.0481 -0.0255777 -0.00825406 
-0.0255777 -10.1898 -0.0105094 
-0.00825406 -0.0105094 -10.1947 
-10.1474 -0.00501948 0.00384681 
-0.00501948 -10.1743 -0.00932441 
0.00384681 -0.00932441 -10.1109 
-9.87429 0.027949 -0.0571912 
0.027949 -9.90288 -0.0936307 
-0.0571912 -0.0936307 -9.8336 
-9.88095 -0.138069 0.0328953 
-0.138069 -9.78227 0.0188715 
0.0328953 0.0188715 -9.94755 
-9.83946 -0.0401588 0.0334816 
-0.0401588 -9.80719 -0.0924246 
0.0334816 -0.0924246 -9.96413 
-9.93174 0.0342069 -0.0417265 
0.0342069 -9.76692 -0.0623474 
-0.0417265 -0.0623474 -9.91211 
-9.96586 -0.00625649 0.917951 
-0.00625649 -9.97719 -0.131309 
0.917951 -0.131309 -9.90691 
-9.92276 0.00898171 0.909419 
0.00898171 -9.99032 -0.0976881 
0.909419 -0.0976881 -9.93688 
-9.89972 0.00376519 0.913894 
0.00376519 -9.91459 -0.0692501 
0.913894 -0.0692501 -10.0356 
-9.94173 0.00505329 0.916095 
0.00505329 -9.9683 -0.101975 
0.916095 -0.101975 -9.93992 
-9.95189 0.00696511 -0.875361 
0.00696511 -9.96984 -0.259924 
-0.875361 -0.259924 -9.92399 
-9.93933 0.00315019 -0.873471 
0.00315019 -9.95198 -0.256003 
-0.873471 -0.256003 -9.9544 
-9.89585 0.0102706 -0.860828 
0.0102706 -9.94521 -0.302687 
-0.860828 -0.302687 -10.0047 
-9.93911 0.0217198 -0.886718 
0.0217198 -9.94864 -0.278332 
-0.886718 -0.278332 -9.95796 
-10.1179 -0.00797199 -0.0115609 
-0.00797199 -10.1411 0.0164636 
-0.0115609 0.0164636 -10.1386 
-10.1212 -0.010382 -0.00673605 
-0.010382 -10.1492 0.0129292 
-0.00673605 0.0129292 -10.1273 
-10.1482 -0.015124 -0.0137131 
-0.015124 -10.1412 0.0275537 
-0.0137131 0.0275537 -10.1083 
-10.1114 -0.00576559 -0.00082133 
-0.00576559 -10.1449 0.00271951 
-0.00082133 0.00271951 -10.1414 
-10.095 0.0556208 -0.015362 
0.0556208 -10.065 -0.0150744 
-0.015362 -0.0150744 -10.1152 
-10.0936 -0.0369945 -0.0129147 
-0.0369945 -10.0114 -0.0103117 
-0.0129147 -0.0103117 -10.1702 
-10.0869 0.034441 -0.0462161 
0.034441 -10.187 -0.0208779 
-0.0462161 -0.0208779 -10.0013 
-10.101 -0.0137196 0.06993 
-0.0137196 -10.0339 0.0455602 
0.06993 0.0455602 -10.1403 
-9.96782 -0.00203266 -0.101427 
-0.00203266 -9.94219 -0.901888 
-0.101427 -0.901888 -9.92995 
-9.90758 -0.00202218 -0.0656407 
-0.00202218 -9.89333 -0.901715 
-0.0656407 -0.901715 -10.0391 
-9.9918 -0.0102285 -0.100397 
-0.0102285 -9.90982 -0.89667 
-0.100397 -0.89667 -9.93834 
-9.97526 0.00795448 -0.136324 
0.00795448 -9.97045 -0.907976 
-0.136324 -0.907976 -9.89425 
-9.96602 -0.0119168 0.55986 
-0.0119168 -9.95202 -0.712078 
0.55986 -0.712078 -9.96949 
-9.96469 -0.0272293 0.599279 
-0.0272293 -9.93688 -0.680657 
0.599279 -0.680657 -9.98596 
-9.9862 -0.00936468 0.580147 
-0.00936468 -9.97889 -0.705166 
0.580147 -0.705166 -9.92244 
-9.96026 -0.0209225 0.588848 
-0.0209225 -9.98488 -0.70017 
0.588848 -0.70017 -9.94238 
-9.94801 0.0119508 -0.708425 
0.0119508 -9.98039 -0.56718 
-0.708425 -0.56718 -9.95159 
-9.9523 0.00858683 -0.687214 
0.00858683 -9.9545 -0.579928 
-0.687214 -0.579928 -9.9732 
-9.94596 0.0168326 -0.711828 
0.0168326 -9.95691 -0.550345 
-0.711828 -0.550345 -9.97714 
-9.96691 0.00828393 -0.702237 
0.00828393 -9.97679 -0.568725 
-0.702237 -0.568725 -9.93629 
-9.90483 -0.000306025 0.0630705 
-0.000306025 -9.89211 0.918409 
0.0630705 0.918409 -10.0447 
-9.9806 -0.0095491 0.101538 
-0.0095491 -9.92032 0.912783 
0.101538 0.912783 -9.94071 
-9.96148 0.000679214 0.101563 
0.000679214 -9.9441 0.919885 
0.101563 0.919885 -9.93605 
-9.97153 0.00928234 0.132215 
0.00928234 -9.96929 0.923447 
0.132215 0.923447 -9.90081 
-9.9829 0.00590678 -0.421748 
0.00590678 -9.97611 -0.807319 
-0.421748 -0.807319 -9.93041 
-9.96745 0.0203785 -0.449395 
0.0203785 -9.92481 -0.784941 
-0.449395 -0.784941 -9.99717 
-9.97091 0.00782955 -0.411308 
0.00782955 -9.95744 -0.803852 
-0.411308 -0.803852 -9.96107 
-9.9708 0.0189836 -0.430884 
0.0189836 -9.97031 -0.802799 
-0.430884 -0.802799 -9.94832 
-9.95543 -0.0161746 0.818849 
-0.0161746 -9.97414 -0.440343 
0.818849 -0.440343 -9.93267 
-9.93461 -0.0197906 0.824564 
-0.0197906 -9.95335 -0.407878 
0.824564 -0.407878 -9.97429 
-9.92736 -0.0167914 0.793748 
-0.0167914 -9.95396 -0.465888 
0.793748 -0.465888 -9.98092 
-9.97191 -0.00796828 0.818154 
-0.00796828 -9.98259 -0.438036 
0.818154 -0.438036 -9.90774 
-5.46161 3.12529 -0.555979 
3.12529 -4.76646 -2.8478 
-0.555979 -2.8478 -5.77905 
-5.88099 -1.85491 -0.908272 
-1.85491 -6.93653 -2.11779 
-0.908272 -2.11779 -3.1896 
-6.97726 -2.22224 -1.01829 
-2.22224 -6.57295 -3.94214 
-1.01829 -3.94214 -2.45691 
-7.48114 0.912679 -0.484926 
0.912679 -7.14046 -2.54951 
-0.484926 -2.54951 -1.38553 
-6.96147 0.360827 -1.1677 
0.360827 -7.62274 -2.00314 
-1.1677 -2.00314 -5.57143 
-7.65141 0.13659 -0.705881 
0.13659 -8.59844 -2.33717 
-0.705881 -2.33717 -3.9058 
-7.78806 -0.176686 -0.975631 
-0.176686 -8.6726 -2.05446 
-0.975631 -2.05446 -3.69499 
-7.37554 -0.0586468 -0.151056 
-0.0586468 -7.09326 -2.39707 
-0.151056 -2.39707 -5.68684 
-9.60444 -0.0672966 0.422612 
-0.0672966 -9.63036 -0.703954 
0.422612 -0.703954 -10.0261 
-9.75306 -0.165949 0.476108 
-0.165949 -9.59945 -0.663175 
0.476108 -0.663175 -9.90837 
-9.74824 -0.0693499 0.421527 
-0.0693499 -9.7099 -0.5883 
0.421527 -0.5883 -9.80273 
-9.63568 0.0440061 0.624422 
0.0440061 -9.69014 -0.725037 
0.624422 -0.725037 -9.93505 
-9.58493 -0.145974 0.525137 
-0.145974 -9.56607 -0.727556 
0.525137 -0.727556 -9.73201 
-9.55858 -0.156861 0.503639 
-0.156861 -9.53912 -0.761253 
0.503639 -0.761253 -9.78531 
-9.6203 -0.123035 0.531283 
-0.123035 -9.55965 -0.730204 
0.531283 -0.730204 -9.70306 
-9.6202 -0.156603 0.579013 
-0.156603 -9.54287 -0.685023 
0.579013 -0.685023 -9.71994 
-9.5738 1.89619 0.969651 
1.89619 -8.24519 0.446197 
0.969651 0.446197 -10.5155 
-10.5458 0.264455 3.81089 
0.264455 -7.88689 1.22555 
3.81089 1.22555 -9.90183 
-9.1619 2.85182 0.934659 
2.85182 -8.52643 5.98597 
0.934659 5.98597 -10.6462 
-7.47243 -0.364489 -3.60582 
-0.364489 -9.62401 1.6812 
-3.60582 1.6812 -11.238 
-8.64381 0.950332 0.575725 
0.950332 -9.04484 0.682745 
0.575725 0.682745 -9.91363 
-8.50592 0.938182 0.5802 
0.938182 -8.83939 1.2366 
0.5802 1.2366 -10.257 
-8.77318 0.833142 0.205603 
0.833142 -9.07389 1.3047 
0.205603 1.3047 -9.75521 
-8.69409 1.90638 1.62242 
1.90638 -7.86747 1.75102 
1.62242 1.75102 -11.0407 
-9.3193 -0.0619382 -0.650571 
-0.0619382 -9.37756 0.449275 
-0.650571 0.449275 -9.62593 
-9.32809 -0.142425 -0.543011 
-0.142425 -9.46206 0.388825 
-0.543011 0.388825 -9.53264 
-9.38331 -0.0384236 -0.607316 
-0.0384236 -9.39473 0.441622 
-0.607316 0.441622 -9.54474 
-9.48711 0.11913 -0.673463 
0.11913 -9.41668 0.51125 
-0.673463 0.51125 -9.419 
-10.042 -0.0394764 -0.336113 
-0.0394764 -9.455 -0.185345 
-0.336113 -0.185345 -9.99822 
-9.98109 0.281585 -0.0305189 
0.281585 -9.40194 0.0813235 
-0.0305189 0.0813235 -10.1122 
-9.86549 -0.0598789 -0.0142984 
-0.0598789 -9.76174 -0.0167147 
-0.0142984 -0.0167147 -9.86798 
-9.59702 -0.260618 0.0943453 
-0.260618 -10.1854 -0.0736489 
0.0943453 -0.0736489 -9.71279 
-9.89863 -0.0253078 -0.17928 
-0.0253078 -9.74418 -0.396627 
-0.17928 -0.396627 -10.161 
-10.085 0.193527 -0.0351076 
0.193527 -10.1464 -0.11945 
-0.0351076 -0.11945 -9.57238 
-9.62873 -0.0277968 0.0436441 
-0.0277968 -9.35152 -0.0518288 
0.0436441 -0.0518288 -10.8235 
-10.2343 0.0126199 0.0679339 
0.0126199 -9.53215 -0.650044 
0.0679339 -0.650044 -10.0374 
-9.35017 -0.0249197 -0.487876 
-0.0249197 -9.79619 -0.0120954 
-0.487876 -0.0120954 -7.61181 
-9.42264 0.193254 -0.909953 
0.193254 -9.89744 -0.31023 
-0.909953 -0.31023 -7.4381 
-9.5594 -0.112444 -0.175815 
-0.112444 -9.42575 0.0542683 
-0.175815 0.0542683 -7.77303 
-9.33941 -0.00716484 -0.456677 
-0.00716484 -9.80881 -0.00679929 
-0.456677 -0.00679929 -7.60996 
-9.27539 0.0614591 -0.600003 
0.0614591 -9.29747 -0.0194347 
-0.600003 -0.0194347 -6.98926 
-9.20538 -0.0265694 -0.672456 
-0.0265694 -9.28173 -0.541383 
-0.672456 -0.541383 -7.07501 
-9.26045 0.0871074 -0.535804 
0.0871074 -9.45376 -0.187224 
-0.535804 -0.187224 -6.84791 
-9.35368 0.355975 -0.576017 
0.355975 -10.1907 -0.47497 
-0.576017 -0.47497 -6.01775 
-9.50273 0.064384 -0.712101 
0.064384 -9.81602 -0.630687 
-0.712101 -0.630687 -8.96521 
-9.52205 0.074564 -0.884658 
0.074564 -9.50848 -0.427549 
-0.884658 -0.427549 -9.25343 
-9.5384 0.161743 -0.597414 
0.161743 -9.5584 -0.760631 
-0.597414 -0.760631 -9.18716 
-9.91065 0.135988 -1.03931 
0.135988 -10.0447 -0.59943 
-1.03931 -0.59943 -8.32861 
-9.79762 -0.136729 -0.57313 
-0.136729 -10.0799 -0.770414 
-0.57313 -0.770414 -9.25673 
-9.89516 0.153957 -0.524058 
0.153957 -9.73463 -0.643859 
-0.524058 -0.643859 -9.5045 
-9.99313 0.101898 -0.661344 
0.101898 -9.71291 -0.494922 
-0.661344 -0.494922 -9.42825 
-9.28931 -0.298193 -0.453428 
-0.298193 -9.97165 -0.406488 
-0.453428 -0.406488 -9.87333 
-9.56284 -0.227474 -0.327056 
-0.227474 -8.77648 -0.450816 
-0.327056 -0.450816 -9.87018 
-9.54338 -0.0441608 0.0611926 
-0.0441608 -8.78409 -0.539252 
0.0611926 -0.539252 -9.88203 
-9.70019 0.0774169 -0.152263 
0.0774169 -8.80698 -0.154102 
-0.152263 -0.154102 -9.70232 
-8.9557 -0.0764892 0.394561 
-0.0764892 -9.32449 -0.555881 
0.394561 -0.555881 -9.92931 
-9.66634 0.00292292 0.241863 
0.00292292 -9.36117 -0.497326 
0.241863 -0.497326 -10.0884 
-9.66854 0.0939161 0.104994 
0.0939161 -9.06048 -0.570383 
0.104994 -0.570383 -10.3869 
-9.97501 -0.386566 -0.136932 
-0.386566 -8.82895 -0.903618 
-0.136932 -0.903618 -10.312 
-9.40835 0.0797914 -0.059634 
0.0797914 -8.93499 -0.132831 
-0.059634 -0.132831 -10.7726 
-10.6912 -0.939347 -1.34726 
-0.939347 -7.75768 0.288081 
-1.34726 0.288081 -7.98965 
-8.74363 -1.5855 -2.69612 
-1.5855 -9.99203 2.72296 
-2.69612 2.72296 -7.70286 
-8.91548 -1.12461 -2.73125 
-1.12461 -9.91874 2.55871 
-2.73125 2.55871 -7.60429 
-8.8379 -0.944376 -1.53175 
-0.944376 -9.38918 0.846378 
-1.53175 0.846378 -8.21143 
-3.0439 -2.91119 -2.56426 
-2.91119 -12.4486 1.37967 
-2.56426 1.37967 -8.6918 
-8.76448 -2.37141 -1.70665 
-2.37141 -9.21521 1.54036 
-1.70665 1.54036 -6.20463 
-6.30318 -0.605151 -2.86889 
-0.605151 -5.79871 0.550797 
-2.86889 0.550797 -12.0824 
-11.2265 -0.707368 -5.07225 
-0.707368 -6.6934 5.96085 
-5.07225 5.96085 -6.26446 
-9.66067 0.233549 0.710348 
0.233549 -9.49659 0.815073 
0.710348 0.815073 -9.68789 
-9.5572 0.237153 0.572614 
0.237153 -9.45745 0.801387 
0.572614 0.801387 -9.83049 
-9.47315 0.34919 0.867563 
0.34919 -9.62515 0.902682 
0.867563 0.902682 -9.74684 
-9.65127 0.16682 0.707254 
0.16682 -9.53908 0.774731 
0.707254 0.774731 -9.65478 
-9.67681 0.142925 0.571389 
0.142925 -9.59492 0.869425 
0.571389 0.869425 -9.75547 
-9.60879 0.146944 0.760344 
0.146944 -9.44061 0.837942 
0.760344 0.837942 -9.9778 
-9.63761 0.172864 0.498538 
0.172864 -9.43705 0.761479 
0.498538 0.761479 -9.95254 
-9.67149 0.414835 0.414941 
0.414835 -9.45925 0.650171 
0.414941 0.650171 -9.89646 
-8.79426 0.486383 -1.77339 
0.486383 -8.71332 -0.928333 
-1.77339 -0.928333 -5.86712 
-8.92257 0.154123 -1.68594 
0.154123 -8.80949 -0.909571 
-1.68594 -0.909571 -5.64264 
-8.29935 -0.147857 -2.05803 
-0.147857 -9.47716 -0.514989 
-2.05803 -0.514989 -5.59818 
-8.11931 0.0896777 -1.73345 
0.0896777 -9.22246 -0.535001 
-1.73345 -0.535001 -6.03293 
-7.65235 0.318215 -2.3981 
0.318215 -8.44996 -0.710925 
-2.3981 -0.710925 -5.34592 
-7.90214 -0.277891 -2.72884 
-0.277891 -8.78315 -0.747496 
-2.72884 -0.747496 -4.76294 
-7.90668 -0.070838 -2.12146 
-0.070838 -8.31421 -0.416598 
-2.12146 -0.416598 -5.22733 
-8.38305 0.0348549 -2.69256 
0.0348549 -8.7187 -1.09189 
-2.69256 -1.09189 -4.34648 
-8.29648 -0.278762 2.12227 
-0.278762 -9.55299 -0.174531 
2.12227 -0.174531 -6.90673 
-8.23531 -0.00981651 1.51543 
-0.00981651 -9.88625 0.294607 
1.51543 0.294607 -6.63464 
-8.63827 0.317732 2.9381 
0.317732 -9.45402 0.234176 
2.9381 0.234176 -6.66391 
-8.57645 0.734628 2.37198 
0.734628 -7.65587 -0.00503451 
2.37198 -0.00503451 -8.52388 
-8.15283 0.39437 2.543 
0.39437 -9.31568 -0.403537 
2.543 -0.403537 -5.92477 
-8.20452 0.186513 2.24344 
0.186513 -9.46811 -0.218755 
2.24344 -0.218755 -5.72066 
-8.51383 0.235105 1.87322 
0.235105 -9.05816 -0.336825 
1.87322 -0.336825 -5.8213 
-8.1173 -0.429954 3.54655 
-0.429954 -9.81629 -0.667454 
3.54655 -0.667454 -5.4597 
-6.62502 -2.7878 0.206483 
-2.7878 -6.76284 8.75403 
0.206483 8.75403 -4.84822 
-10.0757 1.58268 -0.80874 
1.58268 -8.0455 2.27175 
-0.80874 2.27175 -0.114873 
-8.47337 3.84474 -5.31764 
3.84474 -3.56187 4.08812 
-5.31764 4.08812 -6.20084 
-3.47708 -4.44531 -0.993152 
-4.44531 -8.8356 3.50294 
-0.993152 3.50294 -5.9234 
-11.3863 -0.861906 -1.79885 
-0.861906 -8.70364 2.10151 
-1.79885 2.10151 -10.68 
-10.8432 -2.35626 -1.63664 
-2.35626 -9.52791 2.72431 
-1.63664 2.72431 -10.3989 
-11.0964 -3.0181 -3.23261 
-3.0181 -8.73761 3.2737 
-3.23261 3.2737 -10.936 
-9.19024 -1.39887 -1.53972 
-1.39887 -9.08559 -0.509269 
-1.53972 -0.509269 -12.4942 
-7.16962 -0.330843 -1.30462 
-0.330843 -4.99198 3.85085 
-1.30462 3.85085 -2.84598 
-5.45296 -0.268308 -2.92548 
-0.268308 -8.00473 1.07768 
-2.92548 1.07768 -1.54988 
-8.48205 -0.124863 -0.799679 
-0.124863 -5.22626 2.97429 
-0.799679 2.97429 -1.29926 
-5.43315 -0.0882331 -1.92064 
-0.0882331 -5.8383 1.12237 
-1.92064 1.12237 -3.73612 
-11.1629 -0.975206 -4.23115 
-0.975206 -8.83741 0.236678 
-4.23115 0.236678 -5.65509 
-2.92954 -1.81525 -6.28668 
-1.81525 -16.2029 4.98106 
-6.28668 4.98106 -6.52302 
-10.8247 -0.199565 -2.70547 
-0.199565 -6.94943 3.27258 
-2.70547 3.27258 -7.88131 
-6.68976 0.232056 2.05981 
0.232056 -6.69375 5.6133 
2.05981 5.6133 -12.2719 
-9.2948 -0.149673 -0.80596 
-0.149673 -9.32418 0.44891 
-0.80596 0.44891 -9.80988 
-9.19672 -0.159009 -0.637986 
-0.159009 -9.32514 0.456184 
-0.637986 0.456184 -9.907 
-9.28468 -0.176528 -0.556875 
-0.176528 -9.47261 0.550481 
-0.556875 0.550481 -9.67157 
-9.18238 -0.276256 -0.592249 
-0.276256 -9.502 0.617719 
-0.592249 0.617719 -9.74448 
-9.30615 -0.130802 -0.723892 
-0.130802 -9.38722 0.437388 
-0.723892 0.437388 -9.57175 
-9.32969 -0.190563 -0.482597 
-0.190563 -9.40442 0.358539 
-0.482597 0.358539 -9.53103 
-9.25999 -0.174944 -0.575495 
-0.174944 -9.31196 0.529629 
-0.575495 0.529629 -9.69318 
-9.35224 -0.0210991 -0.408155 
-0.0210991 -9.2715 0.383031 
-0.408155 0.383031 -9.64139 
-8.26337 1.6473 1.09168 
1.6473 -8.36408 1.07848 
1.09168 1.07848 -12.3677 
-8.84341 3.52634 4.2853 
3.52634 -7.71416 0.995129 
4.2853 0.995129 -12.4375 
-9.55296 1.07631 1.0166 
1.07631 -9.49235 1.88383 
1.0166 1.88383 -9.9498 
-8.53076 0.835785 1.94176 
0.835785 -9.94461 1.32011 
1.94176 1.32011 -10.5197 
-10.9656 0.950929 0.757089 
0.950929 -10.1994 -0.240693 
0.757089 -0.240693 -13.3249 
-10.9161 0.677667 -0.335691 
0.677667 -10.0095 1.3754 
-0.335691 1.3754 -13.5644 
-10.5591 1.8642 1.52319 
1.8642 -9.56696 -0.0954535 
1.52319 -0.0954535 -14.3639 
-10.2972 1.81173 -1.79083 
1.81173 -10.6981 0.235878 
-1.79083 0.235878 -13.4947 
-10.0165 0.0152745 0.787 
0.0152745 -10.0767 -0.0443999 
0.787 -0.0443999 -9.77474 
-10.0198 0.0588521 0.846682 
0.0588521 -10.0024 -0.125143 
0.846682 -0.125143 -9.84575 
-10.0564 -0.0131107 0.869711 
-0.0131107 -10.0966 -0.20398 
0.869711 -0.20398 -9.71484 
-9.67424 -0.0053408 0.607247 
-0.0053408 -9.75848 -0.136145 
0.607247 -0.136145 -10.4352 
-9.77071 -0.0676601 0.943251 
-0.0676601 -9.9397 -0.15321 
0.943251 -0.15321 -9.74894 
-9.77955 -0.111877 0.880023 
-0.111877 -9.95496 -0.164445 
0.880023 -0.164445 -9.72485 
-9.79332 0.0792722 0.873256 
0.0792722 -9.79709 -0.214659 
0.873256 -0.214659 -9.86895 
-9.90694 -0.000957755 0.907729 
-0.000957755 -9.89684 -0.0612768 
0.907729 -0.0612768 -9.65558 
-9.53807 -1.16409 -1.12247 
-1.16409 -8.70678 1.14034 
-1.12247 1.14034 -9.95559 
-8.84094 -1.00729 -1.343 
-1.00729 -9.19093 1.11029 
-1.343 1.11029 -10.1686 
-8.64839 -1.34045 -1.39808 
-1.34045 -9.71204 1.3374 
-1.39808 1.3374 -9.84 
-8.78312 -0.358487 -2.18988 
-0.358487 -8.93624 0.69258 
-2.18988 0.69258 -10.4811 
-8.94516 -1.14683 -2.24753 
-1.14683 -9.47539 2.6309 
-2.24753 2.6309 -8.99084 
-8.62761 -1.11933 -1.82665 
-1.11933 -8.97221 1.83697 
-1.82665 1.83697 -9.81157 
-8.49264 -1.12354 -1.75453 
-1.12354 -8.87409 2.31788 
-1.75453 2.31788 -10.0447 
-8.63707 -0.934671 -1.93621 
-0.934671 -9.00392 2.37647 
-1.93621 2.37647 -9.77039 
-7.29747 0.472583 2.08133 
0.472583 -9.50936 -0.452793 
2.08133 -0.452793 -9.14526 
-7.45771 -0.173333 2.6582 
-0.173333 -9.74983 -0.695878 
2.6582 -0.695878 -8.74454 
-7.8896 -0.768858 2.0706 
-0.768858 -9.51878 -0.63305 
2.0706 -0.63305 -8.5437 
-7.59149 -0.879591 2.48314 
-0.879591 -9.27708 -0.245346 
2.48314 -0.245346 -9.08351 
-8.49977 0.638312 1.77713 
0.638312 -9.64021 -0.0624916 
1.77713 -0.0624916 -9.34284 
-9.35809 -0.113602 1.93514 
-0.113602 -9.72973 -0.337628 
1.93514 -0.337628 -8.39499 
-8.47352 -0.321816 2.1368 
-0.321816 -10.2286 0.380069 
2.1368 0.380069 -8.78067 
-8.37152 -0.0893718 1.71751 
-0.0893718 -9.50032 0.0276666 
1.71751 0.0276666 -9.61098 
-8.86139 -0.19647 1.15106 
-0.19647 -9.89179 0.19 
1.15106 0.19 -9.3316 
-8.40885 0.549049 1.08706 
0.549049 -9.78824 0.463852 
1.08706 0.463852 -9.88769 
-8.4144 0.870705 1.11834 
0.870705 -9.66481 0.605236 
1.11834 0.605236 -10.0056 
-8.48768 0.324123 1.18356 
0.324123 -9.7726 0.186801 
1.18356 0.186801 -9.82451 
-8.65272 0.605352 0.680832 
0.605352 -9.59147 0.600902 
0.680832 0.600902 -10.7616 
-8.85127 0.455879 1.92586 
0.455879 -9.93953 0.240896 
1.92586 0.240896 -10.215 
-8.77575 1.00515 1.22828 
1.00515 -9.84 0.180089 
1.22828 0.180089 -10.39 
-7.7572 0.426305 1.51112 
0.426305 -10.6785 1.44406 
1.51112 1.44406 -10.5701 
-7.97584 0.324181 1.43575 
0.324181 -9.32037 0.0553872 
1.43575 0.0553872 -12.4001 
-9.07643 0.472624 2.22185 
0.472624 -10.5528 0.607839 
2.22185 0.607839 -10.0672 
-8.82373 0.605703 1.4777 
0.605703 -10.6235 0.373071 
1.4777 0.373071 -10.2492 
-9.27148 0.37243 1.46048 
0.37243 -9.68695 0.329467 
1.46048 0.329467 -10.7379 
-8.05325 0.556464 2.19209 
0.556464 -11.4399 1.11707 
2.19209 1.11707 -8.47787 
-8.21624 0.386678 2.14761 
0.386678 -10.0598 0.904639 
2.14761 0.904639 -9.69502 
-7.77705 0.244195 1.88307 
0.244195 -9.84525 0.26164 
1.88307 0.26164 -10.3487 
-8.44977 0.583501 2.27767 
0.583501 -9.3435 1.15913 
2.27767 1.15913 -10.1778 
-8.89334 -0.332754 -0.716773 
-0.332754 -9.38074 0.231298 
-0.716773 0.231298 -9.91112 
-8.45538 -0.364165 -0.782658 
-0.364165 -9.57122 0.165146 
-0.782658 0.165146 -10.1586 
-8.63483 -0.171154 -0.346901 
-0.171154 -9.39003 -0.0489507 
-0.346901 -0.0489507 -10.1604 
-9.31684 -0.200655 -0.902255 
-0.200655 -9.34904 0.355665 
-0.902255 0.355665 -9.51932 
-9.10424 -0.469644 -0.482292 
-0.469644 -9.37884 0.173523 
-0.482292 0.173523 -10.0638 
-8.81169 0.113123 -0.432613 
0.113123 -9.72968 0.051781 
-0.432613 0.051781 -10.0055 
-8.41105 -0.354544 -0.687128 
-0.354544 -9.7955 0.229878 
-0.687128 0.229878 -10.3403 
-9.10254 -0.51862 -0.257177 
-0.51862 -9.1406 0.0137497 
-0.257177 0.0137497 -10.3037 
-9.90202 -0.0136191 0.446318 
-0.0136191 -9.92297 -0.729339 
0.446318 -0.729339 -9.93401 
-9.90418 -0.0074748 0.458109 
-0.0074748 -9.90591 -0.741693 
0.458109 -0.741693 -9.94891 
-9.89499 -0.00759705 0.455439 
-0.00759705 -9.91251 -0.73227 
0.455439 -0.73227 -9.9515 
-9.86013 0.0262821 0.471507 
0.0262821 -9.8748 -0.772006 
0.471507 -0.772006 -10.0241 
-9.82231 -0.0039574 0.5038 
-0.0039574 -9.8125 -0.708559 
0.5038 -0.708559 -9.8926 
-9.81415 0.0150852 0.506365 
0.0150852 -9.83171 -0.71315 
0.506365 -0.71315 -9.88155 
-9.8107 0.0105778 0.499045 
0.0105778 -9.83855 -0.710052 
0.499045 -0.710052 -9.87816 
-9.85741 -0.0336203 0.448755 
-0.0336203 -9.79785 -0.71592 
0.448755 -0.71592 -9.87214 
-9.46759 -0.186119 0.181504 
-0.186119 -9.72573 -0.0170744 
0.181504 -0.0170744 -9.80145 
-9.44167 -0.00110823 0.199272 
-0.00110823 -9.74771 -0.022762 
0.199272 -0.022762 -9.80538 
-9.24687 0.0656672 0.126534 
0.0656672 -9.76289 -0.0530987 
0.126534 -0.0530987 -9.985 
-10.1167 -0.0641486 0.00298032 
-0.0641486 -9.38532 -0.00621767 
0.00298032 -0.00621767 -9.49273 
-9.68091 -0.177677 0.285319 
-0.177677 -9.73031 0.0546071 
0.285319 0.0546071 -10.1874 
-9.41494 0.0561646 0.172266 
0.0561646 -9.70017 0.0054519 
0.172266 0.0054519 -10.4836 
-9.63027 0.0270295 0.203243 
0.0270295 -9.94357 -0.00990059 
0.203243 -0.00990059 -10.0248 
-9.40681 -0.0247146 0.282421 
-0.0247146 -10.2758 -0.0627567 
0.282421 -0.0627567 -9.91607 
-9.90123 0.015928 0.714258 
0.015928 -9.89718 0.535213 
0.714258 0.535213 -9.95422 
-9.91484 0.00973953 0.702601 
0.00973953 -9.91271 0.512501 
0.702601 0.512501 -9.92508 
-9.90242 0.00697317 0.700894 
0.00697317 -9.90306 0.515606 
0.700894 0.515606 -9.94715 
-9.89104 0.00529057 0.731761 
0.00529057 -9.86035 0.536303 
0.731761 0.536303 -10.0012 
-9.80168 0.000950729 0.744254 
0.000950729 -9.78238 0.475699 
0.744254 0.475699 -9.86143 
-9.79032 0.0154759 0.734975 
0.0154759 -9.78585 0.468994 
0.734975 0.468994 -9.86932 
-9.8021 0.0025949 0.736111 
0.0025949 -9.79821 0.468982 
0.736111 0.468982 -9.84518 
-9.79074 0.0480719 0.700076 
0.0480719 -9.80913 0.482965 
0.700076 0.482965 -9.84562 
-8.62865 0.61387 1.06913 
0.61387 -8.77348 -1.77396 
1.06913 -1.77396 -2.10456 
-7.83383 0.169127 1.10806 
0.169127 -7.88462 -1.82386 
1.10806 -1.82386 -3.78825 
-8.35209 -0.476229 0.88735 
-0.476229 -7.65782 -0.656192 
0.88735 -0.656192 -3.49678 
-7.87139 -0.42207 1.54534 
-0.42207 -8.17918 -0.855405 
1.54534 -0.855405 -3.45612 
-8.48364 0.426898 0.836676 
0.426898 -8.38757 -2.0161 
0.836676 -2.0161 -2.40031 
-8.18121 -0.535789 0.41371 
-0.535789 -8.01015 -1.77859 
0.41371 -1.77859 -3.08015 
-8.06571 0.156951 0.852093 
0.156951 -7.73522 -1.77833 
0.852093 -1.77833 -3.47058 
-8.51273 -0.499324 -0.278727 
-0.499324 -7.24554 -2.29831 
-0.278727 -2.29831 -3.51325 
-8.65543 0.366898 -1.31528 
0.366898 -8.67456 -3.36973 
-1.31528 -3.36973 -6.64595 
-9.29006 0.384705 -0.0841318 
0.384705 -7.76065 -2.55127 
-0.0841318 -2.55127 -6.92523 
-8.43936 0.0222221 -1.38885 
0.0222221 -9.24807 -2.95783 
-1.38885 -2.95783 -6.28851 
-10.1389 0.309549 -2.19541 
0.309549 -9.9391 -2.89513 
-2.19541 -2.89513 -3.89798 
-9.26819 0.968335 -1.18423 
0.968335 -8.89759 -2.82501 
-1.18423 -2.82501 -6.46524 
-9.45209 0.261193 -0.673984 
0.261193 -8.24221 -2.26782 
-0.673984 -2.26782 -6.93673 
-9.28435 0.373769 -0.673823 
0.373769 -7.92689 -2.38821 
-0.673823 -2.38821 -7.41979 
-8.52766 0.823736 -1.34584 
0.823736 -8.65459 -1.2249 
-1.34584 -1.2249 -7.44877 
-9.20426 -0.00992497 -0.758609 
-0.00992497 -9.31147 -0.0958154 
-0.758609 -0.0958154 -9.51283 
-9.07992 0.0415063 -0.61975 
0.0415063 -9.52222 -0.080906 
-0.61975 -0.080906 -9.42642 
-9.18817 -0.0439361 -0.701886 
-0.0439361 -9.35663 -0.0505533 
-0.701886 -0.0505533 -9.48377 
-9.60465 -0.0498327 -0.879524 
-0.0498327 -9.15239 -0.0732766 
-0.879524 -0.0732766 -9.27153 
-9.09639 0.147922 -0.819521 
0.147922 -9.522 -0.0628784 
-0.819521 -0.0628784 -9.54817 
-9.03709 -0.0041449 -0.493637 
-0.0041449 -9.53613 -0.170409 
-0.493637 -0.170409 -9.59334 
-9.42269 -0.106183 -0.325614 
-0.106183 -9.13121 0.0820752 
-0.325614 0.0820752 -9.61267 
-8.85614 0.203017 -0.655165 
0.203017 -9.29881 0.023611 
-0.655165 0.023611 -10.0116 
-9.88396 0.0271136 -0.690434 
0.0271136 -9.889 -0.442038 
-0.690434 -0.442038 -9.9496 
-9.8397 0.0428354 -0.66976 
0.0428354 -9.90175 -0.488239 
-0.66976 -0.488239 -9.98111 
-9.83518 0.0262262 -0.690812 
0.0262262 -9.86879 -0.520928 
-0.690812 -0.520928 -10.0186 
-9.90505 -0.0039711 -0.71476 
-0.0039711 -9.93806 -0.465434 
-0.71476 -0.465434 -9.87944 
-9.74667 0.0470013 -0.675282 
0.0470013 -9.71676 -0.456507 
-0.675282 -0.456507 -9.86848 
-9.6891 0.0325086 -0.721109 
0.0325086 -9.75184 -0.462961 
-0.721109 -0.462961 -9.89096 
-9.66042 -4.06235e-05 -0.703896 
-4.06235e-05 -9.72801 -0.370131 
-0.703896 -0.370131 -9.94348 
-9.66962 0.0736065 -0.73513 
0.0736065 -9.84675 -0.51618 
-0.73513 -0.51618 -9.81553 
-9.05827 -0.135245 0.391117 
-0.135245 -9.38905 -0.0997751 
0.391117 -0.0997751 -9.79621 
-9.19904 -0.181271 0.551701 
-0.181271 -9.30921 -0.0258426 
0.551701 -0.0258426 -9.73528 
-8.9974 -0.13759 0.362873 
-0.13759 -9.47024 -0.0845781 
0.362873 -0.0845781 -9.77588 
-8.99406 -0.0157401 0.441458 
-0.0157401 -9.44101 -0.112147 
0.441458 -0.112147 -9.80846 
-9.31423 -0.0118529 0.0865639 
-0.0118529 -9.57469 -0.0466035 
0.0865639 -0.0466035 -9.89512 
-9.49754 -0.0272197 0.151446 
-0.0272197 -9.55833 -0.0155784 
0.151446 -0.0155784 -9.72817 
-9.25607 -0.069606 0.349862 
-0.069606 -9.68536 -0.0892607 
0.349862 -0.0892607 -9.84261 
-9.84074 0.00726177 0.0343109 
0.00726177 -9.57151 0.0568607 
0.0343109 0.0568607 -9.37179 
-8.2851 0.306118 -1.21591 
0.306118 -12.2901 -0.39622 
-1.21591 -0.39622 -13.2991 
-7.17466 1.49183 -0.900605 
1.49183 -12.9649 1.2891 
-0.900605 1.2891 -13.7347 
-8.89369 -1.22059 -1.67796 
-1.22059 -13.2614 0.807843 
-1.67796 0.807843 -11.7191 
-6.47714 -4.34639 -3.80115 
-4.34639 -10.1541 -0.35934 
-3.80115 -0.35934 -17.2429 
-6.89711 -0.191829 -1.83305 
-0.191829 -10.8116 0.0216842 
-1.83305 0.0216842 -11.7109 
-7.14223 0.528712 -0.977376 
0.528712 -10.7243 -0.50127 
-0.977376 -0.50127 -11.5531 
-6.76714 0.0422735 -0.771086 
0.0422735 -10.8081 -0.0685718 
-0.771086 -0.0685718 -11.8443 
-9.86324 -0.297289 -1.64169 
-0.297289 -10.8347 -1.27786 
-1.64169 -1.27786 -8.7216 
-9.15704 0.121378 -0.707855 
0.121378 -9.45791 -0.321616 
-0.707855 -0.321616 -9.69167 
-9.24015 0.108783 -0.656867 
0.108783 -9.46969 -0.133962 
-0.656867 -0.133962 -9.59678 
-9.20625 0.0188258 -0.837196 
0.0188258 -9.42666 -0.152489 
-0.837196 -0.152489 -9.6737 
-9.34953 0.0858582 -0.611762 
0.0858582 -9.34251 -0.248678 
-0.611762 -0.248678 -9.61458 
-8.943 0.137938 -0.611167 
0.137938 -9.3887 -0.29868 
-0.611167 -0.29868 -9.84683 
-9.13572 -0.0870218 -0.871536 
-0.0870218 -9.2436 -0.18171 
-0.871536 -0.18171 -9.7992 
-9.1017 0.126543 -0.499783 
0.126543 -9.49465 -0.0166131 
-0.499783 -0.0166131 -9.58218 
-8.75958 0.307986 -0.675388 
0.307986 -9.58923 -0.131068 
-0.675388 -0.131068 -9.82971 
-9.29979 0.468373 -1.20216 
0.468373 -9.16984 -1.1754 
-1.20216 -1.1754 -8.32153 
-9.94795 0.308825 -1.12182 
0.308825 -9.92565 -1.02051 
-1.12182 -1.02051 -6.91756 
-8.6714 0.0897428 -2.14129 
0.0897428 -9.8118 -2.17034 
-2.14129 -2.17034 -8.30796 
-10.0117 0.575729 -1.28212 
0.575729 -8.8509 -1.16228 
-1.28212 -1.16228 -7.92862 
-9.03027 0.432607 -1.28228 
0.432607 -8.9869 -1.172 
-1.28228 -1.172 -8.44566 
-9.46887 0.765816 -2.38324 
0.765816 -9.26013 -2.06763 
-2.38324 -2.06763 -7.73383 
-9.56656 0.316101 -1.67492 
0.316101 -9.83537 -0.813499 
-1.67492 -0.813499 -7.0609 
-8.7667 0.209716 -1.85725 
0.209716 -10.5292 -0.543476 
-1.85725 -0.543476 -7.16692 
-9.36551 -0.194914 -1.37412 
-0.194914 -9.66044 0.570298 
-1.37412 0.570298 -8.26566 
-9.73313 -0.343237 -1.76515 
-0.343237 -9.93627 0.576399 
-1.76515 0.576399 -7.62221 
-9.65646 -0.302997 -2.44909 
-0.302997 -9.2799 2.0485 
-2.44909 2.0485 -8.35525 
-8.91643 -0.541706 -1.47275 
-0.541706 -10.6115 0.289221 
-1.47275 0.289221 -7.76373 
-8.77324 -0.858792 -2.21177 
-0.858792 -10.1875 1.90137 
-2.21177 1.90137 -8.2032 
-9.67113 -0.201346 -1.51925 
-0.201346 -9.83255 0.984909 
-1.51925 0.984909 -7.66031 
-9.35694 -0.181338 -1.24778 
-0.181338 -9.63961 0.814443 
-1.24778 0.814443 -8.16744 
-10.0483 -0.145149 -1.43952 
-0.145149 -9.51715 1.06652 
-1.43952 1.06652 -7.59858 
-8.98189 0.0491543 0.4762 
0.0491543 -9.12136 0.330828 
0.4762 0.330828 -9.72072 
-8.76396 0.353194 0.0932948 
0.353194 -9.54192 0.249451 
0.0932948 0.249451 -9.5181 
-9.23136 0.0159574 0.484886 
0.0159574 -9.1703 0.0775473 
0.484886 0.0775473 -9.42231 
-9.90434 -0.238542 0.580851 
-0.238542 -9.00921 0.241068 
0.580851 0.241068 -8.91041 
-9.43807 0.363574 0.790064 
0.363574 -9.44887 0.629501 
0.790064 0.629501 -9.92235 
-9.43426 0.058278 0.443559 
0.058278 -9.4676 0.300743 
0.443559 0.300743 -9.90744 
-9.35357 0.190744 0.418118 
0.190744 -9.61464 0.396117 
0.418118 0.396117 -9.84109 
-9.03776 0.0272036 0.349794 
0.0272036 -9.52483 -0.194043 
0.349794 -0.194043 -10.2467 
-9.84738 0.0371571 0.553499 
0.0371571 -9.86217 0.679779 
0.553499 0.679779 -9.90867 
-9.82028 0.072579 0.603078 
0.072579 -9.83039 0.661619 
0.603078 0.661619 -9.96755 
-9.8504 0.0313639 0.565812 
0.0313639 -9.80886 0.63721 
0.565812 0.63721 -9.95895 
-9.81195 0.0255182 0.568742 
0.0255182 -9.85989 0.669454 
0.568742 0.669454 -9.94638 
-9.73482 0.068731 0.522752 
0.068731 -9.67501 0.738658 
0.522752 0.738658 -9.80383 
-9.64563 0.120719 0.521347 
0.120719 -9.70529 0.604432 
0.521347 0.604432 -9.86274 
-9.66955 0.0729714 0.507068 
0.0729714 -9.68385 0.732913 
0.507068 0.732913 -9.86027 
-9.72009 0.0820694 0.489133 
0.0820694 -9.68689 0.649665 
0.489133 0.649665 -9.80669 
-9.73662 -0.0521715 -0.313483 
-0.0521715 -9.6323 0.852229 
-0.313483 0.852229 -9.79203 
-9.71254 -0.0156199 -0.246692 
-0.0156199 -9.64187 0.756881 
-0.246692 0.756881 -9.80655 
-9.75967 -0.0205663 -0.260183 
-0.0205663 -9.52837 0.79357 
-0.260183 0.79357 -9.87292 
-9.70726 0.00870014 -0.235813 
0.00870014 -9.69428 0.650801 
-0.235813 0.650801 -9.75941 
-9.77265 -0.0156423 -0.308219 
-0.0156423 -9.71912 0.749282 
-0.308219 0.749282 -9.95907 
-9.82903 -0.0847085 -0.280002 
-0.0847085 -9.70063 0.850038 
-0.280002 0.850038 -9.92118 
-9.84382 0.0305205 -0.265161 
0.0305205 -9.71749 0.690031 
-0.265161 0.690031 -9.88952 
-9.78197 -0.0328255 -0.381334 
-0.0328255 -9.77051 0.873748 
-0.381334 0.873748 -9.89836 
-9.50843 -0.0462493 0.0807707 
-0.0462493 -10.2566 0.135584 
0.0807707 0.135584 -10.4091 
-10.0136 -0.0440626 0.33533 
-0.0440626 -10.0242 -0.153108 
0.33533 -0.153108 -10.1362 
-9.73371 -0.332371 -0.292515 
-0.332371 -10.2598 0.239549 
-0.292515 0.239549 -10.1806 
-9.70591 -0.0847025 0.109086 
-0.0847025 -9.8544 -0.136848 
0.109086 -0.136848 -10.6138 
-10.0549 -0.000867815 -0.00657827 
-0.000867815 -10.1453 0.0542929 
-0.00657827 0.0542929 -10.3503 
-10.156 -0.0164597 -0.0969096 
-0.0164597 -10.1419 -0.0164612 
-0.0969096 -0.0164612 -10.2527 
-10.0788 -0.00466893 0.0150147 
-0.00466893 -10.2132 0.0803723 
0.0150147 0.0803723 -10.2585 
-10.2338 -0.0552898 0.172415 
-0.0552898 -10.0678 0.0659372 
0.172415 0.0659372 -10.249 
-9.81158 -0.00731398 -0.722185 
-0.00731398 -9.83041 -0.528031 
-0.722185 -0.528031 -9.8635 
-9.84658 -0.0101217 -0.720463 
-0.0101217 -9.81194 -0.527247 
-0.720463 -0.527247 -9.84698 
-9.78229 0.0172075 -0.718014 
0.0172075 -9.8322 -0.470688 
-0.718014 -0.470688 -9.89101 
-9.79016 0.0440863 -0.702432 
0.0440863 -9.85454 -0.473654 
-0.702432 -0.473654 -9.8608 
-9.86097 -0.00473525 -0.73158 
-0.00473525 -9.91163 -0.464069 
-0.73158 -0.464069 -9.96707 
-9.91766 0.0130768 -0.71789 
0.0130768 -9.90051 -0.462014 
-0.71789 -0.462014 -9.92149 
-9.90606 -0.000400673 -0.73521 
-0.000400673 -9.88041 -0.461387 
-0.73521 -0.461387 -9.95319 
-9.86463 -0.0197612 -0.755657 
-0.0197612 -9.86336 -0.484736 
-0.755657 -0.484736 -10.0117 
-10.4026 -2.85333 1.06113 
-2.85333 -11.0941 -2.42703 
1.06113 -2.42703 -12.2015 
-7.83147 -0.701429 1.7311 
-0.701429 -11.8077 0.221205 
1.7311 0.221205 -14.0591 
-7.10349 -1.17494 1.7157 
-1.17494 -11.3376 -1.69681 
1.7157 -1.69681 -15.2572 
-10.1036 -6.51007 6.47813 
-6.51007 -3.64213 -1.81572 
6.47813 -1.81572 -19.9525 
-9.04006 -2.61902 2.17781 
-2.61902 -10.5442 -1.39891 
2.17781 -1.39891 -11.6793 
-8.85159 -2.05172 2.21731 
-2.05172 -10.6497 -0.829583 
2.21731 -0.829583 -11.7623 
-7.72284 -2.12034 2.28431 
-2.12034 -10.6477 -0.491773 
2.28431 -0.491773 -12.893 
-9.48106 -1.13551 1.3482 
-1.13551 -11.8845 -0.811732 
1.3482 -0.811732 -9.89801 
-3.4154 -0.222024 -0.401362 
-0.222024 -4.3413 -1.07174 
-0.401362 -1.07174 -0.0743295 
-3.30487 -0.18169 0.243205 
-0.18169 -4.66841 -0.182516 
0.243205 -0.182516 0.142246 
-4.75411 -0.668641 -0.213309 
-0.668641 -4.14883 -1.56248 
-0.213309 -1.56248 1.07191 
-4.69966 0.37171 -1.02372 
0.37171 -1.96618 -0.978057 
-1.02372 -0.978057 -1.16518 
-5.5402 -0.189414 0.111533 
-0.189414 -6.27275 -1.09512 
0.111533 -1.09512 -2.3077 
-6.0619 -0.349252 -0.535876 
-0.349252 -5.8287 -1.04922 
-0.535876 -1.04922 -2.23005 
-6.91831 -0.481462 -0.858246 
-0.481462 -5.68634 -0.705892 
-0.858246 -0.705892 -1.516 
-6.39984 -0.157927 -0.202249 
-0.157927 -5.71518 -0.658731 
-0.202249 -0.658731 -2.00563 
-9.92528 -0.00560662 0.72607 
-0.00560662 -9.94353 -0.470796 
0.72607 -0.470796 -9.95485 
-9.96537 -0.0136114 0.718159 
-0.0136114 -9.93272 -0.456913 
0.718159 -0.456913 -9.92557 
-9.93567 0.00304601 0.718845 
0.00304601 -9.94821 -0.475372 
0.718845 -0.475372 -9.93977 
-9.85898 0.0426289 0.779573 
0.0426289 -9.91703 -0.473048 
0.779573 -0.473048 -10.0476 
-9.81701 0.0311145 0.722083 
0.0311145 -9.84418 -0.531873 
0.722083 -0.531873 -9.87554 
-9.80442 -0.0116825 0.725387 
-0.0116825 -9.8504 -0.484207 
0.725387 -0.484207 -9.88192 
-9.86116 0.00859074 0.73044 
0.00859074 -9.82929 -0.520447 
0.73044 -0.520447 -9.84628 
-9.7983 -0.0518286 0.688288 
-0.0518286 -9.86358 -0.468135 
0.688288 -0.468135 -9.87485 
-10.4715 0.0771294 -0.000463008 
0.0771294 -10.202 -0.189489 
-0.000463008 -0.189489 -10.7621 
-10.2766 0.0928063 -0.0162529 
0.0928063 -10.3188 0.105488 
-0.0162529 0.105488 -10.8403 
-10.4187 0.0250143 -0.0606415 
0.0250143 -10.3878 -0.0446575 
-0.0606415 -0.0446575 -10.6291 
-10.4377 -0.00414103 -0.0365106 
-0.00414103 -11.0768 -0.234943 
-0.0365106 -0.234943 -9.92111 
-10.0753 0.191714 -0.0723811 
0.191714 -10.3692 -0.0860278 
-0.0723811 -0.0860278 -10.6668 
-9.70643 0.778386 -0.426702 
0.778386 -10.3808 -0.132728 
-0.426702 -0.132728 -11.0241 
-10.274 0.0672412 -0.261082 
0.0672412 -10.2905 -0.138705 
-0.261082 -0.138705 -10.5468 
-10.257 0.0169129 0.101657 
0.0169129 -9.99775 -0.10492 
0.101657 -0.10492 -10.8565 
-9.77115 -0.0294166 -0.87961 
-0.0294166 -9.88608 0.192303 
-0.87961 0.192303 -9.89562 
-9.81125 0.0124994 -0.916918 
0.0124994 -9.81386 0.183163 
-0.916918 0.183163 -9.92774 
-9.77255 -0.0834843 -0.80002 
-0.0834843 -9.83337 0.120818 
-0.80002 0.120818 -9.94693 
-9.76133 -0.0190613 -0.81367 
-0.0190613 -9.80091 0.152192 
-0.81367 0.152192 -9.99061 
-9.5812 -0.0272815 -0.848356 
-0.0272815 -9.72251 0.209822 
-0.848356 0.209822 -9.88768 
-9.61642 -0.0719647 -0.759826 
-0.0719647 -9.78672 0.13159 
-0.759826 0.13159 -9.78824 
-9.67201 0.0579266 -0.938268 
0.0579266 -9.658 0.163951 
-0.938268 0.163951 -9.86138 
-9.56143 -0.0936735 -0.86072 
-0.0936735 -9.8568 0.161097 
-0.86072 0.161097 -9.77315 
-9.71423 0.107775 -0.569787 
0.107775 -9.79212 -0.772375 
-0.569787 -0.772375 -9.78758 
-9.71837 0.0316599 -0.525594 
0.0316599 -9.69045 -0.630972 
-0.525594 -0.630972 -9.8851 
-9.73005 0.109253 -0.503551 
0.109253 -9.58189 -0.662672 
-0.503551 -0.662672 -9.98199 
-9.69362 0.126559 -0.513549 
0.126559 -9.66792 -0.673664 
-0.513549 -0.673664 -9.93238 
-9.76151 0.0856105 -0.550231 
0.0856105 -9.87744 -0.746968 
-0.550231 -0.746968 -9.93503 
-9.89509 0.0503929 -0.501005 
0.0503929 -9.69046 -0.70729 
-0.501005 -0.70729 -9.98843 
-9.80605 0.0439359 -0.490601 
0.0439359 -9.80142 -0.681639 
-0.490601 -0.681639 -9.96652 
-9.87381 0.0492165 -0.507201 
0.0492165 -9.74654 -0.743212 
-0.507201 -0.743212 -9.95363 
7.93885 -0.185692 0.0312928 
-0.185692 6.83885 2.52913 
0.0312928 2.52913 3.06047 
6.98726 0.183132 -0.417823 
0.183132 6.4299 2.23249 
-0.417823 2.23249 4.42102 
8.19257 0.23647 0.223924 
0.23647 5.52824 2.20499 
0.223924 2.20499 4.11737 
7.90664 -0.878203 0.158171 
-0.878203 6.33513 2.60137 
0.158171 2.60137 3.59641 
9.43919 -0.0146804 -0.981578 
-0.0146804 9.76478 -0.0128295 
-0.981578 -0.0128295 9.6858 
9.45293 0.213983 -1.02099 
0.213983 9.72213 0.0869744 
-1.02099 0.0869744 9.71471 
9.46745 -0.035239 -1.06045 
-0.035239 9.86203 0.270968 
-1.06045 0.270968 9.56028 
9.45864 0.000871343 -0.974927 
0.000871343 9.78356 0.128192 
-0.974927 0.128192 9.64757 
9.71994 -0.242273 0.404581 
-0.242273 9.6481 0.81339 
0.404581 0.81339 8.77493 
9.78679 -0.159723 0.632942 
-0.159723 9.8811 0.867098 
0.632942 0.867098 8.47509 
9.66477 -0.00830978 0.396365 
-0.00830978 9.44308 0.723786 
0.396365 0.723786 9.03513 
9.64628 -0.172956 0.361757 
-0.172956 9.52248 0.91967 
0.361757 0.91967 8.97421 
9.12725 -0.165872 -1.1348 
-0.165872 9.30298 0.136742 
-1.1348 0.136742 9.32004 
8.30773 0.267606 -1.43167 
0.267606 9.73767 0.0306467 
-1.43167 0.0306467 9.70487 
8.4498 0.231176 -1.86022 
0.231176 9.81122 0.251622 
-1.86022 0.251622 9.48925 
8.17878 0.101274 -1.45575 
0.101274 9.64326 -0.220966 
-1.45575 -0.220966 9.92823 
8.45405 0.252936 -1.81374 
0.252936 9.69242 0.416341 
-1.81374 0.416341 9.225 
8.55639 0.401206 -1.49448 
0.401206 9.49005 0.354312 
-1.49448 0.354312 9.32503 
8.76306 0.0507723 -1.2965 
0.0507723 9.60768 0.138331 
-1.2965 0.138331 9.00073 
8.72784 0.5205 -1.37012 
0.5205 9.34523 0.532156 
-1.37012 0.532156 9.29841 
9.62189 0.0205659 -0.772438 
0.0205659 9.71274 -0.0418868 
-0.772438 -0.0418868 9.95981 
9.68515 0.0514122 -1.02381 
0.0514122 10.0298 -0.110666 
-1.02381 -0.110666 9.57947 
9.56509 -0.14523 -1.04178 
-0.14523 9.87805 -0.12446 
-1.04178 -0.12446 9.8513 
9.65537 -0.0204012 -0.951982 
-0.0204012 9.82296 -0.0903758 
-0.951982 -0.0903758 9.81612 
10.1616 0.0430305 -0.142372 
0.0430305 9.65539 -0.292231 
-0.142372 -0.292231 10.1042 
9.99393 -0.096181 0.189738 
-0.096181 9.79162 -0.0199655 
0.189738 -0.0199655 10.1356 
9.91629 0.175151 -0.0445701 
0.175151 9.90628 0.0432046 
-0.0445701 0.0432046 10.0985 
9.95155 0.10444 0.104859 
0.10444 9.73725 0.0263422 
0.104859 0.0263422 10.2323 
9.7192 -0.0300175 0.693804 
-0.0300175 9.5582 -0.612223 
0.693804 -0.612223 9.92838 
9.60814 0.0616196 0.690251 
0.0616196 9.61968 -0.399719 
0.690251 -0.399719 9.97796 
9.69438 0.0513457 0.584585 
0.0513457 9.73084 -0.432381 
0.584585 -0.432381 9.78056 
9.55724 0.122981 0.662773 
0.122981 9.76724 -0.462458 
0.662773 -0.462458 9.88129 
9.83526 0.0415728 -0.50521 
0.0415728 9.52783 0.358646 
-0.50521 0.358646 8.21537 
9.44968 0.00926126 -0.420034 
0.00926126 9.49446 0.348865 
-0.420034 0.348865 8.63432 
9.37687 -0.014014 -0.570039 
-0.014014 9.58194 0.347444 
-0.570039 0.347444 8.61965 
9.69937 0.159151 -0.489439 
0.159151 9.56058 0.478955 
-0.489439 0.478955 8.31851 
9.69974 -0.556751 -0.11991 
-0.556751 9.63299 0.0252777 
-0.11991 0.0252777 9.42263 
9.84601 0.143807 -0.307785 
0.143807 9.80914 0.392511 
-0.307785 0.392511 9.10022 
9.73358 0.2634 -0.341758 
0.2634 9.81463 0.594972 
-0.341758 0.594972 9.20716 
9.96683 -0.501962 -0.250119 
-0.501962 9.95019 0.97439 
-0.250119 0.97439 8.83834 
9.86655 0.133095 0.402722 
0.133095 9.18479 -1.40221 
0.402722 -1.40221 9.068 
9.58158 0.0991214 0.0154141 
0.0991214 9.31498 -1.23954 
0.0154141 -1.23954 9.22278 
9.71864 0.107257 0.0730758 
0.107257 9.01177 -1.26657 
0.0730758 -1.26657 9.38893 
9.53133 0.0481083 0.745319 
0.0481083 9.03212 -0.920084 
0.745319 -0.920084 9.55589 
9.39631 0.828911 0.483742 
0.828911 8.42293 -0.6084 
0.483742 -0.6084 10.5355 
9.34852 0.274341 0.476896 
0.274341 9.20077 -0.670129 
0.476896 -0.670129 9.80542 
9.37716 0.229131 0.147393 
0.229131 8.99146 -0.29287 
0.147393 -0.29287 9.98609 
9.12333 0.36786 0.425276 
0.36786 9.33794 -0.534183 
0.425276 -0.534183 9.89344 
7.42114 -0.0522146 -0.449996 
-0.0522146 5.19512 0.369232 
-0.449996 0.369232 0.126657 
6.06726 -1.84118 0.459702 
-1.84118 7.47373 2.28157 
0.459702 2.28157 -0.798074 
4.2634 -2.27974 0.862896 
-2.27974 6.46325 0.692726 
0.862896 0.692726 2.01628 
6.62639 2.56537 0.224839 
2.56537 4.92497 3.80144 
0.224839 3.80144 1.19156 
9.65309 0.0570659 0.073833 
0.0570659 9.45157 0.712382 
0.073833 0.712382 9.11865 
10.1022 0.0326618 -0.44212 
0.0326618 9.93797 0.462064 
-0.44212 0.462064 8.18309 
9.47842 0.0557277 -0.236007 
0.0557277 9.83833 0.755418 
-0.236007 0.755418 8.90656 
9.44545 -0.0928847 -0.196025 
-0.0928847 9.7329 1.06017 
-0.196025 1.06017 9.04496 
9.91726 0.56486 1.05777 
0.56486 9.50343 -1.40631 
1.05777 -1.40631 8.41417 
9.83286 0.3875 0.908745 
0.3875 9.74339 -1.18562 
0.908745 -1.18562 8.25861 
9.56941 0.0546978 0.460763 
0.0546978 9.55592 -1.02478 
0.460763 -1.02478 8.70954 
9.62528 -0.112627 1.33996 
-0.112627 10.4644 -1.12115 
1.33996 -1.12115 7.74522 
8.98394 -0.137461 -0.855317 
-0.137461 9.63335 -0.180589 
-0.855317 -0.180589 9.74373 
9.07045 0.027173 -1.05662 
0.027173 9.64675 -0.10501 
-1.05662 -0.10501 9.64382 
9.19177 -0.0730277 -1.21291 
-0.0730277 9.64344 -0.0672422 
-1.21291 -0.0672422 9.52581 
9.25976 0.00681725 -0.976573 
0.00681725 9.29067 0.218794 
-0.976573 0.218794 9.81059 
9.73885 0.0236216 -0.202243 
0.0236216 9.44846 -1.01876 
-0.202243 -1.01876 9.78011 
9.79415 -0.0312527 -0.110988 
-0.0312527 9.41862 -1.02774 
-0.110988 -1.02774 9.75465 
9.72856 -0.0513464 -0.191634 
-0.0513464 9.43368 -1.01603 
-0.191634 -1.01603 9.80518 
9.80164 -0.0125659 -0.0826208 
-0.0125659 9.44141 -0.936781 
-0.0826208 -0.936781 9.72437 
9.76039 0.28621 0.338335 
0.28621 8.90845 -0.257154 
0.338335 -0.257154 9.6663 
9.25767 -0.168567 -0.127766 
-0.168567 9.07364 -0.382576 
-0.127766 -0.382576 10.0038 
8.85601 0.351913 0.0959327 
0.351913 9.0334 -0.787205 
0.0959327 -0.787205 10.4457 
9.48043 0.332962 0.427927 
0.332962 9.43311 -0.690988 
0.427927 -0.690988 9.4216 
9.32433 0.0249666 0.333155 
0.0249666 9.12315 0.507387 
0.333155 0.507387 11.0031 
10.1603 1.44557 0.308462 
1.44557 9.57475 -0.907879 
0.308462 -0.907879 9.71552 
11.0249 0.0489031 -0.078432 
0.0489031 9.61536 -0.157738 
-0.078432 -0.157738 8.81037 
8.43319 0.0953554 0.463727 
0.0953554 9.86223 -0.402694 
0.463727 -0.402694 11.1552 
9.50191 -0.275411 -0.202468 
-0.275411 9.64522 -0.752082 
-0.202468 -0.752082 9.82781 
9.81274 0.0938609 -0.0301432 
0.0938609 9.42388 -1.02644 
-0.0301432 -1.02644 9.73832 
9.9139 -0.0176117 -0.00225066 
-0.0176117 9.57778 -1.34413 
-0.00225066 -1.34413 9.48326 
9.77657 0.0242507 0.0565052 
0.0242507 9.4347 -0.960887 
0.0565052 -0.960887 9.76367 
7.90059 -0.186275 2.32567 
-0.186275 8.63712 -0.833271 
2.32567 -0.833271 6.78978 
8.16341 0.202566 2.39539 
0.202566 9.16826 -0.233916 
2.39539 -0.233916 5.99581 
8.71078 0.189533 2.6236 
0.189533 9.26951 0.59417 
2.6236 0.59417 5.34719 
8.0972 0.472648 1.88172 
0.472648 9.39692 -0.308648 
1.88172 -0.308648 5.83336 
9.59822 -0.293213 0.732418 
-0.293213 9.11226 1.02751 
0.732418 1.02751 9.50078 
9.51863 -0.352489 0.633688 
-0.352489 9.36319 1.17389 
0.633688 1.17389 9.32944 
9.55582 -0.181062 0.789856 
-0.181062 9.27356 0.959744 
0.789856 0.959744 9.38188 
9.4037 -0.29615 0.512587 
-0.29615 9.14448 1.05505 
0.512587 1.05505 9.66307 
9.09174 0.495878 -1.89748 
0.495878 8.86851 0.280362 
-1.89748 0.280362 4.91623 
8.97322 0.0763739 -1.38073 
0.0763739 9.01869 0.351949 
-1.38073 0.351949 4.88457 
7.87555 -0.95553 -1.44165 
-0.95553 9.14986 -0.0831341 
-1.44165 -0.0831341 5.85106 
9.30851 0.164279 -1.37704 
0.164279 8.85707 0.663495 
-1.37704 0.663495 4.7109 
8.59732 0.0141292 0.449179 
0.0141292 9.4888 0.243321 
0.449179 0.243321 10.1454 
9.26987 -0.748601 1.05771 
-0.748601 9.09724 -0.113435 
1.05771 -0.113435 9.86442 
7.67673 0.710906 1.00692 
0.710906 10.0721 0.256355 
1.00692 0.256355 10.4827 
8.68953 0.108494 0.641434 
0.108494 9.69104 -0.421622 
0.641434 -0.421622 9.85096 
9.93586 0.291923 0.834788 
0.291923 9.06868 -2.19285 
0.834788 -2.19285 9.14274 
9.72787 0.621586 0.309472 
0.621586 8.23969 -0.880052 
0.309472 -0.880052 10.1797 
9.99286 0.425208 0.74994 
0.425208 8.147 -1.609 
0.74994 -1.609 10.0074 
9.37221 2.02258 1.21802 
2.02258 7.56837 -2.8657 
1.21802 -2.8657 11.2067 
10.3174 0.145228 -0.357937 
0.145228 9.84107 0.721991 
-0.357937 0.721991 9.51863 
9.98775 0.0471394 -0.652945 
0.0471394 10.2717 0.550662 
-0.652945 0.550662 9.41767 
9.46995 0.131052 -0.550059 
0.131052 10.112 0.610882 
-0.550059 0.610882 10.0951 
10.1087 0.0248341 -0.486563 
0.0248341 10.0092 0.837502 
-0.486563 0.837502 9.55919 
8.74144 0.096274 1.34351 
0.096274 9.53219 -0.204197 
1.34351 -0.204197 8.94142 
9.082 0.163637 1.42697 
0.163637 9.27331 -0.448734 
1.42697 -0.448734 8.85973 
8.79794 0.404458 1.78194 
0.404458 9.44057 -0.418878 
1.78194 -0.418878 8.97653 
8.81394 0.209087 1.5604 
0.209087 9.52567 -0.318199 
1.5604 -0.318199 8.87543 
9.10308 -0.37366 0.863003 
-0.37366 9.13598 1.07162 
0.863003 1.07162 9.13378 
9.25918 -0.602539 0.907762 
-0.602539 8.68577 1.05415 
0.907762 1.05415 9.42789 
9.41261 -0.567892 0.960797 
-0.567892 8.93273 1.40162 
0.960797 1.40162 9.0275 
9.1192 -0.473192 0.838424 
-0.473192 9.0124 1.19994 
0.838424 1.19994 9.24123 
8.92214 0.537272 -0.208541 
0.537272 10.0969 1.00019 
-0.208541 1.00019 9.91502 
10.2559 -0.0928166 -0.478329 
-0.0928166 9.52789 0.522551 
-0.478329 0.522551 9.15025 
9.6917 0.360235 0.0879353 
0.360235 10.6352 0.0500438 
0.0879353 0.0500438 8.60719 
10.0764 -0.307929 -0.31251 
-0.307929 9.64625 -0.0325728 
-0.31251 -0.0325728 9.21141 
8.3994 0.00168805 -1.33984 
0.00168805 7.72681 -2.0146 
-1.33984 -2.0146 2.95621 
7.71355 0.221738 -1.10169 
0.221738 7.51868 -1.7411 
-1.10169 -1.7411 3.8502 
7.14242 0.464452 -0.306968 
0.464452 7.81439 -2.14906 
-0.306968 -2.14906 4.12562 
8.34092 0.271512 -0.884256 
0.271512 7.46732 -1.61648 
-0.884256 -1.61648 3.27419 
8.62636 1.09377 -1.319 
1.09377 8.45799 2.25886 
-1.319 2.25886 9.94212 
9.10469 1.16316 -1.60361 
1.16316 8.46205 1.78213 
-1.60361 1.78213 9.45973 
9.5927 1.15912 -1.50232 
1.15912 7.56584 0.73616 
-1.50232 0.73616 9.86794 
9.2121 1.03209 -1.31887 
1.03209 8.71643 1.98953 
-1.31887 1.98953 9.09795 
9.7666 -0.0196427 0.0677547 
-0.0196427 9.94027 -0.251633 
0.0677547 -0.251633 9.78317 
9.79265 -0.489184 0.248193 
-0.489184 10.2225 -0.267 
0.248193 -0.267 9.47483 
9.92453 0.703229 -0.209355 
0.703229 9.0057 0.202236 
-0.209355 0.202236 10.5598 
9.11114 0.390587 0.266724 
0.390587 9.53823 -0.860524 
0.266724 -0.860524 10.8407 
8.91258 -0.0243258 -0.744092 
-0.0243258 9.42875 -0.0849834 
-0.744092 -0.0849834 9.82697 
8.67293 0.0676236 -0.992204 
0.0676236 9.58973 0.0463747 
-0.992204 0.0463747 9.90565 
8.9745 -0.0178032 -0.919502 
-0.0178032 9.44398 -0.010771 
-0.919502 -0.010771 9.74983 
9.08453 -0.127878 -0.981654 
-0.127878 9.47517 0.0122271 
-0.981654 0.0122271 9.60861 
9.28862 0.00545778 -0.885535 
0.00545778 9.58236 -0.0444111 
-0.885535 -0.0444111 9.89074 
9.33553 -0.119392 -0.907412 
-0.119392 9.54073 -0.126243 
-0.907412 -0.126243 9.88546 
9.19659 -0.040606 -0.883069 
-0.040606 9.80457 -0.0259248 
-0.883069 -0.0259248 9.76056 
9.3544 0.0711356 -0.801763 
0.0711356 9.4947 0.0588654 
-0.801763 0.0588654 9.91262 
9.51461 0.26155 0.303618 
0.26155 9.98994 0.897756 
0.303618 0.897756 9.67782 
9.99106 -0.0754675 0.27716 
-0.0754675 9.74785 0.746635 
0.27716 0.746635 9.44345 
9.79472 0.109061 0.24629 
0.109061 9.95798 0.896549 
0.24629 0.896549 9.42966 
9.89774 -0.0333555 0.140191 
-0.0333555 9.88285 0.804867 
0.140191 0.804867 9.40177 
8.38025 0.214769 -1.33155 
0.214769 6.96398 -1.83738 
-1.33155 -1.83738 4.86037 
7.88958 -0.241536 -0.0939844 
-0.241536 7.75009 -1.69116 
-0.0939844 -1.69116 4.56492 
8.43567 0.179803 -1.55726 
0.179803 8.35159 -2.9997 
-1.55726 -2.9997 3.41733 
7.78846 0.711817 -1.2227 
0.711817 8.50551 -3.00503 
-1.2227 -3.00503 3.91061 
9.07426 0.667222 0.669952 
0.667222 8.89773 -1.19555 
0.669952 -1.19555 10.1083 
8.94934 0.333213 1.25585 
0.333213 8.92355 -0.593771 
1.25585 -0.593771 10.2074 
9.29127 0.844465 0.339034 
0.844465 8.53337 -0.927863 
0.339034 -0.927863 10.2557 
9.29014 1.20786 2.09772 
1.20786 8.39566 -1.57093 
2.09772 -1.57093 10.3945 
9.69233 0.689252 0.554076 
0.689252 8.24342 -2.00679 
0.554076 -2.00679 9.90467 
9.57269 0.582815 0.665143 
0.582815 8.22281 -0.910618 
0.665143 -0.910618 10.0449 
9.47915 0.253337 0.790593 
0.253337 8.38 -1.33464 
0.790593 -1.33464 9.98127 
9.28818 -0.0827414 -0.504522 
-0.0827414 8.55494 -1.24934 
-0.504522 -1.24934 9.9973 
9.69079 0.02094 0.664769 
0.02094 9.6933 -0.542328 
0.664769 -0.542328 9.87812 
9.64663 0.0191288 0.675344 
0.0191288 9.70318 -0.592471 
0.675344 -0.592471 9.91239 
9.71522 -0.0139782 0.719726 
-0.0139782 9.68116 -0.486983 
0.719726 -0.486983 9.86582 
9.70132 0.111011 0.701898 
0.111011 9.78999 -0.455823 
0.701898 -0.455823 9.77089 
9.29053 -0.233258 -0.287044 
-0.233258 9.30011 -1.188 
-0.287044 -1.188 8.53255 
9.62816 -0.207294 -0.446653 
-0.207294 9.06835 -1.55485 
-0.446653 -1.55485 8.42667 
9.86912 0.269556 -0.124845 
0.269556 9.05515 -1.24779 
-0.124845 -1.24779 8.19892 
9.5015 -0.031705 -0.366556 
-0.031705 9.13311 -1.44512 
-0.366556 -1.44512 8.48857 
9.69321 -1.57963 -1.28621 
-1.57963 2.80201 0.408146 
-1.28621 0.408146 2.37686 
-1.00784 1.66604 -3.74495 
1.66604 7.91792 4.27784 
-3.74495 4.27784 7.962 
3.42887 1.36942 1.32485 
1.36942 14.2988 2.83487 
1.32485 2.83487 -2.85558 
7.76717 1.25242 -2.93822 
1.25242 3.84178 3.50644 
-2.93822 3.50644 3.26313 
9.61083 -0.0167631 0.514196 
-0.0167631 9.39366 -1.03481 
0.514196 -1.03481 8.4283 
9.89478 0.310327 0.69912 
0.310327 9.66537 -0.827517 
0.69912 -0.827517 7.87264 
9.81407 0.34583 0.409478 
0.34583 10.0615 -0.556059 
0.409478 -0.556059 7.55717 
10.0924 -0.377855 1.25882 
-0.377855 9.90294 -1.04659 
1.25882 -1.04659 7.43744 
9.6221 0.168803 0.679888 
0.168803 10.166 -0.589499 
0.679888 -0.589499 8.61217 
9.57027 0.109818 0.525984 
0.109818 9.66994 -0.826764 
0.525984 -0.826764 9.16008 
9.81587 0.0524463 0.653721 
0.0524463 9.39509 -0.465343 
0.653721 -0.465343 9.18934 
9.67037 0.0804932 0.716567 
0.0804932 9.78882 -0.695484 
0.716567 -0.695484 8.94111 
9.29885 1.7158 1.36688 
1.7158 9.74905 -2.36303 
1.36688 -2.36303 9.26923 
9.87489 0.666492 1.43025 
0.666492 8.09483 -1.9864 
1.43025 -1.9864 10.3474 
9.0599 0.936755 1.55413 
0.936755 8.99934 -1.82612 
1.55413 -1.82612 10.2579 
8.07744 0.77789 -0.172692 
0.77789 10.7431 -0.159916 
-0.172692 -0.159916 9.49665 
9.5111 0.183033 0.354578 
0.183033 9.28018 -1.4477 
0.354578 -1.4477 9.17496 
9.70367 -0.0463643 0.108336 
-0.0463643 8.98521 -1.18415 
0.108336 -1.18415 9.27735 
9.47677 0.106451 0.179936 
0.106451 9.5476 -1.49874 
0.179936 -1.49874 8.94186 
10.616 0.197172 0.289981 
0.197172 8.26984 -2.02212 
0.289981 -2.02212 9.08042 
9.29664 0.820109 -0.884565 
0.820109 9.0401 1.25108 
-0.884565 1.25108 9.52747 
9.4078 0.560997 -0.619264 
0.560997 9.24456 1.43834 
-0.619264 1.43834 9.21186 
9.42954 0.0952228 -0.829842 
0.0952228 9.10906 1.05658 
-0.829842 1.05658 9.32562 
9.78597 -0.106296 -1.4389 
-0.106296 9.18075 1.55519 
-1.4389 1.55519 8.8975 
8.71374 0.0442853 0.422367 
0.0442853 8.80766 -0.1732 
0.422367 -0.1732 10.55 
8.57359 -0.32409 0.998506 
-0.32409 9.02712 -0.087536 
0.998506 -0.087536 10.4706 
8.42053 0.172214 0.383595 
0.172214 9.80351 -0.174561 
0.383595 -0.174561 9.84732 
8.79702 -0.197338 0.613624 
-0.197338 9.68723 -0.206464 
0.613624 -0.206464 9.5871 
9.41925 0.296619 0.281737 
0.296619 8.7275 -0.488233 
0.281737 -0.488233 9.88849 
9.29444 0.0515992 0.309091 
0.0515992 9.06273 -0.834583 
0.309091 -0.834583 9.67808 
9.47618 0.360381 0.32429 
0.360381 8.58174 -0.800696 
0.32429 -0.800696 9.97732 
9.34154 0.220876 0.151923 
0.220876 8.77059 -0.805478 
0.151923 -0.805478 9.92312 
6.44563 0.0151408 2.27785 
0.0151408 10.6991 -1.07736 
2.27785 -1.07736 11.8135 
9.01732 0.410676 1.84151 
0.410676 10.0358 0.942095 
1.84151 0.942095 9.90513 
8.82894 1.1653 2.3659 
1.1653 9.84196 -0.189804 
2.3659 -0.189804 10.2874 
7.80189 0.738858 1.0391 
0.738858 9.60124 -0.941251 
1.0391 -0.941251 11.5551 
9.76707 0.36062 0.703255 
0.36062 10.2824 0.240754 
0.703255 0.240754 10.0083 
10.4018 0.332131 -0.170499 
0.332131 9.65876 0.656069 
-0.170499 0.656069 9.99717 
9.47674 -0.499026 0.174248 
-0.499026 10.4038 -0.636813 
0.174248 -0.636813 10.1772 
9.90254 0.118683 -0.0998696 
0.118683 9.5616 -0.214365 
-0.0998696 -0.214365 10.5936 
9.84945 -0.0788031 0.597983 
-0.0788031 9.77041 -0.594576 
0.597983 -0.594576 9.7367 
9.9041 0.0740812 0.484376 
0.0740812 9.78904 -0.605508 
0.484376 -0.605508 9.66343 
9.82754 0.119415 0.505122 
0.119415 9.90945 -0.695275 
0.505122 -0.695275 9.61957 
9.90254 -0.0439669 0.70149 
-0.0439669 9.86649 -0.729754 
0.70149 -0.729754 9.58753 
8.13854 0.0569366 1.99847 
0.0569366 9.47416 -0.823253 
1.99847 -0.823253 8.40495 
8.71198 0.297668 1.86371 
0.297668 9.85773 -0.575053 
1.86371 -0.575053 7.44794 
9.35613 0.172297 2.20389 
0.172297 9.58314 -0.00674835 
2.20389 -0.00674835 7.07838 
8.57379 0.214392 1.99565 
0.214392 9.62514 -0.361416 
1.99565 -0.361416 7.81872 
9.68141 -0.0960396 0.126536 
-0.0960396 9.37448 0.734529 
0.126536 0.734529 9.8177 
9.72156 0.0266253 0.0730638 
0.0266253 9.43971 1.00001 
0.0730638 1.00001 9.71232 
9.82791 -0.128044 0.298097 
-0.128044 9.22453 0.798155 
0.298097 0.798155 9.82114 
9.59482 -0.104031 0.0724231 
-0.104031 9.44921 0.932007 
0.0724231 0.932007 9.82956 
9.80348 0.0426129 -0.940162 
0.0426129 9.86379 -0.10899 
-0.940162 -0.10899 10.0054 
9.63405 0.0279839 -0.935138 
0.0279839 10.0515 -0.150389 
-0.935138 -0.150389 9.98713 
9.79708 -0.0195774 -0.837348 
-0.0195774 9.91919 -0.153249 
-0.837348 -0.153249 9.95639 
9.88901 0.0795977 -1.0743 
0.0795977 9.83046 -0.105116 
-1.0743 -0.105116 9.95318 
9.69923 -0.219253 0.430025 
-0.219253 9.28177 0.903165 
0.430025 0.903165 9.96047 
9.73387 -0.246823 0.461787 
-0.246823 9.17786 1.12336 
0.461787 1.12336 10.0297 
9.77957 -0.275642 0.397536 
-0.275642 9.23037 1.03331 
0.397536 1.03331 9.93153 
9.89183 -0.208912 0.531383 
-0.208912 9.20138 1.18733 
0.531383 1.18733 9.84826 
9.51972 0.10353 0.406537 
0.10353 9.57989 -0.74742 
0.406537 -0.74742 9.13742 
9.52421 0.0553157 0.60041 
0.0553157 9.4909 -0.773827 
0.60041 -0.773827 9.22193 
9.67303 0.0605156 0.608604 
0.0605156 9.54125 -0.792313 
0.608604 -0.792313 9.02275 
9.58645 0.0604195 0.576103 
0.0604195 9.51861 -0.828256 
0.576103 -0.828256 9.13197 
9.7738 0.241269 -0.276888 
0.241269 9.39051 -1.01399 
-0.276888 -1.01399 9.66559 
9.87692 0.0643964 0.082672 
0.0643964 9.68692 -1.10638 
0.082672 -1.10638 9.26606 
9.73317 -0.0429811 0.00555253 
-0.0429811 9.61591 -1.13607 
0.00555253 -1.13607 9.48082 
9.7002 -0.00267489 0.0694226 
-0.00267489 9.43332 -1.16331 
0.0694226 -1.16331 9.69639 
9.65383 0.0123181 0.1285 
0.0123181 9.49388 0.768368 
0.1285 0.768368 9.76117 
9.62299 0.0332122 0.117896 
0.0332122 9.45832 0.77476 
0.117896 0.77476 9.82758 
9.66651 -0.0679842 0.0956834 
-0.0679842 9.47373 0.750573 
0.0956834 0.750573 9.76865 
9.63057 -0.0383114 0.146097 
-0.0383114 9.49476 0.730387 
0.146097 0.730387 9.78355 
9.3969 0.126625 0.998756 
0.126625 9.71675 -0.0189988 
0.998756 -0.0189988 9.80476 
9.46572 0.0351007 1.06785 
0.0351007 9.79232 -0.131015 
1.06785 -0.131015 9.66037 
9.47183 -0.0124594 0.934456 
-0.0124594 9.72961 0.0457666 
0.934456 0.0457666 9.71697 
9.45365 0.0425337 0.979834 
0.0425337 9.73994 -0.0455064 
0.979834 -0.0455064 9.72482 
9.22313 0.169678 0.957703 
0.169678 8.00812 3.1509 
0.957703 3.1509 5.31054 
8.59187 0.135713 0.409619 
0.135713 8.40107 3.0843 
0.409619 3.0843 5.54886 
7.63248 0.197662 -0.0535637 
0.197662 7.34178 2.69067 
-0.0535637 2.69067 7.56753 
8.42191 -0.0931532 0.260912 
-0.0931532 8.31822 2.8219 
0.260912 2.8219 5.80167 
9.41109 -0.0226833 0.0924412 
-0.0226833 9.44941 0.695356 
0.0924412 0.695356 9.81727 
9.55228 -0.0141513 0.120806 
-0.0141513 9.24389 0.815577 
0.120806 0.815577 9.8816 
9.77701 -0.178781 0.261914 
-0.178781 9.27147 0.636373 
0.261914 0.636373 9.62929 
9.65298 -0.129381 0.507137 
-0.129381 9.40425 1.1269 
0.507137 1.1269 9.62054 
9.77162 -0.0227172 0.0698856 
-0.0227172 9.5863 0.700791 
0.0698856 0.700791 9.78721 
9.60626 0.0297987 0.118149 
0.0297987 9.66557 0.956809 
0.118149 0.956809 9.87329 
9.72029 -0.0828564 0.120638 
-0.0828564 9.49522 0.852739 
0.120638 0.852739 9.92961 
9.72463 0.00684509 0.157092 
0.00684509 9.48123 0.839271 
0.157092 0.839271 9.93925 
7.62407 -0.0287499 -1.85014 
-0.0287499 8.54464 -0.00898699 
-1.85014 -0.00898699 4.91281 
9.48939 0.144346 -3.24989 
0.144346 8.94778 0.561054 
-3.24989 0.561054 2.64435 
8.88033 -0.422443 -2.42148 
-0.422443 8.53479 0.209795 
-2.42148 0.209795 3.6664 
8.48838 -0.149309 -1.24459 
-0.149309 8.18936 0.409177 
-1.24459 0.409177 4.40378 
9.32843 -0.273318 -0.582917 
-0.273318 8.13949 -1.83445 
-0.582917 -1.83445 8.73068 
9.57895 -0.227836 -0.560328 
-0.227836 8.86238 -2.00721 
-0.560328 -2.00721 7.75727 
9.25617 -0.263921 -0.532658 
-0.263921 9.00903 -1.45844 
-0.532658 -1.45844 7.9334 
9.44229 -0.220795 -0.538461 
-0.220795 8.6584 -1.79405 
-0.538461 -1.79405 8.09792 
9.64854 -0.0939613 0.520762 
-0.0939613 9.5932 0.48362 
0.520762 0.48362 8.83924 
9.73379 -0.0283514 0.707102 
-0.0283514 9.69894 0.604298 
0.707102 0.604298 8.64825 
9.55147 -0.0967452 0.615634 
-0.0967452 9.71571 0.504937 
0.615634 0.504937 8.8138 
9.47757 -0.0941015 0.694868 
-0.0941015 9.66073 0.341596 
0.694868 0.341596 8.94268 
9.36521 -0.0671257 -1.51435 
-0.0671257 9.55935 0.382952 
-1.51435 0.382952 6.14503 
9.76053 -0.244389 -1.23895 
-0.244389 9.4665 -0.170293 
-1.23895 -0.170293 5.84255 
9.28838 -0.10238 -1.15456 
-0.10238 9.37957 -0.0236536 
-1.15456 -0.0236536 6.40163 
8.63161 0.237533 -0.340616 
0.237533 9.48743 -0.14674 
-0.340616 -0.14674 6.95054 
9.55821 -0.0644933 0.445156 
-0.0644933 9.63711 -0.951694 
0.445156 -0.951694 9.95952 
9.78745 0.231484 0.353008 
0.231484 9.4583 -0.749129 
0.353008 -0.749129 9.9091 
9.78561 0.0632437 0.278357 
0.0632437 9.67858 -0.473883 
0.278357 -0.473883 9.69065 
9.71533 0.0671353 0.255398 
0.0671353 9.51524 -0.820007 
0.255398 -0.820007 9.92428 
9.47576 -0.0524542 0.879147 
-0.0524542 9.74431 -0.0925526 
0.879147 -0.0925526 9.6147 
9.43317 0.0970825 1.14129 
0.0970825 9.85132 -0.250174 
1.14129 -0.250174 9.55029 
9.40259 0.103972 0.988263 
0.103972 9.69973 -0.224092 
0.988263 -0.224092 9.73246 
9.47372 0.124232 1.04824 
0.124232 9.67946 -0.199053 
1.04824 -0.199053 9.6816 
9.95534 -0.372865 0.28848 
-0.372865 9.84181 0.619714 
0.28848 0.619714 9.83185 
9.64144 -0.0959106 -0.105474 
-0.0959106 9.7451 -0.334275 
-0.105474 -0.334275 10.2425 
9.45526 -0.299453 0.0794108 
-0.299453 9.52598 -0.00314741 
0.0794108 -0.00314741 10.6478 
9.33582 -0.458495 0.0421405 
-0.458495 9.91163 0.140904 
0.0421405 0.140904 10.3816 
7.79719 3.29888 3.93243 
3.29888 8.83365 -3.18012 
3.93243 -3.18012 11.2851 
8.48307 1.69731 0.832139 
1.69731 7.43022 -0.934004 
0.832139 -0.934004 12.0027 
10.6455 1.00749 1.09945 
1.00749 8.96671 -1.27173 
1.09945 -1.27173 8.30378 
11.147 1.00371 0.937624 
1.00371 7.24775 -1.7661 
0.937624 -1.7661 9.52128 
9.28845 0.195537 0.215091 
0.195537 9.1047 -0.132527 
0.215091 -0.132527 9.9796 
8.58527 0.587141 0.55988 
0.587141 9.45565 -0.156767 
0.55988 -0.156767 10.3318 
9.31981 0.305908 0.509995 
0.305908 9.30473 -0.429415 
0.509995 -0.429415 9.7482 
9.20674 0.176212 0.549386 
0.176212 9.29617 -0.321964 
0.549386 -0.321964 9.86984 
9.56985 0.180769 0.704184 
0.180769 9.31126 -0.855643 
0.704184 -0.855643 8.67635 
9.70922 0.072023 0.476383 
0.072023 9.2438 -0.899015 
0.476383 -0.899015 8.60444 
9.64952 0.257385 0.963376 
0.257385 9.5082 -1.22711 
0.963376 -1.22711 8.39973 
8.95329 0.264086 0.658616 
0.264086 8.9253 -1.15756 
0.658616 -1.15756 9.67887 
10.0808 -0.048721 -0.333167 
-0.048721 9.90052 -1.00296 
-0.333167 -1.00296 8.57413 
9.63802 -0.319562 -0.435099 
-0.319562 9.82932 -0.908558 
-0.435099 -0.908558 9.08814 
9.83366 -0.131423 -0.42139 
-0.131423 9.44805 -0.977258 
-0.42139 -0.977258 9.27377 
10.1953 -0.122055 -0.749972 
-0.122055 9.55778 -0.919068 
-0.749972 -0.919068 8.80242 
9.26471 -0.084965 0.00128692 
-0.084965 8.87013 -1.19163 
0.00128692 -1.19163 7.30548 
9.40526 -0.0997741 0.153349 
-0.0997741 8.80023 -1.36409 
0.153349 -1.36409 7.23483 
9.33601 0.268671 0.0241373 
0.268671 8.60545 -1.57605 
0.0241373 -1.57605 7.49886 
9.72398 0.128903 0.418003 
0.128903 9.11869 -1.3555 
0.418003 -1.3555 6.59765 
9.12093 0.231482 -0.488407 
0.231482 9.19527 0.330472 
-0.488407 0.330472 9.79439 
9.05986 0.33933 -0.481155 
0.33933 9.16775 0.60254 
-0.481155 0.60254 9.88298 
9.08782 0.0159317 -0.643525 
0.0159317 9.23977 0.480256 
-0.643525 0.480256 9.783 
9.11336 0.504915 -0.605721 
0.504915 9.03479 0.591573 
-0.605721 0.591573 9.96244 
9.79435 0.147269 -0.35117 
0.147269 8.82798 -0.599253 
-0.35117 -0.599253 9.17303 
9.12293 0.189419 0.510506 
0.189419 9.13494 -1.73584 
0.510506 -1.73584 9.53748 
9.44969 -0.111637 0.615543 
-0.111637 8.38374 -1.44312 
0.615543 -1.44312 9.96193 
10.6208 0.467607 -0.0833085 
0.467607 8.48626 -1.9911 
-0.0833085 -1.9911 8.68834 
9.57259 0.705435 0.588549 
0.705435 8.6484 -0.860528 
0.588549 -0.860528 10.1249 
9.54634 0.517359 0.69521 
0.517359 8.7752 -1.37424 
0.69521 -1.37424 10.0244 
9.11495 0.194873 0.52614 
0.194873 9.40543 -0.750896 
0.52614 -0.750896 9.82553 
9.4139 0.544094 0.825691 
0.544094 8.87263 -0.853982 
0.825691 -0.853982 10.0594 
8.38302 0.14544 0.659446 
0.14544 9.47749 0.111815 
0.659446 0.111815 10.1171 
8.12389 0.40718 0.638782 
0.40718 9.64569 -0.346432 
0.638782 -0.346432 10.208 
8.76087 0.477306 -0.256043 
0.477306 8.86029 -0.235252 
-0.256043 -0.235252 10.3565 
8.28874 0.335922 0.528292 
0.335922 9.35984 -0.236509 
0.528292 -0.236509 10.329 
6.34525 -0.69877 -0.918711 
-0.69877 6.21131 -0.698625 
-0.918711 -0.698625 2.42988 
6.06893 -0.378086 -0.632281 
-0.378086 6.38407 -1.69672 
-0.632281 -1.69672 2.53344 
6.26241 -0.241318 -0.530472 
-0.241318 6.65948 -0.791868 
-0.530472 -0.791868 2.06456 
6.31673 -0.0625378 -1.17565 
-0.0625378 6.34981 -1.86653 
-1.17565 -1.86653 2.31991 
9.71671 -0.0966374 -0.914744 
-0.0966374 9.78039 -0.061305 
-0.914744 -0.061305 9.9085 
9.70201 -0.0263658 -0.893227 
-0.0263658 9.82186 -0.0162207 
-0.893227 -0.0162207 9.88173 
9.65912 -0.0486111 -0.860247 
-0.0486111 9.79966 -0.0417634 
-0.860247 -0.0417634 9.94681 
9.64043 -0.108144 -0.831396 
-0.108144 9.8404 -0.0511907 
-0.831396 -0.0511907 9.92477 
9.78402 0.00970614 -0.0325696 
0.00970614 9.54982 -0.866108 
-0.0325696 -0.866108 9.94251 
9.83783 0.010807 -0.102676 
0.010807 9.61493 -0.943607 
-0.102676 -0.943607 9.82359 
9.8606 0.00732408 -0.0370631 
0.00732408 9.60861 -0.964334 
-0.0370631 -0.964334 9.80714 
9.86511 -0.0117023 -0.0911522 
-0.0117023 9.56453 -0.893077 
-0.0911522 -0.893077 9.8467 
9.74629 0.383921 0.369581 
0.383921 9.18407 -1.13568 
0.369581 -1.13568 9.82559 
9.7963 0.123924 0.30464 
0.123924 9.1361 -1.18588 
0.30464 -1.18588 9.82355 
9.51 0.156292 0.320472 
0.156292 9.43951 -0.892162 
0.320472 -0.892162 9.80644 
9.7015 0.114434 0.445305 
0.114434 9.25461 -1.10323 
0.445305 -1.10323 9.79985 
8.88904 0.577006 0.139055 
0.577006 9.3095 -0.185566 
0.139055 -0.185566 10.4581 
8.8362 0.60577 0.111587 
0.60577 9.34867 -0.116421 
0.111587 -0.116421 10.4717 
8.90773 0.591428 0.188998 
0.591428 9.30372 0.0570662 
0.188998 0.0570662 10.4452 
8.81507 0.427044 -0.103443 
0.427044 9.47158 0.0572741 
-0.103443 0.0572741 10.37 
9.61747 0.1885 -0.573524 
0.1885 9.27016 1.60477 
-0.573524 1.60477 7.96004 
9.25342 0.302627 -0.217894 
0.302627 8.90373 2.02311 
-0.217894 2.02311 8.69052 
9.79846 0.275127 -0.414802 
0.275127 9.30423 1.58282 
-0.414802 1.58282 7.74498 
9.68831 0.103792 -0.58479 
0.103792 8.80446 1.3988 
-0.58479 1.3988 8.3549 
9.58064 -0.146438 0.558939 
-0.146438 9.75777 0.250152 
0.558939 0.250152 9.72125 
9.46591 -0.158825 0.778445 
-0.158825 9.68899 0.397809 
0.778445 0.397809 9.90476 
9.69294 -0.0081946 0.939457 
-0.0081946 9.53626 0.48619 
0.939457 0.48619 9.83045 
9.58979 -0.0896025 0.752523 
-0.0896025 9.57336 0.481843 
0.752523 0.481843 9.89651 
8.7281 0.0225927 0.590515 
0.0225927 9.84428 0.647131 
0.590515 0.647131 9.95617 
9.57614 0.0786544 0.388953 
0.0786544 9.28947 -0.454361 
0.388953 -0.454361 9.66294 
9.0016 -0.255227 1.25324 
-0.255227 9.48635 0.364908 
1.25324 0.364908 10.0406 
8.81018 0.423964 0.875003 
0.423964 9.63838 -0.39409 
0.875003 -0.39409 10.08 
10.9581 -1.06541 2.3129 
-1.06541 4.81136 -3.29409 
2.3129 -3.29409 0.763289 
7.20525 -0.849654 1.80957 
-0.849654 3.9101 -3.23515 
1.80957 -3.23515 5.41744 
3.97063 0.632389 0.315716 
0.632389 8.53037 -2.34557 
0.315716 -2.34557 4.03179 
5.43131 1.30958 2.63733 
1.30958 7.07353 -2.91841 
2.63733 -2.91841 4.02794 
9.79816 0.205713 0.337523 
0.205713 8.8626 -1.26532 
0.337523 -1.26532 9.80547 
9.71768 0.497697 0.584154 
0.497697 9.0451 -1.46592 
0.584154 -1.46592 9.70346 
9.14934 0.0927043 0.308311 
0.0927043 9.65348 -0.49042 
0.308311 -0.49042 9.66341 
9.85826 0.257274 0.235736 
0.257274 8.57859 -1.27229 
0.235736 -1.27229 10.0294 
9.07129 -0.355489 0.442067 
-0.355489 9.06006 0.5624 
0.442067 0.5624 9.84695 
9.09703 -0.292802 0.454016 
-0.292802 8.95686 0.503492 
0.454016 0.503492 9.92441 
9.08636 -0.291758 0.358724 
-0.291758 9.03417 0.491877 
0.358724 0.491877 9.85777 
9.12633 -0.4132 0.4326 
-0.4132 8.95128 0.521019 
0.4326 0.521019 9.90068 
9.81307 0.0806775 0.618651 
0.0806775 9.90364 -0.678482 
0.618651 -0.678482 7.82038 
9.32592 0.131553 0.431977 
0.131553 9.82963 -1.26106 
0.431977 -1.26106 8.38154 
9.47992 0.22897 0.644116 
0.22897 9.76474 -0.823158 
0.644116 -0.823158 8.29243 
9.46702 -0.143373 -0.109804 
-0.143373 8.88686 -0.401205 
-0.109804 -0.401205 9.18321 
10.1464 0.132405 0.329556 
0.132405 9.22184 -1.29526 
0.329556 -1.29526 9.36322 
9.92284 -0.10109 -0.131136 
-0.10109 9.3139 -1.14826 
-0.131136 -1.14826 9.4947 
9.94531 -0.0564797 0.0814264 
-0.0564797 9.34583 -1.17317 
0.0814264 -1.17317 9.4403 
9.65462 -0.0425424 -0.114654 
-0.0425424 9.51704 -0.97358 
-0.114654 -0.97358 9.55978 
9.06305 -0.0164797 0.447444 
-0.0164797 9.8168 0.198579 
0.447444 0.198579 10.0939 
8.71675 -0.303335 0.274999 
-0.303335 9.97951 -0.359279 
0.274999 -0.359279 10.2775 
9.36966 -0.295817 0.335003 
-0.295817 9.67423 -0.183923 
0.335003 -0.183923 9.92984 
9.01365 0.289836 0.0474176 
0.289836 9.50498 0.336937 
0.0474176 0.336937 10.4551 
8.96953 0.292796 0.330406 
0.292796 9.69973 -0.266242 
0.330406 -0.266242 9.99161 
8.8165 0.412152 0.355467 
0.412152 9.59996 -0.235286 
0.355467 -0.235286 10.2444 
9.07872 0.337921 0.484691 
0.337921 9.3159 -0.344038 
0.484691 -0.344038 10.2663 
9.26401 0.300715 0.80346 
0.300715 9.18914 -0.488428 
0.80346 -0.488428 10.2077 
9.22509 0.366734 1.53083 
0.366734 9.93078 -0.158748 
1.53083 -0.158748 9.03685 
9.33689 -0.0441135 1.2399 
-0.0441135 9.79722 -0.400429 
1.2399 -0.400429 9.05861 
9.12585 -0.139753 1.25913 
-0.139753 9.79753 -0.17789 
1.25913 -0.17789 9.26934 
9.1396 -0.140239 1.35949 
-0.140239 9.55079 -0.16304 
1.35949 -0.16304 9.50233 
9.61823 0.0242643 -1.05048 
0.0242643 9.7653 0.267256 
-1.05048 0.267256 9.30804 
9.63905 0.00665011 -0.996942 
0.00665011 9.81058 0.318841 
-0.996942 0.318841 9.24196 
9.60903 0.0875115 -0.932106 
0.0875115 9.71329 0.291006 
-0.932106 0.291006 9.36926 
9.59437 0.0208375 -1.05566 
0.0208375 9.70235 0.30577 
-1.05566 0.30577 9.39486 
9.50697 0.182874 0.692517 
0.182874 9.51505 -0.479921 
0.692517 -0.479921 9.8102 
9.51761 0.157168 0.748478 
0.157168 9.60396 -0.525544 
0.748478 -0.525544 9.71065 
9.47381 0.188463 0.700132 
0.188463 9.57694 -0.560151 
0.700132 -0.560151 9.78147 
9.55793 0.133135 0.755919 
0.133135 9.52075 -0.500733 
0.755919 -0.500733 9.75354 
9.63647 -0.0377737 -0.507735 
-0.0377737 9.65847 0.789594 
-0.507735 0.789594 8.10312 
9.5887 -0.0673775 -0.335183 
-0.0673775 9.70816 0.773116 
-0.335183 0.773116 8.1012 
9.77391 0.132859 -0.450943 
0.132859 9.63962 1.20506 
-0.450943 1.20506 7.98453 
9.46619 0.169462 -0.0930138 
0.169462 9.2533 1.0748 
-0.0930138 1.0748 8.67858 
7.18615 -0.380751 1.13087 
-0.380751 9.53938 0.0667091 
1.13087 0.0667091 11.2587 
9.54321 0.169857 1.41098 
0.169857 11.596 -1.25731 
1.41098 -1.25731 6.84499 
7.57006 -0.15729 1.70687 
-0.15729 9.20327 0.291327 
1.70687 0.291327 11.2109 
6.28809 -0.52154 2.40968 
-0.52154 10.7874 0.306942 
2.40968 0.306942 10.9087 
8.89143 -0.354633 2.66949 
-0.354633 10.5271 0.109057 
2.66949 0.109057 9.41181 
9.42262 0.0548861 0.456827 
0.0548861 8.87387 0.790721 
0.456827 0.790721 10.5338 
8.11408 -0.536727 1.38302 
-0.536727 10.8611 0.352493 
1.38302 0.352493 9.8551 
7.52821 -1.54334 2.18539 
-1.54334 9.48657 2.02421 
2.18539 2.02421 11.8155 
8.98579 -0.409001 0.239871 
-0.409001 9.29059 0.14933 
0.239871 0.14933 9.84324 
8.83693 -0.543993 0.426157 
-0.543993 9.24864 0.299464 
0.426157 0.299464 10.034 
9.02702 -0.569334 0.422894 
-0.569334 8.98921 0.16586 
0.422894 0.16586 10.1034 
9.51512 0.109431 0.570556 
0.109431 8.88884 0.630286 
0.570556 0.630286 9.71566 
9.74477 -0.888728 0.179744 
-0.888728 9.88118 -0.0610027 
0.179744 -0.0610027 11.6335 
9.70344 -0.889921 0.484127 
-0.889921 9.8703 0.182405 
0.484127 0.182405 11.6857 
10.3248 -0.322545 0.163558 
-0.322545 9.8802 0.454027 
0.163558 0.454027 11.0544 
10.2925 -1.39034 0.320376 
-1.39034 8.97752 0.311453 
0.320376 0.311453 11.9894 
9.25575 -0.844662 0.0176753 
-0.844662 9.14906 -0.124879 
0.0176753 -0.124879 10.5515 
9.94298 0.999233 0.457671 
0.999233 9.86307 0.106129 
0.457671 0.106129 9.15022 
9.44111 -0.149792 0.325246 
-0.149792 9.65457 0.182629 
0.325246 0.182629 9.8606 
8.65271 -0.22836 0.337476 
-0.22836 10.0753 0.67188 
0.337476 0.67188 10.2282 
8.85428 0.347274 -0.502264 
0.347274 9.22186 0.446808 
-0.502264 0.446808 9.80066 
9.05381 0.220701 -0.521047 
0.220701 9.0226 0.500302 
-0.521047 0.500302 9.80039 
8.93302 0.480188 -0.610023 
0.480188 9.00159 0.462486 
-0.610023 0.462486 9.94219 
8.99001 0.298588 -0.472167 
0.298588 9.08645 0.436302 
-0.472167 0.436302 9.80033 
8.73874 -0.503805 -1.97383 
-0.503805 9.06259 0.229785 
-1.97383 0.229785 5.32083 
8.7094 0.315153 -1.4273 
0.315153 9.42687 -0.208272 
-1.4273 -0.208272 4.98588 
8.92685 -0.247468 -1.48865 
-0.247468 9.12265 -0.339593 
-1.48865 -0.339593 5.07265 
8.13864 1.17128 -0.952173 
1.17128 9.2657 -0.283508 
-0.952173 -0.283508 5.71781 
8.8761 0.635204 -1.26434 
0.635204 9.24034 1.06546 
-1.26434 1.06546 9.21397 
9.28046 0.280941 -1.02603 
0.280941 9.10735 1.04957 
-1.02603 1.04957 8.94262 
9.00113 0.488084 -1.38144 
0.488084 9.21572 0.858943 
-1.38144 0.858943 9.11357 
9.40663 0.353274 -1.48183 
0.353274 9.32685 1.45274 
-1.48183 1.45274 8.59694 
8.65954 0.0969137 -2.90901 
0.0969137 8.46992 1.16451 
-2.90901 1.16451 4.67782 
8.15519 -0.0400684 -1.64329 
-0.0400684 8.18913 1.43072 
-1.64329 1.43072 5.46296 
7.20952 -0.238575 -2.37298 
-0.238575 7.50618 1.0186 
-2.37298 1.0186 7.09157 
8.52655 0.0110921 -2.23854 
0.0110921 8.62143 0.943667 
-2.23854 0.943667 4.6593 
10.1044 0.0604086 0.152567 
0.0604086 9.80272 0.882487 
0.152567 0.882487 8.47733 
9.62235 0.018891 -0.133127 
0.018891 9.42738 0.975756 
-0.133127 0.975756 9.33476 
9.80346 -0.136985 0.0129479 
-0.136985 9.75378 1.47491 
0.0129479 1.47491 8.82724 
9.99528 0.110754 0.0286297 
0.110754 9.57574 1.09968 
0.0286297 1.09968 8.81346 
9.77053 -0.0392994 0.0512505 
-0.0392994 9.67889 -0.95857 
0.0512505 -0.95857 9.7913 
9.77985 0.127562 0.0495495 
0.127562 9.56384 -0.942739 
0.0495495 -0.942739 9.89704 
9.8155 0.00520506 0.071592 
0.00520506 9.64236 -0.987531 
0.071592 -0.987531 9.78287 
9.81637 -0.0215078 0.084981 
-0.0215078 9.63327 -0.965911 
0.084981 -0.965911 9.79109 
9.18146 2.53623 0.578437 
2.53623 10.0413 -0.398017 
0.578437 -0.398017 12.9085 
10.27 -1.31979 4.34457 
-1.31979 10.8056 1.28435 
4.34457 1.28435 11.0556 
0.816462 -5.85981 4.44354 
-5.85981 13.0827 2.09629 
4.44354 2.09629 18.232 
8.46589 -1.61331 4.31215 
-1.61331 13.1879 -0.185417 
4.31215 -0.185417 10.4774 
8.85474 0.125881 -0.805486 
0.125881 9.2358 0.230137 
-0.805486 0.230137 9.88639 
8.52352 0.0926063 -0.915665 
0.0926063 9.48139 -0.0672505 
-0.915665 -0.0672505 9.97202 
8.68467 -0.0323961 -0.755111 
-0.0323961 9.43413 -0.0501452 
-0.755111 -0.0501452 9.85813 
8.76555 0.177114 -0.532473 
0.177114 9.41892 0.121348 
-0.532473 0.121348 9.79246 
6.32211 -0.0737485 -0.610261 
-0.0737485 7.08713 -0.066421 
-0.610261 -0.066421 0.923523 
5.33839 0.148987 -3.69554 
0.148987 4.82188 0.236646 
-3.69554 0.236646 4.17249 
6.98899 -0.211785 -1.61746 
-0.211785 6.01742 -0.330604 
-1.61746 -0.330604 1.32635 
6.99473 0.188392 -1.71655 
0.188392 5.62153 -0.0629551 
-1.71655 -0.0629551 1.71649 
9.65582 0.155723 -0.210022 
0.155723 9.19363 -1.19045 
-0.210022 -1.19045 9.25209 
9.59268 -0.292238 -0.259933 
-0.292238 9.15136 -1.39359 
-0.259933 -1.39359 9.3575 
9.70815 -0.135141 -0.229961 
-0.135141 9.10963 -1.50713 
-0.229961 -1.50713 9.28376 
10.2252 0.153347 -0.347469 
0.153347 8.46114 -1.75483 
-0.347469 -1.75483 9.41516 
10.0098 0.0182295 -0.0428259 
0.0182295 9.81784 -0.880187 
-0.0428259 -0.880187 9.89442 
9.81926 0.0419281 -0.0810744 
0.0419281 9.99794 -0.856618 
-0.0810744 -0.856618 9.90488 
9.87492 0.0421717 -0.116989 
0.0421717 9.79819 -0.944298 
-0.116989 -0.944298 10.049 
9.98179 -0.0374146 -0.0882275 
-0.0374146 9.76101 -0.835703 
-0.0882275 -0.835703 9.97928 
7.47427 1.06897 3.9188 
1.06897 9.22235 -1.77667 
3.9188 -1.77667 7.87901 
8.19043 0.352386 1.96984 
0.352386 8.99186 -1.03603 
1.96984 -1.03603 7.39334 
7.10744 0.775115 2.91097 
0.775115 8.64978 -1.26681 
2.91097 -1.26681 8.81841 
7.89369 0.386404 2.33775 
0.386404 9.32427 -0.444084 
2.33775 -0.444084 7.35767 
9.11451 0.384634 -0.661758 
0.384634 9.66404 0.707933 
-0.661758 0.707933 7.87861 
9.47137 0.317445 -0.714719 
0.317445 9.29954 1.48251 
-0.714719 1.48251 7.88625 
9.25149 0.23015 -0.658358 
0.23015 9.36916 1.33553 
-0.658358 1.33553 8.03651 
9.69651 -0.0337015 -0.427856 
-0.0337015 8.80265 1.29763 
-0.427856 1.29763 8.158 
9.61525 -0.137232 0.171215 
-0.137232 8.89204 0.930585 
0.171215 0.930585 9.8061 
9.48152 0.152619 0.0931366 
0.152619 9.07622 0.899886 
0.0931366 0.899886 9.75566 
9.4745 -0.128262 0.162861 
-0.128262 9.16731 0.894492 
0.162861 0.894492 9.67159 
9.53341 0.0614625 0.0384765 
0.0614625 9.10446 0.793367 
0.0384765 0.793367 9.67553 
9.88828 0.429386 0.0869753 
0.429386 10.0149 -0.716948 
0.0869753 -0.716948 10.0289 
9.99841 0.366959 -0.131279 
0.366959 9.41483 0.183412 
-0.131279 0.183412 10.5188 
9.93243 -0.168391 -0.324437 
-0.168391 9.82459 0.306415 
-0.324437 0.306415 10.175 
9.89783 -0.0453919 0.0799684 
-0.0453919 9.52873 0.308727 
0.0799684 0.308727 10.5055 
9.21305 0.116172 0.391053 
0.116172 9.47329 -0.0457332 
0.391053 -0.0457332 9.76732 
9.36158 -0.106933 1.19619 
-0.106933 9.47067 -0.197389 
1.19619 -0.197389 9.6214 
9.02499 -0.0501442 0.910603 
-0.0501442 9.60119 -0.115779 
0.910603 -0.115779 9.82747 
8.3696 0.409664 0.743621 
0.409664 9.7052 -0.00867687 
0.743621 -0.00867687 10.3788 
9.63258 -0.0549139 0.904131 
-0.0549139 9.80448 0.411837 
0.904131 0.411837 9.80274 
9.67354 -0.087871 0.616454 
-0.087871 9.7563 0.236488 
0.616454 0.236488 9.80996 
9.69614 -0.0234777 0.689959 
-0.0234777 9.6469 0.337583 
0.689959 0.337583 9.89676 
9.58052 -0.104886 0.757754 
-0.104886 9.62024 0.372241 
0.757754 0.372241 10.039 
8.9728 -0.0149207 1.014 
-0.0149207 9.64312 0.0218471 
1.014 0.0218471 9.64008 
8.91812 -0.0439659 1.08076 
-0.0439659 9.63233 0.00809811 
1.08076 0.00809811 9.70555 
8.96374 0.0240454 0.934548 
0.0240454 9.57904 -0.0586899 
0.934548 -0.0586899 9.71322 
9.18084 -0.125786 1.01887 
-0.125786 9.50802 0.0142284 
1.01887 0.0142284 9.56713 
9.72059 -0.0670733 0.639676 
-0.0670733 9.31399 -0.434778 
0.639676 -0.434778 9.25993 
9.15472 0.153633 0.107808 
0.153633 9.04951 -0.480903 
0.107808 -0.480903 10.0903 
9.19094 0.31429 0.481112 
0.31429 9.22664 -0.654327 
0.481112 -0.654327 9.87692 
9.30151 0.177812 0.358294 
0.177812 9.24968 -0.604208 
0.358294 -0.604208 9.74331 
8.45398 0.328493 1.52258 
0.328493 9.53226 -0.42936 
1.52258 -0.42936 9.00646 
8.37858 0.328 1.8553 
0.328 9.33295 -0.26228 
1.8553 -0.26228 9.28118 
8.32193 0.146549 1.71359 
0.146549 9.28428 -0.408121 
1.71359 -0.408121 9.38649 
7.96927 0.30142 1.48289 
0.30142 9.1034 -0.249527 
1.48289 -0.249527 9.92004 
8.67529 0.0961438 0.0992257 
0.0961438 9.89513 0.0406763 
0.0992257 0.0406763 9.87992 
7.96979 -0.310148 0.435277 
-0.310148 9.50725 -0.391091 
0.435277 -0.391091 10.9733 
9.1228 -0.330138 0.651369 
-0.330138 9.36596 0.230163 
0.651369 0.230163 9.96158 
8.68981 -0.275781 0.388997 
-0.275781 9.57474 0.0655392 
0.388997 0.0655392 10.1858 
9.55234 0.535353 -0.838684 
0.535353 8.9884 1.2376 
-0.838684 1.2376 9.82084 
9.50261 0.289168 -0.616421 
0.289168 9.19898 1.16253 
-0.616421 1.16253 9.66 
9.08922 0.312163 -0.633398 
0.312163 9.2601 0.309717 
-0.633398 0.309717 10.0123 
9.35726 0.235347 -0.760622 
0.235347 9.30387 1.10227 
-0.760622 1.10227 9.70046 
9.47449 -0.188064 0.175646 
-0.188064 9.79593 0.208447 
0.175646 0.208447 9.81579 
9.18182 -0.197401 0.204867 
-0.197401 9.43595 0.0850081 
0.204867 0.0850081 10.4684 
9.55854 -0.321006 0.284946 
-0.321006 9.49058 0.38792 
0.284946 0.38792 10.0371 
9.56642 -0.186497 0.326522 
-0.186497 9.45545 0.195312 
0.326522 0.195312 10.0643 
8.34104 0.461133 -2.19194 
0.461133 8.90685 1.90708 
-2.19194 1.90708 3.66901 
6.62112 0.578891 -1.93584 
0.578891 7.24823 1.23538 
-1.93584 1.23538 7.04756 
8.42077 0.0532791 -1.89744 
0.0532791 8.16062 1.19548 
-1.89744 1.19548 4.33551 
8.30682 -0.343767 -1.63164 
-0.343767 8.4768 1.87632 
-1.63164 1.87632 4.13328 
8.60742 1.90789 -0.855977 
1.90789 8.35304 0.676941 
-0.855977 0.676941 11.9569 
9.6214 2.24582 -1.47857 
2.24582 7.76598 1.73468 
-1.47857 1.73468 11.5299 
11.2889 0.0990406 -0.586819 
0.0990406 9.55698 1.43254 
-0.586819 1.43254 8.07146 
8.75528 1.61318 -1.1841 
1.61318 8.57666 1.10431 
-1.1841 1.10431 11.5854 
9.45664 0.00411566 0.164073 
0.00411566 9.6357 0.666787 
0.164073 0.666787 9.54934 
9.78257 -0.217919 0.128505 
-0.217919 8.84776 0.58367 
0.128505 0.58367 10.0113 
9.4804 0.0666751 0.188252 
0.0666751 9.54172 0.684752 
0.188252 0.684752 9.61955 
9.41111 -0.062885 0.211821 
-0.062885 9.39395 1.05668 
0.211821 1.05668 9.83661 
9.6988 -0.0463203 0.819357 
-0.0463203 9.79348 0.320237 
0.819357 0.320237 9.94192 
9.80191 -0.0158074 0.635374 
-0.0158074 9.71012 0.287302 
0.635374 0.287302 9.92216 
9.71587 -0.0136337 0.894747 
-0.0136337 9.79252 0.346274 
0.894747 0.346274 9.9258 
9.60382 -0.0767762 0.789182 
-0.0767762 9.83434 0.361411 
0.789182 0.361411 9.99603 
9.75205 0.0766249 0.603127 
0.0766249 9.22006 -1.24904 
0.603127 -1.24904 9.14412 
9.43775 0.329445 0.476403 
0.329445 9.32911 -1.16354 
0.476403 -1.16354 9.34936 
9.7326 0.258355 0.337496 
0.258355 9.33414 -1.06816 
0.337496 -1.06816 9.04948 
9.58873 0.202029 0.51435 
0.202029 9.20369 -1.12336 
0.51435 -1.12336 9.3238 
8.60501 0.0978225 -1.64519 
0.0978225 9.7834 0.0310347 
-1.64519 0.0310347 10.0344 
7.09942 0.993467 -3.09816 
0.993467 9.81067 0.941919 
-3.09816 0.941919 11.5127 
8.6099 -0.168438 -2.47101 
-0.168438 10.521 -0.0572023 
-2.47101 -0.0572023 9.29189 
8.12058 -0.0286579 -1.89766 
-0.0286579 10.664 0.0804221 
-1.89766 0.0804221 9.63824 
9.5116 -0.10774 0.300238 
-0.10774 9.0796 0.688575 
0.300238 0.688575 9.72301 
9.52965 -0.161847 0.310178 
-0.161847 9.00638 0.789459 
0.310178 0.789459 9.77817 
9.40553 -0.134453 0.263355 
-0.134453 9.10192 0.817496 
0.263355 0.817496 9.80676 
9.17691 -0.216571 0.350934 
-0.216571 9.43323 0.951281 
0.350934 0.951281 9.70407 
7.27832 -0.777562 -1.37821 
-0.777562 15.4655 0.0225273 
-1.37821 0.0225273 16.8925 
-1.95713 -0.160832 3.17903 
-0.160832 11.6631 -0.752108 
3.17903 -0.752108 29.9304 
2.27611 -2.6901 1.90155 
-2.6901 14.046 -1.19585 
1.90155 -1.19585 23.3143 
7.25524 -0.688623 1.34707 
-0.688623 14.316 -0.920147 
1.34707 -0.920147 18.0652 
8.79469 0.106322 0.519678 
0.106322 9.79941 -0.110701 
0.519678 -0.110701 9.84335 
9.81359 -0.0321465 0.699499 
-0.0321465 9.24061 -0.0862587 
0.699499 -0.0862587 9.38324 
9.33432 0.0240187 0.718573 
0.0240187 9.47122 -0.01854 
0.718573 -0.01854 9.6319 
9.14858 -0.00604169 1.05185 
-0.00604169 9.46033 -0.193239 
1.05185 -0.193239 9.82853 
9.54322 0.265889 0.199184 
0.265889 9.21806 0.183758 
0.199184 0.183758 10.6329 
9.83052 0.154757 -0.27563 
0.154757 9.96012 -0.458871 
-0.27563 -0.458871 9.60353 
9.86215 0.168774 0.129035 
0.168774 9.17156 -0.444345 
0.129035 -0.444345 10.3605 
9.84531 0.299408 0.0955628 
0.299408 9.43047 -0.336791 
0.0955628 -0.336791 10.1184 
9.63181 0.167891 0.771268 
0.167891 9.67989 -0.582487 
0.771268 -0.582487 9.89059 
9.64112 0.146422 0.674584 
0.146422 9.67089 -0.565524 
0.674584 -0.565524 9.89027 
9.50465 0.0814605 0.776411 
0.0814605 9.78982 -0.624132 
0.776411 -0.624132 9.90782 
9.61275 0.155168 0.614918 
0.155168 9.75876 -0.376984 
0.614918 -0.376984 9.83078 
7.77789 -1.1216 -1.58473 
-1.1216 9.95508 -0.575529 
-1.58473 -0.575529 11.7798 
8.11938 -0.767438 -1.00826 
-0.767438 9.82464 -0.590487 
-1.00826 -0.590487 11.5687 
9.45309 -0.658682 -1.90474 
-0.658682 9.98757 -0.740392 
-1.90474 -0.740392 10.0721 
8.73738 -0.482747 -1.85711 
-0.482747 10.3681 -0.249521 
-1.85711 -0.249521 10.4073 
8.7411 0.0859023 2.42512 
0.0859023 9.09208 -0.364492 
2.42512 -0.364492 4.23959 
8.29613 -0.136447 2.24736 
-0.136447 8.48699 -0.707053 
2.24736 -0.707053 5.28965 
8.4328 0.0528674 2.4352 
0.0528674 9.37048 0.111286 
2.4352 0.111286 4.26949 
9.68635 -0.109719 2.11992 
-0.109719 9.17465 -1.74869 
2.11992 -1.74869 3.21177 
8.7265 -0.587714 -0.466343 
-0.587714 9.68033 -0.204157 
-0.466343 -0.204157 11.1611 
9.73113 1.25878 -0.864319 
1.25878 8.97058 0.750038 
-0.864319 0.750038 10.8662 
9.79592 1.41678 -1.03164 
1.41678 9.37417 1.90956 
-1.03164 1.90956 10.3978 
8.06027 2.15542 -1.04654 
2.15542 9.17108 0.643055 
-1.04654 0.643055 12.3365 
9.92538 0.0330275 0.865029 
0.0330275 9.88606 -0.314516 
0.865029 -0.314516 10.1686 
10.1406 0.0126422 0.839609 
0.0126422 10.2108 -0.184136 
0.839609 -0.184136 9.62857 
9.92478 0.0958082 0.783535 
0.0958082 9.9348 -0.329013 
0.783535 -0.329013 10.1204 
9.91064 0.0234777 0.882835 
0.0234777 10.2544 -0.502622 
0.882835 -0.502622 9.81495 
9.96964 -0.189428 -0.311953 
-0.189428 9.29626 -1.44884 
-0.311953 -1.44884 9.71248 
10.1033 -0.346419 -0.452708 
-0.346419 9.28411 -1.35919 
-0.452708 -1.35919 9.59097 
9.59903 -0.287954 -0.348799 
-0.287954 9.5432 -1.17 
-0.348799 -1.17 9.83615 
9.40363 -0.124272 -0.502719 
-0.124272 9.34737 -1.13306 
-0.502719 -1.13306 10.2274 
9.58085 0.175746 0.183205 
0.175746 9.51037 0.0997504 
0.183205 0.0997504 10.4931 
9.5506 0.198293 0.34002 
0.198293 9.98846 -0.139919 
0.34002 -0.139919 10.0453 
9.81924 0.134638 0.0928786 
0.134638 9.80776 -0.115687 
0.0928786 -0.115687 9.95732 
9.59495 -0.00842541 0.289958 
-0.00842541 9.78037 -0.180782 
0.289958 -0.180782 10.209 
9.8592 -0.232524 0.0640863 
-0.232524 9.39407 0.221966 
0.0640863 0.221966 9.9532 
9.88635 -0.143712 0.114104 
-0.143712 9.42319 0.0904731 
0.114104 0.0904731 9.89693 
9.41202 0.313838 0.0774195 
0.313838 10.1262 0.0438036 
0.0774195 0.0438036 9.66828 
9.65694 -0.308786 0.0536821 
-0.308786 9.61086 -0.0586224 
0.0536821 -0.0586224 9.93868 
8.36289 0.596128 1.3772 
0.596128 9.98947 -0.729488 
1.3772 -0.729488 10.7653 
9.20211 0.780231 0.614897 
0.780231 9.57474 -0.501996 
0.614897 -0.501996 10.3408 
9.0788 0.858587 0.690985 
0.858587 9.42191 -0.329059 
0.690985 -0.329059 10.6169 
9.16817 0.0624677 0.389364 
0.0624677 9.56333 -0.374077 
0.389364 -0.374077 10.3861 
9.1415 0.0204157 0.306189 
0.0204157 9.46122 0.191803 
0.306189 0.191803 9.97345 
9.14719 -0.196219 0.115828 
-0.196219 9.61535 -0.00549094 
0.115828 -0.00549094 9.81362 
9.25107 -0.184476 0.41276 
-0.184476 9.43577 -0.0149314 
0.41276 -0.0149314 9.88933 
9.04277 -0.102628 0.34045 
-0.102628 9.50911 0.15096 
0.34045 0.15096 10.0243 
7.97544 -1.54879 1.18954 
-1.54879 9.19366 0.397152 
1.18954 0.397152 11.7207 
6.90396 -1.84231 2.24428 
-1.84231 10.1771 1.3152 
2.24428 1.3152 11.8087 
9.15823 0.401858 0.539943 
0.401858 11.0819 0.363945 
0.539943 0.363945 8.64971 
8.30163 -1.24769 0.994945 
-1.24769 8.78111 0.795654 
0.994945 0.795654 11.8071 
9.97784 0.142529 0.43903 
0.142529 9.42372 2.04961 
0.43903 2.04961 8.0078 
9.24396 0.289736 0.289771 
0.289736 9.21236 1.13946 
0.289771 1.13946 8.95304 
9.74993 -0.368181 0.727977 
-0.368181 9.14188 1.38837 
0.727977 1.38837 8.51755 
9.65495 -0.445877 0.55657 
-0.445877 9.01032 1.58409 
0.55657 1.58409 8.7441 
9.74035 -0.0687427 0.312678 
-0.0687427 9.82946 -0.935541 
0.312678 -0.935541 9.90996 
9.86102 0.00231721 0.33303 
0.00231721 9.66008 -0.661026 
0.33303 -0.661026 9.95868 
9.76422 -0.0198066 0.280145 
-0.0198066 9.72497 -0.692459 
0.280145 -0.692459 9.99058 
9.85629 0.0313603 0.313247 
0.0313603 9.77803 -0.923499 
0.313247 -0.923499 9.84545 
9.84567 0.0940828 0.997242 
0.0940828 9.72324 -0.231525 
0.997242 -0.231525 9.68725 
9.55911 0.0955428 1.13801 
0.0955428 9.90528 -0.186518 
1.13801 -0.186518 9.79177 
9.60615 -0.055798 0.896218 
-0.055798 9.82721 -0.062873 
0.896218 -0.062873 9.82279 
9.71494 0.0451515 1.0208 
0.0451515 9.76472 -0.210762 
1.0208 -0.210762 9.7765 
9.59699 0.726713 0.440595 
0.726713 8.56215 -0.976123 
0.440595 -0.976123 10.047 
9.14753 -0.0817214 0.535716 
-0.0817214 9.29275 -0.745919 
0.535716 -0.745919 9.76591 
9.53234 0.517283 0.733492 
0.517283 8.75574 -1.39679 
0.733492 -1.39679 9.91809 
9.38571 0.423994 0.120414 
0.423994 8.69356 -1.17003 
0.120414 -1.17003 10.1269 
7.35287 2.31456 0.548585 
2.31456 4.43895 0.423886 
0.548585 0.423886 3.67994 
4.95492 0.468136 0.7988 
0.468136 6.37253 -2.34368 
0.7988 -2.34368 4.14431 
5.48685 -0.98213 -0.155614 
-0.98213 6.82269 -1.89546 
-0.155614 -1.89546 3.16221 
8.1932 -0.490847 -2.77212 
-0.490847 6.24936 -2.19177 
-2.77212 -2.19177 1.02919 
9.46295 0.22203 -1.22135 
0.22203 9.501 1.09528 
-1.22135 1.09528 7.47994 
9.31984 0.180538 -1.56717 
0.180538 9.04576 0.771076 
-1.56717 0.771076 8.07829 
8.2578 -0.367701 -0.255112 
-0.367701 10.049 0.671277 
-0.255112 0.671277 8.1371 
9.96826 0.704925 -1.13663 
0.704925 8.98402 0.92032 
-1.13663 0.92032 7.49162 
9.32164 -0.0686259 0.672193 
-0.0686259 9.34918 0.524674 
0.672193 0.524674 9.6117 
8.84066 0.0318781 0.364728 
0.0318781 9.66288 -0.318157 
0.364728 -0.318157 9.77898 
9.04907 -0.0813853 1.00361 
-0.0813853 9.32517 -0.321289 
1.00361 -0.321289 9.90827 
8.74941 0.194459 1.06326 
0.194459 9.65199 0.35469 
1.06326 0.35469 9.88111 
8.26586 -1.34773 2.41969 
-1.34773 10.0059 -0.509863 
2.41969 -0.509863 15.1082 
9.68971 -1.85103 -0.0703614 
-1.85103 10.9389 0.536742 
-0.0703614 0.536742 12.7513 
10.5492 -1.37117 0.303384 
-1.37117 11.0316 0.815937 
0.303384 0.815937 11.7991 
9.24221 -0.0260441 -0.00323239 
-0.0260441 10.5552 -0.846128 
-0.00323239 -0.846128 13.5825 
7.70065 0.900444 1.41881 
0.900444 3.54716 -1.05086 
1.41881 -1.05086 1.96694 
6.46223 -0.104791 0.07604 
-0.104791 5.38019 -1.55941 
0.07604 -1.55941 1.37233 
5.724 -0.769398 0.182327 
-0.769398 6.18879 -1.84185 
0.182327 -1.84185 1.30197 
6.10122 1.31476 0.346232 
1.31476 6.37296 -2.57604 
0.346232 -2.57604 0.740572 
8.72532 0.299682 -1.6369 
0.299682 8.77537 0.879413 
-1.6369 0.879413 7.60808 
8.56237 0.251432 -1.3704 
0.251432 8.82299 0.647245 
-1.3704 0.647245 7.72341 
8.55869 0.322872 -1.45344 
0.322872 8.81914 0.53146 
-1.45344 0.53146 7.73093 
8.57843 0.147746 -1.88193 
0.147746 8.96498 0.781039 
-1.88193 0.781039 7.56536 
6.05777 -0.881716 -1.46992 
-0.881716 6.39179 0.160499 
-1.46992 0.160499 3.33978 
6.20636 0.494404 -1.8246 
0.494404 6.57833 0.93244 
-1.8246 0.93244 3.00465 
6.49711 0.0306156 -2.07477 
0.0306156 6.42066 0.361386 
-2.07477 0.361386 2.87157 
6.63367 0.120481 -2.4066 
0.120481 6.44373 1.74746 
-2.4066 1.74746 2.71194 
9.40735 0.0645436 0.524367 
0.0645436 9.21865 0.524048 
0.524367 0.524048 9.61028 
9.37089 -0.155764 0.217183 
-0.155764 9.10069 0.82675 
0.217183 0.82675 9.76469 
9.47645 -0.154122 -0.112625 
-0.154122 8.8028 0.610034 
-0.112625 0.610034 9.95703 
9.50778 -0.0893937 0.263822 
-0.0893937 9.02703 0.783248 
0.263822 0.783248 9.70147 
9.0305 -0.809222 -1.13593 
-0.809222 8.2693 -2.64678 
-1.13593 -2.64678 10.0107 
10.2402 -0.839854 -0.748223 
-0.839854 8.23362 -2.31346 
-0.748223 -2.31346 8.83666 
10.2123 -1.16922 -0.750749 
-1.16922 7.2079 -0.96292 
-0.750749 -0.96292 9.89037 
9.2047 -0.326404 -0.957252 
-0.326404 8.68122 -2.24507 
-0.957252 -2.24507 9.42461 
10.9795 -1.69315 -2.01985 
-1.69315 5.73501 -5.23637 
-2.01985 -5.23637 10.3153 
8.66844 -0.704649 -1.02224 
-0.704649 10.0393 -1.68182 
-1.02224 -1.68182 8.32211 
8.50483 -1.42787 -1.16956 
-1.42787 6.68414 -2.00249 
-1.16956 -2.00249 11.8409 
9.39743 -0.318759 0.133941 
-0.318759 9.23167 -1.89506 
0.133941 -1.89506 8.40075 
9.93168 -0.0232521 0.396212 
-0.0232521 9.76169 -1.7555 
0.396212 -1.7555 6.46804 
10.6858 0.139197 0.19937 
0.139197 8.81542 -2.99393 
0.19937 -2.99393 6.66015 
9.6015 0.195274 0.585637 
0.195274 9.96813 -1.65914 
0.585637 -1.65914 6.59177 
9.42168 -0.0676489 -0.1206 
-0.0676489 9.25577 -0.920159 
-0.1206 -0.920159 7.48395 
8.39353 -0.582658 -2.68848 
-0.582658 8.87352 -1.12464 
-2.68848 -1.12464 7.56742 
8.22775 0.328057 -3.02618 
0.328057 9.83609 -0.697519 
-3.02618 -0.697519 6.77062 
7.44876 -0.317978 -2.81781 
-0.317978 10.1449 -1.33146 
-2.81781 -1.33146 7.24077 
8.65302 -0.317592 -3.07796 
-0.317592 9.46648 -0.973101 
-3.07796 -0.973101 6.71496 
8.99797 -0.366668 0.456604 
-0.366668 9.37296 0.146853 
0.456604 0.146853 9.96406 
8.79971 -0.0559159 0.454064 
-0.0559159 9.49812 0.103023 
0.454064 0.103023 10.0372 
8.40525 -0.446826 0.410269 
-0.446826 9.70489 0.26266 
0.410269 0.26266 10.2248 
8.76725 -0.115249 0.286006 
-0.115249 9.49574 0.141422 
0.286006 0.141422 10.072 
9.59144 0.0292855 0.986893 
0.0292855 9.55648 0.302381 
0.986893 0.302381 9.8736 
9.35486 -0.107264 0.832246 
-0.107264 9.74054 0.225914 
0.832246 0.225914 9.92612 
9.59122 -0.0954831 0.627031 
-0.0954831 9.69986 0.211661 
0.627031 0.211661 9.73044 
9.47664 -0.0315176 0.853076 
-0.0315176 9.65517 0.179024 
0.853076 0.179024 9.88972 
9.01743 -0.0740997 -0.724969 
-0.0740997 9.28574 -0.156462 
-0.724969 -0.156462 9.80276 
9.02681 -0.126807 -0.787818 
-0.126807 9.38331 -0.199757 
-0.787818 -0.199757 9.69582 
9.01136 -0.0174452 -0.779106 
-0.0174452 9.42114 -0.141463 
-0.779106 -0.141463 9.67343 
9.07208 -0.0562211 -0.823431 
-0.0562211 9.40468 -0.120679 
-0.823431 -0.120679 9.62917 
9.66801 -0.547735 -0.559693 
-0.547735 8.87367 -0.899694 
-0.559693 -0.899694 10.5104 
10.6623 0.0176964 -0.490211 
0.0176964 8.44422 -1.23623 
-0.490211 -1.23623 9.9455 
10.3694 -0.11786 -0.637268 
-0.11786 8.90584 -2.32361 
-0.637268 -2.32361 9.77684 
10.0175 -0.297085 0.375916 
-0.297085 7.96597 -2.13125 
0.375916 -2.13125 11.0685 
10.0442 0.364572 0.270538 
0.364572 9.99917 -0.118205 
0.270538 -0.118205 10.0328 
9.7721 0.00140112 -0.195103 
0.00140112 9.99305 0.142685 
-0.195103 0.142685 10.311 
9.50263 0.228965 -0.0693148 
0.228965 10.0818 0.0959413 
-0.0693148 0.0959413 10.4917 
9.63383 0.0272531 -0.101079 
0.0272531 9.92469 0.0230949 
-0.101079 0.0230949 10.5176 
9.18025 -0.0529311 -1.03931 
-0.0529311 9.65632 -0.00783219 
-1.03931 -0.00783219 9.4929 
8.57035 -0.261321 -1.47605 
-0.261321 9.94382 -0.360363 
-1.47605 -0.360363 9.8153 
8.92473 0.138652 -1.74938 
0.138652 9.85404 -0.0334398 
-1.74938 -0.0334398 9.55071 
8.80789 -0.216535 -1.36757 
-0.216535 9.97173 -0.307023 
-1.36757 -0.307023 9.54985 
8.85009 -0.361553 0.456326 
-0.361553 9.26596 0.155997 
0.456326 0.155997 9.98564 
8.40297 -0.705359 0.851512 
-0.705359 9.38148 0.582133 
0.851512 0.582133 10.3172 
9.17997 -0.201914 0.772882 
-0.201914 9.28521 0.476062 
0.772882 0.476062 9.6365 
9.05108 -0.392058 0.644645 
-0.392058 9.21511 0.537374 
0.644645 0.537374 9.83549 
9.33092 -0.215935 0.299909 
-0.215935 9.04733 0.444542 
0.299909 0.444542 9.70802 
9.21085 -0.224855 0.24389 
-0.224855 9.08225 0.274841 
0.24389 0.274841 9.79318 
9.30842 -0.18218 0.233666 
-0.18218 8.93011 0.380723 
0.233666 0.380723 9.84774 
9.24775 -0.16685 0.265284 
-0.16685 9.09204 0.416645 
0.265284 0.416645 9.74648 
9.43761 -0.115649 1.77573 
-0.115649 9.59905 -0.162444 
1.77573 -0.162444 6.61465 
8.30332 -0.0552412 1.04689 
-0.0552412 9.67152 0.0669273 
1.04689 0.0669273 7.67646 
9.301 -0.0768117 1.45934 
-0.0768117 10.1701 0.26806 
1.45934 0.26806 6.18023 
9.40082 0.0111289 1.64749 
0.0111289 9.71975 -0.429573 
1.64749 -0.429573 6.53073 
9.38994 -0.418102 -3.34075 
-0.418102 10.435 -0.433189 
-3.34075 -0.433189 8.48146 
8.9565 -0.699146 -2.44832 
-0.699146 10.2689 -0.238355 
-2.44832 -0.238355 9.08102 
9.06599 -0.781837 -2.04045 
-0.781837 10.3671 -0.271294 
-2.04045 -0.271294 8.87334 
8.28963 -0.413105 -3.11382 
-0.413105 10.1346 -1.19602 
-3.11382 -1.19602 9.88222 
9.73799 -0.111579 0.132998 
-0.111579 9.83181 -1.02628 
0.132998 -1.02628 10.0561 
9.98918 0.0869098 0.0523708 
0.0869098 9.74777 -0.981 
0.0523708 -0.981 9.88899 
9.92153 -0.0204083 0.114988 
-0.0204083 9.84325 -0.987917 
0.114988 -0.987917 9.86115 
10.0091 0.0607545 0.133745 
0.0607545 9.7197 -0.965302 
0.133745 -0.965302 9.89717 
9.4378 0.632299 1.35734 
0.632299 9.85689 -1.36484 
1.35734 -1.36484 10.4104 
9.15377 1.00078 1.31676 
1.00078 10.0715 -1.59209 
1.31676 -1.59209 10.4798 
9.68646 0.619595 0.958284 
0.619595 9.63939 -0.894184 
0.958284 -0.894184 10.3792 
9.40211 0.704186 1.1047 
0.704186 9.91452 -1.1214 
1.1047 -1.1214 10.3884 
9.47642 -0.197622 -0.115577 
-0.197622 9.41416 0.693401 
-0.115577 0.693401 9.47723 
9.2907 -0.122149 0.276762 
-0.122149 8.89527 0.564593 
0.276762 0.564593 10.1818 
9.54965 -0.0676867 0.0679019 
-0.0676867 9.05966 0.913101 
0.0679019 0.913101 9.75851 
9.49056 0.0189371 0.178088 
0.0189371 9.10005 0.723444 
0.178088 0.723444 9.77721 
9.60875 -0.216793 0.421886 
-0.216793 9.24412 0.844433 
0.421886 0.844433 10.0161 
9.81919 -0.332842 0.47837 
-0.332842 9.0581 1.14447 
0.47837 1.14447 9.99171 
9.75876 -0.27786 0.441109 
-0.27786 9.17291 1.11952 
0.441109 1.11952 9.93732 
9.78814 -0.199215 0.389502 
-0.199215 9.17375 1.1096 
0.389502 1.1096 9.9071 
9.18188 -0.264975 0.304526 
-0.264975 9.20405 0.416855 
0.304526 0.416855 9.71721 
9.26077 -0.00288827 0.445639 
-0.00288827 9.19475 0.632602 
0.445639 0.632602 9.64762 
9.04402 -0.379023 0.503314 
-0.379023 9.00433 0.636815 
0.503314 0.636815 10.0548 
9.17348 -0.470992 0.579987 
-0.470992 8.77538 0.624483 
0.579987 0.624483 10.1543 
9.78945 -0.058856 0.911669 
-0.058856 9.75208 -0.17228 
0.911669 -0.17228 9.62641 
9.83288 -0.049618 0.709941 
-0.049618 9.8383 -0.122792 
0.709941 -0.122792 9.49676 
9.87814 -0.152342 0.655465 
-0.152342 9.9256 -0.184966 
0.655465 -0.184966 9.36419 
9.79648 0.0738744 0.694348 
0.0738744 9.88727 -0.0296321 
0.694348 -0.0296321 9.48419 
9.04543 -0.272485 1.37728 
-0.272485 9.93307 -8.22894e-05 
1.37728 -8.22894e-05 10.0711 
9.27777 0.0752739 1.29683 
0.0752739 10.0757 0.180065 
1.29683 0.180065 9.69614 
9.41798 -0.0963697 1.16827 
-0.0963697 9.80016 0.0083231 
1.16827 0.0083231 9.83149 
9.33789 -0.0698119 1.31313 
-0.0698119 9.94451 0.101625 
1.31313 0.101625 9.76723 
8.75784 0.588092 -1.53902 
0.588092 9.97777 0.867582 
-1.53902 0.867582 7.29882 
8.88088 0.382613 -1.59517 
0.382613 9.92223 0.56901 
-1.59517 0.56901 7.23131 
9.02426 0.580664 -1.33346 
0.580664 9.89658 0.86599 
-1.33346 0.86599 7.11359 
9.27982 0.337758 -1.35342 
0.337758 9.90794 0.775544 
-1.35342 0.775544 6.84668 
9.57443 0.449541 0.714388 
0.449541 9.30135 -0.884415 
0.714388 -0.884415 9.88805 
9.4196 0.144804 0.461521 
0.144804 9.4835 -0.639107 
0.461521 -0.639107 9.86073 
9.70031 0.332481 0.803176 
0.332481 9.15033 -1.1394 
0.803176 -1.1394 9.91318 
9.39044 0.646065 0.833841 
0.646065 9.26238 -0.960296 
0.833841 -0.960296 10.111 
9.12124 0.0345904 0.536584 
0.0345904 9.48996 -0.154731 
0.536584 -0.154731 9.90297 
9.29387 0.387788 0.885351 
0.387788 9.4245 -0.158649 
0.885351 -0.158649 9.79581 
9.29097 0.243505 1.06766 
0.243505 9.5799 -0.402165 
1.06766 -0.402165 9.6433 
8.38758 0.124615 0.781399 
0.124615 9.66458 -0.230007 
0.781399 -0.230007 10.462 
8.45258 1.19457 0.771559 
1.19457 10.038 -0.728256 
0.771559 -0.728256 11.3792 
9.25372 1.15207 0.804991 
1.15207 10.0338 -0.748174 
0.804991 -0.748174 10.5822 
8.99183 1.50986 1.20299 
1.50986 9.34489 -0.697203 
1.20299 -0.697203 11.533 
9.92125 0.467094 0.968942 
0.467094 9.55936 -1.06349 
0.968942 -1.06349 10.3891 
10.2821 -0.165855 -0.468741 
-0.165855 9.72183 -1.23876 
-0.468741 -1.23876 8.7156 
9.94754 -0.482741 -0.695105 
-0.482741 10.0251 -0.98975 
-0.695105 -0.98975 8.74688 
9.80982 -0.184269 -0.2191 
-0.184269 9.536 -0.709712 
-0.2191 -0.709712 9.37373 
10.2147 -0.055167 -0.558275 
-0.055167 9.51938 -0.963187 
-0.558275 -0.963187 8.98547 
9.03471 0.472146 0.0418228 
0.472146 8.53155 0.33907 
0.0418228 0.33907 8.50831 
9.49718 0.562885 -1.51154 
0.562885 9.97756 0.972451 
-1.51154 0.972451 6.59983 
8.75717 -0.156479 -1.61055 
-0.156479 9.39173 0.647022 
-1.61055 0.647022 7.92566 
8.99346 0.00142345 -1.565 
0.00142345 9.00735 0.785505 
-1.565 0.785505 8.07376 
9.51078 0.276966 -0.491254 
0.276966 9.37045 0.961053 
-0.491254 0.961053 9.03787 
9.95982 0.343611 -0.435311 
0.343611 9.15834 1.33064 
-0.435311 1.33064 8.80095 
9.60937 -0.12663 -0.189782 
-0.12663 9.20554 1.53969 
-0.189782 1.53969 9.10419 
9.51858 0.100075 -0.599635 
0.100075 9.26395 1.16318 
-0.599635 1.16318 9.13657 
9.89442 -0.0118022 0.0742714 
-0.0118022 9.8871 -0.905727 
0.0742714 -0.905727 10.0738 
10.0536 0.00493286 0.0655836 
0.00493286 9.96442 -0.994633 
0.0655836 -0.994633 9.83733 
9.95465 0.011446 0.100095 
0.011446 9.91432 -0.955727 
0.100095 -0.955727 9.98637 
9.99317 0.0739079 0.174731 
0.0739079 9.96501 -0.949476 
0.174731 -0.949476 9.89715 
9.98097 -0.0227419 -0.715307 
-0.0227419 10.0932 0.464318 
-0.715307 0.464318 9.89228 
10.0975 0.035974 -0.826878 
0.035974 10.2575 0.375008 
-0.826878 0.375008 9.61147 
9.80724 -0.056124 -0.607147 
-0.056124 9.7733 0.422193 
-0.607147 0.422193 10.3859 
10.1202 0.17228 -0.698079 
0.17228 10.0879 0.722419 
-0.698079 0.722419 9.75839 
9.01935 1.3332 -1.35953 
1.3332 11.0839 0.825388 
-1.35953 0.825388 13.1198 
13.7159 3.38435 -3.09386 
3.38435 2.84301 2.50289 
-3.09386 2.50289 16.6642 
11.0123 0.328574 -1.19019 
0.328574 10.1879 3.17962 
-1.19019 3.17962 12.0229 
11.2969 1.97021 -2.43946 
1.97021 9.55353 2.09812 
-2.43946 2.09812 12.3727 
10.2072 0.980578 0.392616 
0.980578 10.0262 0.215429 
0.392616 0.215429 10.3722 
8.94501 -0.917824 0.925921 
-0.917824 9.95684 1.19474 
0.925921 1.19474 11.7037 
9.07999 -1.61254 0.218625 
-1.61254 9.5279 -0.0252731 
0.218625 -0.0252731 11.9977 
9.26989 -0.498061 1.4019 
-0.498061 9.79969 -0.664508 
1.4019 -0.664508 11.536 
5.33748 0.357914 -2.48545 
0.357914 6.60874 0.170353 
-2.48545 0.170353 -0.194376 
4.8533 0.452703 -1.44344 
0.452703 5.89899 0.0590215 
-1.44344 0.0590215 0.999547 
6.29153 -0.0203717 -1.26393 
-0.0203717 4.81642 -0.549211 
-1.26393 -0.549211 0.643887 
5.94745 -0.130746 -0.827311 
-0.130746 4.47421 -0.664413 
-0.827311 -0.664413 1.33018 
9.41878 0.0168175 0.153388 
0.0168175 9.31058 -0.661709 
0.153388 -0.661709 9.51608 
9.40395 -0.405438 0.312094 
-0.405438 9.66975 -0.68698 
0.312094 -0.68698 9.17175 
9.42044 0.471901 0.17723 
0.471901 9.02073 -0.2565 
0.17723 -0.2565 9.80427 
9.20967 0.254567 0.557105 
0.254567 9.04469 -0.738737 
0.557105 -0.738737 9.99109 
8.22203 -0.246037 1.551 
-0.246037 8.91513 -2.30827 
1.551 -2.30827 4.64159 
7.77444 -0.126114 0.163092 
-0.126114 8.465 -2.33818 
0.163092 -2.33818 5.53932 
7.06995 -0.0552005 1.20005 
-0.0552005 7.92534 -2.32851 
1.20005 -2.32851 6.78347 
8.3219 -0.386474 1.18652 
-0.386474 8.68162 -2.22206 
1.18652 -2.22206 4.77524 
9.66015 0.543242 0.661805 
0.543242 7.94053 -1.99999 
0.661805 -1.99999 9.5384 
9.33501 0.341956 0.233282 
0.341956 8.14703 -1.30953 
0.233282 -1.30953 9.65705 
9.40672 0.364286 0.393705 
0.364286 8.3114 -1.31416 
0.393705 -1.31416 9.42096 
9.51854 0.34712 0.286454 
0.34712 8.35853 -1.24276 
0.286454 -1.24276 9.26202 
5.63028 0.35239 -1.36924 
0.35239 5.59936 -0.342961 
-1.36924 -0.342961 1.70856 
5.16043 0.421817 -1.42016 
0.421817 5.32329 -1.18732 
-1.42016 -1.18732 2.45449 
6.08816 0.093154 -1.55417 
0.093154 5.71937 -0.165681 
-1.55417 -0.165681 1.13067 
5.54963 0.607153 -1.2123 
0.607153 5.70593 -0.509401 
-1.2123 -0.509401 1.68264 
9.79324 -0.128224 0.0324253 
-0.128224 9.77322 1.41985 
0.0324253 1.41985 8.75947 
9.42503 -0.0720063 -0.166339 
-0.0720063 9.59317 1.06769 
-0.166339 1.06769 9.30772 
10.2296 0.15668 -0.14331 
0.15668 8.85987 1.7778 
-0.14331 1.7778 9.23641 
10.068 0.0249889 -0.0891056 
0.0249889 9.2793 1.30286 
-0.0891056 1.30286 8.97863 
1.57709 0.635208 -0.336077 
0.635208 3.28319 1.11066 
-0.336077 1.11066 4.55333 
6.12279 0.136579 -0.161457 
0.136579 3.14988 -0.615738 
-0.161457 -0.615738 0.140933 
4.73021 1.31519 0.236164 
1.31519 5.00934 -0.844304 
0.236164 -0.844304 -0.325949 
3.82392 -0.55219 -0.763833 
-0.55219 4.83664 0.910135 
-0.763833 0.910135 0.753042 
8.96853 -0.0936843 0.847948 
-0.0936843 9.31259 0.254172 
0.847948 0.254172 9.63936 
8.61605 -0.271376 0.913538 
-0.271376 9.43806 0.308925 
0.913538 0.308925 9.86637 
8.70668 -0.236166 0.665507 
-0.236166 9.30035 0.282293 
0.665507 0.282293 9.91345 
8.79889 -0.112413 0.839128 
-0.112413 9.37966 0.193896 
0.839128 0.193896 9.74194 
9.66437 0.0775053 0.909415 
0.0775053 9.77325 0.179012 
0.909415 0.179012 9.76963 
9.56527 -0.0155921 1.00404 
-0.0155921 9.79452 0.269851 
1.00404 0.269851 9.84746 
9.60299 -0.180621 0.723997 
-0.180621 9.67565 0.246811 
0.723997 0.246811 9.92861 
9.62811 0.0106176 0.895892 
0.0106176 9.75393 0.186115 
0.895892 0.186115 9.82521 
8.02877 0.202108 -1.41931 
0.202108 9.78547 0.297858 
-1.41931 0.297858 9.73967 
8.31549 -0.0421309 -1.5255 
-0.0421309 9.64544 0.0883231 
-1.5255 0.0883231 9.59298 
8.53106 -0.101858 -1.47973 
-0.101858 8.85955 -0.290368 
-1.47973 -0.290368 10.1633 
8.12016 -0.193073 -2.5334 
-0.193073 9.98741 -0.220155 
-2.5334 -0.220155 9.44635 
9.38037 -0.458611 0.689277 
-0.458611 8.82919 1.03721 
0.689277 1.03721 9.77588 
9.26731 -0.526814 0.618079 
-0.526814 8.84417 1.21015 
0.618079 1.21015 9.87396 
9.48581 -0.456864 0.716 
-0.456864 8.84993 1.09469 
0.716 1.09469 9.64969 
9.36218 -0.444637 0.719091 
-0.444637 8.91579 1.09371 
0.719091 1.09371 9.70747 
9.21285 -0.43366 0.435716 
-0.43366 9.11123 0.239268 
0.435716 0.239268 9.62637 
9.35558 -0.134938 0.616132 
-0.134938 8.95871 0.560689 
0.616132 0.560689 9.63615 
9.04568 0.121617 -0.0502967 
0.121617 9.19154 0.786178 
-0.0502967 0.786178 9.71322 
9.1311 -0.323945 0.326912 
-0.323945 9.01803 0.901134 
0.326912 0.901134 9.80131 
10.0774 -0.0775193 -0.0924059 
-0.0775193 10.1709 0.127645 
-0.0924059 0.127645 9.90192 
9.98211 0.0205747 0.015501 
0.0205747 10.2782 0.0739216 
0.015501 0.0739216 9.88987 
9.99028 0.195172 0.108009 
0.195172 9.83925 -0.243769 
0.108009 -0.243769 10.3207 
10.1702 -0.0842104 0.126386 
-0.0842104 10.0201 0.26026 
0.126386 0.26026 9.95993 
9.21283 -0.0546322 0.262723 
-0.0546322 8.65727 -1.53373 
0.262723 -1.53373 7.65906 
9.23584 0.22932 0.0551487 
0.22932 8.87876 -1.24919 
0.0551487 -1.24919 7.41456 
9.36703 0.154172 0.10593 
0.154172 8.83956 -1.29805 
0.10593 -1.29805 7.32256 
9.98326 -0.0571348 -0.0286579 
-0.0571348 9.10432 -1.40553 
-0.0286579 -1.40553 6.44158 
9.73798 -0.0199861 0.228139 
-0.0199861 9.9563 0.272433 
0.228139 0.272433 10.0256 
9.82204 -0.19709 -0.175728 
-0.19709 9.94156 -0.260622 
-0.175728 -0.260622 9.95628 
9.76868 0.0494646 0.373124 
0.0494646 9.87104 0.173621 
0.373124 0.173621 10.0802 
9.59322 -0.150605 -0.0452576 
-0.150605 9.71564 0.0444613 
-0.0452576 0.0444613 10.411 
8.98549 -0.632562 -1.89956 
-0.632562 9.70634 -0.946713 
-1.89956 -0.946713 8.19313 
8.41033 -0.598972 -2.51475 
-0.598972 10.1136 -1.26519 
-2.51475 -1.26519 8.36102 
9.45332 -0.153131 -2.32892 
-0.153131 9.56106 -1.30564 
-2.32892 -1.30564 7.87058 
9.23683 0.0923927 -1.69899 
0.0923927 9.15292 -0.814158 
-1.69899 -0.814158 8.4952 
9.90888 0.251644 0.542556 
0.251644 9.23946 0.204558 
0.542556 0.204558 9.20062 
9.33542 0.0162106 0.445245 
0.0162106 9.36544 0.167626 
0.445245 0.167626 9.6481 
8.83734 -0.276511 0.133498 
-0.276511 9.69606 -0.0172023 
0.133498 -0.0172023 9.81557 
9.10583 -0.188816 0.676645 
-0.188816 9.23367 0.030441 
0.676645 0.030441 10.0095 
9.12428 0.333733 -1.05882 
0.333733 9.37207 0.864894 
-1.05882 0.864894 9.47137 
8.99687 0.298773 -0.856814 
0.298773 9.43594 0.887409 
-0.856814 0.887409 9.53491 
9.13252 0.354501 -1.04034 
0.354501 9.34442 0.868342 
-1.04034 0.868342 9.49078 
9.26886 0.3021 -1.05471 
0.3021 9.28314 0.855537 
-1.05471 0.855537 9.41573 
4.83744 0.0799074 -0.288144 
0.0799074 2.64337 0.113735 
-0.288144 0.113735 -1.9288 
2.0717 -0.316675 0.274705 
-0.316675 2.50246 1.38227 
0.274705 1.38227 0.977853 
1.77219 0.340319 0.238634 
0.340319 1.91933 1.51255 
0.238634 1.51255 1.86048 
2.48091 1.14783 1.08889 
1.14783 3.3975 2.2289 
1.08889 2.2289 -0.326392 
7.97306 0.102126 -0.100069 
0.102126 11.0757 0.337021 
-0.100069 0.337021 11.6493 
7.75227 -1.30842 1.0149 
-1.30842 10.7424 -0.170348 
1.0149 -0.170348 12.2034 
8.88309 -0.652155 0.738561 
-0.652155 10.4956 0.086788 
0.738561 0.086788 11.3193 
10.2597 -0.91227 1.57127 
-0.91227 10.1016 0.537342 
1.57127 0.537342 10.3367 
9.6263 -0.123474 0.565483 
-0.123474 9.22762 1.0099 
0.565483 1.0099 8.94674 
9.60633 -0.233571 0.663672 
-0.233571 9.29432 1.36741 
0.663672 1.36741 8.9 
9.65414 -0.0131758 0.433733 
-0.0131758 9.23571 1.04819 
0.433733 1.04819 8.91081 
9.21276 -0.290475 0.466448 
-0.290475 9.03223 1.25234 
0.466448 1.25234 9.55567 
9.53222 -0.732072 -0.96269 
-0.732072 8.89935 -1.01767 
-0.96269 -1.01767 9.60797 
9.33045 -0.332193 -0.816797 
-0.332193 9.15394 -1.0094 
-0.816797 -1.0094 9.55514 
9.72025 -0.389505 -0.581777 
-0.389505 8.93625 -0.84516 
-0.581777 -0.84516 9.38304 
9.31315 -0.245622 -0.83308 
-0.245622 9.28135 -1.14473 
-0.83308 -1.14473 9.44504 
8.92408 0.114388 0.716886 
0.114388 9.47103 -0.185082 
0.716886 -0.185082 9.98314 
8.96207 0.513365 0.42318 
0.513365 9.36229 -0.0757449 
0.42318 -0.0757449 10.0539 
8.88304 0.36358 0.669063 
0.36358 9.46953 -0.180766 
0.669063 -0.180766 10.0257 
8.63243 0.268674 0.778178 
0.268674 9.53419 -0.252774 
0.778178 -0.252774 10.2116 
9.84747 -0.0373431 -0.95351 
-0.0373431 9.80737 -0.0397157 
-0.95351 -0.0397157 10.0839 
9.87979 -0.0471647 -0.837686 
-0.0471647 9.95458 -0.0911737 
-0.837686 -0.0911737 9.90442 
9.98011 0.0520054 -0.841066 
0.0520054 9.8421 -0.0321775 
-0.841066 -0.0321775 9.91658 
9.77988 -0.0526326 -0.847965 
-0.0526326 9.95528 -0.0226932 
-0.847965 -0.0226932 10.0036 
9.11447 -0.140043 0.737479 
-0.140043 9.53489 0.108219 
0.737479 0.108219 9.75446 
9.10282 -0.067224 0.837916 
-0.067224 9.55896 0.277344 
0.837916 0.277344 9.74203 
8.96252 -0.235657 0.951471 
-0.235657 9.65549 0.190419 
0.951471 0.190419 9.7858 
9.27741 0.190181 0.932758 
0.190181 9.4361 0.232308 
0.932758 0.232308 9.69031 
9.48011 -0.607629 -1.01175 
-0.607629 9.35271 -1.2535 
-1.01175 -1.2535 8.79111 
9.62375 -0.205563 -0.66764 
-0.205563 9.3465 -1.10629 
-0.66764 -1.10629 8.65368 
9.49545 -0.194934 -0.835217 
-0.194934 9.48697 -1.13089 
-0.835217 -1.13089 8.64153 
9.48286 0.164371 -1.15155 
0.164371 9.66839 -1.32814 
-1.15155 -1.32814 8.47269 
8.96586 -0.234023 0.580247 
-0.234023 9.37884 0.232463 
0.580247 0.232463 9.79682 
9.25437 -0.225041 0.68615 
-0.225041 9.37696 0.325994 
0.68615 0.325994 9.51019 
9.0221 -0.140131 0.592921 
-0.140131 9.25785 0.113326 
0.592921 0.113326 9.86157 
9.02659 -0.240412 0.795584 
-0.240412 9.08466 0.219212 
0.795584 0.219212 10.0303 
9.79346 0.0140134 0.17954 
0.0140134 9.44891 0.847511 
0.17954 0.847511 9.90322 
9.68775 -0.011094 0.161423 
-0.011094 9.52192 0.873821 
0.161423 0.873821 9.93592 
9.62765 -0.00315477 0.0681343 
-0.00315477 9.7031 0.842265 
0.0681343 0.842265 9.81483 
9.80815 -0.0640103 0.112366 
-0.0640103 9.52827 1.11116 
0.112366 1.11116 9.80917 
9.27387 0.200396 0.568334 
0.200396 9.23748 -1.31042 
0.568334 -1.31042 8.02372 
9.63625 -0.0904695 0.504266 
-0.0904695 9.10255 -1.7793 
0.504266 -1.7793 7.79628 
9.62525 0.0570583 0.854964 
0.0570583 8.43283 -1.90995 
0.854964 -1.90995 8.477 
9.72649 0.0259157 0.624278 
0.0259157 9.1904 -1.57731 
0.624278 -1.57731 7.61818 
9.66292 0.0147705 0.137019 
0.0147705 9.66475 0.162136 
0.137019 0.162136 10.0402 
9.36126 -0.576202 -0.0689897 
-0.576202 9.84763 -0.0162914 
-0.0689897 -0.0162914 10.159 
9.87821 0.408199 0.280257 
0.408199 9.72915 0.0645801 
0.280257 0.0645801 9.76049 
9.67075 -0.20288 0.574929 
-0.20288 9.43548 0.227934 
0.574929 0.227934 10.2616 
9.17538 -0.000495949 0.672179 
-0.000495949 9.752 0.155897 
0.672179 0.155897 9.63627 
9.14477 0.134254 0.812845 
0.134254 9.61679 -0.226104 
0.812845 -0.226104 9.80209 
9.52991 0.0429985 0.661389 
0.0429985 9.41883 -0.316118 
0.661389 -0.316118 9.61491 
9.23169 -0.127337 1.11365 
-0.127337 9.53229 0.156239 
1.11365 0.156239 9.79967 
9.46175 -0.148056 0.147483 
-0.148056 8.42678 0.849141 
0.147483 0.849141 9.93362 
9.30256 -0.16179 0.175062 
-0.16179 8.86348 0.799613 
0.175062 0.799613 9.6561 
9.33651 -0.151311 0.156405 
-0.151311 8.53855 0.665613 
0.156405 0.665613 9.94709 
9.40828 -0.0521077 0.129827 
-0.0521077 8.6801 0.801224 
0.129827 0.801224 9.73376 
9.40866 0.21217 0.342397 
0.21217 9.37271 -0.113013 
0.342397 -0.113013 10.0132 
9.41169 0.40029 0.00238763 
0.40029 9.32842 -0.188349 
0.00238763 -0.188349 10.0545 
9.47329 0.129009 0.214407 
0.129009 9.36323 -0.449233 
0.214407 -0.449233 9.95805 
9.55101 0.282618 0.57772 
0.282618 9.21804 -0.20749 
0.57772 -0.20749 10.0255 
9.87416 -0.00799117 -0.170172 
-0.00799117 9.671 -0.963054 
-0.170172 -0.963054 9.90049 
9.85835 -0.127465 -0.226044 
-0.127465 9.69255 -0.956918 
-0.226044 -0.956918 9.89474 
9.91272 -0.107503 -0.234647 
-0.107503 9.6929 -0.998762 
-0.234647 -0.998762 9.84003 
9.89479 -0.0781724 -0.222219 
-0.0781724 9.70383 -0.951362 
-0.222219 -0.951362 9.84703 
8.44095 0.170283 1.10388 
0.170283 8.65385 -3.64827 
1.10388 -3.64827 4.3594 
8.23605 -0.356279 0.184675 
-0.356279 8.4518 -2.22827 
0.184675 -2.22827 4.76635 
7.31472 0.981424 0.847308 
0.981424 7.38213 -2.55898 
0.847308 -2.55898 6.75736 
8.41873 -0.182307 0.802598 
-0.182307 8.50047 -2.58407 
0.802598 -2.58407 4.53499 
9.17206 0.548384 0.787136 
0.548384 9.13164 -0.980707 
0.787136 -0.980707 9.96772 
9.00871 0.566066 0.966396 
0.566066 9.2132 -0.92454 
0.966396 -0.92454 10.0495 
9.18092 0.533541 1.00284 
0.533541 9.14052 -0.579441 
1.00284 -0.579441 9.94998 
9.66666 0.934352 1.27398 
0.934352 8.55745 -0.855024 
1.27398 -0.855024 10.0473 
7.67757 -1.49033 -3.94785 
-1.49033 8.78407 -2.97819 
-3.94785 -2.97819 8.74275 
8.48429 -1.83673 -6.15746 
-1.83673 9.21004 -4.52332 
-6.15746 -4.52332 7.51007 
7.00204 -1.01388 -6.40415 
-1.01388 9.12961 -1.91795 
-6.40415 -1.91795 9.07274 
7.58765 -0.84466 -3.16218 
-0.84466 9.12697 -2.1015 
-3.16218 -2.1015 8.48978 
9.75968 0.154589 0.363785 
0.154589 9.51541 -0.721325 
0.363785 -0.721325 9.93647 
9.69242 0.0937669 0.482749 
0.0937669 9.65319 -0.869908 
0.482749 -0.869908 9.86596 
9.66318 0.024572 0.446092 
0.024572 9.804 -0.777015 
0.446092 -0.777015 9.74439 
9.7099 0.0576809 0.479593 
0.0576809 9.68251 -0.788888 
0.479593 -0.788888 9.81915 
9.06947 0.133331 -0.470895 
0.133331 9.17305 0.38537 
-0.470895 0.38537 10.0714 
9.41675 0.114877 -0.470918 
0.114877 9.64781 0.540722 
-0.470918 0.540722 9.2494 
9.26833 0.232531 -0.624223 
0.232531 9.31572 0.629272 
-0.624223 0.629272 9.72991 
9.26169 0.151045 -0.66512 
0.151045 9.32271 0.524897 
-0.66512 0.524897 9.72956 
9.53524 -0.0104861 -0.0164838 
-0.0104861 9.22943 -0.821828 
-0.0164838 -0.821828 9.74563 
9.53347 -0.00245438 0.0210045 
-0.00245438 9.2103 -0.865725 
0.0210045 -0.865725 9.76652 
9.5314 -0.0141912 -0.0459432 
-0.0141912 9.2044 -0.861415 
-0.0459432 -0.861415 9.7745 
9.5425 -0.000716791 -0.0259427 
-0.000716791 9.28643 -0.812072 
-0.0259427 -0.812072 9.68137 
9.84206 0.38613 -0.334633 
0.38613 9.53222 1.00063 
-0.334633 1.00063 9.71035 
9.66647 0.100939 -0.526328 
0.100939 9.60118 0.873902 
-0.526328 0.873902 9.81696 
9.71745 0.0562169 -0.40762 
0.0562169 9.52395 0.961697 
-0.40762 0.961697 9.84322 
9.78591 0.0940825 -0.293598 
0.0940825 9.54403 0.833202 
-0.293598 0.833202 9.75468 
9.32074 0.624597 -0.957613 
0.624597 8.54793 1.57018 
-0.957613 1.57018 9.37407 
9.21586 0.35828 -0.783386 
0.35828 8.99784 1.50229 
-0.783386 1.50229 9.02904 
9.75602 0.42456 -0.966885 
0.42456 8.63761 1.89752 
-0.966885 1.89752 8.84911 
9.36633 0.428817 -0.917914 
0.428817 8.72447 1.67941 
-0.917914 1.67941 9.15193 
9.31819 -0.0483398 0.216319 
-0.0483398 9.2219 0.720932 
0.216319 0.720932 10.1794 
9.84059 -0.60458 0.307108 
-0.60458 8.47285 1.14506 
0.307108 1.14506 10.406 
9.8583 -0.1094 0.818106 
-0.1094 8.91137 1.6869 
0.818106 1.6869 9.9498 
9.66854 -0.391651 0.187303 
-0.391651 8.88174 1.21718 
0.187303 1.21718 10.1692 
9.05636 -0.188294 0.87263 
-0.188294 9.66591 0.247952 
0.87263 0.247952 9.72686 
9.02109 -0.0573467 0.992438 
-0.0573467 9.75507 0.162362 
0.992438 0.162362 9.67296 
9.1272 -0.085708 1.03637 
-0.085708 9.77883 0.111183 
1.03637 0.111183 9.54309 
9.2275 -0.0195517 0.933494 
-0.0195517 9.53841 0.138461 
0.933494 0.138461 9.68321 
9.15249 0.0565372 0.409741 
0.0565372 9.82171 0.0213457 
0.409741 0.0213457 9.90558 
9.5801 0.089907 0.144129 
0.089907 9.5375 -0.0482435 
0.144129 -0.0482435 9.76219 
9.98676 0.0846189 0.0903105 
0.0846189 9.40758 -0.0321028 
0.0903105 -0.0321028 9.48544 
9.38521 0.00319137 0.079949 
0.00319137 9.50853 0.0615072 
0.079949 0.0615072 9.98605 
9.59107 -0.0474587 -0.385851 
-0.0474587 9.56516 0.765122 
-0.385851 0.765122 10.5202 
9.90864 -0.0388896 -0.307446 
-0.0388896 9.99934 0.5403 
-0.307446 0.5403 9.76845 
9.91942 0.0133697 -0.387269 
0.0133697 10.0261 0.498096 
-0.387269 0.498096 9.73088 
9.96138 0.0104625 -0.360428 
0.0104625 10.0324 0.648088 
-0.360428 0.648088 9.68262 
8.58074 -0.168546 1.63192 
-0.168546 9.97183 0.656574 
1.63192 0.656574 11.2789 
9.17911 -0.452616 1.69347 
-0.452616 9.71482 0.560828 
1.69347 0.560828 10.9375 
9.69825 -0.207774 0.471576 
-0.207774 9.84943 0.411725 
0.471576 0.411725 10.2838 
8.59576 -0.572136 1.61967 
-0.572136 9.47068 -0.431038 
1.61967 -0.431038 11.765 
10.0148 -0.330789 -0.0555192 
-0.330789 9.10835 -0.0459086 
-0.0555192 -0.0459086 10.303 
9.52442 0.397431 0.0979461 
0.397431 10.512 -0.0179925 
0.0979461 -0.0179925 9.38974 
9.736 -0.103344 0.0259783 
-0.103344 9.65928 0.123671 
0.0259783 0.123671 10.0309 
9.50744 -0.389887 0.0324149 
-0.389887 9.74192 0.567077 
0.0324149 0.567077 10.1768 
7.35061 -0.703487 -2.57294 
-0.703487 7.79512 -0.391836 
-2.57294 -0.391836 3.4878 
7.70806 -0.782681 -1.85395 
-0.782681 7.39252 -0.415178 
-1.85395 -0.415178 3.53296 
7.08546 0.69069 -1.42247 
0.69069 7.84622 1.1661 
-1.42247 1.1661 3.70186 
7.95648 -0.0098096 -2.55293 
-0.0098096 7.21201 0.549633 
-2.55293 0.549633 3.46504 
9.64916 -0.555526 -0.09954 
-0.555526 10.2636 -0.0825847 
-0.09954 -0.0825847 10.8834 
9.96798 -0.117628 -0.139969 
-0.117628 10.0003 -0.0901235 
-0.139969 -0.0901235 10.8279 
9.88374 -0.260072 -0.0937284 
-0.260072 10.1774 0.053782 
-0.0937284 0.053782 10.735 
9.98311 -0.247559 -0.0215161 
-0.247559 10.1468 -0.0365506 
-0.0215161 -0.0365506 10.6662 
8.6756 -0.466015 -0.79188 
-0.466015 7.6352 -2.66549 
-0.79188 -2.66549 6.18426 
8.5274 -0.357186 -1.07914 
-0.357186 7.57961 -2.53474 
-1.07914 -2.53474 6.38806 
8.44275 -0.634874 -0.884706 
-0.634874 7.68492 -2.58742 
-0.884706 -2.58742 6.3674 
9.0605 -1.08259 -0.975222 
-1.08259 7.26028 -2.31215 
-0.975222 -2.31215 6.17429 
9.50071 0.0892362 -0.329359 
0.0892362 9.56768 -0.0645246 
-0.329359 -0.0645246 8.785 
9.75966 0.0818039 0.00594382 
0.0818039 9.96031 -0.0223691 
0.00594382 -0.0223691 8.13342 
9.47503 -0.0693729 -0.105072 
-0.0693729 9.61045 -0.083947 
-0.105072 -0.083947 8.76791 
9.46985 -0.0159478 -0.0879169 
-0.0159478 9.64691 -0.127592 
-0.0879169 -0.127592 8.73663 
9.7264 0.0921264 -0.180156 
0.0921264 9.53485 0.959755 
-0.180156 0.959755 9.92824 
9.93066 0.0642991 -0.219273 
0.0642991 9.53069 1.03323 
-0.219273 1.03323 9.72814 
9.78642 0.139394 -0.170663 
0.139394 9.57969 0.930139 
-0.170663 0.930139 9.82338 
9.79237 0.00388528 -0.0903614 
0.00388528 9.57236 1.0529 
-0.0903614 1.0529 9.82476 
9.57312 -0.0601303 0.65165 
-0.0601303 9.6477 -1.04786 
0.65165 -1.04786 8.87615 
9.63254 -0.0515253 0.555011 
-0.0515253 9.60869 -0.671379 
0.555011 -0.671379 8.85574 
9.81045 0.0234317 0.540543 
0.0234317 9.51166 -1.1343 
0.540543 -1.1343 8.77487 
9.66327 -0.0633803 0.664396 
-0.0633803 9.54124 -0.927743 
0.664396 -0.927743 8.89247 
8.51812 0.460333 -1.59417 
0.460333 8.81085 0.798837 
-1.59417 0.798837 8.21709 
8.86128 0.26916 -1.33163 
0.26916 9.15937 0.820821 
-1.33163 0.820821 7.52541 
8.67851 0.0591777 -1.41934 
0.0591777 9.37266 0.461824 
-1.41934 0.461824 7.49489 
8.89298 0.491307 -2.26364 
0.491307 9.67481 1.21888 
-2.26364 1.21888 6.97827 
9.6445 -0.0363758 -0.800419 
-0.0363758 9.64487 0.680804 
-0.800419 0.680804 9.8191 
9.60295 0.175808 -0.674662 
0.175808 9.59821 0.574347 
-0.674662 0.574347 9.9073 
9.65137 0.149203 -0.588242 
0.149203 9.67807 0.37344 
-0.588242 0.37344 9.77904 
9.64288 0.0885539 -0.629604 
0.0885539 9.58629 0.63856 
-0.629604 0.63856 9.87929 
8.27859 0.0688381 -3.61836 
0.0688381 10.0054 -0.157443 
-3.61836 -0.157443 8.09568 
8.4894 -0.1814 -3.3313 
-0.1814 9.80304 -0.553798 
-3.3313 -0.553798 8.08726 
8.55386 0.0839052 -3.03586 
0.0839052 10.4286 -0.857596 
-3.03586 -0.857596 7.39729 
8.04651 0.0583235 -3.6074 
0.0583235 9.99258 -0.431585 
-3.6074 -0.431585 8.34061 
9.1082 0.237057 1.23067 
0.237057 9.70187 -0.368995 
1.23067 -0.368995 9.27828 
9.26225 0.234773 1.16612 
0.234773 9.61413 -0.41078 
1.16612 -0.41078 9.21196 
9.22656 0.167291 1.24208 
0.167291 9.70456 -0.684077 
1.24208 -0.684077 9.15723 
9.04154 -0.195325 1.00208 
-0.195325 9.46982 -0.748783 
1.00208 -0.748783 9.57698 
9.47816 0.358966 -0.915629 
0.358966 9.25741 0.941437 
-0.915629 0.941437 10.0261 
9.35813 0.347793 -0.680586 
0.347793 9.37775 0.593389 
-0.680586 0.593389 10.0258 
9.34046 0.390421 -0.657296 
0.390421 9.42045 0.803101 
-0.657296 0.803101 10.0007 
9.55569 0.341049 -0.849395 
0.341049 9.46297 0.921052 
-0.849395 0.921052 9.74298 
9.35189 -0.156217 0.679225 
-0.156217 9.63022 0.0117061 
0.679225 0.0117061 9.81908 
9.49165 -0.067278 0.639736 
-0.067278 9.57921 0.275067 
0.639736 0.275067 9.73033 
9.31694 -0.0683173 0.784017 
-0.0683173 9.71377 0.297794 
0.784017 0.297794 9.77048 
9.41463 0.107169 0.963459 
0.107169 9.57929 0.0719129 
0.963459 0.0719129 9.80726 
9.64475 -0.0868135 -0.395759 
-0.0868135 9.49952 -1.10435 
-0.395759 -1.10435 7.58846 
9.75815 -0.181589 -0.289029 
-0.181589 9.47287 -0.949995 
-0.289029 -0.949995 7.50173 
9.61157 -0.295686 0.162043 
-0.295686 9.35621 -1.27093 
0.162043 -1.27093 7.76496 
9.53595 0.680474 -0.532699 
0.680474 9.00724 -0.656628 
-0.532699 -0.656628 8.18955 
9.64507 0.222328 0.795059 
0.222328 9.80747 -0.202249 
0.795059 -0.202249 9.63044 
9.67537 0.140288 1.12952 
0.140288 10.0097 -0.172423 
1.12952 -0.172423 9.39793 
9.772 -0.0983593 0.971243 
-0.0983593 9.88725 -0.0759736 
0.971243 -0.0759736 9.42372 
9.70346 -0.0963524 1.02383 
-0.0963524 9.81635 -0.0433048 
1.02383 -0.0433048 9.56317 
9.16646 0.166438 0.524703 
0.166438 9.65642 0.718162 
0.524703 0.718162 9.46781 
8.95833 0.858092 0.232585 
0.858092 9.18457 -0.928489 
0.232585 -0.928489 10.1478 
10.4155 -0.16271 -0.215132 
-0.16271 8.87203 -0.893813 
-0.215132 -0.893813 9.00316 
8.84815 0.119296 0.922599 
0.119296 9.19283 -0.107239 
0.922599 -0.107239 10.2497 
9.81584 0.0512416 0.692617 
0.0512416 9.91989 -0.478245 
0.692617 -0.478245 9.98174 
9.87685 0.0543305 0.68138 
0.0543305 9.89573 -0.498321 
0.68138 -0.498321 9.9449 
9.87699 0.0123078 0.687896 
0.0123078 9.89923 -0.50375 
0.687896 -0.50375 9.94126 
9.92615 0.0235857 0.706612 
0.0235857 9.89358 -0.519759 
0.706612 -0.519759 9.89775 
9.47556 -0.0618408 0.143125 
-0.0618408 9.2613 -0.0744132 
0.143125 -0.0744132 10.8358 
10.2919 0.0430347 0.0225156 
0.0430347 9.79446 0.212929 
0.0225156 0.212929 9.48635 
10.0147 -0.499034 0.304168 
-0.499034 9.48582 0.488693 
0.304168 0.488693 10.0722 
9.54397 -0.121187 0.106163 
-0.121187 9.69819 0.462629 
0.106163 0.462629 10.3305 
9.9592 -0.0932759 -0.273509 
-0.0932759 9.75202 -0.873792 
-0.273509 -0.873792 10.0118 
9.83669 -0.00178675 -0.213256 
-0.00178675 9.83786 -0.791211 
-0.213256 -0.791211 10.0485 
9.85359 -0.0853714 -0.339458 
-0.0853714 9.87005 -0.917758 
-0.339458 -0.917758 9.99938 
9.9546 -0.109609 -0.271727 
-0.109609 9.6986 -0.888321 
-0.271727 -0.888321 10.0698 
9.96139 -0.0203619 -0.651846 
-0.0203619 9.58597 0.33901 
-0.651846 0.33901 9.98651 
9.97999 0.112924 -0.872267 
0.112924 9.91677 0.63103 
-0.872267 0.63103 9.63711 
9.74414 0.131969 -0.927633 
0.131969 10.141 0.390782 
-0.927633 0.390782 9.64869 
9.75597 0.0993725 -0.934141 
0.0993725 9.98544 0.457271 
-0.934141 0.457271 9.79246 
9.70201 0.0827869 -0.251802 
0.0827869 9.51756 0.803472 
-0.251802 0.803472 10.0119 
9.83344 -0.0516358 -0.119795 
-0.0516358 9.69487 0.966778 
-0.119795 0.966778 9.70314 
9.89795 0.0700501 -0.221615 
0.0700501 9.63375 1.09229 
-0.221615 1.09229 9.69975 
9.84585 -0.0461189 -0.0826583 
-0.0461189 9.63147 0.959852 
-0.0826583 0.959852 9.75414 
9.27193 -0.11239 0.0894977 
-0.11239 8.73776 0.656565 
0.0894977 0.656565 9.8219 
9.27865 -0.129365 0.149224 
-0.129365 8.72887 0.623323 
0.149224 0.623323 9.82408 
9.29433 -0.109951 0.173019 
-0.109951 8.6323 0.712438 
0.173019 0.712438 9.90497 
9.28554 -0.154973 0.170577 
-0.154973 8.68828 0.675949 
0.170577 0.675949 9.85777 
10.0016 -0.490009 0.349469 
-0.490009 9.93749 0.381226 
0.349469 0.381226 10.0584 
9.70641 -0.0727251 -0.0954531 
-0.0727251 9.55274 -0.070135 
-0.0954531 -0.070135 10.7384 
9.91558 0.0955825 -0.376487 
0.0955825 9.94058 -0.299073 
-0.376487 -0.299073 10.1413 
10.1677 -0.304883 0.0228001 
-0.304883 9.34637 -0.107498 
0.0228001 -0.107498 10.4834 
4.05951 -2.28147 -1.46154 
-2.28147 5.95025 0.943269 
-1.46154 0.943269 -1.1106 
0.870757 -1.38655 1.10703 
-1.38655 2.35771 1.30514 
1.10703 1.30514 5.6707 
4.23068 -0.40719 -1.72595 
-0.40719 4.2436 1.58414 
-1.72595 1.58414 0.424877 
3.66595 -1.27166 0.965469 
-1.27166 4.66054 2.63476 
0.965469 2.63476 0.572664 
4.80234 -3.77277 -1.3176 
-3.77277 8.20944 1.47889 
-1.3176 1.47889 3.58113 
11.4472 3.88187 -2.91546 
3.88187 6.2427 -1.1765 
-2.91546 -1.1765 -1.09699 
6.21699 5.01654 -5.26616 
5.01654 1.10546 -0.188536 
-5.26616 -0.188536 9.27046 
2.83605 -0.632599 -5.2859 
-0.632599 8.92372 2.59689 
-5.2859 2.59689 4.83314 
9.97214 1.02887 -0.16012 
1.02887 9.23151 -0.00671304 
-0.16012 -0.00671304 11.8174 
9.80471 0.8886 -0.274315 
0.8886 9.73415 0.499998 
-0.274315 0.499998 11.4822 
9.78973 -0.127494 -0.503648 
-0.127494 10.4691 0.491035 
-0.503648 0.491035 10.7622 
9.39489 1.11571 -0.310765 
1.11571 9.74798 0.537484 
-0.310765 0.537484 11.8782 
9.74793 0.16422 0.841418 
0.16422 9.72185 -0.563161 
0.841418 -0.563161 9.58628 
9.67871 0.38872 0.685066 
0.38872 10.0908 -0.617406 
0.685066 -0.617406 9.28653 
9.77893 0.0555931 0.833445 
0.0555931 9.75628 -0.53485 
0.833445 -0.53485 9.52084 
9.96151 -0.0558071 0.577732 
-0.0558071 9.5481 -0.834624 
0.577732 -0.834624 9.54645 
9.53107 -0.432911 -0.399875 
-0.432911 8.01679 -2.4235 
-0.399875 -2.4235 7.19991 
9.22336 -0.24988 -0.161437 
-0.24988 8.1219 -2.65094 
-0.161437 -2.65094 7.40251 
8.47596 -0.334984 -0.324845 
-0.334984 8.68871 -2.31866 
-0.324845 -2.31866 7.58309 
9.08532 -0.296074 -0.21983 
-0.296074 8.36917 -2.599 
-0.21983 -2.599 7.29328 
9.37725 -0.129084 0.117483 
-0.129084 10.0291 -0.0270924 
0.117483 -0.0270924 9.49884 
10.0056 0.096158 0.0896594 
0.096158 9.73586 -0.0823687 
0.0896594 -0.0823687 9.16365 
9.84674 0.0602648 0.257614 
0.0602648 9.87061 -0.0301237 
0.257614 -0.0301237 9.18779 
9.78585 -0.0651139 0.205294 
-0.0651139 9.98592 0.115912 
0.205294 0.115912 9.13337 
9.92495 -0.0590774 0.0779558 
-0.0590774 9.97759 -0.397362 
0.0779558 -0.397362 10.3215 
9.92038 0.0601296 -0.0408208 
0.0601296 10.1111 0.225864 
-0.0408208 0.225864 10.1926 
10.1974 0.17426 0.0156386 
0.17426 9.87854 0.0770761 
0.0156386 0.0770761 10.1481 
10.1316 0.181648 0.0257295 
0.181648 9.74163 0.0828109 
0.0257295 0.0828109 10.3508 
9.58081 0.0166566 0.513076 
0.0166566 9.58876 -0.890747 
0.513076 -0.890747 9.87779 
9.7581 0.0911356 0.177792 
0.0911356 9.6325 -0.580231 
0.177792 -0.580231 9.65676 
9.6694 0.189366 0.391367 
0.189366 9.48217 -0.735365 
0.391367 -0.735365 9.89578 
9.57391 0.102547 0.486742 
0.102547 9.59086 -0.705245 
0.486742 -0.705245 9.88259 
9.44848 -0.784575 0.528561 
-0.784575 9.10093 0.571841 
0.528561 0.571841 10.5896 
9.49513 -0.607701 0.493091 
-0.607701 9.31055 0.722162 
0.493091 0.722162 10.3334 
9.24288 -0.457631 0.942394 
-0.457631 9.26168 1.01323 
0.942394 1.01323 10.6345 
9.58246 -0.456759 0.518005 
-0.456759 9.17177 0.665949 
0.518005 0.665949 10.3848 
8.93515 -0.193831 1.38483 
-0.193831 9.94611 0.257074 
1.38483 0.257074 10.9408 
8.8594 -0.382077 0.702748 
-0.382077 10.0234 0.213679 
0.702748 0.213679 10.9393 
8.79921 -0.48103 1.02504 
-0.48103 10.0502 0.260458 
1.02504 0.260458 10.9727 
8.54508 0.0965875 0.670192 
0.0965875 10.1359 0.444385 
0.670192 0.444385 11.1412 
9.35987 0.337414 -1.71347 
0.337414 8.39741 2.83436 
-1.71347 2.83436 5.3517 
7.81336 0.230803 -1.41538 
0.230803 8.81795 2.10448 
-1.41538 2.10448 6.47765 
9.06859 0.687901 -1.88918 
0.687901 7.97654 2.09763 
-1.88918 2.09763 6.06384 
8.78514 0.916618 -2.72307 
0.916618 7.91756 1.72792 
-2.72307 1.72792 6.40627 
9.46995 -0.216329 -0.700533 
-0.216329 9.44529 -0.716221 
-0.700533 -0.716221 9.91635 
9.42679 -0.350562 -0.861577 
-0.350562 9.53576 -0.860686 
-0.861577 -0.860686 9.86904 
9.37054 -0.342837 -0.864509 
-0.342837 9.55152 -0.800771 
-0.864509 -0.800771 9.90954 
9.56154 -0.316997 -0.937331 
-0.316997 9.40839 -0.76395 
-0.937331 -0.76395 9.86167 
9.11583 -0.00870928 0.734707 
-0.00870928 9.54591 0.0107809 
0.734707 0.0107809 9.74587 
8.90639 0.135838 0.805666 
0.135838 9.65337 -0.00868532 
0.805666 -0.00868532 9.84786 
9.10047 0.00383068 0.802173 
0.00383068 9.50378 -0.0657195 
0.802173 -0.0657195 9.80336 
9.26364 -0.169709 0.964521 
-0.169709 9.34244 -0.00989748 
0.964521 -0.00989748 9.80153 
9.46148 -0.084484 -0.977886 
-0.084484 9.73275 -0.294656 
-0.977886 -0.294656 9.80078 
9.50985 -0.0756787 -1.04734 
-0.0756787 9.82861 -0.295146 
-1.04734 -0.295146 9.65655 
9.49873 -0.0365291 -0.906374 
-0.0365291 9.81573 -0.217268 
-0.906374 -0.217268 9.68055 
9.54872 -0.0962863 -1.00865 
-0.0962863 9.69111 -0.289962 
-1.00865 -0.289962 9.75518 
9.88135 0.0727861 -0.21904 
0.0727861 9.40214 0.746719 
-0.21904 0.746719 9.87061 
10.0752 0.159774 -0.536478 
0.159774 9.40672 1.05893 
-0.536478 1.05893 9.67217 
9.66861 0.0432072 -0.454758 
0.0432072 9.77937 0.89769 
-0.454758 0.89769 9.70612 
9.62389 0.0354259 -0.567235 
0.0354259 9.76694 0.916703 
-0.567235 0.916703 9.76327 
8.48429 -0.908305 -3.91625 
-0.908305 8.04515 -2.01565 
-3.91625 -2.01565 7.73158 
7.96114 -0.635123 -2.87368 
-0.635123 8.31279 -1.90311 
-2.87368 -1.90311 7.98709 
8.51193 -0.993048 -2.28928 
-0.993048 8.73542 -1.58451 
-2.28928 -1.58451 7.01367 
8.64432 -0.612249 -2.57302 
-0.612249 8.0162 -1.4908 
-2.57302 -1.4908 7.6005 
9.56053 -0.280078 -0.173172 
-0.280078 8.73891 -0.259643 
-0.173172 -0.259643 10.1511 
9.53865 -0.0321042 -0.243279 
-0.0321042 8.39435 -0.296319 
-0.243279 -0.296319 10.5175 
9.51458 0.082849 0.0496917 
0.082849 9.03658 -0.491862 
0.0496917 -0.491862 9.89935 
9.57008 -0.00396905 -0.0714104 
-0.00396905 8.69495 -0.290887 
-0.0714104 -0.290887 10.1855 
9.77708 -0.0880822 -0.0442278 
-0.0880822 9.52663 -1.02529 
-0.0442278 -1.02529 9.5576 
10.0769 -0.0790617 -0.124801 
-0.0790617 9.46905 -0.979942 
-0.124801 -0.979942 9.31536 
9.74723 -0.0500488 -0.0426426 
-0.0500488 9.60019 -1.01526 
-0.0426426 -1.01526 9.5139 
9.62557 -0.100537 -0.205597 
-0.100537 9.72141 -0.988109 
-0.205597 -0.988109 9.51433 
9.77782 -0.0745674 0.0665533 
-0.0745674 9.50613 -0.93346 
0.0665533 -0.93346 9.97859 
9.79006 0.0137678 0.0161272 
0.0137678 9.49326 -0.869714 
0.0161272 -0.869714 9.97922 
9.85398 0.0974959 0.0530748 
0.0974959 9.46098 -0.8717 
0.0530748 -0.8717 9.94758 
9.86871 0.0104317 -0.0436136 
0.0104317 9.52954 -0.656942 
-0.0436136 -0.656942 9.86427 
9.89796 0.0148576 0.857651 
0.0148576 9.86443 0.209416 
0.857651 0.209416 9.83165 
9.54998 -0.000512891 0.941503 
-0.000512891 9.87917 0.311868 
0.941503 0.311868 10.1649 
9.82505 -0.0921218 0.866675 
-0.0921218 9.94864 0.199789 
0.866675 0.199789 9.82036 
9.76306 -0.138216 0.746929 
-0.138216 9.90097 0.1362 
0.746929 0.1362 9.93002 
9.6962 0.261859 0.493529 
0.261859 8.36553 -2.03043 
0.493529 -2.03043 7.63794 
9.13856 0.38596 0.518287 
0.38596 8.81105 -1.7861 
0.518287 -1.7861 7.75006 
9.43672 -0.0396648 0.801642 
-0.0396648 8.3793 -3.13179 
0.801642 -3.13179 7.88365 
9.76639 0.73077 0.713051 
0.73077 7.81492 -2.30579 
0.713051 -2.30579 8.11835 
7.19527 -0.408655 1.88518 
-0.408655 10.1647 0.700231 
1.88518 0.700231 9.12764 
8.51678 -0.174203 2.63161 
-0.174203 9.81777 -0.150629 
2.63161 -0.150629 8.15303 
8.13031 -0.0404859 2.97918 
-0.0404859 9.25109 0.18459 
2.97918 0.18459 9.10617 
8.2 -0.20193 2.56813 
-0.20193 9.71373 0.27337 
2.56813 0.27337 8.57385 
9.70978 0.11915 0.082472 
0.11915 9.67021 -0.0458985 
0.082472 -0.0458985 9.24472 
9.46445 -0.417878 0.283738 
-0.417878 9.30379 0.429137 
0.283738 0.429137 9.85648 
9.47319 -0.0472056 0.0990938 
-0.0472056 9.49185 0.116599 
0.0990938 0.116599 9.65969 
9.40698 -0.198745 -0.0161706 
-0.198745 9.20128 0.148202 
-0.0161706 0.148202 10.0165 
9.43668 0.0347064 0.0294555 
0.0347064 9.01599 -0.271548 
0.0294555 -0.271548 10.0156 
9.59768 -0.367536 -0.131153 
-0.367536 8.57423 -0.5449 
-0.131153 -0.5449 10.2964 
9.48452 -0.0438203 -0.113638 
-0.0438203 8.98367 -0.490918 
-0.113638 -0.490918 10.0001 
9.54915 -0.00494547 -0.118516 
-0.00494547 8.9643 -0.52897 
-0.118516 -0.52897 9.95487 
9.53551 -0.240621 -0.42241 
-0.240621 7.89425 -1.5497 
-0.42241 -1.5497 9.52402 
9.28228 -0.495994 -0.228701 
-0.495994 7.96965 -1.24568 
-0.228701 -1.24568 9.70185 
9.39171 -0.314384 -0.733302 
-0.314384 7.90603 -2.10019 
-0.733302 -2.10019 9.65604 
9.49509 -0.136276 -0.303892 
-0.136276 8.38805 -0.912709 
-0.303892 -0.912709 9.07064 
7.75855 0.939912 1.39342 
0.939912 10.8689 -0.871985 
1.39342 -0.871985 12.0404 
11.2698 1.88647 1.50852 
1.88647 8.70966 -0.166586 
1.50852 -0.166586 10.6884 
9.36265 1.85513 2.63745 
1.85513 8.98191 -0.261378 
2.63745 -0.261378 12.3233 
8.14663 0.556491 2.39254 
0.556491 10.3006 -1.21188 
2.39254 -1.21188 12.2206 
10.0888 0.90986 0.0560182 
0.90986 11.0034 0.105519 
0.0560182 0.105519 13.3542 
10.7504 1.2815 0.384185 
1.2815 11.0107 -0.236062 
0.384185 -0.236062 12.6853 
10.4251 0.859356 -0.210855 
0.859356 11.3366 -0.11204 
-0.210855 -0.11204 12.6847 
10.4142 0.814856 -0.0126174 
0.814856 11.102 0.0352628 
-0.0126174 0.0352628 12.9302 
9.05145 -1.546 -1.83217 
-1.546 8.58091 -2.29835 
-1.83217 -2.29835 10.8257 
9.3411 -1.12687 -0.602811 
-1.12687 9.94907 -2.21541 
-0.602811 -2.21541 9.16792 
8.53682 -1.36304 -1.49277 
-1.36304 9.83243 -1.95794 
-1.49277 -1.95794 10.0889 
8.3769 -1.39353 -1.4755 
-1.39353 8.89434 -1.31191 
-1.4755 -1.31191 11.1869 
8.69592 0.135057 -0.76717 
0.135057 8.1651 2.33795 
-0.76717 2.33795 5.02486 
8.85969 0.00437844 -0.10109 
0.00437844 7.83726 1.37051 
-0.10109 1.37051 5.18892 
9.53321 0.0675018 -0.34205 
0.0675018 8.33753 2.36519 
-0.34205 2.36519 4.01515 
8.6079 0.170279 -0.88376 
0.170279 7.94341 2.89669 
-0.88376 2.89669 5.33456 
7.64771 0.236015 -2.41684 
0.236015 8.00756 -0.269477 
-2.41684 -0.269477 4.6753 
6.93049 0.159015 -2.21235 
0.159015 7.76636 0.772767 
-2.21235 0.772767 5.63372 
7.42219 0.412417 -3.09899 
0.412417 8.53938 0.117862 
-3.09899 0.117862 4.369 
6.79934 0.285586 -2.56632 
0.285586 9.00105 0.202346 
-2.56632 0.202346 4.53018 
9.03611 0.298075 0.217278 
0.298075 9.13374 -0.337821 
0.217278 -0.337821 9.90028 
9.07222 0.31414 0.264505 
0.31414 9.15745 -0.337653 
0.264505 -0.337653 9.84045 
9.03343 0.232822 0.299668 
0.232822 9.09722 -0.344734 
0.299668 -0.344734 9.93948 
9.16434 0.29229 0.357127 
0.29229 9.29494 -0.346818 
0.357127 -0.346818 9.61085 
9.50956 -0.0110681 0.840473 
-0.0110681 9.71708 0.029642 
0.840473 0.029642 8.98272 
9.53322 -0.0186751 0.890881 
-0.0186751 9.60043 0.157994 
0.890881 0.157994 9.07571 
9.56132 0.0111435 0.886076 
0.0111435 9.68406 0.125113 
0.886076 0.125113 8.96397 
9.54981 0.00598909 0.941326 
0.00598909 9.75384 0.0420037 
0.941326 0.0420037 8.9057 
9.52122 -0.0735025 -0.226176 
-0.0735025 9.01038 -0.940192 
-0.226176 -0.940192 9.72955 
9.53133 -0.101301 -0.219772 
-0.101301 8.98062 -1.01032 
-0.219772 -1.01032 9.74921 
9.53053 -0.089731 -0.222462 
-0.089731 8.98194 -0.899826 
-0.222462 -0.899826 9.74868 
9.50411 -0.129076 -0.168251 
-0.129076 9.1711 -0.977544 
-0.168251 -0.977544 9.58595 
10.5626 0.0532565 0.0481291 
0.0532565 9.0821 -2.85829 
0.0481291 -2.85829 6.82305 
9.88199 -0.0810065 -0.206508 
-0.0810065 9.90484 -1.81503 
-0.206508 -1.81503 6.68088 
9.75402 -0.324372 -0.535195 
-0.324372 10.0848 -1.75895 
-0.535195 -1.75895 6.62885 
9.44711 0.0593257 0.144676 
0.0593257 9.45007 -1.00596 
0.144676 -1.00596 7.57054 
9.99852 0.23647 0.0375383 
0.23647 8.20854 -1.33873 
0.0375383 -1.33873 9.62328 
9.72282 -0.0288387 -0.453717 
-0.0288387 8.48466 -1.53268 
-0.453717 -1.53268 9.62286 
8.81304 -0.281767 0.0768991 
-0.281767 9.2285 -1.39232 
0.0768991 -1.39232 9.7888 
9.50706 0.0509127 0.165548 
0.0509127 8.47716 -2.02786 
0.165548 -2.02786 9.84612 
8.00212 -0.41845 1.1042 
-0.41845 9.843 0.345852 
1.1042 0.345852 9.95677 
8.2784 -0.434191 1.17613 
-0.434191 9.46824 0.481557 
1.17613 0.481557 10.0552 
8.15261 -0.404108 1.49851 
-0.404108 9.59267 0.35176 
1.49851 0.35176 10.0566 
9.44985 0.0291205 1.33741 
0.0291205 8.7554 0.0481034 
1.33741 0.0481034 9.59664 
7.67192 -2.33171 -2.92955 
-2.33171 10.2364 -0.635753 
-2.92955 -0.635753 9.4123 
7.21839 -0.645572 -3.27355 
-0.645572 9.57158 -0.998841 
-3.27355 -0.998841 10.5307 
7.54351 -0.647414 -2.59622 
-0.647414 8.96135 -1.20262 
-2.59622 -1.20262 10.8158 
7.1187 -0.992498 -2.54587 
-0.992498 9.85525 -0.380639 
-2.54587 -0.380639 10.3467 
10.2504 -0.0888296 0.191008 
-0.0888296 9.49668 1.59188 
0.191008 1.59188 8.1853 
9.77476 -0.16805 0.373749 
-0.16805 9.8141 0.947316 
0.373749 0.947316 8.34349 
9.87917 -0.203729 0.580602 
-0.203729 9.69523 1.02736 
0.580602 1.02736 8.35794 
9.19483 0.0506738 0.0735617 
0.0506738 9.28808 0.907678 
0.0735617 0.907678 9.44943 
8.78622 0.58904 -0.708598 
0.58904 7.86613 -0.320713 
-0.708598 -0.320713 5.38944 
7.90884 -0.635606 0.972201 
-0.635606 9.5838 -0.426679 
0.972201 -0.426679 4.54915 
8.59443 -0.509771 0.818943 
-0.509771 8.58689 -1.06893 
0.818943 -1.06893 4.86048 
9.72587 0.599835 0.451934 
0.599835 9.63588 -0.219697 
0.451934 -0.219697 2.68004 
10.0066 -0.0831396 0.116489 
-0.0831396 10.157 0.302562 
0.116489 0.302562 9.84533 
10.3095 -0.0012742 -0.0320736 
-0.0012742 10.3195 0.0881379 
-0.0320736 0.0881379 9.3799 
9.6871 -0.0623213 0.225373 
-0.0623213 9.65888 0.322595 
0.225373 0.322595 10.663 
10.1941 0.171024 0.168105 
0.171024 10.2824 0.553594 
0.168105 0.553594 9.5324 
9.0234 -0.226998 -0.402769 
-0.226998 9.50024 -0.18662 
-0.402769 -0.18662 9.67894 
8.74113 -0.254145 -0.525133 
-0.254145 9.39632 -0.240519 
-0.525133 -0.240519 10.0651 
8.87165 -0.292408 -0.566192 
-0.292408 9.34305 -0.144604 
-0.566192 -0.144604 9.98788 
9.33 -0.14741 -0.954693 
-0.14741 9.02502 -0.345264 
-0.954693 -0.345264 9.84755 
8.28881 0.359591 2.1018 
0.359591 8.47549 -1.04609 
2.1018 -1.04609 6.39117 
8.25391 0.291981 1.89188 
0.291981 8.60503 -1.15802 
1.89188 -1.15802 6.29653 
8.02606 0.969187 2.25995 
0.969187 9.29333 -0.972363 
2.25995 -0.972363 5.83609 
7.83439 0.767102 1.91552 
0.767102 8.69552 -1.18638 
1.91552 -1.18638 6.62557 
9.68697 0.526265 0.66896 
0.526265 10.0459 -0.228829 
0.66896 -0.228829 9.76983 
9.76955 0.0976164 -0.395968 
0.0976164 9.62815 0.264654 
-0.395968 0.264654 10.105 
9.47539 0.156914 -0.21988 
0.156914 9.41295 0.0344031 
-0.21988 0.0344031 10.6144 
9.87766 0.575789 0.0622558 
0.575789 9.38478 0.206489 
0.0622558 0.206489 10.2403 
9.094 0.21973 -0.668554 
0.21973 9.56195 0.14183 
-0.668554 0.14183 9.61875 
9.04402 -0.384763 -0.729099 
-0.384763 9.42472 0.287961 
-0.729099 0.287961 9.80596 
8.95345 0.084375 -0.649944 
0.084375 9.47297 -0.298006 
-0.649944 -0.298006 9.84828 
9.25895 -0.273539 -0.703457 
-0.273539 9.31531 -0.433902 
-0.703457 -0.433902 9.70044 
9.84629 -0.0705411 0.159846 
-0.0705411 9.28756 1.27789 
0.159846 1.27789 9.41859 
9.8619 -0.0316134 0.467204 
-0.0316134 9.11495 1.30059 
0.467204 1.30059 9.57558 
9.66892 -0.228216 0.355726 
-0.228216 9.21611 1.00218 
0.355726 1.00218 9.66741 
9.52983 -0.278997 0.308986 
-0.278997 9.24986 1.18376 
0.308986 1.18376 9.77275 
8.85549 0.647768 -0.216051 
0.647768 9.68018 -0.324586 
-0.216051 -0.324586 10.222 
8.81414 0.00622488 0.630558 
0.00622488 9.69679 -0.18224 
0.630558 -0.18224 10.2468 
9.36914 -0.0986911 0.606452 
-0.0986911 8.96917 0.447847 
0.606452 0.447847 10.4194 
9.01281 0.17685 0.280156 
0.17685 9.56889 -0.0549051 
0.280156 -0.0549051 10.176 
9.72421 -0.0537584 -0.439698 
-0.0537584 9.68517 0.990158 
-0.439698 0.990158 9.88463 
9.84078 0.0990919 -0.357142 
0.0990919 9.75215 0.937783 
-0.357142 0.937783 9.70107 
9.84101 0.0116827 -0.288927 
0.0116827 9.74219 1.00665 
-0.288927 1.00665 9.7108 
9.78872 0.0378775 -0.390438 
0.0378775 9.74824 0.962503 
-0.390438 0.962503 9.75704 
9.84575 0.0471371 0.248783 
0.0471371 9.71547 -0.689203 
0.248783 -0.689203 9.40829 
9.80363 0.0572416 0.344225 
0.0572416 9.77451 -0.6834 
0.344225 -0.6834 9.39136 
9.78214 0.139223 0.359285 
0.139223 9.73141 -0.604441 
0.359285 -0.604441 9.45595 
9.79443 0.148349 0.140336 
0.148349 9.86219 -0.777587 
0.140336 -0.777587 9.31288 
9.01985 -0.0891664 1.59925 
-0.0891664 9.40782 -0.0173202 
1.59925 -0.0173202 7.59905 
8.82689 -0.0164105 0.738531 
-0.0164105 9.12233 -0.924021 
0.738531 -0.924021 8.07749 
9.41299 -0.111003 1.51386 
-0.111003 9.25947 -0.0293222 
1.51386 -0.0293222 7.35426 
9.57372 0.164269 2.03487 
0.164269 9.94401 -0.574336 
2.03487 -0.574336 6.50898 
9.26641 -0.0759256 0.797081 
-0.0759256 8.87119 -0.778255 
0.797081 -0.778255 8.48031 
9.38597 0.376847 2.01467 
0.376847 10.053 -0.537111 
2.01467 -0.537111 7.17893 
8.66125 -0.00571373 1.98941 
-0.00571373 9.68552 -0.454172 
1.98941 -0.454172 8.27115 
8.73297 0.166231 1.98991 
0.166231 9.50103 -0.771526 
1.98991 -0.771526 8.38392 
8.03641 -0.613455 -2.18619 
-0.613455 9.215 -0.589933 
-2.18619 -0.589933 8.82141 
8.10416 -0.402888 -1.73231 
-0.402888 9.0894 -0.40637 
-1.73231 -0.40637 8.87926 
8.4459 0.189183 -1.56407 
0.189183 9.12658 -0.218035 
-1.56407 -0.218035 8.50035 
8.04348 -0.503596 -1.72751 
-0.503596 9.21698 -0.364096 
-1.72751 -0.364096 8.81236 
7.55297 -0.0677672 -0.236143 
-0.0677672 9.08954 0.108236 
-0.236143 0.108236 5.22383 
9.02053 -0.00665095 0.911921 
-0.00665095 8.21717 -0.984926 
0.911921 -0.984926 4.62865 
9.08799 0.167296 0.341635 
0.167296 8.20888 -1.05634 
0.341635 -1.05634 4.56948 
9.16527 -0.00464354 0.0271547 
-0.00464354 9.34846 -1.22682 
0.0271547 -1.22682 3.35262 
7.90194 0.00622725 -2.51889 
0.00622725 8.63251 0.381517 
-2.51889 0.381517 4.96733 
7.83938 0.0354555 -2.55532 
0.0354555 8.88035 0.481891 
-2.55532 0.481891 4.78204 
7.73389 -0.352568 -2.2518 
-0.352568 8.71873 0.0691708 
-2.2518 0.0691708 5.04916 
7.84813 0.078834 -2.43662 
0.078834 8.70897 0.402547 
-2.43662 0.402547 4.94467 
9.26453 -0.330159 -0.638982 
-0.330159 9.16216 -0.710369 
-0.638982 -0.710369 9.89849 
9.30456 -0.374057 -0.755915 
-0.374057 9.1779 -0.71583 
-0.755915 -0.71583 9.84271 
9.40436 -0.306486 -0.67961 
-0.306486 9.14407 -0.712727 
-0.67961 -0.712727 9.77674 
8.99572 -0.264255 -0.40317 
-0.264255 9.2083 -0.654324 
-0.40317 -0.654324 10.1211 
9.63568 0.00771668 0.86677 
0.00771668 10.0028 0.320763 
0.86677 0.320763 9.90492 
9.39256 -0.0754968 0.978227 
-0.0754968 10.109 0.239403 
0.978227 0.239403 10.0419 
9.90785 0.0496376 0.71752 
0.0496376 9.67404 0.419487 
0.71752 0.419487 9.96152 
9.95755 0.207661 1.28447 
0.207661 9.65138 0.161142 
1.28447 0.161142 9.93448 
9.65487 0.0548479 -0.765304 
0.0548479 9.76153 0.559893 
-0.765304 0.559893 9.80274 
9.70885 -0.0049634 -0.615353 
-0.0049634 9.61286 0.469281 
-0.615353 0.469281 9.89744 
9.71617 0.141939 -0.596911 
0.141939 9.72278 0.363094 
-0.596911 0.363094 9.7802 
9.6333 0.0631658 -0.686962 
0.0631658 9.63654 0.503794 
-0.686962 0.503794 9.9493 
9.99262 -0.0113955 -0.238512 
-0.0113955 10.0783 -0.991584 
-0.238512 -0.991584 9.78749 
10.0275 -0.139969 -0.232156 
-0.139969 9.80502 -0.843463 
-0.232156 -0.843463 10.0258 
9.88411 0.0394037 -0.271308 
0.0394037 9.82302 -0.82236 
-0.271308 -0.82236 10.1512 
9.95506 -0.0114199 -0.345865 
-0.0114199 9.86797 -0.939928 
-0.345865 -0.939928 10.0353 
7.97679 1.15586 0.509977 
1.15586 10.7061 -0.474996 
0.509977 -0.474996 11.3828 
7.53544 -0.318173 1.77118 
-0.318173 9.43139 3.38267 
1.77118 3.38267 13.0989 
9.65487 0.0561851 0.722761 
0.0561851 10.8594 -1.06131 
0.722761 -1.06131 9.55145 
9.16114 -1.03746 1.33071 
-1.03746 8.9343 3.72625 
1.33071 3.72625 11.9703 
8.87227 0.484037 3.22627 
0.484037 8.84167 -1.49307 
3.22627 -1.49307 5.54065 
8.71795 0.406075 2.88058 
0.406075 8.96538 -1.20364 
2.88058 -1.20364 5.57126 
8.8858 0.544535 2.93018 
0.544535 9.17184 -1.32288 
2.93018 -1.32288 5.19694 
10.077 0.838661 2.27058 
0.838661 9.11949 -1.38278 
2.27058 -1.38278 4.05813 
8.10687 -0.224353 -0.715147 
-0.224353 9.7702 -0.236128 
-0.715147 -0.236128 10.3946 
9.15679 -0.207725 -0.95537 
-0.207725 9.53611 -0.332757 
-0.95537 -0.332757 9.57881 
9.15568 0.0396237 -0.345649 
0.0396237 9.37681 -0.0745354 
-0.345649 -0.0745354 9.73923 
9.18266 -0.302964 -0.781453 
-0.302964 9.35443 -0.0985216 
-0.781453 -0.0985216 9.73462 
9.45481 0.04436 0.159838 
0.04436 9.13818 -0.57998 
0.159838 -0.57998 9.78428 
9.47143 0.0466225 0.161146 
0.0466225 9.1917 -0.735832 
0.161146 -0.735832 9.71415 
9.50295 -0.0109365 0.130986 
-0.0109365 9.10206 -0.819903 
0.130986 -0.819903 9.77227 
9.5119 0.0650398 0.186499 
0.0650398 9.2643 -0.811801 
0.186499 -0.811801 9.60108 
9.67142 0.140209 -0.260102 
0.140209 9.69143 1.0136 
-0.260102 1.0136 9.832 
9.82182 0.0928477 -0.341294 
0.0928477 9.66197 1.01178 
-0.341294 1.01178 9.71105 
9.89579 0.00775292 -0.265151 
0.00775292 9.59819 0.975585 
-0.265151 0.975585 9.70086 
9.77893 0.0970165 -0.271961 
0.0970165 9.6602 1.04582 
-0.271961 1.04582 9.75571 
9.08426 0.364423 0.00574492 
0.364423 7.94834 3.38464 
0.00574492 3.38464 7.59072 
8.63979 0.463803 0.692635 
0.463803 7.05826 3.88168 
0.692635 3.88168 8.92527 
9.04871 0.153259 0.297106 
0.153259 8.18252 3.56596 
0.297106 3.56596 7.39208 
10.0353 -0.504796 -0.867056 
-0.504796 7.01755 1.29612 
-0.867056 1.29612 7.57049 
9.19075 -0.0528102 0.564954 
-0.0528102 9.16768 1.01257 
0.564954 1.01257 6.98876 
9.43673 -0.048658 0.597542 
-0.048658 8.94106 1.80563 
0.597542 1.80563 6.9694 
9.36016 -0.154541 0.777403 
-0.154541 9.17099 1.57446 
0.777403 1.57446 6.81604 
10.4734 0.183575 0.663416 
0.183575 10.0067 1.38287 
0.663416 1.38287 4.86705 
9.7584 -0.0961185 -0.30276 
-0.0961185 9.60793 -0.608463 
-0.30276 -0.608463 9.70351 
9.76 -0.18473 -0.362447 
-0.18473 9.49011 -0.772259 
-0.362447 -0.772259 9.81973 
9.58547 0.0068297 -0.43334 
0.0068297 9.61625 -0.910781 
-0.43334 -0.910781 9.86811 
9.66603 -0.0520725 -0.309589 
-0.0520725 9.52593 -0.808576 
-0.309589 -0.808576 9.87788 
2.7412 1.07534 0.632372 
1.07534 5.765 -0.121641 
0.632372 -0.121641 -0.218199 
4.90641 0.217165 0.773842 
0.217165 4.00196 1.56797 
0.773842 1.56797 -0.620362 
4.98414 -0.141707 0.884572 
-0.141707 1.15837 1.40982 
0.884572 1.40982 2.1455 
2.72279 -0.246119 0.0349338 
-0.246119 5.51975 1.74147 
0.0349338 1.74147 0.0454614 
9.37166 0.163143 1.19716 
0.163143 9.84621 -0.119558 
1.19716 -0.119558 9.43214 
9.37114 -0.0162908 1.30327 
-0.0162908 9.92141 -0.00268833 
1.30327 -0.00268833 9.35746 
9.31383 0.289149 1.33701 
0.289149 10.1395 -0.652683 
1.33701 -0.652683 9.19666 
9.52105 0.0255912 0.428088 
0.0255912 9.61701 -0.124825 
0.428088 -0.124825 9.51195 
9.75684 -0.00664659 0.0520257 
-0.00664659 9.02737 0.395474 
0.0520257 0.395474 9.69264 
9.32009 -0.186893 0.309325 
-0.186893 9.23763 0.343724 
0.309325 0.343724 9.91913 
9.07824 -0.431329 0.0264496 
-0.431329 9.51428 0.502289 
0.0264496 0.502289 9.88434 
9.28143 -0.0319868 0.46316 
-0.0319868 9.26429 0.366492 
0.46316 0.366492 9.93114 
9.76676 -0.100556 0.979572 
-0.100556 10.0365 0.0584018 
0.979572 0.0584018 9.90665 
9.90773 -0.042572 0.968135 
-0.042572 9.92764 0.187263 
0.968135 0.187263 9.87458 
9.85815 0.0449722 0.823773 
0.0449722 9.7358 0.0172743 
0.823773 0.0172743 10.116 
9.79339 -0.0582479 0.967809 
-0.0582479 9.9447 0.0955444 
0.967809 0.0955444 9.97185 
9.6054 0.136476 0.226739 
0.136476 9.12787 -0.425608 
0.226739 -0.425608 9.85085 
9.64556 0.199436 0.273219 
0.199436 9.04023 -0.443699 
0.273219 -0.443699 9.89832 
9.43039 0.308747 0.0519639 
0.308747 9.09568 -0.427998 
0.0519639 -0.427998 10.058 
9.44454 0.0707096 0.200833 
0.0707096 9.18855 -0.606686 
0.200833 -0.606686 9.95102 
5.95448 0.264898 1.11553 
0.264898 7.28635 -1.03688 
1.11553 -1.03688 3.23206 
7.52989 0.367161 1.06309 
0.367161 5.93289 -1.80541 
1.06309 -1.80541 3.01011 
7.57932 0.133407 1.25097 
0.133407 5.69347 -1.36658 
1.25097 -1.36658 3.20009 
6.72274 0.0404185 0.926416 
0.0404185 6.48182 -3.13679 
0.926416 -3.13679 3.26832 
6.77029 -1.55876 -0.917273 
-1.55876 10.5014 2.53749 
-0.917273 2.53749 14.838 
8.57697 1.37147 1.33605 
1.37147 10.0304 0.505816 
1.33605 0.505816 13.5023 
8.34445 1.69774 0.876907 
1.69774 11.0812 -0.413814 
0.876907 -0.413814 12.6841 
9.79514 -1.09151 1.13027 
-1.09151 11.561 -2.77581 
1.13027 -2.77581 10.7535 
9.02672 0.0846632 -0.806564 
0.0846632 9.39644 0.21736 
-0.806564 0.21736 9.6505 
8.96009 0.185332 -0.698159 
0.185332 9.36622 0.141717 
-0.698159 0.141717 9.74734 
8.81931 0.143868 -0.829433 
0.143868 9.43101 0.161603 
-0.829433 0.161603 9.82334 
8.96477 0.163922 -0.567549 
0.163922 9.38663 0.120928 
-0.567549 0.120928 9.72226 
9.66221 -0.120402 -0.317177 
-0.120402 9.76917 -0.121718 
-0.317177 -0.121718 9.99709 
9.31177 -0.00761223 0.73847 
-0.00761223 10.1454 -0.207112 
0.73847 -0.207112 9.97134 
9.37895 -0.178225 -0.170443 
-0.178225 9.79138 0.0988887 
-0.170443 0.0988887 10.2581 
9.44288 -0.314695 0.0335745 
-0.314695 9.78589 -0.0844567 
0.0335745 -0.0844567 10.1997 
9.18335 -0.197291 0.493351 
-0.197291 9.3605 0.138591 
0.493351 0.138591 10.0528 
9.06536 -0.0925718 0.471156 
-0.0925718 9.62609 0.220709 
0.471156 0.220709 9.90523 
8.95019 -0.175995 0.389783 
-0.175995 9.76138 0.322263 
0.389783 0.322263 9.88511 
9.14365 -0.0453658 0.589074 
-0.0453658 9.41965 0.249314 
0.589074 0.249314 10.0334 
9.71081 0.453474 0.56625 
0.453474 9.31492 -1.09701 
0.56625 -1.09701 9.99634 
9.63597 0.19451 0.418401 
0.19451 9.45101 -0.843147 
0.418401 -0.843147 9.93509 
9.81442 0.289265 0.806593 
0.289265 9.66177 -1.08889 
0.806593 -1.08889 9.54587 
9.80514 0.140132 0.688723 
0.140132 9.42332 -1.09343 
0.688723 -1.09343 9.79361 
8.38109 0.693797 1.50959 
0.693797 7.93051 -3.07848 
1.50959 -3.07848 6.9662 
8.59068 0.841704 1.14465 
0.841704 7.98688 -3.10404 
1.14465 -3.10404 6.70025 
9.36714 0.185227 1.02357 
0.185227 7.51917 -1.83049 
1.02357 -1.83049 6.39149 
8.15448 0.782476 1.00248 
0.782476 7.26145 -2.76179 
1.00248 -2.76179 7.86188 
9.55279 0.112204 0.800046 
0.112204 9.72772 -0.469759 
0.800046 -0.469759 9.87575 
9.69139 0.220153 0.755884 
0.220153 9.64917 -0.498692 
0.755884 -0.498692 9.8157 
9.51585 0.122169 0.843033 
0.122169 9.76915 -0.706379 
0.843033 -0.706379 9.87126 
9.63362 0.0940949 0.82603 
0.0940949 9.68234 -0.478814 
0.82603 -0.478814 9.84029 
9.27896 0.225752 0.348969 
0.225752 9.69959 -0.24615 
0.348969 -0.24615 9.79542 
8.93808 0.222205 0.134469 
0.222205 9.18935 -0.00729384 
0.134469 -0.00729384 10.6465 
9.29939 0.143167 0.418693 
0.143167 9.60645 -0.149697 
0.418693 -0.149697 9.86813 
9.24855 0.602959 1.37829 
0.602959 9.97892 -0.621471 
1.37829 -0.621471 9.5465 
8.92944 0.847723 -1.76011 
0.847723 8.75479 1.82586 
-1.76011 1.82586 8.13165 
8.98533 0.370763 -1.51183 
0.370763 8.60352 1.90342 
-1.51183 1.90342 8.22702 
8.97042 0.751019 -1.18365 
0.751019 8.47475 1.66291 
-1.18365 1.66291 8.37071 
9.06242 0.700364 -1.76106 
0.700364 8.57436 1.69009 
-1.76106 1.69009 8.1791 
5.34346 0.0531004 0.169934 
0.0531004 5.51268 0.0921736 
0.169934 0.0921736 0.194165 
5.70137 -0.0769525 -0.0180352 
-0.0769525 4.86871 -0.166247 
-0.0180352 -0.166247 0.480232 
4.77921 0.0780157 0.211994 
0.0780157 5.55778 0.00224116 
0.211994 0.00224116 0.713326 
5.53677 0.735223 -0.0154734 
0.735223 5.01008 0.100964 
-0.0154734 0.100964 0.503465 
8.77082 -0.209888 -0.660001 
-0.209888 9.00951 1.2315 
-0.660001 1.2315 4.79363 
10.4881 0.410054 0.323847 
0.410054 7.97823 1.59167 
0.323847 1.59167 4.1076 
8.84896 -0.17099 -0.0802709 
-0.17099 8.58304 1.34294 
-0.0802709 1.34294 5.14197 
8.73325 -0.111193 -0.149434 
-0.111193 8.81311 1.43552 
-0.149434 1.43552 5.02759 
8.78531 0.43844 -1.35893 
0.43844 9.47797 0.41981 
-1.35893 0.41981 9.7643 
8.67993 0.144754 -1.17447 
0.144754 9.64828 0.377315 
-1.17447 0.377315 9.69937 
8.74676 0.223143 -1.11108 
0.223143 9.55387 0.386269 
-1.11108 0.386269 9.72695 
8.67946 0.29621 -1.07929 
0.29621 9.30873 0.108873 
-1.07929 0.108873 10.0394 
9.78207 -0.483062 -3.50733 
-0.483062 6.93073 2.42405 
-3.50733 2.42405 15.5751 
10.576 1.43189 -0.963529 
1.43189 8.48597 0.855342 
-0.963529 0.855342 13.2259 
9.16151 0.775217 -2.04944 
0.775217 8.97356 0.039722 
-2.04944 0.039722 14.1528 
11.9034 -0.707103 1.14087 
-0.707103 9.33759 0.57272 
1.14087 0.57272 11.0469 
9.58727 -0.198884 0.491821 
-0.198884 9.147 0.676613 
0.491821 0.676613 9.848 
9.61597 -0.186675 0.408482 
-0.186675 9.24925 0.735144 
0.408482 0.735144 9.71705 
9.25678 -0.319931 0.623183 
-0.319931 9.3337 1.16571 
0.623183 1.16571 9.9918 
9.21751 -0.0783168 0.402308 
-0.0783168 9.52956 0.671605 
0.402308 0.671605 9.83521 
8.99906 0.645661 -0.00791982 
0.645661 9.22516 0.0246986 
-0.00791982 0.0246986 9.98231 
9.22054 0.0698671 0.350235 
0.0698671 9.32683 -0.286117 
0.350235 -0.286117 9.65916 
9.72625 -0.806616 0.503222 
-0.806616 9.6357 -0.44372 
0.503222 -0.44372 8.84459 
9.05776 0.199736 0.716307 
0.199736 8.92846 -0.450114 
0.716307 -0.450114 10.2203 
9.61055 -0.450172 0.131578 
-0.450172 8.89456 0.954166 
0.131578 0.954166 9.84114 
9.67276 -0.197834 0.111739 
-0.197834 8.73852 0.889965 
0.111739 0.889965 9.93497 
9.6836 -0.255844 0.165744 
-0.255844 8.7792 0.997709 
0.165744 0.997709 9.88344 
9.73794 -0.262113 0.178084 
-0.262113 8.61099 0.716428 
0.178084 0.716428 9.99732 
8.47571 1.09659 -2.16816 
1.09659 8.01907 2.13625 
-2.16816 2.13625 7.23463 
8.12914 1.08654 -2.30109 
1.08654 7.94234 2.13741 
-2.30109 2.13741 7.65793 
8.24188 2.07575 -3.50278 
2.07575 9.69778 2.38382 
-3.50278 2.38382 5.78974 
8.88893 -0.144009 -0.396531 
-0.144009 9.06872 1.04202 
-0.396531 1.04202 5.77175 
9.51231 -0.147649 0.225046 
-0.147649 8.90828 0.448787 
0.225046 0.448787 9.91588 
9.35688 -0.360119 -0.0846795 
-0.360119 8.8291 0.537355 
-0.0846795 0.537355 10.1505 
9.37516 -0.0574084 -0.0395773 
-0.0574084 9.07078 0.343092 
-0.0395773 0.343092 9.89051 
9.42476 -0.265483 0.390254 
-0.265483 9.21944 0.544271 
0.390254 0.544271 9.69226 
9.57298 0.0631198 0.0930324 
0.0631198 8.83546 -0.558368 
0.0930324 -0.558368 9.71596 
9.34497 -0.0859088 0.0859034 
-0.0859088 9.23146 -0.896615 
0.0859034 -0.896615 9.54797 
9.46643 0.0217397 0.111696 
0.0217397 8.89829 -0.849302 
0.111696 -0.849302 9.75968 
9.46029 0.0341505 0.100815 
0.0341505 8.95935 -0.802049 
0.100815 -0.802049 9.70476 
2.61186 -0.719215 -2.60698 
-0.719215 14.0303 1.10849 
-2.60698 1.10849 17.0101 
9.66508 1.22317 -0.98268 
1.22317 10.4385 0.787338 
-0.98268 0.787338 13.5488 
9.41751 0.276843 -2.7735 
0.276843 11.4116 0.509031 
-2.7735 0.509031 12.8232 
8.59043 0.837754 -2.42182 
0.837754 12.1349 1.5342 
-2.42182 1.5342 12.927 
9.72622 -0.163395 -0.275518 
-0.163395 9.15924 -0.962428 
-0.275518 -0.962428 9.68947 
9.68801 -0.154477 -0.323084 
-0.154477 9.08558 -0.950215 
-0.323084 -0.950215 9.80135 
9.67145 -0.294878 -0.36967 
-0.294878 9.11772 -0.838228 
-0.36967 -0.838228 9.78576 
9.53584 -0.0749278 -0.314976 
-0.0749278 9.28087 -0.894986 
-0.314976 -0.894986 9.75822 
7.04079 -0.0610015 0.864947 
-0.0610015 6.8078 0.57874 
0.864947 0.57874 2.06288 
6.60384 0.128786 0.511079 
0.128786 7.28342 0.334787 
0.511079 0.334787 2.02421 
6.72108 0.0498709 0.499336 
0.0498709 7.02508 0.181269 
0.499336 0.181269 2.1653 
6.84099 -0.313035 0.850404 
-0.313035 7.19707 0.524922 
0.850404 0.524922 1.8734 
7.36432 0.563642 0.481026 
0.563642 7.07994 1.23418 
0.481026 1.23418 2.2877 
6.4818 0.0437403 0.405911 
0.0437403 6.46826 2.59327 
0.405911 2.59327 3.78191 
6.93248 0.694265 0.31531 
0.694265 6.63346 1.19172 
0.31531 1.19172 3.16603 
6.33588 -0.0688103 -0.455731 
-0.0688103 6.99577 2.0193 
-0.455731 2.0193 3.40031 
10.1366 0.117412 0.244764 
0.117412 9.27351 0.0596929 
0.244764 0.0596929 9.45547 
10.2271 0.17466 -0.390269 
0.17466 9.65905 0.465085 
-0.390269 0.465085 8.97939 
9.7447 -0.0370043 -0.146491 
-0.0370043 9.99832 0.147654 
-0.146491 0.147654 9.12253 
9.81186 0.00651671 -0.163355 
0.00651671 9.82483 0.168404 
-0.163355 0.168404 9.22886 
9.60016 0.052547 -0.439285 
0.052547 9.53305 0.874642 
-0.439285 0.874642 9.45897 
9.56172 0.104946 -0.573803 
0.104946 9.4607 0.75899 
-0.573803 0.75899 9.56976 
9.67144 0.156799 -0.52184 
0.156799 9.50078 0.848461 
-0.52184 0.848461 9.41997 
9.62626 0.140119 -0.57476 
0.140119 9.60636 1.04237 
-0.57476 1.04237 9.35956 
8.34041 -0.463509 2.1611 
-0.463509 9.13129 0.833797 
2.1611 0.833797 6.30992 
8.29755 -0.219957 1.93611 
-0.219957 8.90666 0.927454 
1.93611 0.927454 6.57742 
8.63665 -0.0687285 2.34328 
-0.0687285 9.21174 0.439563 
2.34328 0.439563 5.93323 
8.36163 -0.545013 1.91501 
-0.545013 9.2146 0.806591 
1.91501 0.806591 6.20539 
9.54212 0.0314027 -0.664499 
0.0314027 9.69198 -0.202126 
-0.664499 -0.202126 8.97626 
9.62806 -0.180883 -0.864619 
-0.180883 9.68684 -0.194684 
-0.864619 -0.194684 8.89546 
9.50941 -0.0766244 -0.929115 
-0.0766244 9.59369 -0.155953 
-0.929115 -0.155953 9.10727 
9.70717 -0.0690019 -0.987567 
-0.0690019 9.88695 -0.334785 
-0.987567 -0.334785 8.61625 
9.81995 -0.995667 -0.881911 
-0.995667 7.95397 -1.29491 
-0.881911 -1.29491 11.3798 
10.9947 -0.51897 -1.48611 
-0.51897 8.59184 -0.557517 
-1.48611 -0.557517 9.5671 
9.45693 -0.790314 -0.818761 
-0.790314 7.65378 -2.35476 
-0.818761 -2.35476 12.043 
10.0481 -2.41683 -1.15934 
-2.41683 7.88273 -0.522286 
-1.15934 -0.522286 11.2229 
9.24001 -0.714205 0.743439 
-0.714205 8.93452 0.394718 
0.743439 0.394718 8.44679 
9.59195 0.0273712 0.616992 
0.0273712 9.48058 1.13557 
0.616992 1.13557 7.5488 
9.45555 0.0834138 0.555643 
0.0834138 9.39849 1.29057 
0.555643 1.29057 7.76728 
10.1162 -0.996391 1.13562 
-0.996391 9.54588 1.81485 
1.13562 1.81485 6.95919 
9.09956 0.366599 -0.468287 
0.366599 9.218 0.389053 
-0.468287 0.389053 9.63872 
9.08 0.177336 -0.554579 
0.177336 9.34097 0.50445 
-0.554579 0.50445 9.5353 
9.08411 0.0432257 -0.646263 
0.0432257 9.05148 0.254637 
-0.646263 0.254637 9.82068 
8.9725 0.226268 -0.831866 
0.226268 9.07068 0.363873 
-0.831866 0.363873 9.91309 
9.4462 -0.733653 1.19719 
-0.733653 9.21353 1.40542 
1.19719 1.40542 8.94088 
9.10732 -0.450571 0.685615 
-0.450571 8.8573 1.0326 
0.685615 1.0326 9.63599 
9.26271 -0.409674 0.940507 
-0.409674 9.11588 0.954229 
0.940507 0.954229 9.22202 
9.21865 -0.29935 1.03622 
-0.29935 9.12244 0.789134 
1.03622 0.789134 9.25952 
9.62197 0.0426069 -0.846092 
0.0426069 9.68537 0.434834 
-0.846092 0.434834 9.83406 
9.56691 0.0493999 -0.569806 
0.0493999 9.77153 0.436425 
-0.569806 0.436425 9.80296 
9.53854 0.122056 -0.721789 
0.122056 9.73438 0.440107 
-0.721789 0.440107 9.86848 
9.56244 0.0467808 -0.743137 
0.0467808 9.72397 0.417845 
-0.743137 0.417845 9.85499 
9.72583 0.173593 0.18965 
0.173593 9.32056 -0.249715 
0.18965 -0.249715 9.59019 
9.6451 0.398035 0.178887 
0.398035 8.80247 -0.64907 
0.178887 -0.64907 10.189 
9.29491 -0.352454 0.10461 
-0.352454 9.90613 -0.16779 
0.10461 -0.16779 9.43553 
9.14057 0.386729 0.152836 
0.386729 9.2172 0.09655 
0.152836 0.09655 10.2788 
9.26681 1.144 -1.11384 
1.144 7.5079 1.55847 
-1.11384 1.55847 8.21298 
8.49621 1.09688 -1.78228 
1.09688 8.42426 1.73255 
-1.78228 1.73255 8.06723 
7.90038 1.4661 -1.87024 
1.4661 8.92642 2.18757 
-1.87024 2.18757 8.16089 
7.53377 0.531839 -2.15563 
0.531839 9.24514 1.22057 
-2.15563 1.22057 8.20878 
9.02858 0.0888592 1.37705 
0.0888592 9.91923 0.31031 
1.37705 0.31031 10.0417 
9.40322 0.0256551 1.15588 
0.0256551 9.81487 0.241479 
1.15588 0.241479 9.77143 
9.33874 -0.193076 1.29038 
-0.193076 10.0212 0.120205 
1.29038 0.120205 9.62964 
9.34748 -0.0320283 1.32127 
-0.0320283 9.96922 0.193136 
1.32127 0.193136 9.67283 
9.53996 0.183686 0.608637 
0.183686 9.53538 -0.238023 
0.608637 -0.238023 9.7525 
9.36644 0.15368 0.596035 
0.15368 9.65024 -0.546253 
0.596035 -0.546253 9.81116 
9.47534 0.0696362 0.612071 
0.0696362 9.57937 -0.432954 
0.612071 -0.432954 9.77312 
9.39456 -0.0101667 0.868273 
-0.0101667 9.66924 -0.437811 
0.868273 -0.437811 9.76403 
9.17824 -0.029363 -1.56634 
-0.029363 9.84062 -0.989205 
-1.56634 -0.989205 7.83707 
9.51521 -0.175134 -2.12261 
-0.175134 9.70149 -0.69249 
-2.12261 -0.69249 7.63923 
9.75235 -0.153244 -1.40882 
-0.153244 10.3749 -1.04069 
-1.40882 -1.04069 6.72874 
9.30908 -0.130313 -1.63946 
-0.130313 9.82042 -0.701825 
-1.63946 -0.701825 7.72644 
9.623 -0.321276 -0.463655 
-0.321276 8.09003 -1.63902 
-0.463655 -1.63902 10.266 
9.07229 -0.526291 -0.653088 
-0.526291 8.11572 -0.956936 
-0.653088 -0.956936 10.7911 
9.69916 -0.327911 -0.712175 
-0.327911 8.20711 -1.52306 
-0.712175 -1.52306 10.0728 
9.5557 -0.570045 0.0247802 
-0.570045 9.22049 -1.2661 
0.0247802 -1.2661 9.20289 
9.89029 -0.0155825 -0.309072 
-0.0155825 9.22696 0.996217 
-0.309072 0.996217 7.5007 
9.55102 0.177582 -0.48736 
0.177582 9.48748 1.00308 
-0.48736 1.00308 7.57945 
9.6598 -0.0318637 -0.38665 
-0.0318637 9.45282 0.81089 
-0.38665 0.81089 7.50534 
9.53489 0.454648 -0.322085 
0.454648 9.97604 1.22594 
-0.322085 1.22594 7.10702 
9.03746 0.495356 0.271852 
0.495356 10.3404 0.409 
0.271852 0.409 10.8465 
9.68179 0.82487 0.371073 
0.82487 9.8039 0.283698 
0.371073 0.283698 10.7387 
9.46747 0.552449 0.938914 
0.552449 10.5943 -0.647344 
0.938914 -0.647344 10.1626 
9.40414 0.638198 0.139677 
0.638198 9.94011 0.203938 
0.139677 0.203938 10.8801 
9.4899 -0.225538 -0.0616988 
-0.225538 9.21822 0.393006 
-0.0616988 0.393006 10.086 
9.8443 -0.0192812 0.322564 
-0.0192812 9.00272 0.420607 
0.322564 0.420607 9.94712 
9.71338 0.0116019 0.216059 
0.0116019 9.22906 0.402616 
0.216059 0.402616 9.8517 
9.42989 0.0229882 0.0891598 
0.0229882 9.24173 0.642313 
0.0891598 0.642313 10.1225 
7.66872 -0.0816874 2.52519 
-0.0816874 8.29166 0.345746 
2.52519 0.345746 5.84676 
7.39896 -0.0638906 2.50539 
-0.0638906 8.36481 0.325648 
2.50539 0.325648 6.04338 
7.43776 -0.157726 2.65859 
-0.157726 8.46725 0.226663 
2.65859 0.226663 5.90214 
7.82058 -0.180772 2.77822 
-0.180772 8.37597 0.383517 
2.77822 0.383517 5.6106 
9.78904 0.132602 0.0581761 
0.132602 10.0026 0.649776 
0.0581761 0.649776 9.51736 
10.3039 -0.355621 -0.163495 
-0.355621 9.87306 0.586316 
-0.163495 0.586316 9.13205 
9.88496 -0.105503 0.16233 
-0.105503 9.56781 0.624149 
0.16233 0.624149 9.85619 
9.90235 0.226506 -0.34268 
0.226506 9.89228 0.823676 
-0.34268 0.823676 9.51433 
8.6452 -0.00438756 0.0922691 
-0.00438756 9.24814 0.240083 
0.0922691 0.240083 4.45623 
8.46706 0.0215169 0.498458 
0.0215169 9.35429 0.213996 
0.498458 0.213996 4.52822 
9.3181 -0.0183939 0.5641 
-0.0183939 9.08185 -0.181377 
0.5641 -0.181377 3.94961 
8.778 0.210452 0.155505 
0.210452 9.15612 0.188848 
0.155505 0.188848 4.41544 
7.90677 -0.486782 1.95492 
-0.486782 10.0827 0.196318 
1.95492 0.196318 9.84261 
8.97813 -0.0271463 1.01471 
-0.0271463 9.39686 0.124152 
1.01471 0.124152 9.45706 
8.56444 -0.52592 1.26761 
-0.52592 9.37055 0.591085 
1.26761 0.591085 9.89706 
8.79756 -0.55592 1.3202 
-0.55592 9.15153 0.759399 
1.3202 0.759399 9.88295 
10.0455 -0.683954 0.114601 
-0.683954 8.6175 -2.09097 
0.114601 -2.09097 9.70983 
10.8228 -0.243326 -0.039229 
-0.243326 8.53003 -2.41543 
-0.039229 -2.41543 9.01994 
10.1505 -0.598778 -0.27221 
-0.598778 8.72285 -1.67577 
-0.27221 -1.67577 9.4995 
10.5396 -0.175406 -0.26209 
-0.175406 8.1055 -2.60789 
-0.26209 -2.60789 9.72771 
9.76343 0.0484978 0.146881 
0.0484978 9.49975 -0.936116 
0.146881 -0.936116 9.84503 
9.80556 0.00470221 0.00982189 
0.00470221 9.47173 -0.872985 
0.00982189 -0.872985 9.83093 
9.78157 0.104649 0.113192 
0.104649 9.49311 -0.951671 
0.113192 -0.951671 9.83353 
9.73782 0.0407474 0.143032 
0.0407474 9.53746 -0.925928 
0.143032 -0.925928 9.83293 
8.89791 -0.638895 -1.25064 
-0.638895 7.79745 -1.67444 
-1.25064 -1.67444 7.43353 
8.71762 -0.656498 -0.970492 
-0.656498 8.64486 -2.02002 
-0.970492 -2.02002 6.7664 
9.83238 -0.49116 -0.898387 
-0.49116 8.22574 -2.83754 
-0.898387 -2.83754 6.07077 
8.20233 -0.476726 -1.27012 
-0.476726 9.15294 -1.80562 
-1.27012 -1.80562 6.77361 
9.35594 0.0706765 -0.137714 
0.0706765 9.30737 -0.813563 
-0.137714 -0.813563 9.85842 
9.4765 0.143291 0.235386 
0.143291 9.54356 -0.595226 
0.235386 -0.595226 9.50166 
9.48051 -0.0739989 -0.0574824 
-0.0739989 9.31507 -0.753062 
-0.0574824 -0.753062 9.72615 
9.67464 -0.161331 0.0689574 
-0.161331 9.13602 -0.688113 
0.0689574 -0.688113 9.71107 
8.28004 -1.92052 1.75964 
-1.92052 9.97562 6.01912 
1.75964 6.01912 1.41949 
7.07078 1.57308 -1.06315 
1.57308 7.54277 5.7777 
-1.06315 5.7777 5.0616 
9.35766 3.57155 1.99279 
3.57155 4.35577 4.10357 
1.99279 4.10357 5.96172 
5.82267 -2.31459 -3.27243 
-2.31459 6.37572 4.34419 
-3.27243 4.34419 7.47677 
9.57672 1.55059 0.914226 
1.55059 9.23122 -0.342734 
0.914226 -0.342734 10.3404 
9.76082 1.22526 0.691731 
1.22526 8.65289 -1.37472 
0.691731 -1.37472 10.7347 
9.22814 -0.215692 -1.37569 
-0.215692 9.24392 -0.589131 
-1.37569 -0.589131 10.6763 
9.8013 0.648633 2.63281 
0.648633 8.52169 -1.32093 
2.63281 -1.32093 10.8254 
8.02397 1.38007 0.594637 
1.38007 10.5848 0.60152 
0.594637 0.60152 12.6152 
9.92342 0.618766 1.43832 
0.618766 10.255 0.623719 
1.43832 0.623719 11.0455 
7.71682 0.864638 0.501026 
0.864638 9.96269 -3.6012 
0.501026 -3.6012 13.5444 
9.26932 -0.0838839 -0.310008 
-0.0838839 9.79553 -3.69055 
-0.310008 -3.69055 12.1591 
9.83435 0.051794 -0.0563792 
0.051794 9.34954 -1.01728 
-0.0563792 -1.01728 9.62741 
9.98268 -0.109112 0.0737188 
-0.109112 9.48647 -1.35161 
0.0737188 -1.35161 9.34216 
10.2491 0.0578013 0.198595 
0.0578013 9.65332 -1.3074 
0.198595 -1.3074 8.90893 
10.1553 0.25863 -0.075131 
0.25863 9.02262 -1.70044 
-0.075131 -1.70044 9.63342 
7.81479 -0.923718 -4.30847 
-0.923718 7.23568 -1.28912 
-4.30847 -1.28912 9.81747 
9.35608 -1.18013 -2.80922 
-1.18013 7.96427 -1.68106 
-2.80922 -1.68106 7.54759 
9.34888 -0.675206 -2.94654 
-0.675206 8.58741 -2.25369 
-2.94654 -2.25369 6.93164 
7.81982 -0.191472 -0.625171 
-0.191472 9.95958 -1.40358 
-0.625171 -1.40358 7.08854 
9.80761 0.351004 0.642794 
0.351004 9.10944 -1.11065 
0.642794 -1.11065 9.90558 
9.48383 0.157237 0.551146 
0.157237 9.3954 -0.778545 
0.551146 -0.778545 9.9434 
9.58145 0.42295 0.718704 
0.42295 9.52214 -0.97369 
0.718704 -0.97369 9.71904 
9.65934 0.316672 0.741636 
0.316672 9.59491 -1.0436 
0.741636 -1.0436 9.56838 
9.81471 0.0524139 -0.29709 
0.0524139 9.52128 0.922748 
-0.29709 0.922748 9.94143 
9.82832 0.066621 -0.254352 
0.066621 9.48759 0.91779 
-0.254352 0.91779 9.96152 
9.80206 0.160267 -0.280187 
0.160267 9.5504 0.890276 
-0.280187 0.890276 9.92497 
9.81507 0.0828703 -0.190093 
0.0828703 9.58718 0.77666 
-0.190093 0.77666 9.87518 
8.12367 -0.40297 0.607799 
-0.40297 8.5953 3.69691 
0.607799 3.69691 3.91342 
8.09469 -0.0309393 0.163985 
-0.0309393 7.20019 3.07099 
0.163985 3.07099 5.33751 
8.01003 0.231411 0.150525 
0.231411 7.56676 3.18152 
0.150525 3.18152 5.05559 
7.48139 -0.296749 -1.1811 
-0.296749 7.75277 3.19112 
-1.1811 3.19112 5.39823 
9.37084 0.131843 0.482574 
0.131843 9.1407 -0.524861 
0.482574 -0.524861 9.72334 
9.25468 0.173176 0.397459 
0.173176 9.14091 -0.65759 
0.397459 -0.65759 9.83929 
9.33806 0.301824 0.471494 
0.301824 9.03738 -0.591566 
0.471494 -0.591566 9.85944 
9.20539 0.141036 0.461037 
0.141036 9.34329 -0.789242 
0.461037 -0.789242 9.68621 
9.29052 -0.425777 0.334134 
-0.425777 9.16197 0.429533 
0.334134 0.429533 9.83027 
9.44574 0.192511 0.411386 
0.192511 9.44774 0.578021 
0.411386 0.578021 9.38928 
9.34859 -0.000756897 0.429542 
-0.000756897 9.37896 0.606652 
0.429542 0.606652 9.5552 
9.40238 -0.101645 0.704277 
-0.101645 9.11829 0.717003 
0.704277 0.717003 9.76208 
8.94437 -0.180769 -1.74544 
-0.180769 8.43753 -1.79166 
-1.74544 -1.79166 6.64192 
9.28203 -0.323599 -1.48673 
-0.323599 8.42583 -1.31947 
-1.48673 -1.31947 6.31596 
8.38419 -0.60719 -1.69696 
-0.60719 9.45479 -2.12013 
-1.69696 -2.12013 6.18484 
8.51055 -0.373233 -1.50239 
-0.373233 8.87444 -1.54404 
-1.50239 -1.54404 6.63883 
9.94232 0.132523 -0.136735 
0.132523 9.26593 1.00062 
-0.136735 1.00062 9.58007 
9.4361 -0.0530065 -0.305291 
-0.0530065 9.71006 0.791172 
-0.305291 0.791172 9.64216 
9.88438 -0.102336 -0.345427 
-0.102336 9.57667 1.3667 
-0.345427 1.3667 9.32726 
9.70982 0.0764528 -0.0595924 
0.0764528 9.41413 1.00134 
-0.0595924 1.00134 9.66437 
9.43331 0.192473 -0.948921 
0.192473 8.66618 1.80248 
-0.948921 1.80248 6.65943 
9.5734 0.425027 -0.940311 
0.425027 8.94066 2.54531 
-0.940311 2.54531 6.24485 
8.6437 0.156129 -0.615999 
0.156129 9.0405 1.12271 
-0.615999 1.12271 7.07471 
9.76698 -0.0240339 -0.624721 
-0.0240339 8.35019 2.14403 
-0.624721 2.14403 6.64174 
9.85497 -0.0310792 0.886771 
-0.0310792 9.89627 0.273836 
0.886771 0.273836 9.78589 
9.63653 -0.072434 0.76071 
-0.072434 9.69127 0.305719 
0.76071 0.305719 10.2093 
9.80139 -0.0127735 0.892554 
-0.0127735 9.90675 0.267275 
0.892554 0.267275 9.82898 
9.65954 -0.065807 1.07775 
-0.065807 9.97681 0.35249 
1.07775 0.35249 9.90077 
9.13606 0.0408134 0.278833 
0.0408134 9.49909 -0.0270467 
0.278833 -0.0270467 10.0464 
8.989 -0.0180749 0.271648 
-0.0180749 9.80503 0.0904461 
0.271648 0.0904461 9.88754 
8.59227 -0.0576239 0.445551 
-0.0576239 9.32168 -0.419552 
0.445551 -0.419552 10.7676 
9.25885 -0.104406 0.783245 
-0.104406 9.84233 0.367338 
0.783245 0.367338 9.58038 
9.06788 -0.123907 -0.774908 
-0.123907 9.40796 -1.9191 
-0.774908 -1.9191 9.32966 
9.79884 -0.0526934 0.584608 
-0.0526934 8.23165 -0.406914 
0.584608 -0.406914 9.77499 
9.48948 0.29849 -0.722485 
0.29849 8.28795 -1.39308 
-0.722485 -1.39308 10.0281 
10.624 -0.475743 0.381291 
-0.475743 8.93804 -2.02676 
0.381291 -2.02676 8.24349 
9.0659 0.0960034 -0.466393 
0.0960034 11.4068 1.11342 
-0.466393 1.11342 8.01796 
7.01407 1.2883 -2.39079 
1.2883 10.0649 0.957416 
-2.39079 0.957416 11.4117 
6.92173 1.09386 -0.968867 
1.09386 9.46651 0.366101 
-0.968867 0.366101 12.1024 
7.46907 1.09459 -1.84254 
1.09459 9.65223 0.620949 
-1.84254 0.620949 11.3693 
4.17958 -1.46541 -1.74994 
-1.46541 3.4464 0.524292 
-1.74994 0.524292 5.36732 
8.0904 -1.87273 -2.06805 
-1.87273 8.50363 3.79989 
-2.06805 3.79989 -3.60074 
5.31787 1.52527 -1.62342 
1.52527 4.62384 1.08105 
-1.62342 1.08105 3.05159 
4.11556 -1.20827 -4.69269 
-1.20827 4.43642 0.89901 
-4.69269 0.89901 4.44132 
9.68868 -0.25523 -0.0423167 
-0.25523 8.93448 0.197989 
-0.0423167 0.197989 10.0202 
9.77733 -0.122644 0.108423 
-0.122644 8.599 0.264082 
0.108423 0.264082 10.267 
9.57538 0.155008 0.0282024 
0.155008 8.95924 0.427264 
0.0282024 0.427264 10.1088 
9.63271 -0.0906152 0.0978729 
-0.0906152 8.73294 0.279631 
0.0978729 0.279631 10.2777 
10.7413 0.755007 -0.349139 
0.755007 9.03081 0.911973 
-0.349139 0.911973 10.7297 
10.466 0.106463 -0.952574 
0.106463 9.42452 0.999737 
-0.952574 0.999737 10.6112 
11.0131 0.440004 -0.102519 
0.440004 7.5302 0.972581 
-0.102519 0.972581 11.9585 
10.187 0.950248 -0.239548 
0.950248 8.3219 1.80989 
-0.239548 1.80989 11.9929 
9.75943 0.0961832 0.492901 
0.0961832 9.63827 -0.820457 
0.492901 -0.820457 9.79967 
9.76357 0.0342849 0.512546 
0.0342849 9.66869 -0.866063 
0.512546 -0.866063 9.76511 
9.84961 0.182846 0.521473 
0.182846 9.65431 -0.879958 
0.521473 -0.879958 9.69345 
9.74618 -0.0228384 0.437631 
-0.0228384 9.67084 -0.929649 
0.437631 -0.929649 9.78035 
9.18857 -0.237935 0.623481 
-0.237935 9.14567 1.7658 
0.623481 1.7658 8.13401 
9.23886 -0.333929 0.760552 
-0.333929 9.00608 1.87851 
0.760552 1.87851 8.22331 
9.15105 -0.301546 0.958003 
-0.301546 8.91478 1.35739 
0.958003 1.35739 8.40242 
10.255 -0.373385 1.39853 
-0.373385 9.63413 1.85304 
1.39853 1.85304 6.57915 
9.50185 -0.214576 0.2737 
-0.214576 9.19129 0.724399 
0.2737 0.724399 9.57213 
9.26001 -0.288688 0.415047 
-0.288688 9.21871 0.686359 
0.415047 0.686359 9.78654 
9.38891 -0.20481 0.388324 
-0.20481 9.19251 0.743841 
0.388324 0.743841 9.68384 
9.40132 -0.0813784 0.546529 
-0.0813784 9.11672 0.81032 
0.546529 0.81032 9.74722 
9.75364 -0.158847 -0.459084 
-0.158847 10.0111 -0.384665 
-0.459084 -0.384665 9.34575 
10.0465 0.359903 -0.360121 
0.359903 9.32838 -0.418233 
-0.360121 -0.418233 9.73559 
9.8912 0.0346735 -0.443093 
0.0346735 9.84987 -0.617654 
-0.443093 -0.617654 9.3694 
10.0026 0.0219588 -0.573681 
0.0219588 9.80375 -0.713069 
-0.573681 -0.713069 9.30408 
9.57149 0.105952 0.0284407 
0.105952 9.39298 -1.2822 
0.0284407 -1.2822 9.99391 
9.72195 -0.0517407 -0.0209143 
-0.0517407 9.30311 -0.827382 
-0.0209143 -0.827382 9.93331 
9.76588 0.043463 -0.0102779 
0.043463 9.25297 -0.877575 
-0.0102779 -0.877575 9.93952 
9.83866 -0.0320197 -0.0175672 
-0.0320197 9.07102 -0.842613 
-0.0175672 -0.842613 10.0487 
9.85779 -0.531536 0.743505 
-0.531536 9.40285 1.84347 
0.743505 1.84347 9.91372 
10.0407 -0.493665 0.838691 
-0.493665 9.1714 1.78136 
0.838691 1.78136 9.96226 
10.0822 -0.496791 0.856454 
-0.496791 8.91549 1.56892 
0.856454 1.56892 10.1767 
10.058 -0.464961 0.804084 
-0.464961 9.10631 1.46493 
0.804084 1.46493 10.01 
9.4578 -0.0327149 0.139691 
-0.0327149 8.99959 1.3529 
0.139691 1.3529 8.64494 
9.67927 -0.349939 0.276242 
-0.349939 8.71517 1.70079 
0.276242 1.70079 8.70789 
9.98248 0.0576885 0.50721 
0.0576885 9.133 1.76672 
0.50721 1.76672 7.98685 
9.19903 -0.246507 -0.190729 
-0.246507 8.78507 1.98887 
-0.190729 1.98887 9.11823 
9.67491 0.118603 0.620502 
0.118603 8.54217 0.694289 
0.620502 0.694289 9.83995 
9.70705 -0.237635 0.0632769 
-0.237635 8.62901 1.3368 
0.0632769 1.3368 9.72098 
9.91428 -0.102122 0.372502 
-0.102122 8.68754 1.47525 
0.372502 1.47525 9.45522 
9.43221 -0.107474 -0.162838 
-0.107474 9.1387 1.53665 
-0.162838 1.53665 9.48612 
9.71441 0.0738641 -0.455463 
0.0738641 9.84381 0.623524 
-0.455463 0.623524 9.93238 
9.88049 0.00797047 -0.419367 
0.00797047 9.67566 0.934957 
-0.419367 0.934957 9.93444 
9.90734 0.161551 -0.551355 
0.161551 9.72551 0.880935 
-0.551355 0.880935 9.85775 
9.78244 0.105096 -0.382253 
0.105096 9.78182 0.802405 
-0.382253 0.802405 9.92634 
9.52405 0.236294 0.217771 
0.236294 9.50541 -0.229524 
0.217771 -0.229524 9.90125 
9.52438 0.476845 0.156351 
0.476845 9.27463 -0.171953 
0.156351 -0.171953 10.1317 
9.55251 -0.404078 0.0919863 
-0.404078 9.80768 -0.156986 
0.0919863 -0.156986 9.57051 
9.58474 0.0586821 0.472972 
0.0586821 9.54137 -0.735244 
0.472972 -0.735244 9.8046 
9.30748 0.191839 -0.401138 
0.191839 9.37792 0.982686 
-0.401138 0.982686 5.29876 
9.13818 0.428351 -0.42826 
0.428351 9.20131 1.34976 
-0.42826 1.34976 5.64467 
8.82589 -0.084106 -0.998316 
-0.084106 8.39632 1.58051 
-0.998316 1.58051 6.76195 
9.10797 0.15773 -0.338391 
0.15773 9.32786 1.14618 
-0.338391 1.14618 5.54833 
9.65169 -0.034093 0.515554 
-0.034093 10.3137 -0.122936 
0.515554 -0.122936 9.98311 
9.288 -0.00529058 -0.034123 
-0.00529058 10.0663 -0.0517848 
-0.034123 -0.0517848 10.5942 
9.73651 0.0545331 -0.303541 
0.0545331 9.91634 -0.0142775 
-0.303541 -0.0142775 10.2956 
9.55632 0.0612742 -0.0485855 
0.0612742 9.965 0.0154691 
-0.0485855 0.0154691 10.4271 
9.66735 0.0724248 -0.4001 
0.0724248 9.4916 -1.04495 
-0.4001 -1.04495 9.06859 
9.58873 0.0847619 -0.311169 
0.0847619 9.62253 -0.92058 
-0.311169 -0.92058 9.01628 
9.57867 -0.0150737 -0.480388 
-0.0150737 9.64949 -0.906246 
-0.480388 -0.906246 8.99939 
9.56405 0.00500866 -0.246136 
0.00500866 9.56543 -1.03752 
-0.246136 -1.03752 9.09806 
5.1363 -0.0670816 -0.0778237 
-0.0670816 5.4323 -1.24429 
-0.0778237 -1.24429 1.41534 
5.74399 -0.515301 0.854371 
-0.515301 5.17651 -1.14292 
0.854371 -1.14292 1.06344 
6.39415 -0.804187 0.118092 
-0.804187 4.41101 -1.59573 
0.118092 -1.59573 1.17878 
4.56004 0.441945 1.9539 
0.441945 5.34671 -1.90627 
1.9539 -1.90627 2.07719 
10.0751 -0.0100017 -0.675135 
-0.0100017 10.1508 -0.462958 
-0.675135 -0.462958 9.74406 
10.0875 0.0114768 -0.645705 
0.0114768 10.0433 -0.527514 
-0.645705 -0.527514 9.83917 
9.79118 -0.0489434 -0.605385 
-0.0489434 9.80223 -0.476934 
-0.605385 -0.476934 10.3766 
10.0079 -0.0913329 -0.807799 
-0.0913329 10.1087 -0.681541 
-0.807799 -0.681541 9.85342 
9.98136 0.0336124 0.656384 
0.0336124 9.88753 -0.688053 
0.656384 -0.688053 9.91867 
10.0313 0.0220832 0.617353 
0.0220832 9.94213 -0.670971 
0.617353 -0.670971 9.81417 
9.92745 0.0456882 0.56902 
0.0456882 9.82985 -0.735662 
0.56902 -0.735662 10.0303 
10.0234 0.0234266 0.648984 
0.0234266 9.98756 -0.671784 
0.648984 -0.671784 9.77662 
9.22245 -0.760008 -0.0871549 
-0.760008 8.98241 -0.364875 
-0.0871549 -0.364875 10.4135 
9.35594 -0.335856 -0.297154 
-0.335856 9.1197 -0.394919 
-0.297154 -0.394919 10.1427 
9.67033 -0.125107 -0.0304101 
-0.125107 9.11345 -0.334227 
-0.0304101 -0.334227 9.83455 
9.29851 -0.103562 -0.470187 
-0.103562 9.203 -0.75856 
-0.470187 -0.75856 10.1168 
9.23534 -0.10918 0.665852 
-0.10918 9.35881 -0.0427437 
0.665852 -0.0427437 9.75368 
9.20984 -0.031247 0.795556 
-0.031247 9.41804 0.321849 
0.795556 0.321849 9.71994 
8.94014 -0.161483 0.501787 
-0.161483 9.58104 0.353766 
0.501787 0.353766 9.82665 
9.11709 -0.20615 0.881691 
-0.20615 9.4892 0.0788608 
0.881691 0.0788608 9.74153 
8.39732 -0.0214478 -1.05233 
-0.0214478 9.83749 0.0672377 
-1.05233 0.0672377 10.3297 
8.73008 -0.0733709 -0.923506 
-0.0733709 9.66832 0.0851604 
-0.923506 0.0851604 10.1661 
8.74048 0.0135059 -1.08154 
0.0135059 9.62565 0.0381819 
-1.08154 0.0381819 10.1984 
8.94722 0.428456 -0.513797 
0.428456 9.51821 0.287374 
-0.513797 0.287374 10.0991 
9.48594 -0.151679 0.657008 
-0.151679 9.60864 -0.413765 
0.657008 -0.413765 9.26689 
8.93927 0.126593 0.900118 
0.126593 9.70004 -0.334595 
0.900118 -0.334595 9.72216 
8.96709 0.0127817 0.543802 
0.0127817 9.20722 -0.0889798 
0.543802 -0.0889798 10.1872 
9.19208 0.237865 0.745072 
0.237865 9.30001 -0.0702395 
0.745072 -0.0702395 9.86937 
9.80765 -0.30906 0.190051 
-0.30906 8.08389 1.75613 
0.190051 1.75613 9.98925 
9.46605 0.0382557 0.43335 
0.0382557 8.20796 1.33205 
0.43335 1.33205 10.2068 
9.65449 -0.18231 0.405975 
-0.18231 7.93375 0.818245 
0.405975 0.818245 10.2926 
9.39913 -0.143075 -0.177666 
-0.143075 8.49404 1.18045 
-0.177666 1.18045 9.98763 
9.66081 0.0446945 0.0782857 
0.0446945 9.5994 0.764783 
0.0782857 0.764783 9.54223 
9.65413 -0.144491 0.112901 
-0.144491 9.18972 0.88512 
0.112901 0.88512 9.95859 
9.44118 0.110895 0.045899 
0.110895 9.84681 0.739257 
0.045899 0.739257 9.51444 
9.72276 0.0887927 -0.188266 
0.0887927 9.27051 0.616161 
-0.188266 0.616161 9.80917 
3.84433 -1.42212 -0.548034 
-1.42212 2.79393 0.288321 
-0.548034 0.288321 4.36895 
3.04739 1.2156 -0.962195 
1.2156 6.28116 0.19536 
-0.962195 0.19536 1.67865 
11.3431 -1.09574 -4.78001 
-1.09574 7.8418 -0.693464 
-4.78001 -0.693464 -8.17769 
4.55929 -0.753332 -2.54125 
-0.753332 3.29084 3.33941 
-2.54125 3.33941 3.15708 
9.6929 0.05746 -1.94234 
0.05746 10.36 0.0739153 
-1.94234 0.0739153 7.70208 
8.77149 -0.151941 -1.02348 
-0.151941 9.46108 0.0336478 
-1.02348 0.0336478 9.52239 
9.52016 0.214961 -1.28985 
0.214961 9.74011 0.668445 
-1.28985 0.668445 8.49468 
9.24427 0.302142 -1.34338 
0.302142 9.77276 0.688801 
-1.34338 0.688801 8.73792 
9.17743 -1.02904 1.25156 
-1.02904 8.65587 1.8783 
1.25156 1.8783 9.99239 
9.21441 -1.19283 0.91142 
-1.19283 8.32395 2.05097 
0.91142 2.05097 10.2873 
9.65147 -0.417062 1.20869 
-0.417062 7.81 1.38375 
1.20869 1.38375 10.3642 
9.2773 -1.05992 1.12493 
-1.05992 8.53679 1.83155 
1.12493 1.83155 10.0116 
4.82525 0.27329 -0.339889 
0.27329 5.17867 -0.175515 
-0.339889 -0.175515 -0.425246 
4.50595 0.638021 0.48833 
0.638021 4.47018 -1.50377 
0.48833 -1.50377 0.602544 
3.78468 -0.570126 -1.0408 
-0.570126 5.83245 -1.86 
-1.0408 -1.86 -0.0384592 
4.68892 0.444707 0.356607 
0.444707 1.72457 -2.64103 
0.356607 -2.64103 3.16519 
9.75502 -0.00429596 0.775034 
-0.00429596 9.72398 0.337649 
0.775034 0.337649 10.023 
9.76908 -0.044902 0.818162 
-0.044902 9.90814 0.368126 
0.818162 0.368126 9.82476 
9.74341 -0.0524811 0.817504 
-0.0524811 9.7673 0.370589 
0.817504 0.370589 9.99125 
9.82164 -0.0936824 0.7884 
-0.0936824 9.8072 0.463032 
0.7884 0.463032 9.87313 
9.46054 -0.0289979 0.153571 
-0.0289979 9.73776 0.78216 
0.153571 0.78216 9.18438 
9.93419 0.0134124 0.0592655 
0.0134124 9.54772 0.940284 
0.0592655 0.940284 8.90078 
9.89548 -0.0880368 0.0613016 
-0.0880368 9.6254 1.06043 
0.0613016 1.06043 8.86181 
9.7409 0.00336541 -0.237575 
0.00336541 9.356 1.03886 
-0.237575 1.03886 9.28579 
9.497 -0.00788374 -0.744909 
-0.00788374 9.48269 0.179576 
-0.744909 0.179576 9.78969 
9.27695 -0.00156722 -0.783932 
-0.00156722 9.76155 -0.0349493 
-0.783932 -0.0349493 9.7309 
9.30393 0.103919 -0.774477 
0.103919 9.5843 0.127819 
-0.774477 0.127819 9.88115 
9.29309 -0.0955388 -1.05168 
-0.0955388 9.71241 -0.0582202 
-1.05168 -0.0582202 9.76389 
9.48716 0.203266 0.270918 
0.203266 9.0367 -0.819878 
0.270918 -0.819878 9.82627 
9.45022 0.15234 0.32355 
0.15234 9.1198 -0.800446 
0.32355 -0.800446 9.78012 
9.37284 0.20253 0.164458 
0.20253 9.18362 -0.737895 
0.164458 -0.737895 9.79368 
9.48434 0.00738212 0.339292 
0.00738212 9.18061 -0.859759 
0.339292 -0.859759 9.68518 
9.62469 0.0363393 0.174063 
0.0363393 9.58335 -0.544186 
0.174063 -0.544186 8.90445 
9.83043 -0.0311767 0.0443396 
-0.0311767 9.73843 -0.829586 
0.0443396 -0.829586 8.54363 
9.70545 -0.0466404 0.0493244 
-0.0466404 9.50745 -0.609747 
0.0493244 -0.609747 8.89959 
9.66997 0.0391866 -0.0544819 
0.0391866 9.43346 -0.53376 
-0.0544819 -0.53376 9.00906 
8.76193 -0.124324 -0.855287 
-0.124324 9.65941 -0.0795056 
-0.855287 -0.0795056 9.8876 
9.68124 0.0947737 -0.463997 
0.0947737 9.35721 -0.0587377 
-0.463997 -0.0587377 9.27049 
9.23534 0.00102993 -0.538141 
0.00102993 9.47195 -0.0671799 
-0.538141 -0.0671799 9.60164 
8.95639 0.0504139 -0.330046 
0.0504139 9.42962 0.149757 
-0.330046 0.149757 9.92293 
9.47476 -0.114817 -0.589214 
-0.114817 9.21956 -0.719105 
-0.589214 -0.719105 9.26927 
9.08595 -0.121475 -0.46991 
-0.121475 9.39731 0.0355329 
-0.46991 0.0355329 9.48032 
8.95301 -0.175288 -0.809392 
-0.175288 9.19499 -0.0725476 
-0.809392 -0.0725476 9.81559 
8.82713 -0.101946 -0.716092 
-0.101946 9.47815 -0.479692 
-0.716092 -0.479692 9.65831 
9.74591 -0.162124 -0.633529 
-0.162124 9.36859 -0.322874 
-0.633529 -0.322874 9.42926 
9.10784 -0.138552 -0.808211 
-0.138552 9.6472 -0.214619 
-0.808211 -0.214619 9.78873 
9.26537 0.031349 -0.661516 
0.031349 9.68327 0.155378 
-0.661516 0.155378 9.59513 
9.20537 0.152205 -1.02505 
0.152205 9.47419 0.173948 
-1.02505 0.173948 9.86421 
9.97295 1.49608 -1.41214 
1.49608 10.9412 -0.183176 
-1.41214 -0.183176 13.4274 
11.0971 0.958075 0.730755 
0.958075 10.0076 0.112503 
0.730755 0.112503 13.2368 
10.3803 1.61943 1.03496 
1.61943 9.60843 0.110619 
1.03496 0.110619 14.3528 
10.66 0.638697 -0.111886 
0.638697 9.78009 -1.34503 
-0.111886 -1.34503 13.9015 
9.69589 -0.0333424 0.233456 
-0.0333424 9.69826 -0.748677 
0.233456 -0.748677 9.85799 
9.70843 0.0259694 0.26396 
0.0259694 9.66934 -0.784473 
0.26396 -0.784473 9.87438 
9.71808 0.0494148 0.293629 
0.0494148 9.67277 -0.792998 
0.293629 -0.792998 9.86129 
9.8183 0.0461883 0.327434 
0.0461883 9.65827 -0.789354 
0.327434 -0.789354 9.77557 
9.08125 0.114759 -2.21475 
0.114759 9.53651 0.289016 
-2.21475 0.289016 8.77608 
8.55757 0.585907 -2.11924 
0.585907 9.57434 0.284315 
-2.11924 0.284315 9.26194 
8.35573 0.281323 -1.25391 
0.281323 9.81897 0.662779 
-1.25391 0.662779 9.21915 
8.54072 0.454445 -2.09888 
0.454445 10.5572 1.13028 
-2.09888 1.13028 8.29588 
7.34289 3.83024 -3.05309 
3.83024 7.8288 2.47386 
-3.05309 2.47386 4.1169 
7.39144 0.658865 -3.12158 
0.658865 8.18252 2.42833 
-3.12158 2.42833 3.71463 
9.91477 -3.61563 -3.83028 
-3.61563 8.52618 0.0760915 
-3.83028 0.0760915 0.847636 
5.76666 -2.32935 -2.06936 
-2.32935 7.84347 7.69948 
-2.06936 7.69948 5.67845 
9.69864 0.0654983 -0.940147 
0.0654983 9.81762 0.109537 
-0.940147 0.109537 9.88053 
9.64574 0.0352839 -0.901887 
0.0352839 9.84117 0.114203 
-0.901887 0.114203 9.90987 
9.61499 -0.0401288 -0.982346 
-0.0401288 9.8774 0.105214 
-0.982346 0.105214 9.9044 
9.67654 0.0877511 -0.783633 
0.0877511 9.80256 0.200457 
-0.783633 0.200457 9.91769 
9.47895 -0.375692 -0.423064 
-0.375692 9.13246 -0.9608 
-0.423064 -0.9608 9.92201 
9.68841 -0.278031 -0.492789 
-0.278031 9.07995 -1.08385 
-0.492789 -1.08385 9.76507 
9.60766 -0.218773 -0.798875 
-0.218773 8.9626 -1.21345 
-0.798875 -1.21345 9.96317 
9.84836 -0.122366 -0.413497 
-0.122366 9.16367 -1.24092 
-0.413497 -1.24092 9.5214 
9.97127 0.00539387 -0.930431 
0.00539387 10.0071 -0.0922597 
-0.930431 -0.0922597 9.92488 
9.89236 -0.000581979 -0.904146 
-0.000581979 10.0338 -0.0827381 
-0.904146 -0.0827381 9.97717 
9.90599 -0.0612811 -0.887602 
-0.0612811 9.93808 -0.0770355 
-0.887602 -0.0770355 10.0592 
9.93545 -0.00425754 -0.936663 
-0.00425754 9.99953 -0.0603647 
-0.936663 -0.0603647 9.96831 
9.47266 -0.0688317 0.889651 
-0.0688317 9.73355 0.351508 
0.889651 0.351508 9.63914 
9.47882 -0.202557 0.93491 
-0.202557 9.6096 0.415976 
0.93491 0.415976 9.75693 
9.50346 -0.13988 1.04953 
-0.13988 9.69445 0.479172 
1.04953 0.479172 9.64743 
9.4614 -0.148163 0.899581 
-0.148163 9.66325 0.440517 
0.899581 0.440517 9.72069 
9.06803 -0.365131 -0.131187 
-0.365131 9.86599 -0.372237 
-0.131187 -0.372237 9.25901 
8.69968 5.53219e-05 -0.697089 
5.53219e-05 9.43818 0.0532519 
-0.697089 0.0532519 10.0552 
9.39223 0.219818 -0.30861 
0.219818 9.05543 0.163951 
-0.30861 0.163951 9.74537 
9.07321 -0.237863 -1.02417 
-0.237863 9.41721 -0.780643 
-1.02417 -0.780643 9.70261 
11.6482 1.35768 1.53636 
1.35768 8.67464 0.999287 
1.53636 0.999287 -6.37618 
1.72591 1.25981 2.03048 
1.25981 1.67534 -1.69072 
2.03048 -1.69072 10.5454 
10.0388 -0.126903 2.08659 
-0.126903 5.77538 2.94657 
2.08659 2.94657 -1.86757 
5.97379 -2.14818 8.17009 
-2.14818 6.38515 2.99601 
8.17009 2.99601 1.58773 
9.66844 0.165172 0.400922 
0.165172 9.63908 -0.775497 
0.400922 -0.775497 9.76974 
9.69702 0.118585 0.551034 
0.118585 9.60446 -0.830273 
0.551034 -0.830273 9.77579 
9.70383 0.0780439 0.53984 
0.0780439 9.62711 -0.880635 
0.53984 -0.880635 9.74632 
9.64903 0.132293 0.509288 
0.132293 9.53626 -0.825392 
0.509288 -0.825392 9.89198 
9.70343 0.0902103 -0.714856 
0.0902103 9.71052 0.42907 
-0.714856 0.42907 9.95976 
9.73801 0.114771 -0.803523 
0.114771 9.7654 0.486809 
-0.803523 0.486809 9.8703 
9.70353 0.080701 -0.782226 
0.080701 9.7786 0.450119 
-0.782226 0.450119 9.89158 
9.67577 0.0592799 -0.802333 
0.0592799 9.82311 0.420475 
-0.802333 0.420475 9.87483 
8.7942 0.146274 -1.39656 
0.146274 10.4743 0.0277719 
-1.39656 0.0277719 8.80483 
9.09338 -0.0476875 -1.32484 
-0.0476875 9.74873 0.159363 
-1.32484 0.159363 9.23124 
9.05637 0.0334396 -1.35993 
0.0334396 9.6326 0.0926798 
-1.35993 0.0926798 9.38438 
9.50482 0.219284 -1.40582 
0.219284 9.48156 0.588912 
-1.40582 0.588912 9.08698 
9.70299 -0.25742 1.21376 
-0.25742 10.0488 0.185795 
1.21376 0.185795 5.81415 
9.60455 -0.146736 1.31337 
-0.146736 10.0961 0.0607319 
1.31337 0.0607319 5.86528 
9.3311 -0.233099 1.12743 
-0.233099 10.095 0.0981812 
1.12743 0.0981812 6.13984 
8.98501 -0.37707 1.0663 
-0.37707 10.01 -0.305698 
1.0663 -0.305698 6.57092 
9.82238 0.031065 0.271458 
0.031065 9.81572 -0.8614 
0.271458 -0.8614 10.0228 
9.93375 0.010046 0.29868 
0.010046 9.76273 -0.868322 
0.29868 -0.868322 9.96444 
9.95474 0.0235688 0.281007 
0.0235688 9.73801 -0.889097 
0.281007 -0.889097 9.96817 
9.88046 0.0333163 0.285264 
0.0333163 9.86422 -0.904278 
0.285264 -0.904278 9.91624 
9.39364 -0.0911118 0.118005 
-0.0911118 9.29867 -0.7995 
0.118005 -0.7995 9.83751 
9.44912 0.0311697 0.0391351 
0.0311697 9.35779 -0.77866 
0.0391351 -0.77866 9.72291 
9.5031 -0.216853 -0.245877 
-0.216853 9.53543 -0.632339 
-0.245877 -0.632339 9.49129 
9.63543 0.16073 -0.0987853 
0.16073 9.18544 -0.704207 
-0.0987853 -0.704207 9.70894 
10.139 0.0468703 0.00598671 
0.0468703 10.1894 -0.0162241 
0.00598671 -0.0162241 10.2759 
10.0944 0.0836418 -0.0680747 
0.0836418 10.2331 -0.0964218 
-0.0680747 -0.0964218 10.2768 
10.2762 0.0690998 -0.0985448 
0.0690998 9.91084 -0.0384186 
-0.0985448 -0.0384186 10.4172 
10.1518 0.0973476 -0.0403101 
0.0973476 10.1655 -0.0469783 
-0.0403101 -0.0469783 10.287 
9.68283 0.0212173 -0.956455 
0.0212173 9.79631 -0.426281 
-0.956455 -0.426281 9.41263 
9.67822 0.0669117 -0.967464 
0.0669117 9.86414 -0.349386 
-0.967464 -0.349386 9.34941 
9.75475 -0.0803508 -0.981683 
-0.0803508 9.95746 -0.267185 
-0.981683 -0.267185 9.17955 
9.76268 0.00354613 -0.937632 
0.00354613 9.74401 -0.384127 
-0.937632 -0.384127 9.38508 
10.0083 0.599123 -1.11834 
0.599123 9.4081 2.00287 
-1.11834 2.00287 10.0207 
10.5786 0.636297 -0.553665 
0.636297 8.87143 1.90099 
-0.553665 1.90099 9.98708 
10.2058 0.564421 -1.09466 
0.564421 8.93322 1.87989 
-1.09466 1.87989 10.2981 
9.75622 0.226151 -0.405397 
0.226151 9.03442 0.944715 
-0.405397 0.944715 10.6464 
6.32732 0.521913 1.54999 
0.521913 6.99337 0.229173 
1.54999 0.229173 2.49837 
6.87614 0.470452 1.25596 
0.470452 6.86892 0.233037 
1.25596 0.233037 2.074 
6.75251 0.328914 1.86716 
0.328914 5.70035 -0.549237 
1.86716 -0.549237 3.3662 
5.6966 0.0359688 2.43082 
0.0359688 6.50322 1.11868 
2.43082 1.11868 3.61924 
9.56626 0.071852 -0.622603 
0.071852 9.69848 -0.269252 
-0.622603 -0.269252 9.14866 
9.86945 -0.117936 -0.661728 
-0.117936 9.6821 -0.334857 
-0.661728 -0.334857 8.86186 
9.88757 -0.133933 -0.90101 
-0.133933 10.0127 -0.483548 
-0.90101 -0.483548 8.51311 
9.64431 -0.136677 -0.338206 
-0.136677 9.59245 -0.477531 
-0.338206 -0.477531 9.17664 
9.6825 -0.105124 -1.77887 
-0.105124 10.0355 -0.11173 
-1.77887 -0.11173 7.25766 
9.3025 0.309553 -0.97256 
0.309553 9.71487 0.413729 
-0.97256 0.413729 7.95827 
9.09486 -0.375051 -1.48018 
-0.375051 8.96675 0.189562 
-1.48018 0.189562 8.91403 
9.04946 0.209403 -0.990125 
0.209403 9.96695 -0.0250315 
-0.990125 -0.0250315 7.95923 
11.1929 -0.249822 0.51262 
-0.249822 8.74984 -3.39834 
0.51262 -3.39834 10.0041 
11.3864 -1.10311 0.832929 
-1.10311 8.27064 -1.36708 
0.832929 -1.36708 10.2898 
9.85629 0.257511 -0.161056 
0.257511 9.16123 -0.0149809 
-0.161056 -0.0149809 10.9294 
10.0124 -1.07613 -0.762855 
-1.07613 8.6889 -1.37018 
-0.762855 -1.37018 11.2455 
9.6489 -0.0935983 0.598744 
-0.0935983 9.26455 0.365776 
0.598744 0.365776 9.30734 
9.25505 -0.238939 0.629861 
-0.238939 9.25288 0.613527 
0.629861 0.613527 9.71286 
9.14913 -0.120502 0.300114 
-0.120502 8.95545 0.509439 
0.300114 0.509439 10.1162 
9.22081 -0.158086 0.4857 
-0.158086 9.29356 0.624736 
0.4857 0.624736 9.70643 
9.30087 -0.00659871 0.530819 
-0.00659871 9.45171 0.712963 
0.530819 0.712963 7.19364 
9.31732 -0.309209 1.037 
-0.309209 9.59295 0.891085 
1.037 0.891085 7.03596 
9.49363 -0.304054 1.1152 
-0.304054 9.48368 0.511769 
1.1152 0.511769 6.96891 
10.0031 0.496957 0.489267 
0.496957 10.1552 1.18897 
0.489267 1.18897 5.78786 
9.45516 0.0857968 -0.791287 
0.0857968 9.02773 1.18 
-0.791287 1.18 9.32148 
9.28639 0.418198 -0.804792 
0.418198 8.85839 1.20252 
-0.804792 1.20252 9.65959 
9.24922 0.681025 -0.509708 
0.681025 9.00503 1.01376 
-0.509708 1.01376 9.55012 
9.24494 0.612576 -0.754829 
0.612576 8.95397 1.22198 
-0.754829 1.22198 9.60546 
9.96485 -0.179372 -0.773809 
-0.179372 9.9877 -0.787652 
-0.773809 -0.787652 9.10907 
9.75629 -0.0526706 -0.676652 
-0.0526706 9.60518 -0.951115 
-0.676652 -0.951115 9.70016 
9.638 -0.0234773 -0.731403 
-0.0234773 9.69304 -0.64024 
-0.731403 -0.64024 9.73058 
9.75309 -0.0971456 -0.746658 
-0.0971456 9.70587 -0.854665 
-0.746658 -0.854665 9.60267 
9.29059 -0.786072 -1.8089 
-0.786072 9.42724 -2.04383 
-1.8089 -2.04383 10.1015 
10.2032 -1.40309 -1.15294 
-1.40309 8.82431 -2.21363 
-1.15294 -2.21363 9.79186 
9.65815 -0.804902 -1.42421 
-0.804902 8.94386 -1.81537 
-1.42421 -1.81537 10.2173 
9.81336 -0.572666 -1.42415 
-0.572666 9.00552 -1.85324 
-1.42415 -1.85324 10.0004 
9.99728 0.105674 -0.49128 
0.105674 9.80688 0.890146 
-0.49128 0.890146 8.87534 
9.662 0.256328 -0.672652 
0.256328 9.62921 0.954767 
-0.672652 0.954767 9.38829 
9.85271 0.197591 -0.62912 
0.197591 9.63473 0.971885 
-0.62912 0.971885 9.19206 
9.63429 0.000856168 -0.78739 
0.000856168 9.67645 1.22762 
-0.78739 1.22762 9.36876 
9.42705 -0.238381 1.51011 
-0.238381 10.3119 0.481859 
1.51011 0.481859 6.17826 
8.43755 -0.195335 1.07012 
-0.195335 9.16297 0.0794311 
1.07012 0.0794311 8.31667 
9.422 -0.257336 1.82122 
-0.257336 9.57193 0.732952 
1.82122 0.732952 6.92325 
9.31541 -0.314349 1.78953 
-0.314349 9.68112 1.15338 
1.78953 1.15338 6.92065 
9.2025 0.104565 -1.25267 
0.104565 9.57453 0.662231 
-1.25267 0.662231 8.75278 
9.37294 0.262814 -0.860391 
0.262814 9.24125 1.02201 
-0.860391 1.02201 8.91562 
9.26934 0.0818504 -1.00361 
0.0818504 9.65668 0.712509 
-1.00361 0.712509 8.6038 
9.67924 0.500851 -1.14364 
0.500851 9.36188 1.17691 
-1.14364 1.17691 8.48868 
9.47458 -0.376006 0.379291 
-0.376006 9.01148 0.93422 
0.379291 0.93422 10.0211 
9.88639 -0.318838 0.270623 
-0.318838 8.43274 1.03129 
0.270623 1.03129 10.1881 
9.74834 -0.205883 0.671897 
-0.205883 8.91242 0.941896 
0.671897 0.941896 9.84644 
9.49773 -0.25615 0.127222 
-0.25615 8.85764 1.655 
0.127222 1.655 10.1518 
9.2889 -0.141926 -0.64563 
-0.141926 9.30465 -0.453273 
-0.64563 -0.453273 9.70842 
9.29928 -0.144258 -0.659249 
-0.144258 9.33253 -0.491896 
-0.659249 -0.491896 9.67016 
9.30767 -0.0516419 -0.724992 
-0.0516419 9.3084 -0.457775 
-0.724992 -0.457775 9.6859 
9.22374 -0.119254 -0.687716 
-0.119254 9.30878 -0.517211 
-0.687716 -0.517211 9.76945 
9.62198 -0.0275051 -0.551766 
-0.0275051 9.84274 0.69159 
-0.551766 0.69159 10.2152 
10.1278 -0.0374661 -0.429502 
-0.0374661 9.75153 0.837752 
-0.429502 0.837752 9.80062 
9.9773 0.0406776 -0.450834 
0.0406776 9.86985 0.85266 
-0.450834 0.85266 9.83282 
10.0143 0.151006 -0.558659 
0.151006 9.82998 0.887418 
-0.558659 0.887418 9.83572 
9.82153 0.904661 0.101056 
0.904661 6.06489 -3.859 
0.101056 -3.859 8.63273 
8.42112 -0.782741 0.0293526 
-0.782741 7.37534 -3.18854 
0.0293526 -3.18854 8.72269 
9.51204 1.31438 1.22923 
1.31438 6.99171 -2.39032 
1.22923 -2.39032 8.0154 
9.27264 0.69068 0.522158 
0.69068 6.07957 -3.79433 
0.522158 -3.79433 9.16694 
9.77193 -0.0193701 -0.290327 
-0.0193701 9.71707 -0.728951 
-0.290327 -0.728951 9.98679 
9.87142 0.0207984 -0.321668 
0.0207984 9.66178 -0.689118 
-0.321668 -0.689118 9.94259 
9.75438 0.0239953 -0.354635 
0.0239953 9.80414 -0.89336 
-0.354635 -0.89336 9.91727 
9.84794 -0.0482216 -0.316533 
-0.0482216 9.75249 -0.855964 
-0.316533 -0.855964 9.87535 
8.91807 -0.676909 0.716964 
-0.676909 9.1497 0.818387 
0.716964 0.818387 10.3653 
8.89743 -0.672285 0.609864 
-0.672285 9.00792 0.698425 
0.609864 0.698425 10.5277 
8.86584 -0.66685 0.823115 
-0.66685 9.17348 0.840466 
0.823115 0.840466 10.3937 
9.14771 -0.646584 0.732603 
-0.646584 9.16476 0.290263 
0.732603 0.290263 10.1206 
9.86265 -1.64968 -2.91701 
-1.64968 7.70295 2.63886 
-2.91701 2.63886 3.58533 
7.97927 0.382387 -4.07825 
0.382387 7.81588 1.84193 
-4.07825 1.84193 5.35577 
5.84677 2.87709 -3.48479 
2.87709 9.48278 1.98793 
-3.48479 1.98793 5.82138 
9.29927 -1.06397 -7.15736 
-1.06397 5.26717 -0.671596 
-7.15736 -0.671596 6.58448 
9.7771 0.357482 -1.97737 
0.357482 10.127 1.23765 
-1.97737 1.23765 6.96495 
9.68981 0.281438 -1.78713 
0.281438 10.3436 1.35669 
-1.78713 1.35669 6.83563 
9.63716 0.164524 -1.88611 
0.164524 9.99702 1.28029 
-1.88611 1.28029 7.23485 
9.89368 0.169847 -1.59986 
0.169847 9.905 1.10803 
-1.59986 1.10803 7.07035 
8.98449 0.502514 0.411816 
0.502514 9.5292 -0.00636798 
0.411816 -0.00636798 9.75427 
8.74478 0.270987 0.581236 
0.270987 9.41943 -0.217483 
0.581236 -0.217483 10.1038 
8.6984 0.448853 0.308722 
0.448853 9.19255 -0.389852 
0.308722 -0.389852 10.377 
8.61237 -0.48012 1.17418 
-0.48012 9.73117 -0.365002 
1.17418 -0.365002 9.92442 
9.2886 -0.640077 -0.112712 
-0.640077 8.97564 0.524347 
-0.112712 0.524347 10.2782 
9.36826 -0.0972149 -0.417698 
-0.0972149 9.54999 -0.954847 
-0.417698 -0.954847 9.62415 
9.59054 -0.254154 -0.215559 
-0.254154 8.79678 -0.48905 
-0.215559 -0.48905 10.1551 
9.34432 -0.942939 0.0557748 
-0.942939 7.93101 -0.418107 
0.0557748 -0.418107 11.2671 
8.59515 0.457931 1.40191 
0.457931 8.31625 -1.68411 
1.40191 -1.68411 6.85874 
9.59683 0.323308 1.10016 
0.323308 8.27409 -2.70255 
1.10016 -2.70255 5.89922 
8.60238 0.372891 1.15944 
0.372891 8.75864 -1.97712 
1.15944 -1.97712 6.40912 
8.26474 0.163573 1.07662 
0.163573 9.40969 -1.59972 
1.07662 -1.59972 6.09571 
9.95734 0.0145308 0.029974 
0.0145308 10.0649 -0.00690911 
0.029974 -0.00690911 10.1135 
9.97529 -0.0213418 0.00655126 
-0.0213418 10.0774 -0.0216665 
0.00655126 -0.0216665 10.0831 
9.98788 0.0508135 0.103176 
0.0508135 10.0374 -0.0102406 
0.103176 -0.0102406 10.1105 
9.95589 0.0293842 0.00987498 
0.0293842 10.0798 -0.0192944 
0.00987498 -0.0192944 10.1 
9.82893 0.0580275 0.533101 
0.0580275 9.79391 -0.74564 
0.533101 -0.74564 9.95808 
9.85602 0.0507379 0.538444 
0.0507379 9.80455 -0.756807 
0.538444 -0.756807 9.92034 
9.83423 0.0531724 0.538293 
0.0531724 9.7892 -0.756578 
0.538293 -0.756578 9.95748 
9.82985 0.061188 0.522182 
0.061188 9.81266 -0.748953 
0.522182 -0.748953 9.93841 
9.37265 -0.0774957 0.716778 
-0.0774957 9.5341 0.422822 
0.716778 0.422822 9.85899 
9.46762 -0.0641078 0.690736 
-0.0641078 9.64142 0.367073 
0.690736 0.367073 9.65669 
9.40301 -0.18284 0.670918 
-0.18284 9.64062 0.338342 
0.670918 0.338342 9.7221 
9.5729 -0.125496 0.67216 
-0.125496 9.35489 0.482043 
0.67216 0.482043 9.83795 
9.50936 -0.161092 -0.360354 
-0.161092 9.85763 -0.324983 
-0.360354 -0.324983 9.09992 
8.87455 -0.226181 -0.284525 
-0.226181 8.98778 0.0942387 
-0.284525 0.0942387 10.6046 
9.0158 -0.276124 -0.777067 
-0.276124 9.45053 -0.48896 
-0.777067 -0.48896 10.0006 
8.98405 -0.199974 -0.682195 
-0.199974 9.5674 -0.182054 
-0.682195 -0.182054 9.91546 
9.68707 0.0270959 0.785715 
0.0270959 9.54458 -0.385147 
0.785715 -0.385147 9.1143 
9.69473 0.0309615 0.744215 
0.0309615 9.97948 -0.358923 
0.744215 -0.358923 8.67174 
9.59388 0.141306 0.743024 
0.141306 9.91874 -0.291193 
0.743024 -0.291193 8.83333 
9.52801 0.00259277 0.606235 
0.00259277 9.77669 -0.0367464 
0.606235 -0.0367464 9.04125 
9.71263 -0.106273 -0.36137 
-0.106273 9.61904 -0.75308 
-0.36137 -0.75308 9.89552 
9.7817 -0.0902192 -0.381632 
-0.0902192 9.65321 -0.847903 
-0.381632 -0.847903 9.79228 
9.75427 -0.0433329 -0.367308 
-0.0433329 9.64429 -0.809816 
-0.367308 -0.809816 9.82862 
9.75866 -0.0325511 -0.347589 
-0.0325511 9.65016 -0.819329 
-0.347589 -0.819329 9.81836 
2.04994 0.805051 -0.117363 
0.805051 1.82265 1.60574 
-0.117363 1.60574 1.4086 
2.5916 0.354604 0.949411 
0.354604 3.67217 0.13394 
0.949411 0.13394 -0.982577 
1.79406 -0.032167 -0.132127 
-0.032167 2.43011 1.25511 
-0.132127 1.25511 1.05702 
1.99625 -0.735543 0.328757 
-0.735543 3.59781 1.56003 
0.328757 1.56003 -0.312869 
9.40242 -0.0736379 0.697687 
-0.0736379 9.57876 0.228075 
0.697687 0.228075 9.80256 
9.40041 -0.0401326 0.716189 
-0.0401326 9.57986 0.225945 
0.716189 0.225945 9.80346 
9.5987 -0.0142073 0.679136 
-0.0142073 9.46714 0.234316 
0.679136 0.234316 9.71789 
9.49574 -0.0703378 0.770506 
-0.0703378 9.54742 0.247247 
0.770506 0.247247 9.74058 
8.93396 0.387749 0.0387372 
0.387749 9.20438 -0.04598 
0.0387372 -0.04598 10.371 
9.1674 -0.233424 0.387043 
-0.233424 8.88473 0.415105 
0.387043 0.415105 10.4572 
9.24981 -0.643679 -0.0973602 
-0.643679 9.83586 -0.0333787 
-0.0973602 -0.0333787 9.42363 
9.62018 -0.273476 0.612515 
-0.273476 9.25049 0.258876 
0.612515 0.258876 9.63863 
10.052 0.0446123 -0.024325 
0.0446123 8.65451 -1.10469 
-0.024325 -1.10469 10.4641 
10.117 -0.334787 -0.192311 
-0.334787 8.69168 -0.812605 
-0.192311 -0.812605 10.362 
10.0385 -0.33449 3.44078e-05 
-0.33449 8.44324 -0.740451 
3.44078e-05 -0.740451 10.6889 
9.43727 0.287333 -0.0952319 
0.287333 9.0756 -0.685834 
-0.0952319 -0.685834 10.6578 
4.92846 -0.23067 0.349317 
-0.23067 2.29379 -0.612376 
0.349317 -0.612376 1.82661 
4.9706 -0.443895 -0.329167 
-0.443895 4.39207 -1.94904 
-0.329167 -1.94904 -0.313805 
3.66623 0.195956 -0.604835 
0.195956 5.82084 0.220913 
-0.604835 0.220913 -0.438203 
3.17223 0.473535 -1.34456 
0.473535 5.14479 -1.00081 
-1.34456 -1.00081 0.73185 
9.04865 -0.859166 0.760034 
-0.859166 9.55035 0.93082 
0.760034 0.93082 10.8761 
9.52145 -0.770331 1.14579 
-0.770331 9.55333 1.41382 
1.14579 1.41382 10.4003 
9.22615 -0.365827 0.417162 
-0.365827 9.52047 0.282699 
0.417162 0.282699 10.7285 
9.38843 -1.77309 0.716315 
-1.77309 8.21362 0.660701 
0.716315 0.660701 11.873 
10.1164 0.00861684 0.165078 
0.00861684 10.0684 -0.832485 
0.165078 -0.832485 9.76005 
10.1042 0.0585096 0.170744 
0.0585096 9.97833 -0.871466 
0.170744 -0.871466 9.86231 
9.86574 0.00991366 0.215577 
0.00991366 9.82673 -0.863049 
0.215577 -0.863049 10.2524 
10.0709 -0.00867006 0.0751607 
-0.00867006 10.0901 -0.980531 
0.0751607 -0.980531 9.78388 
10.1761 -0.407822 0.0681525 
-0.407822 8.46643 -1.11998 
0.0681525 -1.11998 10.9016 
10.103 -0.238623 0.0857755 
-0.238623 8.7638 -1.1283 
0.0857755 -1.1283 10.6773 
10.271 -0.526091 0.140747 
-0.526091 8.90708 -1.50489 
0.140747 -1.50489 10.366 
9.88162 -0.277089 0.110473 
-0.277089 8.66069 -1.27575 
0.110473 -1.27575 11.0018 
8.83272 0.212978 -0.542242 
0.212978 10.4816 0.215591 
-0.542242 0.215591 11.2162 
8.56751 0.880879 -0.423403 
0.880879 10.3773 -0.0921632 
-0.423403 -0.0921632 11.5857 
8.77528 0.252508 -0.29246 
0.252508 10.4347 -0.0566414 
-0.29246 -0.0566414 11.3206 
10.0744 0.749068 -0.546691 
0.749068 9.69272 0.946781 
-0.546691 0.946781 10.7635 
9.35594 0.298965 1.03538 
0.298965 9.78249 -0.522732 
1.03538 -0.522732 9.83599 
9.39879 0.400669 1.06151 
0.400669 9.65911 -0.557182 
1.06151 -0.557182 9.91652 
9.38563 0.253191 0.971431 
0.253191 9.7381 -0.436945 
0.971431 -0.436945 9.85069 
9.33225 0.24236 1.08728 
0.24236 9.84598 -0.590434 
1.08728 -0.590434 9.79618 
9.63812 0.200139 -0.100621 
0.200139 9.35734 -0.331268 
-0.100621 -0.331268 9.92557 
9.62123 0.286517 0.28694 
0.286517 9.21183 -0.310629 
0.28694 -0.310629 10.088 
9.61347 0.300834 -0.0195134 
0.300834 9.29351 -0.283965 
-0.0195134 -0.283965 10.0141 
9.50208 0.239182 0.0364682 
0.239182 9.31992 -0.177307 
0.0364682 -0.177307 10.099 
8.01069 -0.11856 3.37786 
-0.11856 7.38984 0.220411 
3.37786 0.220411 2.00442 
5.97461 0.108748 4.50678 
0.108748 7.67269 0.421798 
4.50678 0.421798 3.75766 
3.57495 0.774152 3.35822 
0.774152 9.73641 -0.031038 
3.35822 -0.031038 4.09359 
7.7608 0.0814745 4.53931 
0.0814745 4.52604 2.02023 
4.53931 2.02023 5.11811 
9.19817 -0.0677585 -0.672249 
-0.0677585 9.53521 0.420347 
-0.672249 0.420347 7.6662 
9.06888 -0.0719081 -1.25937 
-0.0719081 9.8308 0.285431 
-1.25937 0.285431 7.4999 
9.6992 0.37638 -1.76203 
0.37638 9.88428 1.12328 
-1.76203 1.12328 6.8161 
9.16162 -0.110181 -1.17901 
-0.110181 9.84983 0.198316 
-1.17901 0.198316 7.38813 
9.52494 0.130306 -0.349911 
0.130306 10.9628 0.164194 
-0.349911 0.164194 11.2366 
10.0687 0.152451 -0.0561136 
0.152451 10.5569 -0.0381273 
-0.0561136 -0.0381273 11.0988 
10.1598 0.0620857 -0.196467 
0.0620857 10.5327 0.0253438 
-0.196467 0.0253438 11.0319 
9.95675 0.0344731 -0.0533706 
0.0344731 10.6106 -0.0892298 
-0.0533706 -0.0892298 11.157 
9.79479 -0.494552 -0.731743 
-0.494552 9.16988 -0.79988 
-0.731743 -0.79988 9.75913 
9.47552 -0.340149 -0.469866 
-0.340149 9.19191 -0.81007 
-0.469866 -0.81007 10.0564 
9.13572 -0.589907 -0.636823 
-0.589907 9.37149 -0.819064 
-0.636823 -0.819064 10.2166 
9.39276 -0.309982 -0.526346 
-0.309982 9.1435 -0.917169 
-0.526346 -0.917169 10.1875 
9.27683 -0.848254 -1.16568 
-0.848254 8.97029 -1.40333 
-1.16568 -1.40333 9.86636 
9.12408 -0.489212 -0.969032 
-0.489212 9.26603 -0.809448 
-0.969032 -0.809448 9.72337 
8.89322 -0.743472 -0.996625 
-0.743472 9.35534 -1.23722 
-0.996625 -1.23722 9.86492 
8.91588 -0.152757 -1.18438 
-0.152757 9.49405 -1.04326 
-1.18438 -1.04326 9.70355 
9.75269 0.167009 0.301883 
0.167009 9.54821 -0.830676 
0.301883 -0.830676 9.8213 
9.72292 0.0764799 0.298504 
0.0764799 9.57295 -0.875311 
0.298504 -0.875311 9.82633 
9.76128 0.0659848 0.279932 
0.0659848 9.51771 -0.853115 
0.279932 -0.853115 9.84322 
9.78459 0.0657806 0.491538 
0.0657806 9.46744 -0.938481 
0.491538 -0.938481 9.87016 
9.8576 -0.0409256 0.835314 
-0.0409256 9.9271 -0.305504 
0.835314 -0.305504 10.0568 
9.9808 -0.156019 0.710908 
-0.156019 10.1291 -0.461733 
0.710908 -0.461733 9.73158 
10.1021 0.213708 0.868901 
0.213708 9.87862 -0.340005 
0.868901 -0.340005 9.86081 
9.98676 0.23595 0.92696 
0.23595 9.9955 -0.643691 
0.92696 -0.643691 9.85926 
8.54605 0.0595838 -2.51205 
0.0595838 9.82315 0.72141 
-2.51205 0.72141 8.888 
7.29055 0.886398 -3.06231 
0.886398 10.543 0.894451 
-3.06231 0.894451 9.42367 
8.26851 -0.114656 -1.98631 
-0.114656 9.9809 0.384279 
-1.98631 0.384279 9.00778 
8.97733 0.154875 -2.39123 
0.154875 9.75802 1.1674 
-2.39123 1.1674 8.52184 
9.84778 0.079433 0.471728 
0.079433 9.69807 -0.995798 
0.471728 -0.995798 9.36827 
9.71482 0.134404 0.42766 
0.134404 9.77774 -0.973569 
0.42766 -0.973569 9.42156 
9.7514 0.0602554 0.331966 
0.0602554 9.61988 -0.966544 
0.331966 -0.966544 9.54285 
9.71309 0.00730622 0.389902 
0.00730622 9.70954 -1.00774 
0.389902 -1.00774 9.49149 
9.76043 -0.340042 -0.360602 
-0.340042 9.51936 -0.889926 
-0.360602 -0.889926 9.96052 
9.92548 -0.0760188 -0.490529 
-0.0760188 9.63609 -1.01099 
-0.490529 -1.01099 9.67874 
9.75321 -0.0136001 -0.299081 
-0.0136001 9.61229 -0.762667 
-0.299081 -0.762667 9.87481 
9.71621 -0.112685 -0.302416 
-0.112685 9.56158 -0.93266 
-0.302416 -0.93266 9.96252 
9.94895 0.516542 -1.4096 
0.516542 9.04329 1.10918 
-1.4096 1.10918 9.34036 
9.10645 0.521312 -1.26663 
0.521312 9.55801 0.851399 
-1.26663 0.851399 9.66814 
9.01896 0.271285 -1.10368 
0.271285 9.65335 0.667908 
-1.10368 0.667908 9.66028 
8.52434 0.845472 -1.3248 
0.845472 9.9086 0.761387 
-1.3248 0.761387 9.89966 
9.87703 -0.142286 0.201569 
-0.142286 9.65964 -0.899554 
0.201569 -0.899554 9.87035 
10.0057 0.00100495 0.1828 
0.00100495 9.74226 -1.05676 
0.1828 -1.05676 9.65907 
9.89556 0.117865 0.346044 
0.117865 9.77931 -0.9632 
0.346044 -0.9632 9.73215 
9.90021 0.0621759 0.290735 
0.0621759 9.75041 -0.967754 
0.290735 -0.967754 9.7564 
9.33741 0.308653 0.973598 
0.308653 9.79095 -0.525707 
0.973598 -0.525707 9.82312 
9.32082 0.152152 0.851055 
0.152152 9.75098 -0.372825 
0.851055 -0.372825 9.87968 
9.43948 0.29985 1.05483 
0.29985 9.74379 -0.67195 
1.05483 -0.67195 9.7682 
9.26268 0.397733 1.15379 
0.397733 9.82157 -0.489511 
1.15379 -0.489511 9.86723 
9.77718 0.686271 -0.91071 
0.686271 9.18633 1.25551 
-0.91071 1.25551 10.6032 
9.17891 0.69386 -0.653342 
0.69386 9.72984 0.670055 
-0.653342 0.670055 10.6579 
9.22305 1.11989 -1.31828 
1.11989 9.37437 0.0987156 
-1.31828 0.0987156 10.9692 
9.11847 0.590963 -0.856536 
0.590963 9.60008 0.560841 
-0.856536 0.560841 10.8481 
8.24356 0.201974 -2.25719 
0.201974 9.13209 0.880593 
-2.25719 0.880593 6.80306 
8.28867 -0.130268 -2.40142 
-0.130268 9.27706 0.667922 
-2.40142 0.667922 6.61297 
8.64078 0.222608 -2.32155 
0.222608 9.25545 0.655151 
-2.32155 0.655151 6.28247 
7.17898 0.216239 -2.79304 
0.216239 9.91785 1.16783 
-2.79304 1.16783 7.08187 
9.76891 -0.0287358 -0.0955011 
-0.0287358 8.9045 -1.25444 
-0.0955011 -1.25444 9.91636 
9.79385 -0.158973 -0.213521 
-0.158973 8.76353 -1.17818 
-0.213521 -1.17818 10.0324 
9.89292 0.0469279 0.0253396 
0.0469279 8.31008 -1.21558 
0.0253396 -1.21558 10.3868 
9.48536 0.0875914 0.11735 
0.0875914 8.77862 -0.405555 
0.11735 -0.405555 10.3258 
1.88034 0.14832 1.01224 
0.14832 2.33889 -1.51496 
1.01224 -1.51496 0.936656 
2.2949 0.306147 0.602533 
0.306147 2.94588 -1.01475 
0.602533 -1.01475 -0.0848936 
2.52205 0.192354 0.010525 
0.192354 3.26906 -0.517678 
0.010525 -0.517678 -0.63522 
2.70623 -0.639463 0.24295 
-0.639463 3.49698 -1.28044 
0.24295 -1.28044 -1.04732 
9.28747 -0.214132 -0.976895 
-0.214132 9.13466 -1.0733 
-0.976895 -1.0733 9.11562 
9.5881 -0.0674734 -0.819121 
-0.0674734 9.02406 -0.980667 
-0.819121 -0.980667 8.9256 
9.20583 -0.456424 -1.04242 
-0.456424 9.3321 -1.33013 
-1.04242 -1.33013 8.99983 
8.79555 -0.439092 -0.81698 
-0.439092 9.50982 -0.880362 
-0.81698 -0.880362 9.23238 
9.65658 0.0771158 0.830829 
0.0771158 9.71881 -0.575237 
0.830829 -0.575237 9.4952 
9.68272 0.177071 0.906997 
0.177071 9.60058 -0.736575 
0.906997 -0.736575 9.58729 
9.66107 0.151871 0.891253 
0.151871 9.87347 -0.713755 
0.891253 -0.713755 9.33606 
9.63795 0.153572 0.948651 
0.153572 9.64176 -0.702376 
0.948651 -0.702376 9.59089 
9.6356 -0.0470403 -0.945108 
-0.0470403 9.85259 0.192371 
-0.945108 0.192371 9.78118 
9.5828 -0.0356002 -0.932137 
-0.0356002 9.82116 0.238364 
-0.932137 0.238364 9.86541 
9.66414 0.147162 -0.89751 
0.147162 9.71711 0.201362 
-0.89751 0.201362 9.88811 
9.64323 0.150866 -1.09261 
0.150866 9.82662 0.163003 
-1.09261 0.163003 9.79952 
9.90135 0.148652 -0.753559 
0.148652 9.76748 0.0906738 
-0.753559 0.0906738 9.7296 
9.8375 0.000771647 -0.819812 
0.000771647 9.93253 0.00299366 
-0.819812 0.00299366 9.62841 
9.78903 -0.0349123 -0.838621 
-0.0349123 9.99168 -0.00734205 
-0.838621 -0.00734205 9.61772 
9.94327 0.0136994 -0.895403 
0.0136994 9.88919 -0.118205 
-0.895403 -0.118205 9.56597 
9.02928 -0.184451 1.84497 
-0.184451 10.0089 0.577379 
1.84497 0.577379 9.55504 
9.0544 -0.340905 1.47918 
-0.340905 9.79852 0.540116 
1.47918 0.540116 9.74025 
7.87641 -0.861271 1.5954 
-0.861271 10.5238 0.941081 
1.5954 0.941081 10.1929 
9.3202 -0.251316 1.9935 
-0.251316 9.65589 0.659284 
1.9935 0.659284 9.61707 
9.40327 0.0391825 0.297868 
0.0391825 9.38312 0.438938 
0.297868 0.438938 9.74427 
9.49992 -0.0838027 0.408257 
-0.0838027 9.29355 0.766267 
0.408257 0.766267 9.73719 
9.50735 -0.337256 0.422605 
-0.337256 9.10013 0.725408 
0.422605 0.725408 9.92318 
9.4232 -0.0927489 0.419952 
-0.0927489 9.34418 0.782388 
0.419952 0.782388 9.76327 
9.63186 -1.38695 -1.70261 
-1.38695 9.5482 -1.23716 
-1.70261 -1.23716 9.68155 
9.5533 -1.06719 -1.30802 
-1.06719 9.3327 -0.783599 
-1.30802 -0.783599 9.9756 
10.023 -1.22626 -1.88886 
-1.22626 9.13873 -1.69096 
-1.88886 -1.69096 9.6999 
9.91088 -1.17487 -1.85907 
-1.17487 9.16827 -1.47093 
-1.85907 -1.47093 9.78245 
9.0893 -0.994264 -0.930725 
-0.994264 8.54064 -1.44441 
-0.930725 -1.44441 9.98685 
8.99842 -0.702594 -0.882877 
-0.702594 8.53884 -1.30162 
-0.882877 -1.30162 10.0795 
8.76954 -0.877649 -1.12878 
-0.877649 9.43193 -0.879142 
-1.12878 -0.879142 9.41532 
9.02412 -0.789795 -0.737326 
-0.789795 8.55272 -1.14586 
-0.737326 -1.14586 10.0399 
7.28166 -0.470507 -0.752975 
-0.470507 10.8239 -0.0650295 
-0.752975 -0.0650295 11.3452 
7.0264 -0.414679 -1.01986 
-0.414679 10.1352 -0.0533073 
-1.01986 -0.0533073 12.2892 
8.53334 -0.279783 -1.84419 
-0.279783 12.1671 -0.915971 
-1.84419 -0.915971 8.75037 
7.17603 0.514406 -1.12078 
0.514406 11.1571 -0.462092 
-1.12078 -0.462092 11.1177 
9.44418 0.19217 0.800485 
0.19217 9.55597 -0.61997 
0.800485 -0.61997 9.81661 
9.54441 0.233845 0.9475 
0.233845 9.62382 -0.74464 
0.9475 -0.74464 9.64854 
9.5722 0.185238 0.729781 
0.185238 9.5785 -0.628474 
0.729781 -0.628474 9.66606 
9.50072 0.165854 0.860294 
0.165854 9.59346 -0.758685 
0.860294 -0.758685 9.72259 
8.50176 -0.277221 -1.5325 
-0.277221 9.37155 -0.310788 
-1.5325 -0.310788 9.47846 
8.39493 -0.236301 -1.58985 
-0.236301 9.61669 -0.166221 
-1.58985 -0.166221 9.34015 
8.27095 -0.218626 -1.14559 
-0.218626 9.29017 -0.725368 
-1.14559 -0.725368 9.79065 
8.06553 0.279829 -1.97908 
0.279829 9.84335 -0.217792 
-1.97908 -0.217792 9.44289 
9.0902 -1.43132 -0.597149 
-1.43132 11.3023 -0.953224 
-0.597149 -0.953224 12.7375 
6.29909 4.78479 -2.96794 
4.78479 9.693 -1.21828 
-2.96794 -1.21828 17.1379 
9.50491 1.16808 -1.69912 
1.16808 11.6152 1.29187 
-1.69912 1.29187 12.0099 
8.31739 -0.0529873 -1.7692 
-0.0529873 11.2561 0.274542 
-1.7692 0.274542 13.5565 
7.48513 0.481261 -2.11722 
0.481261 8.52605 -0.551633 
-2.11722 -0.551633 3.64851 
7.84989 0.373832 -3.09825 
0.373832 8.35703 -0.503309 
-3.09825 -0.503309 3.45277 
5.8576 -0.173155 -0.330195 
-0.173155 7.68093 -0.472201 
-0.330195 -0.472201 6.12116 
8.88847 0.278259 -2.53159 
0.278259 8.96976 1.05516 
-2.53159 1.05516 1.80145 
9.73863 -0.0599428 -0.342742 
-0.0599428 9.65789 -0.595035 
-0.342742 -0.595035 9.78631 
9.604 0.0161363 -0.516985 
0.0161363 9.67173 -0.863072 
-0.516985 -0.863072 9.9071 
9.7516 -0.151034 -0.431983 
-0.151034 9.52599 -0.71632 
-0.431983 -0.71632 9.90523 
9.63631 -0.0765296 -0.495061 
-0.0765296 9.65079 -0.717362 
-0.495061 -0.717362 9.89572 
7.8298 -0.360522 2.45762 
-0.360522 7.35359 1.65129 
2.45762 1.65129 2.54962 
5.61219 -1.27386 2.15845 
-1.27386 8.75594 -0.286418 
2.15845 -0.286418 3.36487 
6.29165 0.242812 2.01962 
0.242812 6.52025 -0.0985638 
2.01962 -0.0985638 4.9211 
7.42966 -0.70345 2.33509 
-0.70345 6.89669 0.787582 
2.33509 0.787582 3.40665 
10.0771 -0.197119 -0.236666 
-0.197119 9.89921 -0.101516 
-0.236666 -0.101516 9.70414 
9.76735 -0.0439048 -0.241633 
-0.0439048 9.62542 -0.319305 
-0.241633 -0.319305 10.2876 
9.55857 -0.191306 0.123638 
-0.191306 9.26156 -0.107199 
0.123638 -0.107199 10.8603 
10.0965 -0.514626 -0.312255 
-0.514626 9.6236 -0.303501 
-0.312255 -0.303501 9.96028 
9.81796 -0.21399 0.180376 
-0.21399 9.5795 -0.817128 
0.180376 -0.817128 9.60341 
9.80492 0.102979 0.0359249 
0.102979 9.88687 -0.743241 
0.0359249 -0.743241 9.30908 
9.93632 -0.125529 -0.0724642 
-0.125529 9.81363 -0.895002 
-0.0724642 -0.895002 9.25092 
9.81862 0.0942496 -0.110417 
0.0942496 9.77928 -0.739968 
-0.110417 -0.739968 9.40297 
9.40274 0.541865 -0.920852 
0.541865 9.34292 0.743038 
-0.920852 0.743038 10.2104 
9.37592 0.376758 -0.672716 
0.376758 9.42072 0.510973 
-0.672716 0.510973 10.1594 
9.59496 0.547144 -0.850586 
0.547144 9.15834 0.804557 
-0.850586 0.804557 10.2028 
9.29744 0.635021 -0.833764 
0.635021 9.48155 0.648257 
-0.833764 0.648257 10.1771 
9.76833 -0.0476358 -0.979093 
-0.0476358 9.77147 -0.212196 
-0.979093 -0.212196 9.64238 
9.60362 -0.0414941 -0.931112 
-0.0414941 9.86111 -0.218432 
-0.931112 -0.218432 9.71746 
9.5795 -0.0659865 -1.00334 
-0.0659865 9.97209 -0.265319 
-1.00334 -0.265319 9.6306 
9.71129 -0.0392154 -0.993275 
-0.0392154 9.73339 -0.315582 
-0.993275 -0.315582 9.7375 
8.80501 -0.299837 -0.272732 
-0.299837 9.43875 -0.14479 
-0.272732 -0.14479 10.1497 
8.46062 -0.454073 -0.478929 
-0.454073 9.62611 -0.165362 
-0.478929 -0.165362 10.3068 
9.01084 -0.12477 -0.354327 
-0.12477 9.2745 -0.207332 
-0.354327 -0.207332 10.1082 
8.8565 -0.339167 -0.344643 
-0.339167 9.48521 -0.187894 
-0.344643 -0.187894 10.0518 
8.80661 0.0113399 0.557583 
0.0113399 8.56327 1.61061 
0.557583 1.61061 5.43895 
9.67884 0.741026 0.866092 
0.741026 8.68826 1.92129 
0.866092 1.92129 4.44171 
8.80638 -0.519186 1.20659 
-0.519186 8.82194 2.03067 
1.20659 2.03067 5.18049 
8.98648 -0.468848 0.700084 
-0.468848 8.64974 1.72553 
0.700084 1.72553 5.1726 
9.56537 0.165344 0.603253 
0.165344 9.55495 -0.70698 
0.603253 -0.70698 9.75442 
9.625 0.215107 0.787089 
0.215107 9.56004 -0.661319 
0.787089 -0.661319 9.68971 
9.44044 0.196073 0.622144 
0.196073 9.66656 -0.681404 
0.622144 -0.681404 9.76775 
9.57668 0.135145 0.620231 
0.135145 9.54734 -0.722529 
0.620231 -0.722529 9.75073 
9.73356 -0.498302 -0.0986513 
-0.498302 11.4911 0.0750106 
-0.0986513 0.0750106 12.6259 
11.0238 -1.17573 -0.717366 
-1.17573 10.4437 -0.658446 
-0.717366 -0.658446 12.383 
9.60048 -0.927686 -0.8105 
-0.927686 10.4326 0.501124 
-0.8105 0.501124 13.8175 
10.2319 -0.756124 -0.762199 
-0.756124 10.6706 0.276668 
-0.762199 0.276668 12.9481 
9.25527 -0.0828468 -0.795626 
-0.0828468 9.34311 0.140001 
-0.795626 0.140001 9.65474 
8.99359 0.0729205 -0.785044 
0.0729205 9.32829 0.201547 
-0.785044 0.201547 9.93125 
9.10067 -0.0063589 -0.743828 
-0.0063589 9.45384 0.0468228 
-0.743828 0.0468228 9.69861 
9.04534 0.144019 -0.368926 
0.144019 9.62543 -0.0121033 
-0.368926 -0.0121033 9.58235 
9.76351 -0.0018223 0.854833 
-0.0018223 9.93931 -0.26306 
0.854833 -0.26306 9.96826 
9.86363 0.0706784 0.827295 
0.0706784 9.84096 -0.31685 
0.827295 -0.31685 9.96649 
9.83764 0.0799818 0.887408 
0.0799818 9.9759 -0.315544 
0.887408 -0.315544 9.85754 
9.82655 0.0366059 0.833996 
0.0366059 9.92252 -0.277695 
0.833996 -0.277695 9.92201 
8.51659 -0.592111 -1.80735 
-0.592111 9.328 -0.785217 
-1.80735 -0.785217 8.74132 
8.61233 -0.0565862 -1.46376 
-0.0565862 9.27177 -0.50888 
-1.46376 -0.50888 8.7018 
8.66002 -0.390532 -1.47043 
-0.390532 9.26158 -0.704938 
-1.47043 -0.704938 8.66431 
8.73038 -0.481423 -1.59607 
-0.481423 9.10504 -0.667424 
-1.59607 -0.667424 8.75049 
10.2074 1.26164 0.0627117 
1.26164 8.86562 0.0042094 
0.0627117 0.0042094 11.9385 
10.5887 0.0151316 0.264174 
0.0151316 9.77966 -0.059453 
0.264174 -0.059453 10.6432 
10.3372 0.944629 0.545817 
0.944629 9.06271 -0.336151 
0.545817 -0.336151 11.6116 
10.3752 0.968587 0.451494 
0.968587 8.66811 -0.811499 
0.451494 -0.811499 11.9682 
9.4368 0.0946066 0.0216232 
0.0946066 9.86573 0.134198 
0.0216232 0.134198 9.63154 
9.77614 -0.152287 0.0817439 
-0.152287 8.98399 0.528469 
0.0817439 0.528469 10.1739 
9.77378 -0.0992616 0.0184427 
-0.0992616 9.44672 0.214465 
0.0184427 0.214465 9.71356 
9.46569 -0.385167 0.228572 
-0.385167 9.35398 0.0902774 
0.228572 0.0902774 10.1144 
9.65057 -0.0194354 -0.0180489 
-0.0194354 9.61843 -0.902015 
-0.0180489 -0.902015 9.89336 
9.74755 0.00532829 -0.0398448 
0.00532829 9.61067 -0.771116 
-0.0398448 -0.771116 9.80413 
9.76764 0.0393709 -0.00104021 
0.0393709 9.54494 -0.835839 
-0.00104021 -0.835839 9.84978 
9.71195 0.00644899 -0.00370874 
0.00644899 9.5574 -0.827469 
-0.00370874 -0.827469 9.893 
9.43778 -0.0724007 -0.656539 
-0.0724007 9.38732 0.396755 
-0.656539 0.396755 9.48056 
9.22477 0.432215 -0.42986 
0.432215 9.28 0.291137 
-0.42986 0.291137 9.80089 
9.4312 -0.180227 -0.615575 
-0.180227 9.51578 0.384683 
-0.615575 0.384683 9.35868 
9.10784 0.124113 -0.68132 
0.124113 9.44447 0.687439 
-0.68132 0.687439 9.75335 
8.42137 -0.300338 -0.521838 
-0.300338 8.91324 -0.570014 
-0.521838 -0.570014 5.49865 
9.06232 0.0200485 -0.468871 
0.0200485 8.89347 -0.903013 
-0.468871 -0.903013 4.87747 
9.2087 0.33591 -1.0167 
0.33591 8.55138 -1.31918 
-1.0167 -1.31918 5.07319 
9.09957 0.0831131 -0.091614 
0.0831131 9.27444 -1.06771 
-0.091614 -1.06771 4.45925 
9.57428 0.447049 0.773542 
0.447049 9.40129 -0.863991 
0.773542 -0.863991 9.83752 
9.73104 0.081604 0.478249 
0.081604 9.20745 -0.95833 
0.478249 -0.95833 9.8746 
9.72957 0.166818 0.28037 
0.166818 9.29817 -0.848919 
0.28037 -0.848919 9.78536 
9.59215 0.0852004 0.48947 
0.0852004 9.5133 -0.784119 
0.48947 -0.784119 9.70764 
9.03492 0.703575 -0.549643 
0.703575 8.0199 2.24769 
-0.549643 2.24769 4.25396 
9.10956 0.949352 -0.17548 
0.949352 7.91097 2.65972 
-0.17548 2.65972 4.28825 
9.06917 0.136736 -0.0371323 
0.136736 8.51157 2.394 
-0.0371323 2.394 3.72803 
8.61124 0.322467 -0.961903 
0.322467 8.03428 2.08701 
-0.961903 2.08701 4.66325 
9.97264 0.00197372 0.10957 
0.00197372 9.86515 -0.865962 
0.10957 -0.865962 10.1058 
9.97797 -0.0112305 0.147172 
-0.0112305 9.95389 -0.925643 
0.147172 -0.925643 10.0117 
10.0894 0.032519 0.173011 
0.032519 10.0329 -0.920406 
0.173011 -0.920406 9.82132 
10.0834 0.0705172 0.0900448 
0.0705172 9.90616 -1.02093 
0.0900448 -1.02093 9.95404 
9.92196 -0.381291 -0.0338003 
-0.381291 9.5811 -0.043672 
-0.0338003 -0.043672 10.1834 
9.84836 0.147276 0.0448758 
0.147276 9.88928 0.107611 
0.0448758 0.107611 9.94878 
9.83925 0.0410363 -0.00881916 
0.0410363 9.79955 0.133138 
-0.00881916 0.133138 10.0476 
9.90817 -0.10433 0.353693 
-0.10433 9.55785 0.310001 
0.353693 0.310001 10.2204 
8.78715 -0.235283 -0.319071 
-0.235283 9.32518 0.0948211 
-0.319071 0.0948211 10.3832 
9.56404 -0.916888 -0.178618 
-0.916888 9.25989 -0.0231539 
-0.178618 -0.0231539 9.67159 
10.0588 -0.166017 -0.575304 
-0.166017 9.34584 -0.603302 
-0.575304 -0.603302 9.09085 
9.13009 -0.0297305 -0.378636 
-0.0297305 8.71115 -0.418535 
-0.378636 -0.418535 10.6543 
9.6175 0.938082 0.258599 
0.938082 8.3815 -2.07641 
0.258599 -2.07641 9.82606 
9.71186 1.22376 0.54022 
1.22376 8.55129 -1.74264 
0.54022 -1.74264 9.56191 
9.8554 0.77233 0.329308 
0.77233 8.66565 -2.32826 
0.329308 -2.32826 9.30402 
10.2234 0.357836 0.197735 
0.357836 8.28702 -2.55416 
0.197735 -2.55416 9.31466 
9.69857 -0.279732 0.305127 
-0.279732 9.3625 1.11356 
0.305127 1.11356 9.85437 
9.64069 -0.0364643 0.11845 
-0.0364643 9.3576 0.907757 
0.11845 0.907757 9.91716 
9.79157 -0.0437255 0.126756 
-0.0437255 9.3138 0.960296 
0.126756 0.960296 9.81007 
9.72446 -0.134397 0.142015 
-0.134397 9.38626 0.992163 
0.142015 0.992163 9.80472 
9.60805 0.0955572 0.999345 
0.0955572 9.71833 -0.314144 
0.999345 -0.314144 9.40096 
9.54973 0.286724 1.10249 
0.286724 9.94262 -0.246901 
1.10249 -0.246901 9.23499 
9.51616 0.0171227 1.12261 
0.0171227 9.75741 -0.260987 
1.12261 -0.260987 9.45376 
9.61717 0.0722486 1.06678 
0.0722486 9.72406 -0.270668 
1.06678 -0.270668 9.3861 
9.88585 -0.113996 -0.743022 
-0.113996 9.64953 -0.45666 
-0.743022 -0.45666 9.86416 
9.73192 -0.0476362 -0.848065 
-0.0476362 10.0454 -0.410395 
-0.848065 -0.410395 9.62221 
10.0029 -0.112513 -0.812473 
-0.112513 9.85015 -0.549968 
-0.812473 -0.549968 9.54651 
9.69597 -0.0593388 -0.937562 
-0.0593388 9.98543 -0.431404 
-0.937562 -0.431404 9.71815 
9.5046 0.279117 -0.0995513 
0.279117 9.63225 0.0502629 
-0.0995513 0.0502629 9.93071 
9.51234 0.2329 -0.196689 
0.2329 9.69765 0.0680523 
-0.196689 0.0680523 9.85756 
9.98296 -0.363171 0.154428 
-0.363171 9.6949 -0.0534863 
0.154428 -0.0534863 9.3897 
9.26612 0.0893812 -0.0892192 
0.0893812 9.93165 -0.0386114 
-0.0892192 -0.0386114 9.86979 
9.40905 -0.492873 1.20153 
-0.492873 9.15488 1.73703 
1.20153 1.73703 8.99426 
9.24777 -0.385344 0.817961 
-0.385344 9.1663 1.02699 
0.817961 1.02699 9.14412 
9.90773 -0.359874 1.20047 
-0.359874 8.92555 1.76748 
1.20047 1.76748 8.72491 
10.1175 -0.577585 1.62183 
-0.577585 10.113 1.76339 
1.62183 1.76339 7.32773 
8.26227 1.43401 -1.38246 
1.43401 9.59375 1.17066 
-1.38246 1.17066 10.0218 
8.09885 0.58673 -2.44802 
0.58673 9.84824 1.45781 
-2.44802 1.45781 9.93076 
8.32785 0.959699 -1.80553 
0.959699 9.32307 0.905993 
-1.80553 0.905993 10.2269 
9.79415 1.19788 -1.67596 
1.19788 9.29762 0.71312 
-1.67596 0.71312 8.78608 
5.08638 -0.565259 0.283321 
-0.565259 6.04253 1.3263 
0.283321 1.3263 0.962461 
5.14641 -0.719988 -0.580705 
-0.719988 6.08474 1.35334 
-0.580705 1.35334 0.860224 
5.25005 -1.29526 -0.000389758 
-1.29526 5.59605 1.22125 
-0.000389758 1.22125 1.24528 
4.63121 0.564515 -1.19881 
0.564515 5.22 1.34862 
-1.19881 1.34862 2.24017 
9.27082 -0.0302217 -0.0323058 
-0.0302217 9.38288 0.36803 
-0.0323058 0.36803 10.0943 
9.43537 0.46834 -0.17118 
0.46834 9.54648 -0.237589 
-0.17118 -0.237589 9.76613 
9.00273 0.354203 0.0182743 
0.354203 9.11952 0.697197 
0.0182743 0.697197 10.6257 
9.56734 0.0983731 -0.721355 
0.0983731 9.31939 0.102489 
-0.721355 0.102489 9.86125 
9.22303 0.553133 0.984114 
0.553133 9.5212 -0.966009 
0.984114 -0.966009 8.99294 
9.14813 0.4484 0.916473 
0.4484 9.22547 -1.08476 
0.916473 -1.08476 9.36357 
9.25856 0.386852 1.02881 
0.386852 9.22628 -1.02686 
1.02881 -1.02686 9.25233 
9.24069 0.335371 1.03004 
0.335371 9.23095 -0.976196 
1.03004 -0.976196 9.26553 
8.80951 0.329679 -1.5913 
0.329679 9.22644 0.981829 
-1.5913 0.981829 8.68486 
7.89469 0.962506 -1.93174 
0.962506 8.61541 1.03398 
-1.93174 1.03398 10.2107 
8.0341 0.602454 -1.6156 
0.602454 9.14682 0.96258 
-1.6156 0.96258 9.53989 
7.62849 0.870164 -1.34431 
0.870164 9.15267 1.07648 
-1.34431 1.07648 9.93965 
10.5394 -0.297506 -0.803093 
-0.297506 8.9163 -1.6484 
-0.803093 -1.6484 7.30296 
10.2009 -0.229772 0.342219 
-0.229772 9.42154 -2.73883 
0.342219 -2.73883 7.13618 
10.0958 -0.00803342 -0.721274 
-0.00803342 9.66987 -1.84741 
-0.721274 -1.84741 6.99301 
8.72416 -0.813295 0.141493 
-0.813295 9.13226 -0.828947 
0.141493 -0.828947 8.90223 
9.71052 -0.0795871 0.475546 
-0.0795871 9.78422 0.756543 
0.475546 0.756543 9.95858 
9.83805 -0.0831939 0.520818 
-0.0831939 9.67449 0.735373 
0.520818 0.735373 9.94079 
9.79745 -0.0493983 0.482321 
-0.0493983 9.74761 0.765591 
0.482321 0.765591 9.90827 
9.67212 -0.0524027 0.496397 
-0.0524027 9.81655 0.509484 
0.496397 0.509484 9.96465 
9.6395 -0.0602994 0.524992 
-0.0602994 9.67953 0.697148 
0.524992 0.697148 10.1791 
9.84915 -0.0503724 0.568512 
-0.0503724 9.83721 0.711634 
0.568512 0.711634 9.81172 
9.86657 -0.0424545 0.554673 
-0.0424545 9.81702 0.724906 
0.554673 0.724906 9.81449 
9.83928 -0.1002 0.70993 
-0.1002 9.82882 0.870558 
0.70993 0.870558 9.82998 
7.8662 1.37559 -0.177008 
1.37559 10.7559 0.252564 
-0.177008 0.252564 11.9057 
8.10267 0.112639 -1.36901 
0.112639 10.2964 0.631654 
-1.36901 0.631654 12.1287 
9.26075 -0.463422 -0.781172 
-0.463422 10.504 0.0396165 
-0.781172 0.0396165 10.763 
9.56557 0.144588 -1.5636 
0.144588 10.6295 -1.06205 
-1.5636 -1.06205 10.3328 
10.3128 0.284143 0.542925 
0.284143 9.8753 0.604604 
0.542925 0.604604 9.74775 
9.74395 -0.12594 -0.472308 
-0.12594 9.81201 -0.330127 
-0.472308 -0.330127 10.3799 
9.8106 0.116374 0.328478 
0.116374 10.0085 -0.750646 
0.328478 -0.750646 10.1168 
9.38881 0.183207 -0.439864 
0.183207 10.3225 0.713265 
-0.439864 0.713265 10.2245 
9.22053 -0.0977664 -0.403282 
-0.0977664 9.58961 0.162689 
-0.403282 0.162689 9.75301 
9.18098 0.266065 0.0107285 
0.266065 9.56088 -0.104793 
0.0107285 -0.104793 9.82129 
9.16228 0.00231098 -0.211988 
0.00231098 9.46076 0.0437219 
-0.211988 0.0437219 9.9401 
9.33345 0.102517 -0.439087 
0.102517 9.32899 0.000981578 
-0.439087 0.000981578 9.9007 
9.00185 -0.171219 0.369724 
-0.171219 9.38431 0.0607149 
0.369724 0.0607149 9.75373 
9.93135 0.434666 0.664263 
0.434666 9.10285 0.121299 
0.664263 0.121299 9.1057 
9.0201 -0.214926 0.550422 
-0.214926 9.45983 0.135574 
0.550422 0.135574 9.65997 
8.8799 0.136422 0.437732 
0.136422 9.62704 0.16692 
0.437732 0.16692 9.63295 
9.35737 -0.800513 -0.0831845 
-0.800513 10.6522 0.0951377 
-0.0831845 0.0951377 9.57375 
9.90612 0.706002 -0.00171624 
0.706002 9.14473 0.0101861 
-0.00171624 0.0101861 10.5324 
9.89356 0.329541 -0.0976609 
0.329541 9.56242 -0.258781 
-0.0976609 -0.258781 10.1273 
9.4419 0.46104 0.490893 
0.46104 10.0084 -0.739961 
0.490893 -0.739961 10.133 
8.75293 -0.322765 0.411406 
-0.322765 9.41557 1.11645 
0.411406 1.11645 8.80251 
9.90091 -0.134511 1.12248 
-0.134511 9.3375 0.411625 
1.12248 0.411625 7.73259 
9.77303 0.0269724 0.834402 
0.0269724 9.47321 0.806667 
0.834402 0.806667 7.72477 
9.43788 -0.387955 1.48027 
-0.387955 10.296 1.22314 
1.48027 1.22314 7.23714 
9.85834 -0.00265011 -0.33172 
-0.00265011 9.91589 -0.784707 
-0.33172 -0.784707 9.88405 
9.87681 -0.0507708 -0.295124 
-0.0507708 9.80184 -0.765102 
-0.295124 -0.765102 9.97962 
9.82131 -0.0261257 -0.29087 
-0.0261257 9.79753 -0.824049 
-0.29087 -0.824049 10.0394 
9.8713 -0.0101737 -0.343889 
-0.0101737 9.84054 -0.741286 
-0.343889 -0.741286 9.94643 
9.45798 0.0136773 -0.0500303 
0.0136773 8.94993 0.317668 
-0.0500303 0.317668 10.0069 
9.60292 0.0190851 -0.00802332 
0.0190851 8.90752 0.423841 
-0.00802332 0.423841 9.90436 
9.24594 0.00905214 -0.0345059 
0.00905214 9.12215 0.428536 
-0.0345059 0.428536 10.0467 
9.70357 0.0740849 -0.0684943 
0.0740849 8.53902 0.5424 
-0.0684943 0.5424 10.1722 
9.97253 -0.0705387 -0.247537 
-0.0705387 10.0111 -0.0269104 
-0.247537 -0.0269104 10.3696 
9.68143 -0.036645 0.0115545 
-0.036645 10.1548 -0.0321094 
0.0115545 -0.0321094 10.517 
9.85632 -0.0488046 0.295887 
-0.0488046 10.2196 0.0575198 
0.295887 0.0575198 10.2773 
9.78877 -0.0590253 0.00964711 
-0.0590253 10.1324 -0.0138704 
0.00964711 -0.0138704 10.432 
9.66161 0.0716802 0.664302 
0.0716802 9.65617 0.348558 
0.664302 0.348558 9.57342 
9.66176 0.0351525 0.652238 
0.0351525 9.56718 0.318269 
0.652238 0.318269 9.66226 
9.27803 -0.234678 0.852259 
-0.234678 9.6412 0.415362 
0.852259 0.415362 9.97197 
9.23671 0.00381775 0.538111 
0.00381775 9.68784 0.0825464 
0.538111 0.0825464 9.96665 
9.3995 0.363933 -0.0800908 
0.363933 9.22012 0.118065 
-0.0800908 0.118065 10.0136 
8.66393 0.710323 -0.100701 
0.710323 9.43934 0.213309 
-0.100701 0.213309 10.53 
9.17823 0.0507234 -0.372957 
0.0507234 9.56816 0.0637438 
-0.372957 0.0637438 9.88684 
9.06608 0.218053 -0.130222 
0.218053 9.49763 0.0302671 
-0.130222 0.0302671 10.0695 
9.39664 0.0499172 0.71522 
0.0499172 9.68567 -0.142455 
0.71522 -0.142455 9.77809 
9.39694 -0.0162031 0.940868 
-0.0162031 9.69491 -0.154743 
0.940868 -0.154743 9.76855 
9.20972 0.0859983 0.770185 
0.0859983 9.77681 -0.133405 
0.770185 -0.133405 9.87386 
9.46195 0.103508 0.978592 
0.103508 9.61632 -0.115141 
0.978592 -0.115141 9.78213 
8.59013 0.0284341 1.39021 
0.0284341 9.62104 -0.188617 
1.39021 -0.188617 9.79495 
8.61091 0.0677411 1.39195 
0.0677411 9.57063 0.0199939 
1.39195 0.0199939 9.82457 
8.62889 -0.0498853 1.2884 
-0.0498853 9.55078 -0.142987 
1.2884 -0.142987 9.82645 
8.55788 0.35773 1.23302 
0.35773 9.71778 -0.182794 
1.23302 -0.182794 9.73045 
9.59898 0.00640594 -0.0999546 
0.00640594 9.34956 -0.775576 
-0.0999546 -0.775576 9.71336 
9.57584 -0.0138176 -0.0894819 
-0.0138176 9.39734 -0.722826 
-0.0894819 -0.722826 9.68872 
9.37706 -0.0280947 -0.0708995 
-0.0280947 9.77854 -0.837461 
-0.0708995 -0.837461 9.5063 
9.56064 -0.12168 -0.0809161 
-0.12168 9.41451 -0.740012 
-0.0809161 -0.740012 9.68676 
9.499 -0.00884777 -0.916113 
-0.00884777 9.79805 0.121703 
-0.916113 0.121703 9.68057 
9.56674 0.0279867 -1.30403 
0.0279867 9.95235 0.18662 
-1.30403 0.18662 9.45853 
9.39545 0.0790416 -1.05749 
0.0790416 9.75902 0.212993 
-1.05749 0.212993 9.82315 
9.52143 0.0875198 -1.12216 
0.0875198 9.76337 0.166588 
-1.12216 0.166588 9.69282 
9.93213 0.0437319 0.726475 
0.0437319 9.78989 -0.527668 
0.726475 -0.527668 10.0583 
9.76915 -0.0808649 0.810787 
-0.0808649 10.1328 -0.514554 
0.810787 -0.514554 9.87836 
10.2544 0.115825 0.793758 
0.115825 9.81151 -0.277517 
0.793758 -0.277517 9.71441 
9.73325 0.0343743 1.09019 
0.0343743 10.2381 -0.307114 
1.09019 -0.307114 9.80896 
9.983 -0.00257789 -0.635635 
-0.00257789 10.2111 0.00356824 
-0.635635 0.00356824 9.92525 
9.88181 0.0337244 -0.535039 
0.0337244 10.0337 0.0708463 
-0.535039 0.0708463 10.2038 
10.1305 -0.0167995 -0.748501 
-0.0167995 10.2566 0.0546576 
-0.748501 0.0546576 9.73214 
10.1835 -0.0647643 -0.640141 
-0.0647643 10.1838 -0.0508289 
-0.640141 -0.0508289 9.75203 
9.25447 0.438891 -0.800462 
0.438891 9.45356 0.692293 
-0.800462 0.692293 10.2208 
9.38952 0.448544 -0.744641 
0.448544 9.30248 0.589899 
-0.744641 0.589899 10.2369 
9.26184 0.435109 -0.707511 
0.435109 9.4022 0.571486 
-0.707511 0.571486 10.2648 
9.26753 0.724234 -0.764148 
0.724234 9.29168 0.674485 
-0.764148 0.674485 10.3697 
9.57852 0.124719 0.721945 
0.124719 8.83321 0.410461 
0.721945 0.410461 9.8356 
8.3766 -0.679709 0.986323 
-0.679709 9.87304 0.430224 
0.986323 0.430224 9.99771 
8.81281 -0.387928 1.19919 
-0.387928 9.55448 0.254546 
1.19919 0.254546 9.88005 
8.86378 -0.368107 1.76423 
-0.368107 9.54119 0.79502 
1.76423 0.79502 9.84237 
8.88859 -0.259544 -0.0619605 
-0.259544 9.7667 0.127753 
-0.0619605 0.127753 9.9527 
9.27794 -0.307258 -0.517886 
-0.307258 9.41241 0.135484 
-0.517886 0.135484 9.91764 
9.13248 0.0380184 -0.190616 
0.0380184 9.21305 -0.320341 
-0.190616 -0.320341 10.2625 
8.76877 -0.185942 -0.415387 
-0.185942 9.35086 -0.448255 
-0.415387 -0.448255 10.4884 
9.77646 1.47547 -0.243962 
1.47547 8.66606 1.26456 
-0.243962 1.26456 12.2283 
7.0262 1.17606 1.27666 
1.17606 10.1009 4.66587 
1.27666 4.66587 13.5438 
9.78829 0.568336 1.43034 
0.568336 8.97006 3.03714 
1.43034 3.03714 11.9125 
9.50121 0.488568 -1.62336 
0.488568 10.9388 -1.16454 
-1.62336 -1.16454 10.2308 
9.25815 0.130595 0.485087 
0.130595 9.19838 -0.549231 
0.485087 -0.549231 9.60104 
9.17639 0.162683 0.414025 
0.162683 9.204 -0.438309 
0.414025 -0.438309 9.67719 
9.23074 0.204591 0.580255 
0.204591 9.21292 -0.601701 
0.580255 -0.601701 9.61392 
9.33857 0.103188 0.467944 
0.103188 9.20898 -0.645201 
0.467944 -0.645201 9.51003 
8.55387 0.374548 1.57652 
0.374548 10.3295 -0.210865 
1.57652 -0.210865 10.7719 
8.81814 0.265109 1.44815 
0.265109 10.3371 -0.211665 
1.44815 -0.211665 10.5 
8.86626 0.44541 1.48924 
0.44541 10.1912 -0.151903 
1.48924 -0.151903 10.5978 
8.78735 0.244809 1.23964 
0.244809 10.3543 -0.351758 
1.23964 -0.351758 10.5136 
9.33741 -0.0325181 0.114442 
-0.0325181 9.73226 -0.47713 
0.114442 -0.47713 9.40705 
9.67176 0.117886 0.199051 
0.117886 9.07323 -0.742928 
0.199051 -0.742928 9.73173 
9.44915 0.0574734 0.0981752 
0.0574734 9.39385 -0.552381 
0.0981752 -0.552381 9.63373 
9.48516 0.175097 0.246202 
0.175097 9.22433 -0.434103 
0.246202 -0.434103 9.76723 
7.88152 -1.74824 0.26352 
-1.74824 11.7884 -0.557224 
0.26352 -0.557224 15.2944 
10.1051 -1.11167 -1.37274 
-1.11167 11.1808 -0.647052 
-1.37274 -0.647052 13.6785 
12.1058 -0.660538 -0.0703988 
-0.660538 10.0752 0.204027 
-0.0703988 0.204027 12.7834 
10.1134 -1.64203 -0.702762 
-1.64203 11.1551 -1.10693 
-0.702762 -1.10693 13.6959 
9.89915 -0.103342 -0.0342276 
-0.103342 9.66706 0.744323 
-0.0342276 0.744323 9.69501 
9.81538 -0.00166902 0.0872344 
-0.00166902 9.62817 0.936761 
0.0872344 0.936761 9.81766 
9.56764 0.00238275 0.0305707 
0.00238275 9.79531 0.720567 
0.0305707 0.720567 9.89826 
9.71308 -0.000995224 0.0506072 
-0.000995224 9.62868 0.841976 
0.0506072 0.841976 9.91946 
9.35761 -0.0545345 -1.2546 
-0.0545345 9.73213 -0.0888808 
-1.2546 -0.0888808 9.56953 
9.192 0.126635 -1.30297 
0.126635 9.97971 -0.0317273 
-1.30297 -0.0317273 9.48756 
9.31193 -0.101407 -1.30673 
-0.101407 9.85148 -0.120345 
-1.30673 -0.120345 9.49586 
9.31191 -0.289404 -1.40332 
-0.289404 9.8861 -0.268885 
-1.40332 -0.268885 9.46126 
11.6411 4.64315 -0.222173 
4.64315 9.40081 0.0269015 
-0.222173 0.0269015 20.571 
11.1105 7.28401 -3.50821 
7.28401 3.43643 2.38481 
-3.50821 2.38481 27.066 
3.94929 7.96013 -4.18534 
7.96013 3.4724 4.37471 
-4.18534 4.37471 34.1912 
12.2451 2.92703 -2.93439 
2.92703 10.5715 1.02087 
-2.93439 1.02087 18.7963 
8.51266 -1.26545 1.9251 
-1.26545 8.90235 1.17923 
1.9251 1.17923 9.62137 
8.78699 -1.03108 1.75349 
-1.03108 8.80021 1.14348 
1.75349 1.14348 9.44918 
7.89984 -0.948152 1.70083 
-0.948152 9.04452 1.31299 
1.70083 1.31299 10.092 
8.46484 -0.95759 1.72632 
-0.95759 9.51368 1.544 
1.72632 1.544 9.05787 
9.56962 -0.0859386 0.545245 
-0.0859386 9.67839 0.745737 
0.545245 0.745737 9.8893 
9.58424 -0.14006 0.662056 
-0.14006 9.62302 0.68509 
0.662056 0.68509 9.93005 
9.84278 -0.231833 0.571001 
-0.231833 9.47166 0.718877 
0.571001 0.718877 9.82288 
9.75741 -0.0592794 0.376842 
-0.0592794 9.63586 0.345089 
0.376842 0.345089 9.74404 
8.99929 -1.03948 0.46384 
-1.03948 7.02663 1.64533 
0.46384 1.64533 11.0281 
8.87722 -1.28567 0.847337 
-1.28567 7.05249 0.972865 
0.847337 0.972865 11.1243 
9.45058 -1.05117 1.41221 
-1.05117 6.73114 0.846746 
1.41221 0.846746 10.8723 
9.08194 -1.5254 1.09999 
-1.5254 7.05691 2.17345 
1.09999 2.17345 10.9152 
9.29999 -0.0640248 -0.550469 
-0.0640248 9.29868 -0.591093 
-0.550469 -0.591093 9.70002 
9.6032 -0.0643891 -0.753674 
-0.0643891 9.25525 -0.318721 
-0.753674 -0.318721 9.44023 
9.32452 -0.080178 -0.56346 
-0.080178 9.30506 -0.425991 
-0.56346 -0.425991 9.66911 
9.30534 -0.230936 -0.572178 
-0.230936 9.30497 -0.23882 
-0.572178 -0.23882 9.68837 
9.68828 0.0686108 -0.76428 
0.0686108 9.71003 0.565442 
-0.76428 0.565442 9.82822 
9.72468 0.107201 -0.76072 
0.107201 9.73506 0.577668 
-0.76072 0.577668 9.7668 
9.7272 0.163413 -0.719521 
0.163413 9.65843 0.523136 
-0.719521 0.523136 9.8409 
9.69542 0.0635622 -0.728073 
0.0635622 9.75682 0.593537 
-0.728073 0.593537 9.77429 
9.68105 0.391327 -1.87426 
0.391327 7.77175 2.20358 
-1.87426 2.20358 4.80516 
7.49725 -0.123104 -1.25507 
-0.123104 8.77129 1.89966 
-1.25507 1.89966 5.98942 
9.05248 0.507984 -1.37279 
0.507984 8.12533 2.6999 
-1.37279 2.6999 5.08015 
9.18614 0.432084 -0.0991226 
0.432084 7.48153 2.03514 
-0.0991226 2.03514 5.5903 
9.8147 0.0725676 -0.0950578 
0.0725676 10.1297 -0.0548205 
-0.0950578 -0.0548205 9.99661 
10.0768 -0.49606 0.0175245 
-0.49606 9.32663 0.0396495 
0.0175245 0.0396495 10.5376 
9.84691 0.0897976 -0.12358 
0.0897976 9.99857 -0.101087 
-0.12358 -0.101087 10.0955 
9.62571 -0.275805 -0.121683 
-0.275805 10.0525 -0.661514 
-0.121683 -0.661514 10.2628 
9.63443 0.116206 0.0757673 
0.116206 9.54742 -0.323336 
0.0757673 -0.323336 9.81111 
9.45283 -0.277501 0.0405114 
-0.277501 9.9728 -0.188903 
0.0405114 -0.188903 9.56734 
9.82861 0.468876 0.0564369 
0.468876 8.94626 -0.243743 
0.0564369 -0.243743 10.2181 
9.38811 0.0848844 0.379086 
0.0848844 9.78127 -0.924883 
0.379086 -0.924883 9.82358 
9.28652 0.034206 0.546852 
0.034206 9.34476 -0.119992 
0.546852 -0.119992 9.5357 
10.103 0.261394 0.694308 
0.261394 9.03808 0.0183473 
0.694308 0.0183473 9.02589 
8.60773 -0.244241 0.0690222 
-0.244241 9.76109 0.0765101 
0.0690222 0.0765101 9.79817 
8.77875 -0.0347945 0.713125 
-0.0347945 9.3487 0.272477 
0.713125 0.272477 10.0395 
9.44205 -0.0165424 0.0972149 
-0.0165424 8.40739 1.43247 
0.0972149 1.43247 9.58033 
9.47627 0.0042363 -0.109299 
0.0042363 8.15636 1.22783 
-0.109299 1.22783 9.79714 
9.89433 -0.354471 0.263323 
-0.354471 7.94685 2.03883 
0.263323 2.03883 9.5886 
9.27987 0.136052 0.0617897 
0.136052 8.80516 1.38189 
0.0617897 1.38189 9.34474 
7.85868 0.874704 -1.51454 
0.874704 8.99486 1.1173 
-1.51454 1.1173 9.95989 
8.04327 0.921184 -1.24164 
0.921184 8.95288 1.25203 
-1.24164 1.25203 9.81727 
7.89795 1.02353 -1.12463 
1.02353 8.66568 0.786933 
-1.12463 0.786933 10.2498 
7.99132 0.937045 -1.55767 
0.937045 8.60281 0.835463 
-1.55767 0.835463 10.2193 
9.28011 -0.262315 2.01251 
-0.262315 9.82871 -0.35291 
2.01251 -0.35291 8.82019 
9.02044 0.284261 1.96959 
0.284261 10.1103 -0.464405 
1.96959 -0.464405 8.79827 
8.21606 0.388085 2.50125 
0.388085 10.3582 -0.32064 
2.50125 -0.32064 9.35477 
8.43816 0.142759 1.32128 
0.142759 9.58337 -0.258689 
1.32128 -0.258689 9.90747 
9.78629 -0.391511 -0.697642 
-0.391511 9.13487 -1.3006 
-0.697642 -1.3006 9.80359 
9.40864 -0.107897 -0.501673 
-0.107897 9.08045 -0.644543 
-0.501673 -0.644543 10.2357 
9.86826 -0.222085 -0.537063 
-0.222085 9.57771 -1.16059 
-0.537063 -1.16059 9.27877 
9.51536 -0.297262 -0.627557 
-0.297262 9.66711 -1.14002 
-0.627557 -1.14002 9.54228 
8.74252 0.384384 2.75604 
0.384384 10.7939 -1.05693 
2.75604 -1.05693 10.6321 
8.29399 -0.60765 1.60575 
-0.60765 10.6495 0.783894 
1.60575 0.783894 11.225 
9.81952 0.393994 -0.197559 
0.393994 9.70999 0.326969 
-0.197559 0.326969 10.639 
8.44449 -0.221405 0.890373 
-0.221405 11.4266 -1.2464 
0.890373 -1.2464 10.2975 
9.36495 0.294942 -0.560516 
0.294942 9.88058 0.223225 
-0.560516 0.223225 9.90151 
8.58341 -0.0411316 0.346987 
-0.0411316 10.0182 -0.292036 
0.346987 -0.292036 10.5455 
8.98327 0.0851391 -0.640083 
0.0851391 9.30399 0.310977 
-0.640083 0.310977 10.8598 
8.95088 0.115037 -0.30908 
0.115037 9.78775 0.0668636 
-0.30908 0.0668636 10.4084 
10.0487 -0.108958 0.0917022 
-0.108958 9.88312 0.0347624 
0.0917022 0.0347624 10.1377 
9.84601 0.0446234 0.0852155 
0.0446234 10.0447 0.267414 
0.0852155 0.267414 10.1788 
10.1493 -0.065045 -0.0582576 
-0.065045 9.92638 -0.197824 
-0.0582576 -0.197824 9.99383 
10.0207 -0.0073423 0.0287013 
-0.0073423 9.74515 -0.0342945 
0.0287013 -0.0342945 10.3037 
9.75805 0.0896774 -0.0461031 
0.0896774 9.92289 -0.147703 
-0.0461031 -0.147703 9.9135 
9.78604 -0.469197 -0.0957052 
-0.469197 9.54192 -0.0784622 
-0.0957052 -0.0784622 10.2665 
9.77935 -0.230405 -0.178773 
-0.230405 9.62379 -0.228517 
-0.178773 -0.228517 10.1913 
10.0192 0.113069 -0.165686 
0.113069 9.47798 -0.2536 
-0.165686 -0.2536 10.0973 
9.49413 0.0129632 0.803766 
0.0129632 9.61725 -0.130172 
0.803766 -0.130172 9.79642 
9.51515 0.0513896 0.770137 
0.0513896 9.6609 -0.0994071 
0.770137 -0.0994071 9.73175 
9.52087 0.00286305 0.798876 
0.00286305 9.65056 -0.13388 
0.798876 -0.13388 9.73637 
9.53598 0.0403882 0.770255 
0.0403882 9.62017 -0.14124 
0.770255 -0.14124 9.75164 
9.43376 0.11553 -0.614196 
0.11553 9.54389 0.540229 
-0.614196 0.540229 9.84593 
9.56887 0.190241 -0.63736 
0.190241 9.52684 0.471874 
-0.63736 0.471874 9.72788 
9.53663 0.119754 -0.629298 
0.119754 9.59046 0.488307 
-0.629298 0.488307 9.69649 
9.59699 0.0900681 -0.585731 
0.0900681 9.44118 0.557394 
-0.585731 0.557394 9.78542 
9.62693 -0.0310962 -0.756558 
-0.0310962 9.8452 0.428622 
-0.756558 0.428622 9.94515 
9.71577 0.141584 -0.798211 
0.141584 9.73949 0.484909 
-0.798211 0.484909 9.96203 
9.76731 0.146875 -0.79535 
0.146875 9.75983 0.507841 
-0.79535 0.507841 9.89014 
9.63405 0.0622416 -0.928614 
0.0622416 9.88371 0.604062 
-0.928614 0.604062 9.89952 
9.25245 0.304719 -0.630345 
0.304719 9.33394 0.547268 
-0.630345 0.547268 9.85046 
9.35398 0.168426 -0.631787 
0.168426 9.37967 0.562244 
-0.631787 0.562244 9.70319 
9.26231 0.156043 -0.580264 
0.156043 9.44545 0.541073 
-0.580264 0.541073 9.72908 
9.46421 0.0273518 -0.654491 
0.0273518 9.23878 0.693874 
-0.654491 0.693874 9.73385 
9.89708 0.25619 0.0683266 
0.25619 9.58485 -0.0859335 
0.0683266 -0.0859335 9.75434 
9.56356 0.470618 -0.0834641 
0.470618 9.32452 0.0790394 
-0.0834641 0.0790394 10.3482 
9.3421 0.644116 0.112224 
0.644116 9.41974 0.0779886 
0.112224 0.0779886 10.4744 
9.20369 -0.0841808 -0.634191 
-0.0841808 9.82281 0.560385 
-0.634191 0.560385 10.2098 
10.7902 -0.255955 1.63306 
-0.255955 7.27073 -0.384809 
1.63306 -0.384809 14.9773 
11.409 -1.40353 -2.21283 
-1.40353 8.51813 -1.99333 
-2.21283 -1.99333 13.1111 
10.6559 -0.188358 -2.43559 
-0.188358 9.84505 0.168503 
-2.43559 0.168503 12.5374 
10.1445 -0.45513 0.603471 
-0.45513 9.36 -1.48906 
0.603471 -1.48906 13.5338 
11.6367 4.87606 0.998184 
4.87606 5.831 3.42782 
0.998184 3.42782 16.7562 
11.9932 -0.775172 0.344436 
-0.775172 8.68201 1.431 
0.344436 1.431 13.5487 
11.6665 0.353751 -1.26143 
0.353751 9.61962 2.6256 
-1.26143 2.6256 12.9378 
12.5347 0.572467 -0.0106382 
0.572467 8.2719 2.79583 
-0.0106382 2.79583 13.4173 
9.93532 -0.365469 -0.97577 
-0.365469 9.1291 -1.31896 
-0.97577 -1.31896 8.43471 
9.43069 -0.432014 -0.647938 
-0.432014 8.84044 -1.03024 
-0.647938 -1.03024 9.228 
9.27587 -0.245442 -0.862169 
-0.245442 9.32238 -0.969473 
-0.862169 -0.969473 8.90087 
9.33023 -0.154568 -0.973389 
-0.154568 9.33901 -1.05058 
-0.973389 -1.05058 8.8299 
8.96538 -1.79281 0.0253785 
-1.79281 3.31314 -0.0571486 
0.0253785 -0.0571486 0.444836 
3.17083 0.805222 1.84268 
0.805222 8.20866 1.66692 
1.84268 1.66692 1.34386 
4.67508 0.588028 -0.24519 
0.588028 6.00505 0.52923 
-0.24519 0.52923 2.04322 
7.42618 -1.80726 4.54594 
-1.80726 1.53882 5.25394 
4.54594 5.25394 3.75835 
10.7843 -2.13733 0.969212 
-2.13733 11.5696 0.915264 
0.969212 0.915264 17.2044 
11.4592 -1.59464 0.921132 
-1.59464 12.3212 0.684842 
0.921132 0.684842 15.7779 
10.1109 -1.97075 1.29553 
-1.97075 12.0611 0.490633 
1.29553 0.490633 17.3864 
11.1558 -1.96335 1.94161 
-1.96335 12.3824 1.81143 
1.94161 1.81143 16.0202 
9.97503 -0.00769647 0.853081 
-0.00769647 9.91851 0.0770263 
0.853081 0.0770263 9.91398 
9.86467 0.0557544 0.879955 
0.0557544 10.0068 0.0522432 
0.879955 0.0522432 9.93602 
9.8045 0.00947325 0.994925 
0.00947325 9.94318 0.0694892 
0.994925 0.0694892 10.0598 
9.79981 0.0493839 0.885118 
0.0493839 10.0016 0.107407 
0.885118 0.107407 10.0061 
9.54149 0.00195556 -0.0141729 
0.00195556 9.85867 0.031885 
-0.0141729 0.031885 10.0453 
9.60762 0.0747959 -0.15326 
0.0747959 9.76936 0.0942955 
-0.15326 0.0942955 10.0685 
9.61472 0.15713 -0.111259 
0.15713 9.9004 -0.0978088 
-0.111259 -0.0978088 9.93038 
9.68369 0.0854751 -0.117446 
0.0854751 9.72951 0.0715732 
-0.117446 0.0715732 10.0323 
10.8596 -0.306358 -0.375049 
-0.306358 9.52024 -0.58831 
-0.375049 -0.58831 9.80794 
9.89092 -1.21448 0.124458 
-1.21448 9.56936 -0.228235 
0.124458 -0.228235 10.7275 
9.75934 0.467994 0.261042 
0.467994 9.95619 1.12275 
0.261042 1.12275 10.4723 
9.10747 0.137822 0.163464 
0.137822 9.64678 -0.0927736 
0.163464 -0.0927736 11.4336 
8.56501 0.485637 -1.27782 
0.485637 9.62271 0.537674 
-1.27782 0.537674 9.78252 
8.39975 0.276154 -1.0947 
0.276154 9.70405 0.734634 
-1.0947 0.734634 9.86644 
8.45004 0.903735 -0.576721 
0.903735 9.49476 0.861291 
-0.576721 0.861291 10.0254 
8.96037 0.190728 -1.17435 
0.190728 9.03282 0.205795 
-1.17435 0.205795 9.97706 
9.54793 0.0822501 -0.784426 
0.0822501 9.29411 -0.345613 
-0.784426 -0.345613 9.34116 
8.87885 -0.135865 -0.468208 
-0.135865 9.61745 -0.0645985 
-0.468208 -0.0645985 9.6869 
9.59454 -0.00297977 -0.760289 
-0.00297977 9.28815 -0.218687 
-0.760289 -0.218687 9.30051 
9.1311 -0.203647 -0.871899 
-0.203647 9.24093 -0.0658151 
-0.871899 -0.0658151 9.81117 
10.9777 -0.0295957 1.11477 
-0.0295957 8.13771 -3.55862 
1.11477 -3.55862 6.5908 
8.68359 -1.32872 -0.0990086 
-1.32872 8.61349 0.0314783 
-0.0990086 0.0314783 8.40913 
7.72458 -0.0513519 -0.274112 
-0.0513519 8.52822 -3.27473 
-0.274112 -3.27473 9.4534 
9.33548 1.59059 0.538928 
1.59059 7.76565 -3.10936 
0.538928 -3.10936 8.60507 
10.4913 -0.246317 0.375053 
-0.246317 10.1321 0.615258 
0.375053 0.615258 9.70741 
9.84433 -0.0402676 0.134939 
-0.0402676 10.1236 0.30157 
0.134939 0.30157 10.3628 
9.85454 0.432075 -0.383079 
0.432075 9.82401 -0.758627 
-0.383079 -0.758627 10.6523 
10.0357 -0.361277 0.214915 
-0.361277 9.63454 0.0718119 
0.214915 0.0718119 10.6605 
10.2374 -1.05055 -0.0831564 
-1.05055 9.78302 -0.0373984 
-0.0831564 -0.0373984 8.5967 
7.47694 -0.0596303 0.570119 
-0.0596303 9.26683 -0.0325792 
0.570119 -0.0325792 11.8734 
9.37237 0.888277 -0.0892543 
0.888277 8.79557 -0.588491 
-0.0892543 -0.588491 10.4492 
9.1972 -0.966945 0.956496 
-0.966945 10.3917 1.83687 
0.956496 1.83687 9.02827 
8.9134 0.396128 1.04044 
0.396128 9.33667 -0.192134 
1.04044 -0.192134 9.83699 
8.70241 0.211224 1.1842 
0.211224 9.49563 -0.505969 
1.1842 -0.505969 9.88902 
8.80061 0.251608 1.20535 
0.251608 9.52419 -0.286152 
1.20535 -0.286152 9.76226 
8.83289 0.17824 1.14946 
0.17824 9.63505 -0.326306 
1.14946 -0.326306 9.61912 
9.49921 0.0457835 0.914613 
0.0457835 9.7768 -0.311838 
0.914613 -0.311838 9.82796 
9.51302 0.0754687 0.914224 
0.0754687 9.75783 -0.275627 
0.914224 -0.275627 9.83313 
9.55075 0.108381 0.912587 
0.108381 9.76429 -0.270714 
0.912587 -0.270714 9.78893 
9.55471 0.098234 0.863511 
0.098234 9.7344 -0.16841 
0.863511 -0.16841 9.81487 
9.27321 0.378069 -0.00139998 
0.378069 8.88109 -1.42001 
-0.00139998 -1.42001 9.60057 
9.72168 0.174111 0.356063 
0.174111 8.35591 -1.44173 
0.356063 -1.44173 9.67728 
9.68929 0.0803222 0.0525904 
0.0803222 8.40945 -1.43848 
0.0525904 -1.43848 9.65612 
9.67148 0.0105498 -0.12558 
0.0105498 8.4022 -1.70202 
-0.12558 -1.70202 9.68118 
8.45572 0.183776 -1.61831 
0.183776 10.403 0.526309 
-1.61831 0.526309 9.57387 
9.08493 0.33681 -1.31053 
0.33681 9.64269 0.598352 
-1.31053 0.598352 9.70495 
8.95453 0.504222 -1.27453 
0.504222 9.574 0.62296 
-1.27453 0.62296 9.90403 
9.17908 0.782517 -1.4657 
0.782517 9.54804 0.653155 
-1.4657 0.653155 9.70544 
9.99877 1.59848 0.149848 
1.59848 10.0629 0.519804 
0.149848 0.519804 9.29434 
10.7654 0.119378 -0.0456474 
0.119378 7.2028 2.61619 
-0.0456474 2.61619 11.3878 
10.1414 0.0219183 -0.000467241 
0.0219183 6.83545 1.47799 
-0.000467241 1.47799 12.3791 
10.3157 0.169187 0.45596 
0.169187 7.59325 1.67207 
0.45596 1.67207 11.447 
9.69094 -0.782073 0.456167 
-0.782073 8.14414 0.244481 
0.456167 0.244481 12.5538 
9.83778 -0.558236 0.711133 
-0.558236 8.08522 1.19513 
0.711133 1.19513 12.4659 
11.3573 0.0322066 -0.896907 
0.0322066 9.04984 0.59551 
-0.896907 0.59551 9.98174 
10.4961 -1.48833 1.04791 
-1.48833 7.72763 1.62854 
1.04791 1.62854 12.1651 
9.68228 -0.0835393 0.790291 
-0.0835393 9.65848 0.444253 
0.790291 0.444253 9.79205 
9.5776 -0.141779 0.746806 
-0.141779 9.70632 0.406962 
0.746806 0.406962 9.84889 
9.67903 -0.0923204 0.820694 
-0.0923204 9.68332 0.457865 
0.820694 0.457865 9.77046 
9.69569 -0.0750234 0.784975 
-0.0750234 9.66847 0.456159 
0.784975 0.456159 9.76865 
9.59578 -0.354018 0.516321 
-0.354018 8.89316 0.999789 
0.516321 0.999789 9.36726 
9.83854 -0.168451 0.362625 
-0.168451 8.6761 1.68588 
0.362625 1.68588 9.34156 
9.59835 -0.0606332 0.237851 
-0.0606332 9.03166 1.47083 
0.237851 1.47083 9.22618 
9.55498 0.0138075 0.190973 
0.0138075 8.98647 1.40913 
0.190973 1.40913 9.31474 
9.00273 0.0133777 -0.489494 
0.0133777 9.61293 0.107708 
-0.489494 0.107708 10.017 
8.6019 0.465193 -0.557605 
0.465193 9.78522 0.0911475 
-0.557605 0.0911475 10.2455 
9.43311 0.355595 -0.832428 
0.355595 9.16992 0.544102 
-0.832428 0.544102 10.0296 
9.20357 0.141795 -1.01289 
0.141795 9.38651 0.384812 
-1.01289 0.384812 10.0426 
8.31468 -0.267604 -1.18992 
-0.267604 9.79228 -0.14413 
-1.18992 -0.14413 9.67475 
8.5482 -0.287047 -1.62615 
-0.287047 9.60457 -0.437274 
-1.62615 -0.437274 9.62893 
8.43105 -0.312941 -1.48126 
-0.312941 9.68039 -0.280251 
-1.48126 -0.280251 9.67026 
8.07539 -0.426918 -1.80473 
-0.426918 9.95342 -0.448275 
-1.80473 -0.448275 9.7529 
9.36453 -0.0863137 0.170604 
-0.0863137 9.18315 0.0977955 
0.170604 0.0977955 6.68604 
9.46195 0.430058 0.605236 
0.430058 9.39482 -0.186932 
0.605236 -0.186932 6.37695 
9.80352 0.48381 0.69676 
0.48381 9.21348 -0.272332 
0.69676 -0.272332 6.21672 
9.41767 0.257912 1.18402 
0.257912 9.67877 -0.314486 
1.18402 -0.314486 6.13728 
10.0443 -0.0767922 -0.139624 
-0.0767922 9.91866 -0.282623 
-0.139624 -0.282623 10.4677 
9.86519 -0.402066 -0.0586738 
-0.402066 10.2004 -0.197624 
-0.0586738 -0.197624 10.3652 
9.56364 -0.809808 -0.150876 
-0.809808 9.92094 -0.275659 
-0.150876 -0.275659 10.9462 
9.8647 -0.131298 -0.33309 
-0.131298 10.4008 0.1968 
-0.33309 0.1968 10.1652 
9.84628 0.0144322 0.163747 
0.0144322 9.8112 0.890941 
0.163747 0.890941 9.93203 
9.8326 -0.0742306 0.147844 
-0.0742306 9.80649 0.758297 
0.147844 0.758297 9.95043 
9.79635 -0.0171394 0.163746 
-0.0171394 9.79526 0.796974 
0.163746 0.796974 9.99791 
9.90028 -0.00435291 0.19167 
-0.00435291 9.77105 0.868579 
0.19167 0.868579 9.9182 
9.39273 -0.0318203 -0.220746 
-0.0318203 9.42518 0.385043 
-0.220746 0.385043 9.54313 
9.80396 -0.539745 -0.39901 
-0.539745 9.41203 0.282356 
-0.39901 0.282356 9.14505 
8.99734 0.792809 -0.00738925 
0.792809 9.39674 -0.157869 
-0.00738925 -0.157869 9.96695 
9.10457 0.317701 -0.767561 
0.317701 8.85475 0.395756 
-0.767561 0.395756 10.4017 
9.13012 -0.244237 0.571653 
-0.244237 9.69095 0.236029 
0.571653 0.236029 9.98754 
9.71093 0.144919 0.297738 
0.144919 9.45118 -0.00186176 
0.297738 -0.00186176 9.64649 
9.3802 -0.161421 0.376301 
-0.161421 9.63277 0.0716832 
0.376301 0.0716832 9.79564 
9.55762 -0.306445 0.267242 
-0.306445 9.2893 0.286645 
0.267242 0.286645 9.96168 
8.10851 0.0225423 -0.034632 
0.0225423 10.9146 0.172934 
-0.034632 0.172934 11.7569 
9.38163 0.461425 0.789401 
0.461425 10.2938 0.0448953 
0.789401 0.0448953 11.1046 
8.56125 0.28469 1.0478 
0.28469 10.1754 -0.032943 
1.0478 -0.032943 12.0434 
9.39858 0.194869 0.981873 
0.194869 10.866 -0.438491 
0.981873 -0.438491 10.5154 
9.65035 0.218733 -0.256376 
0.218733 9.40424 1.0515 
-0.256376 1.0515 9.54968 
9.61286 0.118176 -0.26448 
0.118176 9.46528 1.19589 
-0.26448 1.19589 9.52613 
10.0414 0.131596 -0.00837134 
0.131596 9.06815 1.60524 
-0.00837134 1.60524 9.49472 
9.60555 0.0514967 -0.0436857 
0.0514967 9.56787 0.961553 
-0.0436857 0.961553 9.43085 
10.0637 0.43872 0.0414331 
0.43872 8.84116 0.268553 
0.0414331 0.268553 10.6711 
10.0987 0.454159 -0.176663 
0.454159 8.89996 0.39428 
-0.176663 0.39428 10.5773 
10.1946 0.490282 -0.0666907 
0.490282 8.66132 0.264411 
-0.0666907 0.264411 10.7201 
9.98368 -0.0829211 -0.409494 
-0.0829211 8.93731 0.723995 
-0.409494 0.723995 10.655 
9.98624 -0.036489 0.647866 
-0.036489 9.99456 0.649959 
0.647866 0.649959 9.97143 
9.9794 -0.0297861 0.648566 
-0.0297861 10.09 0.629708 
0.648566 0.629708 9.88283 
9.95736 -0.0968178 0.666067 
-0.0968178 9.91758 0.614806 
0.666067 0.614806 10.0773 
10.0249 -0.0131191 0.67617 
-0.0131191 10.0089 0.710213 
0.67617 0.710213 9.91841 
9.09367 0.550556 -0.672342 
0.550556 10.2845 0.368675 
-0.672342 0.368675 11.2379 
9.53564 0.857969 -0.549554 
0.857969 10.1263 0.267299 
-0.549554 0.267299 10.9542 
9.17453 0.70843 -0.614055 
0.70843 10.0175 0.341556 
-0.614055 0.341556 11.4241 
9.41321 0.603115 -0.62215 
0.603115 10.0809 0.45877 
-0.62215 0.45877 11.122 
9.63547 0.196959 -0.525435 
0.196959 9.97889 0.968537 
-0.525435 0.968537 9.59627 
9.92629 0.28491 -1.30494 
0.28491 10.0632 1.1618 
-1.30494 1.1618 9.22118 
9.92475 0.755831 -0.667009 
0.755831 9.75313 1.31661 
-0.667009 1.31661 9.53275 
9.66493 0.0426706 -0.81717 
0.0426706 10.0481 1.15411 
-0.81717 1.15411 9.49758 
9.65599 0.462815 1.35417 
0.462815 9.31122 -1.23314 
1.35417 -1.23314 8.22858 
9.25985 0.169618 0.975469 
0.169618 9.29928 -0.852526 
0.975469 -0.852526 8.63665 
9.4183 0.429718 0.659201 
0.429718 8.8417 -1.03179 
0.659201 -1.03179 8.93578 
9.15845 0.140319 1.03065 
0.140319 9.25693 -0.883224 
1.03065 -0.883224 8.78041 
12.8157 0.481148 0.454757 
0.481148 9.49075 -0.751018 
0.454757 -0.751018 14.1983 
9.93891 -6.40093 1.36589 
-6.40093 8.3746 -1.1356 
1.36589 -1.1356 18.1912 
10.8871 -0.342693 1.25493 
-0.342693 10.3548 2.26355 
1.25493 2.26355 15.2629 
12.8864 -1.74796 0.452706 
-1.74796 9.39971 2.16921 
0.452706 2.16921 14.2186 
9.36365 -0.488283 0.137134 
-0.488283 8.99197 0.0148889 
0.137134 0.0148889 9.99216 
9.34937 0.159121 0.598268 
0.159121 9.50903 0.308051 
0.598268 0.308051 9.48938 
9.35297 0.277683 0.585926 
0.277683 9.85679 0.351754 
0.585926 0.351754 9.13803 
9.083 -0.370385 0.28704 
-0.370385 9.22768 0.715651 
0.28704 0.715651 10.0371 
9.46026 0.0431011 -0.109265 
0.0431011 9.21373 0.331024 
-0.109265 0.331024 9.93312 
9.55133 -0.246102 -0.390727 
-0.246102 8.7129 0.683788 
-0.390727 0.683788 10.3429 
9.63593 -0.280831 0.309792 
-0.280831 9.05465 0.211987 
0.309792 0.211987 9.91652 
9.47502 -0.171597 0.637605 
-0.171597 9.38877 0.523533 
0.637605 0.523533 9.74332 
9.6879 -0.202171 0.0100726 
-0.202171 8.85623 -0.208886 
0.0100726 -0.208886 9.72674 
9.18617 -0.093933 -0.476445 
-0.093933 8.59684 -0.402546 
-0.476445 -0.402546 10.4879 
9.19092 -0.00788685 -0.275513 
-0.00788685 9.06786 -0.297545 
-0.275513 -0.297545 10.0121 
9.58887 -0.165863 0.107378 
-0.165863 9.18092 -0.691488 
0.107378 -0.691488 9.50108 
9.73621 -0.0130759 0.212961 
-0.0130759 9.77468 -0.926423 
0.212961 -0.926423 10.1291 
9.93095 -0.0252739 0.300759 
-0.0252739 9.82893 -0.820982 
0.300759 -0.820982 9.88009 
9.93037 -0.00579488 0.310838 
-0.00579488 9.86984 -0.821831 
0.310838 -0.821831 9.83977 
9.97189 0.0171317 0.247754 
0.0171317 9.81042 -0.752493 
0.247754 -0.752493 9.85767 
9.25686 0.224465 -0.649957 
0.224465 8.86597 1.33026 
-0.649957 1.33026 7.50459 
9.63901 0.687692 -1.22968 
0.687692 9.55181 1.47274 
-1.22968 1.47274 6.4366 
9.09736 0.142098 -0.675739 
0.142098 9.3388 0.757687 
-0.675739 0.757687 7.19125 
9.27359 0.346602 -0.872951 
0.346602 9.15966 1.21615 
-0.872951 1.21615 7.19416 
9.75745 -0.00467057 0.214026 
-0.00467057 8.87747 -0.0472832 
0.214026 -0.0472832 9.90233 
9.42007 0.149234 -0.14279 
0.149234 9.2322 -0.417926 
-0.14279 -0.417926 9.88498 
9.42075 -0.13982 0.189253 
-0.13982 9.15152 -0.506309 
0.189253 -0.506309 9.96498 
9.53141 0.0632158 -0.0434527 
0.0632158 9.02049 -0.376972 
-0.0434527 -0.376972 9.98535 
8.86083 0.136082 -0.537102 
0.136082 9.65509 0.160564 
-0.537102 0.160564 10.0372 
9.19033 0.510044 -0.402564 
0.510044 9.17491 0.277057 
-0.402564 0.277057 10.1879 
8.50769 0.430775 -0.550905 
0.430775 9.71269 0.244081 
-0.550905 0.244081 10.3328 
9.17316 0.554514 -0.115674 
0.554514 9.1291 0.120276 
-0.115674 0.120276 10.2509 
9.54541 0.174573 0.127884 
0.174573 8.84925 -0.14846 
0.127884 -0.14846 10.1109 
9.4399 0.0143992 0.101853 
0.0143992 9.164 -0.431875 
0.101853 -0.431875 9.90172 
9.65626 0.0667029 0.103461 
0.0667029 8.45273 -0.386671 
0.103461 -0.386671 10.3966 
9.61837 0.114015 0.057717 
0.114015 8.71945 -0.302336 
0.057717 -0.302336 10.1678 
9.65692 -0.374598 -0.720331 
-0.374598 9.56585 -0.883718 
-0.720331 -0.883718 8.95313 
9.63925 -0.33759 -1.03282 
-0.33759 9.48178 -1.10806 
-1.03282 -1.10806 9.05487 
9.88416 -0.197448 -0.635953 
-0.197448 9.21661 -0.955673 
-0.635953 -0.955673 9.07513 
8.86067 -0.0289742 -0.987374 
-0.0289742 9.32158 -0.809624 
-0.987374 -0.809624 9.99365 
9.47562 0.0627816 -0.222182 
0.0627816 9.16569 0.710298 
-0.222182 0.710298 9.82343 
9.57844 0.0726866 -0.151562 
0.0726866 9.08643 0.879948 
-0.151562 0.879948 9.79987 
9.51557 0.0712391 -0.190487 
0.0712391 9.18162 0.836481 
-0.190487 0.836481 9.76755 
9.51076 0.102397 -0.173396 
0.102397 9.24411 0.860356 
-0.173396 0.860356 9.70987 
9.75683 0.374524 0.105732 
0.374524 9.37529 -0.31321 
0.105732 -0.31321 10.15 
9.66247 0.0389451 0.0950105 
0.0389451 9.64668 -0.188481 
0.0950105 -0.188481 9.97301 
9.67665 -0.0333788 0.125186 
-0.0333788 9.79736 -0.210315 
0.125186 -0.210315 9.80814 
9.73102 -0.0717557 -0.0351561 
-0.0717557 9.57928 0.0236309 
-0.0351561 0.0236309 9.97185 
11.6343 -1.84069 1.00473 
-1.84069 7.92156 3.33276 
1.00473 3.33276 10.6029 
12.3556 -1.93139 0.916717 
-1.93139 8.1806 2.29562 
0.916717 2.29562 9.62258 
11.5361 -2.39155 0.93837 
-2.39155 7.99774 2.20659 
0.93837 2.20659 10.6249 
10.3955 -2.4137 1.243 
-2.4137 7.9098 1.43906 
1.243 1.43906 11.8535 
9.83753 0.0774877 -0.672466 
0.0774877 9.7651 0.629602 
-0.672466 0.629602 9.7276 
9.91678 0.400214 -0.713618 
0.400214 10.013 0.422251 
-0.713618 0.422251 9.40048 
9.80951 -0.0234964 -0.655793 
-0.0234964 9.84786 0.596379 
-0.655793 0.596379 9.67286 
10.0427 -0.131232 -0.321103 
-0.131232 9.78949 0.947771 
-0.321103 0.947771 9.49806 
9.44505 0.0140471 -0.601399 
0.0140471 9.5085 -0.387995 
-0.601399 -0.387995 9.59439 
9.36166 -0.0101525 -0.658036 
-0.0101525 9.41593 -0.342416 
-0.658036 -0.342416 9.77036 
9.38451 -0.0143409 -0.562711 
-0.0143409 9.49221 -0.382156 
-0.562711 -0.382156 9.67122 
9.38978 -0.0450081 -0.535963 
-0.0450081 9.4525 -0.325016 
-0.535963 -0.325016 9.70565 
9.98593 -0.00932143 0.0249046 
-0.00932143 10.1066 0.226783 
0.0249046 0.226783 10.1995 
10.1479 -0.0462198 0.0512009 
-0.0462198 9.953 -0.0154943 
0.0512009 -0.0154943 10.191 
10.0968 -0.0135995 -0.00124778 
-0.0135995 10.0864 -0.196051 
-0.00124778 -0.196051 10.1087 
10.1002 -0.0335862 0.0584977 
-0.0335862 9.89987 0.0116529 
0.0584977 0.0116529 10.2918 
10.0138 -0.00755648 0.00551726 
-0.00755648 10.1746 0.0979739 
0.00551726 0.0979739 10.1481 
10.1073 0.0432023 -0.00017557 
0.0432023 10.1199 0.00158758 
-0.00017557 0.00158758 10.1093 
10.0952 -0.0126293 -0.0280704 
-0.0126293 10.0548 -0.0414064 
-0.0280704 -0.0414064 10.1865 
10.1334 -0.00118319 0.02602 
-0.00118319 10.082 0.0444536 
0.02602 0.0444536 10.1211 
9.18931 -0.118064 -0.448366 
-0.118064 9.57392 -0.191958 
-0.448366 -0.191958 9.68201 
8.71898 -0.561137 -0.259539 
-0.561137 9.60919 -0.103902 
-0.259539 -0.103902 10.1171 
9.97414 0.369894 -0.366391 
0.369894 9.23264 -0.0714799 
-0.366391 -0.0714799 9.23846 
8.99049 0.120506 -0.824204 
0.120506 9.52597 -0.414747 
-0.824204 -0.414747 9.92878 
9.29778 0.123967 -0.718753 
0.123967 9.41231 0.354207 
-0.718753 0.354207 9.78527 
9.17381 0.226457 -0.698812 
0.226457 9.44653 0.339876 
-0.698812 0.339876 9.87501 
9.19139 0.0648685 -0.753473 
0.0648685 9.49821 0.388747 
-0.753473 0.388747 9.80576 
9.19892 0.0624513 -0.710256 
0.0624513 9.52314 0.367166 
-0.710256 0.367166 9.77331 
9.32927 0.0974393 -0.673439 
0.0974393 9.73336 0.283338 
-0.673439 0.283338 9.92473 
9.40478 0.349822 -1.01914 
0.349822 9.76577 0.665174 
-1.01914 0.665174 9.81681 
9.27966 0.197545 -1.21 
0.197545 9.87517 0.437353 
-1.21 0.437353 9.83253 
9.31739 0.332866 -1.09346 
0.332866 9.7923 0.331074 
-1.09346 0.331074 9.87767 
8.89566 0.353758 1.15577 
0.353758 9.92396 0.60633 
1.15577 0.60633 9.94295 
7.90311 0.922715 -1.92889 
0.922715 9.54713 -1.80496 
-1.92889 -1.80496 11.3123 
8.29977 1.12701 -2.35596 
1.12701 11.2943 2.17499 
-2.35596 2.17499 9.16854 
8.52373 -0.993192 -4.07237 
-0.993192 9.68674 -0.571576 
-4.07237 -0.571576 10.5521 
10.0242 0.0373134 0.298666 
0.0373134 9.98202 0.00399686 
0.298666 0.00399686 10.2765 
9.90464 -0.0908471 -0.246179 
-0.0908471 10.3129 0.0829091 
-0.246179 0.0829091 10.0652 
9.6806 0.123227 0.136634 
0.123227 10.1793 0.0268144 
0.136634 0.0268144 10.4228 
9.81804 0.040505 0.119976 
0.040505 10.021 -0.0834819 
0.119976 -0.0834819 10.4437 
9.44887 0.0305886 0.0710998 
0.0305886 8.76778 -0.530422 
0.0710998 -0.530422 9.87594 
9.54829 0.120158 0.00835996 
0.120158 8.51109 -0.632717 
0.00835996 -0.632717 10.0332 
9.37759 0.00436681 -0.0858527 
0.00436681 8.76083 -0.342964 
-0.0858527 -0.342964 9.95418 
9.19179 -0.111399 0.0377875 
-0.111399 9.09477 -0.714801 
0.0377875 -0.714801 9.80603 
11.3214 0.225162 -0.573077 
0.225162 9.46741 -0.282867 
-0.573077 -0.282867 13.5065 
11.6084 0.50213 -0.0308703 
0.50213 9.96052 0.00406033 
-0.0308703 0.00406033 12.7263 
11.6184 1.45861 0.0562301 
1.45861 10.6381 -0.91269 
0.0562301 -0.91269 12.0388 
11.5371 0.0259841 -0.0614185 
0.0259841 9.92759 0.261971 
-0.0614185 0.261971 12.8306 
9.29551 0.0462633 0.449364 
0.0462633 9.83104 0.506283 
0.449364 0.506283 9.26604 
8.95938 -0.0955318 0.544211 
-0.0955318 9.20404 0.174977 
0.544211 0.174977 10.2292 
9.23307 -0.285524 0.746372 
-0.285524 9.39205 0.537152 
0.746372 0.537152 9.76747 
9.363 -0.156104 0.697053 
-0.156104 9.19203 0.289609 
0.697053 0.289609 9.83755 
6.96724 0.312228 -1.04381 
0.312228 6.85325 -0.660748 
-1.04381 -0.660748 2.00907 
6.92463 -0.0313109 -0.63119 
-0.0313109 7.04071 -0.415096 
-0.63119 -0.415096 1.86422 
6.19456 -0.716544 -0.626958 
-0.716544 6.92681 0.146055 
-0.626958 0.146055 2.70819 
6.86672 0.122606 -0.730122 
0.122606 6.96365 -0.281319 
-0.730122 -0.281319 1.99919 
3.07848 -8.66769 0.482552 
-8.66769 9.45951 3.93645 
0.482552 3.93645 22.3686 
12.3334 -5.59771 4.07267 
-5.59771 13.2339 3.10582 
4.07267 3.10582 9.33933 
8.70315 3.59983 -1.34537 
3.59983 10.8635 -1.52029 
-1.34537 -1.52029 15.34 
13.061 -0.782605 4.10663 
-0.782605 8.51659 -0.733164 
4.10663 -0.733164 13.329 
8.06243 3.48872 -0.34149 
3.48872 12.5143 0.421901 
-0.34149 0.421901 18.0013 
5.08315 6.12318 2.9598 
6.12318 9.00456 -0.307899 
2.9598 -0.307899 24.4903 
0.424886 5.06046 3.29758 
5.06046 9.23924 -1.96169 
3.29758 -1.96169 28.9139 
8.67109 2.59945 2.09653 
2.59945 11.7396 0.103921 
2.09653 0.103921 18.1673 
9.6125 0.147066 0.119269 
0.147066 9.45859 -0.476306 
0.119269 -0.476306 9.1725 
9.21572 0.0921015 0.251017 
0.0921015 9.0321 -0.763794 
0.251017 -0.763794 9.99577 
9.73906 0.16772 0.106337 
0.16772 8.89995 -0.48106 
0.106337 -0.48106 9.60458 
9.40412 -0.0017333 0.0182484 
-0.0017333 9.05342 -0.51018 
0.0182484 -0.51018 9.78606 
8.11599 0.207041 0.870374 
0.207041 10.2041 -0.558672 
0.870374 -0.558672 11.0554 
9.12411 0.297243 1.22902 
0.297243 9.76792 -0.608693 
1.22902 -0.608693 10.4834 
8.82818 0.186059 1.18728 
0.186059 9.89354 -0.431115 
1.18728 -0.431115 10.6537 
8.8116 0.278694 1.02831 
0.278694 9.94504 -0.513027 
1.02831 -0.513027 10.6188 
9.66437 -0.0669124 -0.585434 
-0.0669124 9.42648 -0.886372 
-0.585434 -0.886372 7.70583 
9.51328 -0.138344 -0.657097 
-0.138344 9.50505 -0.876058 
-0.657097 -0.876058 7.77835 
9.39016 0.125599 -0.711671 
0.125599 9.74599 -0.839062 
-0.711671 -0.839062 7.66053 
9.18888 0.200366 -0.679409 
0.200366 9.83028 -0.689234 
-0.679409 -0.689234 7.77752 
9.13248 0.345703 -0.397062 
0.345703 9.40151 0.413517 
-0.397062 0.413517 9.80321 
9.61203 -0.420617 -0.464079 
-0.420617 9.42276 0.519778 
-0.464079 0.519778 9.30241 
9.32819 0.136245 -0.491922 
0.136245 9.31947 0.510278 
-0.491922 0.510278 9.68954 
9.54381 0.200192 -0.609247 
0.200192 9.08544 0.502312 
-0.609247 0.502312 9.70795 
9.56894 -0.00391078 0.393322 
-0.00391078 9.62907 0.0225293 
0.393322 0.0225293 8.7654 
9.76739 0.0140059 0.380971 
0.0140059 9.74288 0.225931 
0.380971 0.225931 8.45314 
9.67835 0.0426015 0.488917 
0.0426015 9.57843 0.0641021 
0.488917 0.0641021 8.70663 
9.55015 0.119952 0.678153 
0.119952 9.49145 0.0941018 
0.678153 0.0941018 8.92181 
9.62236 0.140381 -0.191216 
0.140381 8.9628 1.11895 
-0.191216 1.11895 9.78058 
9.55794 0.194247 -0.234142 
0.194247 8.81712 1.0603 
-0.234142 1.0603 9.99068 
9.73883 0.0706142 -0.154765 
0.0706142 9.04311 0.995778 
-0.154765 0.995778 9.5838 
9.6619 0.101823 -0.199181 
0.101823 8.98518 1.18565 
-0.199181 1.18565 9.71866 
8.44061 0.783779 0.780473 
0.783779 7.24933 -1.06756 
0.780473 -1.06756 3.40781 
7.76688 0.29934 1.78422 
0.29934 8.21302 -1.72868 
1.78422 -1.72868 3.11784 
7.225 0.183072 2.1722 
0.183072 7.80277 -2.3138 
2.1722 -2.3138 4.06997 
7.89968 -0.0422429 2.0111 
-0.0422429 8.50628 -1.65302 
2.0111 -1.65302 2.69179 
8.73751 -0.307274 -1.51077 
-0.307274 8.60064 -1.29694 
-1.51077 -1.29694 8.99536 
9.91553 -0.668385 -0.953673 
-0.668385 9.06794 -1.44639 
-0.953673 -1.44639 7.35005 
9.57772 -0.314791 -1.42095 
-0.314791 9.04924 -2.16812 
-1.42095 -2.16812 7.70656 
8.97675 -1.16174 -1.16644 
-1.16174 8.99261 -1.69034 
-1.16644 -1.69034 8.36416 
9.36578 0.0743377 0.304636 
0.0743377 9.30942 -0.416004 
0.304636 -0.416004 9.5242 
9.38398 0.258828 0.405117 
0.258828 9.18119 -0.582722 
0.405117 -0.582722 9.63424 
9.35821 -0.294095 0.257369 
-0.294095 9.65184 -0.3216 
0.257369 -0.3216 9.18936 
9.30396 0.1171 0.21341 
0.1171 9.2034 -0.341331 
0.21341 -0.341331 9.69205 
9.5866 -0.785102 1.7036 
-0.785102 9.43013 1.15708 
1.7036 1.15708 9.63815 
8.69991 -0.793524 1.60629 
-0.793524 10.1949 0.89399 
1.60629 0.89399 9.76003 
9.09479 -0.350245 1.498 
-0.350245 9.64468 0.979431 
1.498 0.979431 9.91541 
8.90582 -0.490696 1.26675 
-0.490696 9.63367 0.694687 
1.26675 0.694687 10.1154 
9.20126 0.0109752 0.0515569 
0.0109752 8.85365 -0.288605 
0.0515569 -0.288605 10.2617 
9.61648 -0.114176 -0.0466576 
-0.114176 8.83543 -0.73751 
-0.0466576 -0.73751 9.86467 
9.87566 -0.114534 -0.0886812 
-0.114534 9.6999 -0.669047 
-0.0886812 -0.669047 8.74102 
9.35511 -0.0435375 -0.141685 
-0.0435375 9.03126 -0.660695 
-0.141685 -0.660695 9.93021 
10.0538 0.0260664 -0.0220018 
0.0260664 10.0355 0.703053 
-0.0220018 0.703053 9.60753 
10.0113 -0.0825503 -0.121957 
-0.0825503 9.88522 0.695995 
-0.121957 0.695995 9.80035 
9.61949 0.0515977 -0.195758 
0.0515977 9.53972 0.897326 
-0.195758 0.897326 10.5376 
10.0598 0.0241325 -0.252816 
0.0241325 9.96594 0.698279 
-0.252816 0.698279 9.67104 
5.91443 -1.53519 -2.19705 
-1.53519 4.14276 -0.131715 
-2.19705 -0.131715 0.247438 
3.54571 0.756409 -1.15446 
0.756409 5.55971 0.992571 
-1.15446 0.992571 1.19921 
3.93299 0.267321 -0.828851 
0.267321 5.20609 0.994551 
-0.828851 0.994551 1.16556 
4.86398 -0.702266 1.09929 
-0.702266 2.83135 3.09885 
1.09929 3.09885 2.6093 
8.87892 0.389537 0.924685 
0.389537 8.74805 -0.989203 
0.924685 -0.989203 9.35266 
8.84749 0.820062 1.4346 
0.820062 8.93367 -1.30225 
1.4346 -1.30225 9.19847 
8.49559 0.51364 1.25445 
0.51364 9.09347 -1.02118 
1.25445 -1.02118 9.39057 
8.82701 0.621807 1.36921 
0.621807 8.96971 -1.13429 
1.36921 -1.13429 9.18291 
9.8011 0.0391695 -0.758013 
0.0391695 9.78336 0.445232 
-0.758013 0.445232 9.91099 
9.75173 0.00877598 -0.724988 
0.00877598 9.79223 0.407781 
-0.724988 0.407781 9.95149 
9.72736 -0.0341708 -0.683316 
-0.0341708 9.84143 0.414334 
-0.683316 0.414334 9.92666 
9.77398 0.0769685 -0.733277 
0.0769685 9.7999 0.424798 
-0.733277 0.424798 9.92158 
10.0487 -0.000224088 -0.752962 
-0.000224088 9.63964 1.60156 
-0.752962 1.60156 6.28531 
9.95444 0.366252 -1.43821 
0.366252 9.60098 2.04269 
-1.43821 2.04269 6.41827 
9.78495 -0.125148 -0.963734 
-0.125148 9.76169 1.3821 
-0.963734 1.3821 6.42704 
8.56801 -0.106153 -1.00457 
-0.106153 9.33913 0.667749 
-1.00457 0.667749 8.06655 
9.62974 -0.0570985 -0.602041 
-0.0570985 9.6937 0.454259 
-0.602041 0.454259 9.53291 
9.38529 0.311075 -0.775934 
0.311075 9.50657 0.561496 
-0.775934 0.561496 9.96448 
9.65856 -0.0727259 -0.590565 
-0.0727259 9.57774 0.42191 
-0.590565 0.42191 9.62005 
9.26053 0.0965452 -0.532335 
0.0965452 9.65895 0.145313 
-0.532335 0.145313 9.93687 
10.4991 0.550185 0.165878 
0.550185 9.41521 -0.471155 
0.165878 -0.471155 11.5308 
10.4349 0.478938 0.625873 
0.478938 8.87241 -0.527464 
0.625873 -0.527464 12.1378 
10.3418 0.921386 0.188119 
0.921386 9.35881 -0.235088 
0.188119 -0.235088 11.7445 
10.3146 0.493821 -0.0661473 
0.493821 9.5976 -0.672638 
-0.0661473 -0.672638 11.5329 
9.32213 0.299145 0.0212984 
0.299145 9.20429 0.360018 
0.0212984 0.360018 9.99818 
9.0161 0.226263 -0.330602 
0.226263 9.55485 0.108011 
-0.330602 0.108011 9.95364 
9.75724 0.0167306 -0.664395 
0.0167306 9.1103 -0.192877 
-0.664395 -0.192877 9.65705 
9.19577 0.191515 -0.227212 
0.191515 9.4991 0.132559 
-0.227212 0.132559 9.82972 
2.36999 0.0352133 0.271842 
0.0352133 3.86599 0.857678 
0.271842 0.857678 -0.638479 
1.73237 0.385968 -0.347299 
0.385968 1.09439 1.26518 
-0.347299 1.26518 2.77074 
3.22393 -0.534015 0.313762 
-0.534015 3.25299 -0.0872981 
0.313762 -0.0872981 -0.87942 
2.08977 -0.415968 -1.0583 
-0.415968 3.20181 1.62278 
-1.0583 1.62278 0.305913 
9.04277 -0.0309099 0.305461 
-0.0309099 9.44673 0.00442607 
0.305461 0.00442607 9.79037 
9.04991 0.122176 0.426464 
0.122176 9.43736 -0.117305 
0.426464 -0.117305 9.7926 
9.00748 0.179632 0.432213 
0.179632 9.40118 -0.132906 
0.432213 -0.132906 9.87121 
9.10056 0.0997974 0.459637 
0.0997974 9.4494 -0.229504 
0.459637 -0.229504 9.7299 
12.242 0.355079 -0.230392 
0.355079 14.1326 0.106812 
-0.230392 0.106812 12.4913 
12.2517 0.0764854 -0.493672 
0.0764854 13.4971 0.234329 
-0.493672 0.234329 13.1171 
12.1005 0.547381 -0.761076 
0.547381 12.8928 0.0435282 
-0.761076 0.0435282 13.8726 
12.6554 0.225141 -0.160852 
0.225141 13.1948 0.613972 
-0.160852 0.613972 13.0158 
9.75674 -0.0385288 -1.06002 
-0.0385288 9.82293 0.387833 
-1.06002 0.387833 8.51422 
9.50226 0.0834497 -1.0681 
0.0834497 9.58655 -0.0584724 
-1.0681 -0.0584724 9.00507 
9.78277 -0.042176 -1.00944 
-0.042176 9.71793 0.0990456 
-1.00944 0.0990456 8.5932 
9.5323 0.0247878 -0.976383 
0.0247878 10.2827 0.062138 
-0.976383 0.062138 8.27888 
9.85835 -0.020269 0.698283 
-0.020269 9.86809 0.520259 
0.698283 0.520259 9.50136 
9.77487 -0.00572358 0.775527 
-0.00572358 10.0373 0.460805 
0.775527 0.460805 9.41566 
9.68964 -0.0691266 0.630996 
-0.0691266 9.90287 0.633627 
0.630996 0.633627 9.63529 
9.98769 -0.0485235 0.669419 
-0.0485235 9.75438 0.284392 
0.669419 0.284392 9.48573 
10.7104 0.0616723 -0.3379 
0.0616723 9.10023 -0.666935 
-0.3379 -0.666935 11.1224 
10.1325 0.0461603 -0.0861045 
0.0461603 9.79468 -0.982643 
-0.0861045 -0.982643 11.0059 
10.881 -1.02792 0.0773987 
-1.02792 8.00328 0.158989 
0.0773987 0.158989 12.0488 
10.5185 -0.107707 -0.399702 
-0.107707 8.2876 -0.949447 
-0.399702 -0.949447 12.127 
9.11545 0.441739 2.26421 
0.441739 7.65205 1.00546 
2.26421 1.00546 3.46409 
7.49037 -0.476246 2.8023 
-0.476246 8.55529 0.0668642 
2.8023 0.0668642 4.18592 
8.2515 0.257763 2.4497 
0.257763 8.75713 0.238697 
2.4497 0.238697 3.22297 
8.7983 0.86296 1.87187 
0.86296 8.32614 0.506794 
1.87187 0.506794 3.10715 
10.2218 0.0236703 0.159999 
0.0236703 10.1706 0.610611 
0.159999 0.610611 9.81033 
10.2139 0.00228743 0.190253 
0.00228743 10.1385 0.547875 
0.190253 0.547875 9.85037 
10.0372 -0.0088826 0.202236 
-0.0088826 9.84326 0.542574 
0.202236 0.542574 10.3223 
10.1693 -0.0196697 0.0550519 
-0.0196697 10.1585 0.438402 
0.0550519 0.438402 9.87495 
9.16011 -0.784545 -0.601115 
-0.784545 8.50144 -1.2021 
-0.601115 -1.2021 10.3177 
9.04622 -0.708239 -0.550073 
-0.708239 8.73947 -0.671595 
-0.550073 -0.671595 10.1936 
9.22478 -0.725404 -0.369033 
-0.725404 8.52498 -0.564994 
-0.369033 -0.564994 10.2295 
9.25908 -0.107218 -0.586042 
-0.107218 8.97198 -0.943318 
-0.586042 -0.943318 9.74822 
10.1356 0.0236979 0.970004 
0.0236979 10.0644 -0.101558 
0.970004 -0.101558 9.69937 
9.80851 0.013358 0.865846 
0.013358 9.86167 -0.0116169 
0.865846 -0.0116169 10.2293 
9.80731 -0.0677318 0.875771 
-0.0677318 10.0374 0.011638 
0.875771 0.011638 10.0547 
9.8876 0.0869142 1.02117 
0.0869142 10.0727 0.100747 
1.02117 0.100747 9.93913 
9.16664 -0.13087 -0.135199 
-0.13087 9.2507 -0.60883 
-0.135199 -0.60883 9.87357 
9.70006 -0.19963 -0.0742275 
-0.19963 9.05438 -0.488926 
-0.0742275 -0.488926 9.53647 
9.44791 0.0428637 -0.141456 
0.0428637 9.26875 -0.78593 
-0.141456 -0.78593 9.57426 
9.34684 -0.0317816 -0.0909864 
-0.0317816 9.17404 -0.738736 
-0.0909864 -0.738736 9.77003 
9.73463 -0.0481073 -0.25769 
-0.0481073 9.64965 -0.769631 
-0.25769 -0.769631 9.80494 
9.7245 -0.0391767 -0.301662 
-0.0391767 9.64064 -0.804262 
-0.301662 -0.804262 9.82408 
9.69282 0.0268881 -0.241357 
0.0268881 9.68447 -0.710181 
-0.241357 -0.710181 9.81193 
9.78428 -0.0363912 -0.296482 
-0.0363912 9.60737 -0.797456 
-0.296482 -0.797456 9.79756 
9.33963 -0.315888 -0.505581 
-0.315888 9.17705 -0.824264 
-0.505581 -0.824264 9.92487 
9.21976 -0.294547 -0.350932 
-0.294547 9.1727 -0.500834 
-0.350932 -0.500834 10.0491 
9.33826 -0.369381 -0.670954 
-0.369381 9.15903 -0.808095 
-0.670954 -0.808095 9.94427 
9.34402 -0.430822 -0.36392 
-0.430822 9.18075 -0.568931 
-0.36392 -0.568931 9.91678 
9.45626 -0.100583 -0.463114 
-0.100583 9.32167 -0.714173 
-0.463114 -0.714173 9.78064 
9.3946 -0.149106 -0.475924 
-0.149106 9.3747 -0.701457 
-0.475924 -0.701457 9.78926 
9.45924 -0.221916 -0.496995 
-0.221916 9.24499 -0.678551 
-0.496995 -0.678551 9.85434 
9.33706 -0.150914 -0.461276 
-0.150914 9.47441 -0.666925 
-0.461276 -0.666925 9.74709 
9.33824 -0.393015 0.887901 
-0.393015 8.51933 1.67744 
0.887901 1.67744 6.32688 
9.4136 -0.355484 1.11501 
-0.355484 8.62828 1.54812 
1.11501 1.54812 6.14256 
8.9538 -0.442383 0.506934 
-0.442383 8.23604 2.11692 
0.506934 2.11692 6.9946 
9.41258 -0.22067 0.790854 
-0.22067 8.38021 1.91309 
0.790854 1.91309 6.39166 
9.85333 0.143154 -0.137168 
0.143154 9.60892 0.621552 
-0.137168 0.621552 8.81133 
9.70313 0.0334987 -0.0400484 
0.0334987 8.76207 0.749939 
-0.0400484 0.749939 9.80838 
9.1875 0.0224284 0.0384936 
0.0224284 8.81859 0.290244 
0.0384936 0.290244 10.2675 
9.39618 0.0823906 -0.152117 
0.0823906 8.95897 0.689082 
-0.152117 0.689082 9.91843 
9.53356 0.0978786 -0.00953469 
0.0978786 8.89587 -0.902494 
-0.00953469 -0.902494 9.95034 
9.56182 0.0107346 -0.0629452 
0.0107346 8.98466 -0.938654 
-0.0629452 -0.938654 9.8333 
9.6365 0.178354 0.221201 
0.178354 8.87043 -1.13975 
0.221201 -1.13975 9.87285 
9.63908 0.116836 0.104552 
0.116836 8.89177 -0.953728 
0.104552 -0.953728 9.84893 
9.51864 0.148946 -0.835103 
0.148946 9.60581 0.593133 
-0.835103 0.593133 9.79759 
9.6447 0.221391 -1.03049 
0.221391 9.78352 0.705279 
-1.03049 0.705279 9.49381 
9.61416 0.15102 -0.708375 
0.15102 9.56436 0.598749 
-0.708375 0.598749 9.74351 
9.56984 0.0910384 -0.876139 
0.0910384 9.62746 0.654737 
-0.876139 0.654737 9.72473 
9.65318 0.017918 -0.56581 
0.017918 9.7884 0.0490469 
-0.56581 0.0490469 6.64471 
9.88263 0.18047 -0.500735 
0.18047 9.76188 0.0503978 
-0.500735 0.0503978 6.44178 
9.83461 0.0602746 -0.522206 
0.0602746 9.78094 -0.0144936 
-0.522206 -0.0144936 6.47075 
9.89587 -0.00819401 -0.556771 
-0.00819401 9.66314 0.0430741 
-0.556771 0.0430741 6.52728 
9.34162 0.237904 0.0462328 
0.237904 10.0179 0.00381009 
0.0462328 0.00381009 10.3371 
9.6577 0.123612 -0.0597235 
0.123612 9.90275 0.0782577 
-0.0597235 0.0782577 10.1362 
10.3016 -0.475282 -0.0233044 
-0.475282 9.61904 -0.0906037 
-0.0233044 -0.0906037 9.77608 
9.70067 0.075974 -0.573089 
0.075974 9.96578 0.248169 
-0.573089 0.248169 10.0302 
9.45666 0.243479 0.833879 
0.243479 7.53348 -2.18844 
0.833879 -2.18844 7.26011 
9.03079 0.690808 0.870253 
0.690808 7.71085 -2.06641 
0.870253 -2.06641 7.5086 
8.0795 -0.21502 -0.761922 
-0.21502 8.14788 -2.22354 
-0.761922 -2.22354 8.02287 
9.4854 0.77849 0.557154 
0.77849 7.62178 -4.14978 
0.557154 -4.14978 7.14307 
9.68197 -0.0476932 -0.745968 
-0.0476932 9.67007 -0.347616 
-0.745968 -0.347616 9.84656 
9.54716 -0.102835 -0.831602 
-0.102835 9.7404 -0.400244 
-0.831602 -0.400244 9.91104 
9.43436 -0.0772796 -0.81546 
-0.0772796 9.80567 -0.388468 
-0.81546 -0.388468 9.95857 
9.66091 -0.14382 -0.962732 
-0.14382 9.7676 -0.380571 
-0.962732 -0.380571 9.77009 
9.76575 0.217986 -0.0777565 
0.217986 9.59828 -0.0412067 
-0.0777565 -0.0412067 7.53066 
9.52004 -0.130689 -0.28626 
-0.130689 9.61671 0.325165 
-0.28626 0.325165 7.75794 
9.7932 0.0714391 -0.322424 
0.0714391 9.53889 0.240856 
-0.322424 0.240856 7.56259 
9.72129 -0.299246 -0.288813 
-0.299246 9.95098 0.219942 
-0.288813 0.219942 7.22242 
8.64313 -0.494699 -1.09928 
-0.494699 8.98285 -1.03649 
-1.09928 -1.03649 4.65254 
8.54285 -0.209877 -1.17536 
-0.209877 9.08291 -0.548648 
-1.17536 -0.548648 4.65277 
9.35241 0.307365 -1.29493 
0.307365 8.71726 -0.613001 
-1.29493 -0.613001 4.20886 
8.88545 0.0988831 -1.31662 
0.0988831 8.46187 -0.584967 
-1.31662 -0.584967 4.93121 
9.56849 -0.096758 -0.0242035 
-0.096758 9.48083 -0.927918 
-0.0242035 -0.927918 9.23606 
9.98603 0.0164718 -0.233961 
0.0164718 9.71802 -1.05775 
-0.233961 -1.05775 8.58132 
9.59687 -0.0371687 -0.395223 
-0.0371687 9.48061 -0.937126 
-0.395223 -0.937126 9.2079 
9.62917 0.0279464 -0.339881 
0.0279464 9.53737 -0.891846 
-0.339881 -0.891846 9.11883 
9.84111 0.0502169 -0.715511 
0.0502169 9.84282 0.419026 
-0.715511 0.419026 9.9456 
9.79126 0.0224135 -0.767798 
0.0224135 9.81162 0.411729 
-0.767798 0.411729 10.0267 
9.88116 -0.02374 -0.732244 
-0.02374 9.83154 0.431959 
-0.732244 0.431959 9.91684 
9.82564 0.0175252 -0.675893 
0.0175252 9.87765 0.429294 
-0.675893 0.429294 9.92626 
9.60276 -0.240976 0.319199 
-0.240976 9.59539 -0.76697 
0.319199 -0.76697 9.80874 
9.74545 0.386847 0.40701 
0.386847 9.4434 -0.738716 
0.40701 -0.738716 9.81804 
9.69028 0.166735 0.548323 
0.166735 9.56 -1.19412 
0.548323 -1.19412 9.75661 
9.63246 0.132167 0.510734 
0.132167 9.4879 -0.605749 
0.510734 -0.605749 9.88653 
9.3631 -0.0102422 0.155686 
-0.0102422 9.26738 0.590828 
0.155686 0.590828 9.77367 
9.53394 -0.0549306 -0.00742165 
-0.0549306 9.12229 0.703294 
-0.00742165 0.703294 9.74792 
9.5605 0.0737441 0.0179528 
0.0737441 9.19913 0.765164 
0.0179528 0.765164 9.64452 
9.48549 0.115263 0.168365 
0.115263 9.00614 0.786581 
0.168365 0.786581 9.91252 
9.09828 0.305228 0.566284 
0.305228 9.27075 -0.601518 
0.566284 -0.601518 9.86544 
9.24534 0.23055 0.610798 
0.23055 9.19994 -0.495445 
0.610798 -0.495445 9.78919 
9.16424 0.146905 0.47784 
0.146905 9.30863 -0.604219 
0.47784 -0.604219 9.76159 
9.33685 0.22411 0.654805 
0.22411 9.18845 -0.538721 
0.654805 -0.538721 9.70917 
9.01849 0.0404954 -1.09723 
0.0404954 9.77875 0.0212869 
-1.09723 0.0212869 9.58802 
9.2338 -0.120998 -1.1631 
-0.120998 9.68721 0.0116494 
-1.1631 0.0116494 9.46425 
9.19217 -0.0887443 -0.916418 
-0.0887443 9.3283 -0.257417 
-0.916418 -0.257417 9.86479 
8.97832 -0.264077 -1.7862 
-0.264077 9.80606 -0.453438 
-1.7862 -0.453438 9.60088 
9.64431 0.0434537 -0.680099 
0.0434537 9.72121 0.576956 
-0.680099 0.576956 9.57679 
9.59638 0.208677 -0.94094 
0.208677 9.72003 0.797648 
-0.94094 0.797648 9.6259 
9.76861 0.0908269 -0.855165 
0.0908269 9.86325 0.674756 
-0.855165 0.674756 9.31045 
9.6052 0.127521 -0.914487 
0.127521 9.77132 0.691097 
-0.914487 0.691097 9.5658 
9.45058 0.436743 0.17356 
0.436743 9.10539 -0.102744 
0.17356 -0.102744 10.0328 
9.358 0.52741 0.250829 
0.52741 9.01588 -0.274517 
0.250829 -0.274517 10.2149 
9.26907 0.516358 0.131053 
0.516358 9.09787 -0.314463 
0.131053 -0.314463 10.2219 
9.01582 -0.0560447 0.551069 
-0.0560447 9.54455 -0.493936 
0.551069 -0.493936 10.0284 
9.34374 0.392958 0.381022 
0.392958 9.71045 0.58933 
0.381022 0.58933 9.02962 
9.22038 0.137564 0.138887 
0.137564 9.82159 0.691955 
0.138887 0.691955 9.04184 
9.51816 -0.658882 0.00699482 
-0.658882 8.49566 -0.242111 
0.00699482 -0.242111 10.07 
8.98594 -0.32524 0.371074 
-0.32524 8.35406 0.763237 
0.371074 0.763237 10.7438 
9.43333 0.436108 0.113784 
0.436108 8.81356 -0.406041 
0.113784 -0.406041 10.0668 
9.40049 -0.0469039 0.110818 
-0.0469039 8.87644 -0.546416 
0.110818 -0.546416 10.0367 
9.57528 0.353217 0.215777 
0.353217 8.56453 -0.461494 
0.215777 -0.461494 10.1738 
9.46322 0.241496 0.149765 
0.241496 8.73141 -0.43464 
0.149765 -0.43464 10.119 
9.82326 0.0650825 0.447828 
0.0650825 9.60004 0.682444 
0.447828 0.682444 9.94388 
9.72816 -0.147149 0.518682 
-0.147149 9.72839 0.775051 
0.518682 0.775051 9.91062 
9.78222 -0.115269 0.530873 
-0.115269 9.73099 0.767877 
0.530873 0.767877 9.85397 
9.93622 0.0112091 0.715138 
0.0112091 9.62619 0.997877 
0.715138 0.997877 9.80477 
9.81082 0.0309088 -0.874409 
0.0309088 9.86288 0.133546 
-0.874409 0.133546 9.94153 
9.82303 -0.0100636 -0.866621 
-0.0100636 9.82393 0.131386 
-0.866621 0.131386 9.96827 
9.83002 -0.0502382 -0.774397 
-0.0502382 9.82537 0.121318 
-0.774397 0.121318 9.95984 
9.75875 0.0303913 -0.852927 
0.0303913 9.90172 0.130926 
-0.852927 0.130926 9.95476 
9.72511 -0.0827076 -0.106969 
-0.0827076 9.62776 -0.781343 
-0.106969 -0.781343 9.88416 
9.81087 -0.014185 0.0167857 
-0.014185 9.63922 -0.960159 
0.0167857 -0.960159 9.78694 
9.73719 -0.0533112 0.0253507 
-0.0533112 9.64156 -0.920957 
0.0253507 -0.920957 9.85828 
9.78968 0.000417995 -0.0322831 
0.000417995 9.64413 -0.796291 
-0.0322831 -0.796291 9.80323 
9.79087 -0.154468 0.58715 
-0.154468 9.45652 -0.252734 
0.58715 -0.252734 7.06745 
9.79739 0.00404567 0.910146 
0.00404567 9.48328 -0.0414357 
0.910146 -0.0414357 7.03416 
9.22496 0.1484 0.746882 
0.1484 9.20884 -0.723734 
0.746882 -0.723734 7.88103 
10.0589 0.148391 1.91644 
0.148391 10.151 -0.721682 
1.91644 -0.721682 6.105 
8.79532 -0.233245 -0.186228 
-0.233245 9.80644 -0.0398304 
-0.186228 -0.0398304 10.1571 
9.9954 0.277019 -0.336112 
0.277019 9.25492 -0.072922 
-0.336112 -0.072922 9.50856 
9.31102 -0.0621473 -0.358712 
-0.0621473 9.50182 -0.145688 
-0.358712 -0.145688 9.94604 
9.3193 -0.215437 -0.842001 
-0.215437 9.4484 -0.107283 
-0.842001 -0.107283 9.99119 
10.267 -0.339835 0.459674 
-0.339835 9.05742 -0.0331516 
0.459674 -0.0331516 9.2016 
8.63603 0.133196 0.309469 
0.133196 9.70467 0.0236579 
0.309469 0.0236579 10.1853 
9.22509 -0.0112453 0.613503 
-0.0112453 9.45212 0.0273948 
0.613503 0.0273948 9.84882 
9.14101 -0.0219344 1.03058 
-0.0219344 9.41649 -0.0191555 
1.03058 -0.0191555 9.96853 
9.32071 -0.135607 0.341916 
-0.135607 8.96935 1.04703 
0.341916 1.04703 1.79447 
8.58943 -0.0178044 -0.501294 
-0.0178044 8.13247 0.932261 
-0.501294 0.932261 3.36263 
8.60624 -0.130992 -0.523691 
-0.130992 8.16803 0.709783 
-0.523691 0.709783 3.31026 
8.03192 -0.00433545 -0.13919 
-0.00433545 7.93808 1.31782 
-0.13919 1.31782 4.11453 
9.53692 0.0373778 -0.965337 
0.0373778 9.81249 0.21665 
-0.965337 0.21665 9.98012 
9.57677 0.0890409 -0.786645 
0.0890409 9.86021 0.107124 
-0.786645 0.107124 9.89255 
9.4627 -0.0188274 -0.968628 
-0.0188274 9.83638 0.137757 
-0.968628 0.137757 10.0304 
9.65337 0.0351105 -0.702057 
0.0351105 9.73997 0.182681 
-0.702057 0.182681 9.93619 
9.62288 0.272102 -0.713843 
0.272102 9.46008 1.11788 
-0.713843 1.11788 9.34516 
9.71183 0.0950467 -0.663876 
0.0950467 9.34769 1.00203 
-0.663876 1.00203 9.3686 
9.61922 -0.0109379 -0.609669 
-0.0109379 9.47725 0.689559 
-0.609669 0.689559 9.33165 
9.82467 0.0944192 -0.621972 
0.0944192 9.3199 0.937169 
-0.621972 0.937169 9.28355 
10.2506 -0.243761 0.0858916 
-0.243761 9.93297 -0.234663 
0.0858916 -0.234663 10.1173 
10.1558 -0.451572 0.322204 
-0.451572 10.1258 0.521552 
0.322204 0.521552 10.0193 
9.96059 0.347961 -0.182805 
0.347961 9.99179 -0.252177 
-0.182805 -0.252177 10.3485 
9.7763 -0.253152 -0.00126773 
-0.253152 9.97033 -0.0813798 
-0.00126773 -0.0813798 10.5543 
3.00328 0.0022764 -0.174995 
0.0022764 2.6824 -0.0089852 
-0.174995 -0.0089852 -0.18125 
2.0319 0.116275 0.145217 
0.116275 1.80594 -0.52049 
0.145217 -0.52049 1.66659 
3.15209 0.0551132 -0.0343156 
0.0551132 3.08346 0.915565 
-0.0343156 0.915565 -0.731123 
2.29987 -0.224935 0.64105 
-0.224935 3.28558 -0.479552 
0.64105 -0.479552 -0.0810271 
10.2935 0.132845 -0.0733439 
0.132845 10.3875 0.321422 
-0.0733439 0.321422 10.7306 
9.97224 0.103202 0.0716413 
0.103202 10.2266 -0.0152254 
0.0716413 -0.0152254 11.2127 
10.9811 0.405055 -0.459057 
0.405055 9.05926 0.468066 
-0.459057 0.468066 11.3712 
11.1523 0.414059 -0.862662 
0.414059 9.28726 0.269114 
-0.862662 0.269114 10.972 
9.81355 -0.013023 0.0336842 
-0.013023 9.79313 -0.918654 
0.0336842 -0.918654 9.95008 
9.83046 0.0105453 0.0421467 
0.0105453 9.75941 -0.811973 
0.0421467 -0.811973 9.96689 
9.82372 0.083243 -0.00379468 
0.083243 9.78695 -0.792979 
-0.00379468 -0.792979 9.94608 
9.88022 -0.0034648 0.0468716 
-0.0034648 9.74509 -0.867086 
0.0468716 -0.867086 9.93145 
9.82468 0.286586 -0.489821 
0.286586 9.91396 -3.25057 
-0.489821 -3.25057 6.81211 
10.547 0.418666 0.8209 
0.418666 8.95037 -1.70193 
0.8209 -1.70193 7.05342 
10.2739 0.148198 0.898875 
0.148198 9.71372 -1.67693 
0.898875 -1.67693 6.56311 
8.43947 0.752682 -0.000365751 
0.752682 9.06315 -1.04998 
-0.000365751 -1.04998 9.04812 
3.52765 1.43615 -1.05634 
1.43615 3.47275 0.344311 
-1.05634 0.344311 0.623547 
4.64009 0.187099 1.03759 
0.187099 2.90168 0.199931 
1.03759 0.199931 0.0821692 
3.33422 -0.798551 0.194222 
-0.798551 3.69939 0.764358 
0.194222 0.764358 0.590333 
3.55298 -0.273595 0.0914981 
-0.273595 3.52875 0.635084 
0.0914981 0.635084 0.542223 
8.26725 0.289044 2.48983 
0.289044 10.6164 -0.152992 
2.48983 -0.152992 9.60559 
8.88399 0.180147 2.24777 
0.180147 10.2132 -1.18806 
2.24777 -1.18806 9.39212 
7.81858 0.91673 0.98421 
0.91673 11.1546 -1.17921 
0.98421 -1.17921 9.51609 
8.69985 0.0581888 0.822411 
0.0581888 9.43964 0.242134 
0.822411 0.242134 10.3498 
9.99908 -0.139262 -0.0311943 
-0.139262 8.9201 -0.208378 
-0.0311943 -0.208378 9.42485 
9.70972 0.263805 0.201235 
0.263805 9.20952 0.573798 
0.201235 0.573798 9.42479 
8.83997 -0.110672 0.155583 
-0.110672 9.32307 -0.135189 
0.155583 -0.135189 10.181 
9.08062 0.241606 0.0186015 
0.241606 8.85534 0.532611 
0.0186015 0.532611 10.4081 
9.17573 0.113272 0.204503 
0.113272 9.76777 0.481199 
0.204503 0.481199 9.23683 
9.65912 -0.19229 0.160471 
-0.19229 8.81565 0.705617 
0.160471 0.705617 9.70555 
9.40293 -0.0595851 0.247713 
-0.0595851 9.30931 0.485093 
0.247713 0.485093 9.46808 
9.31003 -0.207664 0.222292 
-0.207664 9.13232 0.229722 
0.222292 0.229722 9.73797 
5.67888 -0.352476 -0.326157 
-0.352476 5.9905 0.86121 
-0.326157 0.86121 1.3014 
5.45421 0.764746 -0.476608 
0.764746 5.53028 1.27025 
-0.476608 1.27025 1.98629 
5.47646 0.342346 -0.588744 
0.342346 7.19926 1.40974 
-0.588744 1.40974 0.295065 
4.71072 0.536038 0.268579 
0.536038 4.75694 2.75896 
0.268579 2.75896 3.50312 
9.73778 -0.0184397 -0.700852 
-0.0184397 9.74762 -0.32317 
-0.700852 -0.32317 9.9595 
9.74169 -0.0869282 -0.746537 
-0.0869282 9.79233 -0.264461 
-0.746537 -0.264461 9.91089 
9.78798 0.00704523 -0.859312 
0.00704523 9.75962 -0.355927 
-0.859312 -0.355927 9.89731 
9.7892 -0.0391409 -0.839581 
-0.0391409 9.82249 -0.364763 
-0.839581 -0.364763 9.83322 
7.39497 -0.109376 0.875821 
-0.109376 7.98753 0.392524 
0.875821 0.392524 2.89921 
7.88989 0.0633064 0.750918 
0.0633064 7.94918 0.887064 
0.750918 0.887064 2.44264 
8.10191 0.128926 0.983197 
0.128926 8.117 1.05684 
0.983197 1.05684 2.06279 
7.95744 0.176472 0.533277 
0.176472 7.5377 1.19655 
0.533277 1.19655 2.78656 
12.3486 0.638422 -0.270645 
0.638422 -1.76515 4.16149 
-0.270645 4.16149 29.7857 
13.9168 3.90571 0.850148 
3.90571 0.407909 3.44454 
0.850148 3.44454 26.0444 
14.4163 1.14019 0.290793 
1.14019 5.54338 0.489055 
0.290793 0.489055 20.4095 
13.782 0.991972 1.0828 
0.991972 8.06288 2.08166 
1.0828 2.08166 18.5243 
9.19065 -0.10912 0.403791 
-0.10912 9.53961 0.255343 
0.403791 0.255343 9.8967 
9.25825 -0.505773 0.650013 
-0.505773 9.6428 -0.183418 
0.650013 -0.183418 9.72591 
9.10706 -0.0550071 0.43844 
-0.0550071 9.55238 0.251466 
0.43844 0.251466 9.96753 
9.44371 -0.107444 0.478763 
-0.107444 9.24294 0.411685 
0.478763 0.411685 9.9403 
9.26712 0.343152 1.4338 
0.343152 9.583 -1.43873 
1.4338 -1.43873 8.27153 
9.68875 0.287103 1.66307 
0.287103 10.1698 -1.12051 
1.66307 -1.12051 7.26306 
9.31971 0.155883 0.787153 
0.155883 9.27856 -0.933055 
0.787153 -0.933055 8.52339 
9.09863 0.475909 1.67289 
0.475909 9.64857 -1.4105 
1.67289 -1.4105 8.37446 
2.64559 -0.233631 -0.611222 
-0.233631 2.12139 0.556812 
-0.611222 0.556812 -0.883279 
0.876744 -0.544092 -1.13151 
-0.544092 1.47046 1.45478 
-1.13151 1.45478 1.5365 
2.55078 0.293039 -1.16887 
0.293039 2.34993 0.0433447 
-1.16887 0.0433447 -1.017 
2.10054 -0.387505 -1.40983 
-0.387505 2.50508 0.856352 
-1.40983 0.856352 -0.721915 
9.30991 -0.0524726 -0.273416 
-0.0524726 9.32437 -0.107464 
-0.273416 -0.107464 9.76646 
8.51103 -0.180254 -0.240818 
-0.180254 9.57897 -0.110165 
-0.240818 -0.110165 10.3107 
8.67492 -0.113595 0.0101552 
-0.113595 9.663 0.064519 
0.0101552 0.064519 10.0628 
8.36438 -0.431798 -0.352626 
-0.431798 9.571 -0.0281168 
-0.352626 -0.0281168 10.4654 
9.3516 -0.663659 3.4144 
-0.663659 9.62976 1.11058 
3.4144 1.11058 4.0188 
9.68853 -0.448504 2.15044 
-0.448504 8.72247 -0.115231 
2.15044 -0.115231 4.58915 
8.90714 -1.01689 2.52445 
-1.01689 8.18669 -1.21053 
2.52445 -1.21053 5.90633 
9.2536 -0.154691 2.58895 
-0.154691 10.6362 0.768774 
2.58895 0.768774 3.11038 
9.61 0.0804616 0.706968 
0.0804616 9.64584 -0.407965 
0.706968 -0.407965 9.72829 
9.62864 0.0538296 0.692229 
0.0538296 9.63038 -0.44347 
0.692229 -0.44347 9.7251 
9.61465 -0.0766506 0.703323 
-0.0766506 9.63357 -0.420783 
0.703323 -0.420783 9.7359 
9.60692 0.031979 0.710133 
0.031979 9.65771 -0.433229 
0.710133 -0.433229 9.71949 
8.42373 -0.15587 0.623602 
-0.15587 9.77822 1.06181 
0.623602 1.06181 9.63208 
8.54276 -0.468558 1.41431 
-0.468558 9.32065 0.276808 
1.41431 0.276808 9.97062 
9.16081 -0.22605 1.52051 
-0.22605 9.21955 0.433329 
1.52051 0.433329 9.45367 
8.95913 -0.0927466 1.5951 
-0.0927466 9.95492 0.706379 
1.5951 0.706379 8.91999 
9.74515 0.0441117 -0.673127 
0.0441117 9.09925 -0.173319 
-0.673127 -0.173319 9.17562 
8.96585 -0.141852 -0.414608 
-0.141852 9.47026 -0.181202 
-0.414608 -0.181202 9.58391 
9.18765 -0.0287297 -0.574168 
-0.0287297 9.34551 -0.231937 
-0.574168 -0.231937 9.48685 
9.0694 -0.02453 -0.723198 
-0.02453 9.35193 -0.276458 
-0.723198 -0.276458 9.59868 
9.48245 0.0887305 0.608622 
0.0887305 9.4727 -0.497375 
0.608622 -0.497375 9.8337 
9.52622 0.224632 0.633037 
0.224632 9.54649 -0.407926 
0.633037 -0.407926 9.71614 
9.5073 0.0898711 0.57527 
0.0898711 9.49539 -0.515579 
0.57527 -0.515579 9.78616 
9.6811 0.110384 0.576162 
0.110384 9.22927 -0.60807 
0.576162 -0.60807 9.87848 
9.86017 -0.0931516 -0.126164 
-0.0931516 10.0572 -0.0378204 
-0.126164 -0.0378204 9.92333 
9.62309 -0.0323876 -0.356136 
-0.0323876 10.0666 0.0404753 
-0.356136 0.0404753 10.151 
9.49956 -0.0324137 -0.0472824 
-0.0324137 9.72738 0.0519979 
-0.0472824 0.0519979 10.6137 
9.69148 -0.0956962 -0.275956 
-0.0956962 9.9854 -0.0849174 
-0.275956 -0.0849174 10.1638 
9.87111 0.466535 0.157677 
0.466535 8.89814 -0.0224467 
0.157677 -0.0224467 9.49843 
9.16633 -0.0617305 -0.0790481 
-0.0617305 9.01193 0.208226 
-0.0790481 0.208226 10.0894 
8.8135 0.258212 -0.457511 
0.258212 8.67399 0.436233 
-0.457511 0.436233 10.7802 
9.49904 0.257816 -0.0687343 
0.257816 9.37232 0.918351 
-0.0687343 0.918351 9.39633 
9.60993 -0.0555584 -0.659794 
-0.0555584 9.75276 -0.243886 
-0.659794 -0.243886 9.73557 
9.47629 -0.131251 -0.782993 
-0.131251 9.80417 -0.301978 
-0.782993 -0.301978 9.81781 
9.63657 0.0167783 -0.902546 
0.0167783 9.60073 -0.324282 
-0.902546 -0.324282 9.86096 
9.56793 -0.0683541 -0.771999 
-0.0683541 9.6649 -0.348726 
-0.771999 -0.348726 9.86542 
9.94963 0.0224769 -0.482262 
0.0224769 9.5119 -0.733098 
-0.482262 -0.733098 10.1208 
9.87438 -0.104907 -0.66268 
-0.104907 9.85903 -0.787019 
-0.66268 -0.787019 9.84893 
10.0042 -0.0535718 -0.631704 
-0.0535718 9.85145 -0.908135 
-0.631704 -0.908135 9.72665 
9.94745 -0.0744119 -0.606188 
-0.0744119 9.73728 -0.768256 
-0.606188 -0.768256 9.89761 
7.53236 0.0233911 1.25947 
0.0233911 8.46988 -0.14994 
1.25947 -0.14994 2.99128 
8.30552 0.00690873 1.35544 
0.00690873 8.2191 -1.09073 
1.35544 -1.09073 2.4689 
7.90251 0.0831654 1.58199 
0.0831654 7.89588 -0.70561 
1.58199 -0.70561 3.19512 
7.79559 0.0473675 1.42322 
0.0473675 8.27171 -0.670964 
1.42322 -0.670964 2.92622 
10.2801 0.296813 -1.51889 
0.296813 9.60377 1.27899 
-1.51889 1.27899 6.83423 
9.69572 0.201183 -1.70785 
0.201183 10.1331 1.06099 
-1.70785 1.06099 6.88925 
9.88655 0.312194 -1.53068 
0.312194 9.51731 0.748121 
-1.53068 0.748121 7.3142 
9.76445 0.236028 -1.98797 
0.236028 10.0896 1.06142 
-1.98797 1.06142 6.86399 
8.18953 -0.0415457 1.43683 
-0.0415457 9.59486 -0.0834629 
1.43683 -0.0834629 9.77633 
8.138 0.0032102 1.27255 
0.0032102 9.60764 -0.13681 
1.27255 -0.13681 9.81508 
8.63228 -0.117965 1.33682 
-0.117965 9.74974 -0.137804 
1.33682 -0.137804 9.17871 
8.2051 -0.175737 1.48517 
-0.175737 9.58921 0.0488091 
1.48517 0.0488091 9.76641 
9.48765 0.0466467 -0.894748 
0.0466467 9.72442 0.292629 
-0.894748 0.292629 9.79292 
9.42894 0.075089 -0.915282 
0.075089 9.72872 0.320293 
-0.915282 0.320293 9.84732 
9.55007 0.0989506 -0.870852 
0.0989506 9.67671 0.2884 
-0.870852 0.2884 9.7782 
9.54194 0.111864 -1.01577 
0.111864 9.77778 0.187963 
-1.01577 0.187963 9.68526 
9.5932 -0.0705697 -0.319512 
-0.0705697 9.52693 -0.652967 
-0.319512 -0.652967 9.67067 
9.56126 -0.0999535 -0.159764 
-0.0999535 9.39438 -0.721195 
-0.159764 -0.721195 9.83517 
9.68358 -0.150661 -0.367884 
-0.150661 9.39703 -0.762235 
-0.367884 -0.762235 9.71019 
9.57795 0.02838 -0.286332 
0.02838 9.39682 -0.837145 
-0.286332 -0.837145 9.81604 
8.95955 0.0475747 0.710606 
0.0475747 9.42033 -0.108352 
0.710606 -0.108352 9.88159 
9.18556 0.0707791 0.531376 
0.0707791 9.53253 -0.0696429 
0.531376 -0.0696429 9.54338 
10.0972 -0.0613975 0.456134 
-0.0613975 8.97008 -0.11798 
0.456134 -0.11798 9.19414 
9.2103 0.263266 0.537552 
0.263266 9.39352 -0.221337 
0.537552 -0.221337 9.65765 
9.43776 0.104985 0.623819 
0.104985 9.48849 -0.449839 
0.623819 -0.449839 9.74754 
9.46182 0.0777791 0.611468 
0.0777791 9.50786 -0.416648 
0.611468 -0.416648 9.7041 
9.47022 0.147532 0.581984 
0.147532 9.54539 -0.448668 
0.581984 -0.448668 9.65817 
9.4495 0.0577861 0.596209 
0.0577861 9.51337 -0.403187 
0.596209 -0.403187 9.71092 
10.144 0.0936295 -0.428078 
0.0936295 10.1002 0.609306 
-0.428078 0.609306 8.18821 
9.93886 -0.0468256 -0.461851 
-0.0468256 9.94515 0.564687 
-0.461851 0.564687 8.54839 
10.0105 0.0536816 -0.48156 
0.0536816 10.0756 0.5477 
-0.48156 0.5477 8.34627 
10.161 0.087762 -0.623822 
0.087762 9.95195 0.412792 
-0.623822 0.412792 8.31941 
8.84737 0.0112874 -1.07665 
0.0112874 9.72179 -0.083495 
-1.07665 -0.083495 9.64353 
9.22161 -0.167111 -1.00699 
-0.167111 9.1784 -0.154329 
-1.00699 -0.154329 9.81268 
8.72233 -0.0297277 -1.01737 
-0.0297277 9.74702 -0.239603 
-1.01737 -0.239603 9.74334 
8.76187 -0.265973 -1.52021 
-0.265973 9.68015 -0.247488 
-1.52021 -0.247488 9.77068 
9.18224 -0.0910442 -0.677694 
-0.0910442 9.37472 -0.0900869 
-0.677694 -0.0900869 6.66542 
9.53017 0.123889 -0.602354 
0.123889 9.9326 -0.470313 
-0.602354 -0.470313 5.75961 
9.87141 -0.312839 -0.837834 
-0.312839 9.44506 -1.10535 
-0.837834 -1.10535 5.9059 
9.49415 0.0653183 -0.423904 
0.0653183 9.29859 -0.276065 
-0.423904 -0.276065 6.42965 
9.70306 -0.0583884 0.984927 
-0.0583884 9.93135 0.351517 
0.984927 0.351517 9.83448 
9.82827 -0.372021 0.7936 
-0.372021 10.1604 0.269714 
0.7936 0.269714 9.48018 
9.52484 -0.191277 1.03874 
-0.191277 9.90348 0.246975 
1.03874 0.246975 10.0406 
9.96885 0.00168931 0.847265 
0.00168931 9.8124 0.531513 
0.847265 0.531513 9.68764 
10.1969 -0.034323 0.0243471 
-0.034323 9.93302 0.268705 
0.0243471 0.268705 8.01866 
10.0223 -0.218312 -0.0131601 
-0.218312 9.7991 -0.141513 
-0.0131601 -0.141513 8.32719 
9.91115 0.17009 0.167171 
0.17009 10.4588 -0.291745 
0.167171 -0.291745 7.77865 
9.86471 0.0209817 -0.239522 
0.0209817 9.55154 -0.18965 
-0.239522 -0.18965 8.73237 
9.27919 0.236963 0.670162 
0.236963 9.3349 -0.336211 
0.670162 -0.336211 9.72893 
9.16811 0.155922 0.710714 
0.155922 9.43768 -0.414511 
0.710714 -0.414511 9.73723 
9.11488 0.230909 0.721639 
0.230909 9.43787 -0.449382 
0.721639 -0.449382 9.79027 
9.10147 -0.02947 0.767571 
-0.02947 9.5142 -0.456075 
0.767571 -0.456075 9.72735 
9.34951 -0.102656 -0.111873 
-0.102656 9.30262 0.562768 
-0.111873 0.562768 9.5093 
9.57855 -0.44932 -0.104796 
-0.44932 9.44804 0.585551 
-0.104796 0.585551 9.13484 
9.20827 0.561799 -0.0205255 
0.561799 9.03648 0.168163 
-0.0205255 0.168163 9.91668 
9.48458 0.3754 -0.661537 
0.3754 8.83364 0.505762 
-0.661537 0.505762 9.84321 
8.77717 0.0255456 -1.36576 
0.0255456 8.89381 -2.61105 
-1.36576 -2.61105 4.01221 
8.15624 -0.170652 -1.40598 
-0.170652 7.78481 -2.37116 
-1.40598 -2.37116 5.74213 
8.45689 0.0616824 -1.50199 
0.0616824 8.2309 -2.16755 
-1.50199 -2.16755 4.9954 
8.45202 -0.657797 -1.1598 
-0.657797 7.81916 -1.00089 
-1.1598 -1.00089 5.41201 
8.10111 -0.223435 1.44763 
-0.223435 7.40633 2.6238 
1.44763 2.6238 4.35522 
9.08933 -0.525477 2.6548 
-0.525477 6.85031 1.82258 
2.6548 1.82258 3.92302 
4.36834 -1.39701 0.834058 
-1.39701 8.48568 1.65478 
0.834058 1.65478 7.00864 
7.75582 -0.358891 1.60786 
-0.358891 7.00755 2.34482 
1.60786 2.34482 5.0993 
9.27594 0.111033 -0.396581 
0.111033 9.44832 0.0835416 
-0.396581 0.0835416 10.046 
8.80693 0.465341 -0.416068 
0.465341 9.5756 0.0776934 
-0.416068 0.0776934 10.3877 
9.11869 -0.164907 -1.18529 
-0.164907 9.62544 0.400928 
-1.18529 0.400928 10.0261 
8.96793 -0.0688409 -0.747012 
-0.0688409 9.71576 0.124778 
-0.747012 0.124778 10.0865 
8.51937 0.530632 0.167119 
0.530632 8.1993 1.00504 
0.167119 1.00504 5.90506 
9.01889 -0.665696 0.47488 
-0.665696 8.09976 2.89456 
0.47488 2.89456 5.50508 
9.28835 -0.258435 0.474667 
-0.258435 9.09962 2.68453 
0.474667 2.68453 4.23576 
7.94266 -0.329154 -0.13958 
-0.329154 8.18523 3.83895 
-0.13958 3.83895 6.49584 
9.37783 0.00364474 -0.0327384 
0.00364474 9.31122 -0.349916 
-0.0327384 -0.349916 9.82751 
9.53257 0.469293 0.427192 
0.469293 9.25234 0.171046 
0.427192 0.171046 9.73165 
9.45481 0.338846 0.0046475 
0.338846 9.01332 -0.630706 
0.0046475 -0.630706 10.0484 
9.25458 0.0624513 1.02847 
0.0624513 9.42769 -0.483795 
1.02847 -0.483795 9.83429 
9.92445 0.347927 -0.294392 
0.347927 8.97017 1.12087 
-0.294392 1.12087 9.61744 
9.53842 0.121031 0.0325873 
0.121031 9.18942 1.15773 
0.0325873 1.15773 9.78421 
9.74612 0.17705 -0.2563 
0.17705 8.82731 1.35259 
-0.2563 1.35259 9.93862 
9.79601 0.0806481 -0.0262362 
0.0806481 8.63948 1.34083 
-0.0262362 1.34083 10.0766 
8.91315 -0.557102 0.897598 
-0.557102 9.48416 1.09859 
0.897598 1.09859 9.63189 
9.16468 -0.534033 0.807904 
-0.534033 9.10902 0.876512 
0.807904 0.876512 9.75549 
9.18574 -0.496086 0.926717 
-0.496086 9.07664 0.883438 
0.926717 0.883438 9.76681 
9.22209 -0.366985 0.956934 
-0.366985 9.16269 0.787177 
0.956934 0.787177 9.64442 
7.07479 1.13841 -0.226518 
1.13841 4.26525 -1.74648 
-0.226518 -1.74648 2.39104 
5.72315 0.275569 -1.45867 
0.275569 5.03922 -1.63103 
-1.45867 -1.63103 2.96871 
4.37028 -2.42724 -0.0629228 
-2.42724 6.51197 -0.421404 
-0.0629228 -0.421404 2.84883 
7.36176 -0.224356 2.31086 
-0.224356 5.04049 -3.59789 
2.31086 -3.59789 1.32883 
9.39649 0.200608 0.0324227 
0.200608 9.4309 -0.735156 
0.0324227 -0.735156 9.63761 
9.52306 0.036326 0.238047 
0.036326 9.07287 -0.835164 
0.238047 -0.835164 9.86908 
9.45785 0.177548 0.410901 
0.177548 9.01383 -0.526222 
0.410901 -0.526222 9.99332 
9.49884 0.0854477 0.281984 
0.0854477 9.17635 -0.670856 
0.281984 -0.670856 9.78982 
10.1579 0.859724 -0.0566156 
0.859724 9.44275 0.276762 
-0.0566156 0.276762 11.1277 
9.99013 0.0993881 -0.0469627 
0.0993881 10.0151 -0.0558635 
-0.0469627 -0.0558635 10.7231 
10.1241 0.19291 -0.0792499 
0.19291 10.0385 0.147589 
-0.0792499 0.147589 10.5656 
10.0246 0.267264 -0.0811815 
0.267264 10.0996 -0.0152034 
-0.0811815 -0.0152034 10.6041 
7.62202 -0.645533 -0.776163 
-0.645533 8.78974 0.832434 
-0.776163 0.832434 4.82761 
8.56213 -0.0592641 -0.553933 
-0.0592641 8.66425 1.16175 
-0.553933 1.16175 4.01298 
8.78859 0.100296 -0.389489 
0.100296 8.44609 0.876767 
-0.389489 0.876767 4.00469 
8.71206 0.273061 -0.0675682 
0.273061 8.2483 1.05689 
-0.0675682 1.05689 4.279 
9.37433 -0.00562488 1.16059 
-0.00562488 8.99201 0.0181049 
1.16059 0.0181049 5.52171 
9.21202 0.16513 0.980281 
0.16513 9.04992 0.0956473 
0.980281 0.0956473 5.6261 
9.04584 0.0793217 1.14532 
0.0793217 8.91294 0.0707814 
1.14532 0.0707814 5.92927 
9.25647 0.152642 0.812149 
0.152642 9.12089 0.0333453 
0.812149 0.0333453 5.51069 
9.74942 0.143025 -1.73131 
0.143025 9.70763 -0.00425177 
-1.73131 -0.00425177 7.56221 
9.28013 0.194508 -1.68761 
0.194508 8.65137 -0.420008 
-1.68761 -0.420008 9.08777 
9.02655 -0.491441 -1.1991 
-0.491441 9.84346 -0.731829 
-1.1991 -0.731829 8.14924 
8.77249 0.00360405 -0.936641 
0.00360405 10.2658 -0.115403 
-0.936641 -0.115403 7.98095 
10.1813 0.359401 0.102594 
0.359401 10.2783 0.161401 
0.102594 0.161401 11.161 
10.2404 0.561775 0.0204988 
0.561775 10.4069 -0.311282 
0.0204988 -0.311282 10.9732 
10.1627 0.515475 0.115909 
0.515475 10.3025 -0.2467 
0.115909 -0.2467 11.1555 
10.462 0.126971 -0.0937696 
0.126971 9.98015 -0.12841 
-0.0937696 -0.12841 11.1785 
9.66732 -0.0160047 0.897855 
-0.0160047 9.64622 -0.114518 
0.897855 -0.114518 9.87397 
9.5852 0.0739278 0.84374 
0.0739278 9.77186 -0.166642 
0.84374 -0.166642 9.83045 
9.62498 0.031718 0.78379 
0.031718 9.72906 -0.122104 
0.78379 -0.122104 9.83348 
9.57862 0.0198005 0.83902 
0.0198005 9.68894 -0.181936 
0.83902 -0.181936 9.91995 
9.19952 0.152461 -1.08437 
0.152461 9.6187 0.351271 
-1.08437 0.351271 9.03662 
9.37546 0.176332 -1.31669 
0.176332 9.68265 0.454262 
-1.31669 0.454262 8.79672 
9.15956 0.0472624 -1.07363 
0.0472624 9.66653 0.25254 
-1.07363 0.25254 9.02875 
9.34487 0.246244 -1.13342 
0.246244 8.97139 0.468765 
-1.13342 0.468765 9.53858 
9.87374 0.0551915 -0.955349 
0.0551915 9.87758 0.0844226 
-0.955349 0.0844226 10.084 
9.9849 0.00433839 -0.857161 
0.00433839 9.88323 0.0914454 
-0.857161 0.0914454 9.96715 
9.89492 0.0249524 -0.862176 
0.0249524 10.0159 0.121037 
-0.862176 0.121037 9.92448 
9.80146 0.0119517 -0.85657 
0.0119517 10.0164 0.0612904 
-0.85657 0.0612904 10.0174 
9.12632 -0.0344909 -0.806286 
-0.0344909 9.58696 0.335882 
-0.806286 0.335882 9.87653 
9.01054 0.660239 -0.903129 
0.660239 9.45018 0.546158 
-0.903129 0.546158 10.1291 
9.10421 0.283342 -1.09682 
0.283342 9.49853 0.673975 
-1.09682 0.673975 9.98708 
9.21109 0.272073 -1.00133 
0.272073 9.45412 0.430231 
-1.00133 0.430231 9.92461 
9.57179 0.186471 0.646679 
0.186471 9.44738 0.262176 
0.646679 0.262176 9.39816 
9.06415 -0.391446 0.463968 
-0.391446 9.50408 0.220127 
0.463968 0.220127 9.8491 
9.46526 0.0345397 0.701012 
0.0345397 9.40131 0.22507 
0.701012 0.22507 9.55077 
9.14217 -0.0305462 0.829861 
-0.0305462 9.4872 0.546191 
0.829861 0.546191 9.78797 
9.6519 -0.0110314 -0.772284 
-0.0110314 9.71616 -0.386749 
-0.772284 -0.386749 9.80759 
9.72046 -0.00401443 -0.696912 
-0.00401443 9.68695 -0.350172 
-0.696912 -0.350172 9.76824 
9.65035 -0.0208689 -0.767754 
-0.0208689 9.71821 -0.377398 
-0.767754 -0.377398 9.80709 
9.67597 -0.0771376 -0.789576 
-0.0771376 9.75008 -0.360751 
-0.789576 -0.360751 9.74959 
9.58589 -0.00286142 1.60324 
-0.00286142 8.72167 0.0573256 
1.60324 0.0573256 4.38996 
8.13582 -0.270738 0.951176 
-0.270738 8.4841 1.54939 
0.951176 1.54939 6.0776 
8.62594 -0.613983 2.19022 
-0.613983 9.85733 1.73159 
2.19022 1.73159 4.21425 
9.2786 0.224136 1.21717 
0.224136 8.8096 0.99353 
1.21717 0.99353 4.60932 
9.39604 -0.259914 -1.54475 
-0.259914 9.98159 -0.135922 
-1.54475 -0.135922 8.83543 
9.44892 -0.168147 -1.35637 
-0.168147 9.78131 -0.549746 
-1.35637 -0.549746 8.98282 
9.107 0.09419 -1.14558 
0.09419 9.56378 -0.197326 
-1.14558 -0.197326 9.54228 
9.17009 -0.0503964 -1.32821 
-0.0503964 9.8569 -0.478884 
-1.32821 -0.478884 9.18606 
9.81321 -0.0406144 -0.11299 
-0.0406144 9.82861 -0.818151 
-0.11299 -0.818151 10.0372 
9.87244 -0.0165627 -0.0749799 
-0.0165627 9.8897 -0.851389 
-0.0749799 -0.851389 9.91692 
9.88926 -0.0181484 -0.0891175 
-0.0181484 9.86967 -0.854523 
-0.0891175 -0.854523 9.92012 
9.90307 -0.00165646 -0.0591692 
-0.00165646 9.88178 -0.889038 
-0.0591692 -0.889038 9.89419 
9.47722 -1.15315 -0.57818 
-1.15315 11.4741 -0.133125 
-0.57818 -0.133125 12.9161 
8.46026 0.181006 -0.220147 
0.181006 11.9363 0.565437 
-0.220147 0.565437 13.4708 
9.4897 -0.0119821 -0.401803 
-0.0119821 11.9347 -0.900207 
-0.401803 -0.900207 12.443 
9.14695 -0.34455 -0.605945 
-0.34455 11.6872 0.190396 
-0.605945 0.190396 13.0332 
9.88885 0.0386366 0.869985 
0.0386366 9.97759 -0.431801 
0.869985 -0.431801 10.0055 
9.89452 0.0495905 0.804061 
0.0495905 10.012 -0.421366 
0.804061 -0.421366 9.9654 
9.92009 0.0629209 0.802735 
0.0629209 10.0083 -0.401558 
0.802735 -0.401558 9.94356 
9.90998 0.0644709 0.776589 
0.0644709 10.0255 -0.397968 
0.776589 -0.397968 9.93649 
9.16319 0.27657 -0.343624 
0.27657 8.74816 0.462632 
-0.343624 0.462632 9.75593 
9.13998 0.327889 -0.295558 
0.327889 8.71194 0.67326 
-0.295558 0.67326 9.81536 
9.03785 0.109869 -0.403893 
0.109869 8.99935 0.667891 
-0.403893 0.667891 9.63008 
9.22786 0.307584 -0.355449 
0.307584 8.64407 0.667568 
-0.355449 0.667568 9.79535 
9.47515 0.0158041 0.0642847 
0.0158041 8.90829 0.361535 
0.0642847 0.361535 9.91769 
9.56584 0.0525475 0.0356889 
0.0525475 8.82476 0.380929 
0.0356889 0.380929 9.91053 
9.42267 0.0506059 0.056549 
0.0506059 9.04497 0.410197 
0.056549 0.410197 9.83348 
9.47796 0.0296543 0.0149163 
0.0296543 8.86917 0.382096 
0.0149163 0.382096 9.95399 
9.51402 0.233647 0.846675 
0.233647 9.80716 -0.251404 
0.846675 -0.251404 7.06117 
9.32546 -0.034187 0.924168 
-0.034187 9.2359 -0.616799 
0.924168 -0.616799 7.82098 
9.23127 -0.15108 0.742464 
-0.15108 9.53109 -0.385021 
0.742464 -0.385021 7.61998 
9.07159 0.729311 0.0055394 
0.729311 9.27873 -0.328183 
0.0055394 -0.328183 8.03202 
9.74517 -0.164471 0.674287 
-0.164471 9.90043 0.781873 
0.674287 0.781873 9.68246 
9.84074 -0.131441 0.684022 
-0.131441 9.69123 0.893946 
0.684022 0.893946 9.79609 
9.84624 -0.107211 0.67229 
-0.107211 9.72223 0.73131 
0.67229 0.73131 9.75959 
9.82449 -0.0721149 0.58597 
-0.0721149 9.7685 0.746787 
0.58597 0.746787 9.73507 
9.91859 0.0711921 0.563588 
0.0711921 9.80765 -0.727678 
0.563588 -0.727678 9.97546 
9.82671 0.0134606 0.581797 
0.0134606 9.83986 -0.690281 
0.581797 -0.690281 10.0351 
9.91668 0.030072 0.557388 
0.030072 9.85723 -0.773384 
0.557388 -0.773384 9.9278 
9.9206 0.0843279 0.5675 
0.0843279 9.80838 -0.747783 
0.5675 -0.747783 9.97272 
9.47046 -0.118405 -0.222508 
-0.118405 9.18683 -0.696392 
-0.222508 -0.696392 9.81134 
9.50247 -0.345727 -0.277615 
-0.345727 9.08923 -0.857836 
-0.277615 -0.857836 9.87693 
9.44315 -0.12371 -0.345352 
-0.12371 9.28787 -0.795491 
-0.345352 -0.795491 9.7376 
9.46482 0.0177842 -0.347755 
0.0177842 9.23946 -0.846724 
-0.347755 -0.846724 9.76436 
10.2976 -0.866621 -0.154818 
-0.866621 9.17568 -0.137607 
-0.154818 -0.137607 11.7487 
10.0537 -0.354323 0.494347 
-0.354323 10.5661 0.375338 
0.494347 0.375338 10.6022 
10.1745 -0.864109 0.109234 
-0.864109 9.3374 0.347988 
0.109234 0.347988 11.7102 
9.79752 -1.26033 0.198931 
-1.26033 9.3998 0.51458 
0.198931 0.51458 12.0247 
9.77407 0.915347 -1.12814 
0.915347 8.99443 1.74976 
-1.12814 1.74976 8.70758 
10.1124 0.401876 -1.30846 
0.401876 9.38449 1.79947 
-1.30846 1.79947 7.97917 
9.74448 0.480145 -0.892304 
0.480145 8.75154 2.59837 
-0.892304 2.59837 8.98007 
8.95687 0.249266 -0.496074 
0.249266 8.50069 1.33202 
-0.496074 1.33202 10.0185 
3.9063 -0.427716 0.848577 
-0.427716 4.08145 0.0786987 
0.848577 0.0786987 0.45635 
4.09551 -0.150491 0.257419 
-0.150491 3.62003 -0.278945 
0.257419 -0.278945 0.728566 
4.00988 -1.27211 2.00897 
-1.27211 3.73472 0.308019 
2.00897 0.308019 0.699498 
3.47007 -0.406036 1.58605 
-0.406036 3.63281 0.497991 
1.58605 0.497991 1.34123 
9.57172 0.13204 0.299777 
0.13204 8.99787 -1.16975 
0.299777 -1.16975 9.82301 
9.49959 0.146077 0.183345 
0.146077 9.07518 -0.83362 
0.183345 -0.83362 9.81783 
9.49693 0.120517 0.171725 
0.120517 9.08196 -0.983788 
0.171725 -0.983788 9.81371 
9.49561 -0.0700746 0.139243 
-0.0700746 9.10864 -0.882901 
0.139243 -0.882901 9.78834 
9.63678 0.0771035 -0.740417 
0.0771035 9.81749 0.608773 
-0.740417 0.608773 9.8402 
9.71002 0.0981633 -0.716673 
0.0981633 9.79047 0.60957 
-0.716673 0.60957 9.79397 
9.64415 0.0960095 -0.658355 
0.0960095 9.74267 0.544224 
-0.658355 0.544224 9.90764 
9.70733 0.129847 -0.673712 
0.129847 9.76823 0.577914 
-0.673712 0.577914 9.81891 
4.90315 -0.846975 0.202404 
-0.846975 4.51454 -1.40776 
0.202404 -1.40776 -0.862971 
2.31591 0.634377 0.388494 
0.634377 3.11463 0.990719 
0.388494 0.990719 3.12418 
4.11062 0.365706 -0.434121 
0.365706 4.76712 -0.29109 
-0.434121 -0.29109 -0.323015 
3.38732 0.831758 0.973144 
0.831758 4.59571 0.853482 
0.973144 0.853482 0.571702 
9.02153 -0.325326 -0.710704 
-0.325326 9.28975 -0.391199 
-0.710704 -0.391199 9.72833 
9.08452 -0.00546217 -0.676402 
-0.00546217 9.29287 -0.488505 
-0.676402 -0.488505 9.66221 
9.0605 -0.20676 -0.574416 
-0.20676 9.23468 -0.357795 
-0.574416 -0.357795 9.74443 
9.07701 -0.231368 -0.590796 
-0.231368 9.34033 -0.536305 
-0.590796 -0.536305 9.62227 
9.40527 0.083178 -0.664672 
0.083178 9.52803 0.359513 
-0.664672 0.359513 9.81785 
9.43268 0.155361 -0.665019 
0.155361 9.60841 0.429008 
-0.665019 0.429008 9.71006 
9.47113 0.0973602 -0.660755 
0.0973602 9.51592 0.404366 
-0.660755 0.404366 9.76411 
9.31657 -0.0354373 -0.697343 
-0.0354373 9.58861 0.351436 
-0.697343 0.351436 9.84597 
9.29174 0.197012 0.83188 
0.197012 9.85479 -0.689725 
0.83188 -0.689725 9.76938 
9.51943 0.415768 1.16126 
0.415768 9.71667 -0.662922 
1.16126 -0.662922 9.6798 
9.65837 0.216334 1.02753 
0.216334 9.70689 -0.904838 
1.02753 -0.904838 9.55065 
9.37596 0.2278 0.85064 
0.2278 9.58968 -0.631 
0.85064 -0.631 9.95026 
9.62413 0.627939 1.34283 
0.627939 9.15585 -1.61138 
1.34283 -1.61138 9.72823 
9.64438 0.136029 0.360656 
0.136029 8.31895 -0.906181 
0.360656 -0.906181 10.5449 
9.49073 1.27051 1.60982 
1.27051 7.79518 -2.17268 
1.60982 -2.17268 11.2223 
9.16942 0.845858 0.604381 
0.845858 9.39328 -1.45295 
0.604381 -1.45295 9.9455 
9.96238 0.00128559 -0.148701 
0.00128559 9.45163 1.06443 
-0.148701 1.06443 9.43931 
9.80768 0.0099701 -0.063141 
0.0099701 9.55912 1.11161 
-0.063141 1.11161 9.48653 
9.89542 -0.0142801 -0.132807 
-0.0142801 9.3879 0.977922 
-0.132807 0.977922 9.57 
9.76059 -0.0424563 -0.104953 
-0.0424563 9.55259 1.06922 
-0.104953 1.06922 9.54014 
9.84994 -0.0190829 -0.0029614 
-0.0190829 9.7454 0.897207 
-0.0029614 0.897207 9.9068 
9.77039 0.0274908 0.00121602 
0.0274908 9.76764 0.849959 
0.00121602 0.849959 9.96411 
9.79684 0.042977 -0.0130433 
0.042977 9.82257 0.762192 
-0.0130433 0.762192 9.88274 
9.88675 -0.00345596 -0.0373666 
-0.00345596 9.68913 0.850432 
-0.0373666 0.850432 9.92627 
9.002 0.524639 -1.25738 
0.524639 9.15452 0.669205 
-1.25738 0.669205 9.65795 
8.94095 0.590786 -1.26252 
0.590786 9.19847 0.937399 
-1.26252 0.937399 9.67504 
8.71666 0.278208 -0.59272 
0.278208 9.76002 0.696982 
-0.59272 0.696982 9.33779 
8.57845 0.471887 -1.32046 
0.471887 9.0898 0.477558 
-1.32046 0.477558 10.1462 
8.21433 0.478724 1.1323 
0.478724 8.3723 -2.04136 
1.1323 -2.04136 3.8153 
8.182 0.315848 0.906214 
0.315848 8.31905 -1.38202 
0.906214 -1.38202 3.90088 
8.48615 0.477838 1.27894 
0.477838 8.27451 -1.88812 
1.27894 -1.88812 3.64128 
8.51105 0.11881 1.38205 
0.11881 8.42907 -1.96244 
1.38205 -1.96244 3.46181 
8.29216 0.380615 1.16332 
0.380615 9.2316 -0.385874 
1.16332 -0.385874 9.85969 
8.59126 0.441423 1.28258 
0.441423 8.96829 -0.467902 
1.28258 -0.467902 9.82389 
8.20115 0.489997 1.18335 
0.489997 9.38923 -0.452057 
1.18335 -0.452057 9.79306 
8.22906 0.404786 1.17042 
0.404786 9.28562 -0.389731 
1.17042 -0.389731 9.86876 
9.40848 -0.597943 1.44064 
-0.597943 9.25596 1.41745 
1.44064 1.41745 9.1481 
9.37055 -0.302735 0.883672 
-0.302735 9.1238 0.884349 
0.883672 0.884349 9.31819 
9.67713 -0.269112 1.29081 
-0.269112 9.97032 1.67042 
1.29081 1.67042 8.16509 
9.41369 -0.517632 1.57318 
-0.517632 9.33764 1.26888 
1.57318 1.26888 9.0612 
9.30764 0.0581841 -0.161742 
0.0581841 9.58552 -0.0450633 
-0.161742 -0.0450633 6.48588 
9.19899 -0.175675 -0.299311 
-0.175675 9.76023 0.42365 
-0.299311 0.42365 6.41983 
9.65311 -0.0348899 0.310961 
-0.0348899 8.71231 0.602448 
0.310961 0.602448 7.01362 
10.0507 0.00930034 0.0304722 
0.00930034 9.74624 0.795722 
0.0304722 0.795722 5.58207 
9.55926 0.404783 0.953441 
0.404783 9.47712 -0.770174 
0.953441 -0.770174 9.07806 
9.37574 0.256058 1.19901 
0.256058 9.62038 -0.73549 
1.19901 -0.73549 9.11832 
9.36642 0.309599 1.04205 
0.309599 9.60861 -0.690427 
1.04205 -0.690427 9.13942 
9.2553 0.0171084 1.03018 
0.0171084 9.37528 -0.738335 
1.03018 -0.738335 9.48387 
8.78676 0.0636336 -1.00889 
0.0636336 9.6812 0.323025 
-1.00889 0.323025 10.349 
8.95412 0.0688037 -1.03959 
0.0688037 9.74663 0.1283 
-1.03959 0.1283 10.1162 
8.93293 0.283448 -0.700121 
0.283448 9.58252 0.0507965 
-0.700121 0.0507965 10.3015 
8.94982 0.239275 -0.651605 
0.239275 9.73124 0.137441 
-0.651605 0.137441 10.1359 
8.56673 -0.359825 -1.14921 
-0.359825 10.0705 -0.416946 
-1.14921 -0.416946 9.99182 
9.10079 -0.190629 -0.703482 
-0.190629 9.18374 -0.420857 
-0.703482 -0.420857 10.3445 
8.5193 -0.910404 -1.54615 
-0.910404 9.59684 -0.845686 
-1.54615 -0.845686 10.5129 
8.83086 -0.393884 -1.40179 
-0.393884 9.84553 -0.450274 
-1.40179 -0.450274 9.95262 
9.43675 -0.49653 -1.21963 
-0.49653 9.23909 -1.4617 
-1.21963 -1.4617 8.46239 
9.36382 -0.163305 -0.690857 
-0.163305 9.11122 -0.941304 
-0.690857 -0.941304 8.66318 
9.73851 -0.386653 -1.31688 
-0.386653 10.1036 -1.36487 
-1.31688 -1.36487 7.29606 
9.25984 -0.293554 -1.38555 
-0.293554 9.17034 -1.42554 
-1.38555 -1.42554 8.70804 
9.01681 0.0696812 -0.446626 
0.0696812 9.04322 0.615765 
-0.446626 0.615765 9.73265 
9.09899 0.229533 -0.450752 
0.229533 9.05216 0.562693 
-0.450752 0.562693 9.64153 
9.03247 0.27836 -0.495078 
0.27836 9.1865 0.521575 
-0.495078 0.521575 9.57371 
9.18106 0.278609 -0.375934 
0.278609 9.06575 0.526724 
-0.375934 0.526724 9.54586 
8.5548 -1.2045 1.64668 
-1.2045 8.0126 1.78835 
1.64668 1.78835 8.13452 
8.02941 -0.808336 1.75331 
-0.808336 8.75809 1.65302 
1.75331 1.65302 7.9144 
8.33993 -1.32878 1.90766 
-1.32878 8.35431 2.07669 
1.90766 2.07669 8.00766 
8.2655 -1.06787 1.76302 
-1.06787 8.46029 2.05669 
1.76302 2.05669 7.97611 
9.99582 -0.880854 0.205615 
-0.880854 8.17826 2.02847 
0.205615 2.02847 9.5187 
9.72616 -0.512299 0.57703 
-0.512299 8.14318 1.83717 
0.57703 1.83717 9.82343 
9.48121 -0.609719 0.677556 
-0.609719 8.24391 1.95293 
0.677556 1.95293 9.96765 
9.89738 -0.120232 0.403663 
-0.120232 7.94594 1.91575 
0.403663 1.91575 9.84945 
8.51848 -0.415931 -0.802538 
-0.415931 11.871 -0.280236 
-0.802538 -0.280236 10.2718 
11.0929 0.376538 1.20178 
0.376538 7.57527 0.0905217 
1.20178 0.0905217 11.9932 
12.1433 0.545573 0.604495 
0.545573 9.41375 -0.441067 
0.604495 -0.441067 9.10423 
9.13656 -1.53893 0.177458 
-1.53893 10.6061 1.65612 
0.177458 1.65612 10.9187 
7.6379 2.52804 0.875278 
2.52804 10.1845 -2.24436 
0.875278 -2.24436 -1.58724 
8.56876 0.423489 -6.50506 
0.423489 5.24242 -3.67429 
-6.50506 -3.67429 2.42401 
8.36941 -5.60184 -1.88963 
-5.60184 4.25649 -2.39048 
-1.88963 -2.39048 3.60929 
7.71748 -0.708943 -2.64921 
-0.708943 6.55472 -2.73848 
-2.64921 -2.73848 1.963 
9.80673 0.0622717 0.795901 
0.0622717 9.96443 -0.456368 
0.795901 -0.456368 9.97822 
9.80942 0.0520998 0.798614 
0.0520998 9.95667 -0.419028 
0.798614 -0.419028 9.98329 
9.9193 -0.0102997 0.840567 
-0.0102997 9.76198 -0.448486 
0.840567 -0.448486 10.0681 
9.83941 0.0599975 0.772112 
0.0599975 9.93816 -0.416012 
0.772112 -0.416012 9.9718 
8.61498 0.564774 3.13867 
0.564774 8.93791 -1.41677 
3.13867 -1.41677 8.80882 
8.62341 0.364769 2.55583 
0.364769 9.26618 -1.04075 
2.55583 -1.04075 8.47212 
8.78896 0.961392 2.57989 
0.961392 10.0257 -0.855185 
2.57989 -0.855185 7.54704 
7.66883 1.68802 1.09065 
1.68802 9.55357 -1.17167 
1.09065 -1.17167 9.13932 
9.13057 0.076452 0.133585 
0.076452 9.30191 -0.60405 
0.133585 -0.60405 9.88449 
9.47727 -0.089587 0.156633 
-0.089587 9.22587 -0.778705 
0.156633 -0.778705 9.61384 
9.71004 0.218497 0.0110131 
0.218497 9.12089 -0.482379 
0.0110131 -0.482379 9.48605 
9.38531 0.00963793 0.0988424 
0.00963793 9.17887 -0.712491 
0.0988424 -0.712491 9.7528 
8.71329 0.0487928 2.24576 
0.0487928 10.2285 0.242598 
2.24576 0.242598 9.56307 
8.19591 0.198677 2.32461 
0.198677 10.4594 -0.933418 
2.32461 -0.933418 9.84955 
8.16102 0.121073 2.04496 
0.121073 10.4868 0.367347 
2.04496 0.367347 9.85708 
8.67864 0.0740455 1.03012 
0.0740455 9.62547 -0.643355 
1.03012 -0.643355 10.2008 
9.26454 0.20337 -1.07769 
0.20337 9.85337 0.480382 
-1.07769 0.480382 9.77057 
9.335 0.441165 -1.12175 
0.441165 9.62754 0.571112 
-1.12175 0.571112 9.92594 
9.34749 0.136219 -0.94139 
0.136219 9.69232 0.383056 
-0.94139 0.383056 9.84868 
9.35392 0.202055 -1.17086 
0.202055 9.85868 0.499584 
-1.17086 0.499584 9.67588 
8.58649 -0.201492 -1.29709 
-0.201492 9.39191 -0.832068 
-1.29709 -0.832068 8.05038 
9.14884 -0.0774848 -1.04259 
-0.0774848 9.0135 -0.256677 
-1.04259 -0.256677 7.86645 
8.90587 -0.285995 -1.30177 
-0.285995 9.2232 -0.659662 
-1.30177 -0.659662 7.89971 
9.30525 -0.533818 -1.58349 
-0.533818 9.22587 -0.912043 
-1.58349 -0.912043 7.49766 
9.42049 -0.248723 3.00168 
-0.248723 9.60646 2.43222 
3.00168 2.43222 6.65536 
9.01259 -0.751974 1.82445 
-0.751974 8.41469 2.70823 
1.82445 2.70823 8.25503 
8.89903 -0.467671 2.64641 
-0.467671 8.97297 2.56781 
2.64641 2.56781 7.81032 
8.68991 -0.537818 2.68778 
-0.537818 9.15849 2.58178 
2.68778 2.58178 7.83392 
12.4628 0.442886 -0.446042 
0.442886 10.3564 -0.00503585 
-0.446042 -0.00503585 12.787 
11.9382 -0.883618 -0.75293 
-0.883618 10.0442 -0.289403 
-0.75293 -0.289403 13.6238 
11.1028 -1.70397 0.161032 
-1.70397 10.5587 0.812458 
0.161032 0.812458 13.9447 
11.5337 -0.934041 -0.739392 
-0.934041 10.4033 -0.274931 
-0.739392 -0.274931 13.6692 
9.68624 0.0321632 0.582866 
0.0321632 9.62355 0.740224 
0.582866 0.740224 9.84984 
9.67887 -0.0980991 0.538609 
-0.0980991 9.75248 0.525049 
0.538609 0.525049 9.72828 
9.65408 -0.0548513 0.577962 
-0.0548513 9.54534 0.605514 
0.577962 0.605514 9.96022 
9.67862 -0.0945618 0.580077 
-0.0945618 9.67867 0.612115 
0.580077 0.612115 9.80235 
9.17299 -0.319895 -1.5932 
-0.319895 9.55055 -0.662632 
-1.5932 -0.662632 8.89972 
9.48087 -0.263321 -1.47628 
-0.263321 9.38467 -0.460542 
-1.47628 -0.460542 8.75772 
9.17285 0.0563494 -1.1553 
0.0563494 9.62681 -0.347836 
-1.1553 -0.347836 8.8236 
9.26022 -0.18626 -1.59657 
-0.18626 9.34673 -0.603084 
-1.59657 -0.603084 9.01632 
9.38 -0.0727428 -0.0615445 
-0.0727428 9.29813 0.543467 
-0.0615445 0.543467 9.68602 
9.38293 0.179146 -0.144993 
0.179146 9.13145 0.746106 
-0.144993 0.746106 9.84977 
9.52637 0.0350222 -0.266382 
0.0350222 9.14654 0.642547 
-0.266382 0.642547 9.69124 
9.48952 0.131755 -0.275189 
0.131755 9.29001 0.765673 
-0.275189 0.765673 9.58462 
3.70058 0.170794 -0.365027 
0.170794 3.42391 0.0342853 
-0.365027 0.0342853 -0.559243 
2.38027 0.234084 -0.683329 
0.234084 2.794 0.307207 
-0.683329 0.307207 1.39097 
3.57488 0.20669 -0.917503 
0.20669 3.56266 -0.574459 
-0.917503 -0.574459 -0.572294 
2.5267 0.486411 -1.32019 
0.486411 3.37543 1.02359 
-1.32019 1.02359 0.66311 
4.67684 0.72426 -1.39011 
0.72426 7.28284 -1.19583 
-1.39011 -1.19583 2.32682 
7.15766 -0.691576 -2.63751 
-0.691576 3.24346 -2.33335 
-2.63751 -2.33335 3.88538 
7.44362 -0.521013 -1.22022 
-0.521013 6.02085 -1.31849 
-1.22022 -1.31849 0.82203 
4.94261 0.283779 -2.51578 
0.283779 7.95557 -2.1363 
-2.51578 -2.1363 1.38832 
9.50713 -0.150885 0.447858 
-0.150885 9.40154 0.621813 
0.447858 0.621813 9.62935 
9.36881 -0.145427 0.498291 
-0.145427 9.38163 0.548882 
0.498291 0.548882 9.78758 
9.43725 -0.043754 0.450752 
-0.043754 9.432 0.574605 
0.450752 0.574605 9.66876 
9.63452 -0.184872 0.548871 
-0.184872 9.28392 0.894608 
0.548871 0.894608 9.61957 
9.70414 -0.962567 -0.300639 
-0.962567 8.65027 -0.878578 
-0.300639 -0.878578 10.4284 
9.79732 -0.199587 -0.789202 
-0.199587 8.76322 -1.14353 
-0.789202 -1.14353 10.2223 
9.19371 -0.98472 -0.516232 
-0.98472 9.35764 -1.30792 
-0.516232 -1.30792 10.2315 
9.49637 -0.718884 -0.817919 
-0.718884 8.94819 -1.31447 
-0.817919 -1.31447 10.3383 
9.45851 -0.397722 0.947121 
-0.397722 9.48948 0.833947 
0.947121 0.833947 9.85501 
9.37679 -0.40804 0.974109 
-0.40804 9.65967 0.699459 
0.974109 0.699459 9.76654 
9.34287 -0.257962 0.874919 
-0.257962 9.58676 0.712105 
0.874919 0.712105 9.87336 
9.308 -0.235086 0.843595 
-0.235086 9.48078 0.569901 
0.843595 0.569901 10.0142 
11.6867 2.62888 -0.352425 
2.62888 7.86679 -0.39032 
-0.352425 -0.39032 15.933 
12.3877 1.33933 0.430867 
1.33933 9.72261 -1.75106 
0.430867 -1.75106 13.3761 
11.9289 -1.44232 -0.157983 
-1.44232 10.3179 -0.435684 
-0.157983 -0.435684 13.2397 
10.9874 0.265425 -0.354796 
0.265425 10.3423 -2.22643 
-0.354796 -2.22643 14.1569 
9.87215 -0.558382 2.63387 
-0.558382 8.05171 -2.68406 
2.63387 -2.68406 3.92347 
8.8686 -1.63117 5.18748 
-1.63117 6.50446 -4.68907 
5.18748 -4.68907 6.47427 
5.57077 1.08817 2.337 
1.08817 9.33401 -4.8913 
2.337 -4.8913 6.94255 
8.5851 0.0248154 3.78511 
0.0248154 7.85108 -3.44591 
3.78511 -3.44591 5.41116 
10.2153 0.484836 -0.557048 
0.484836 8.69842 1.75175 
-0.557048 1.75175 10.4104 
10.0244 0.589573 -0.438148 
0.589573 8.75751 1.55646 
-0.438148 1.55646 10.5422 
10.1401 0.327959 -0.557256 
0.327959 8.86148 1.58125 
-0.557256 1.58125 10.3226 
10.1638 0.385828 -0.510297 
0.385828 8.84833 1.7291 
-0.510297 1.7291 10.312 
9.78051 -0.361784 0.276105 
-0.361784 10.2864 0.178102 
0.276105 0.178102 9.45359 
10.7187 0.194902 0.0699178 
0.194902 9.76007 0.79151 
0.0699178 0.79151 9.04176 
10.02 0.0128828 -0.0459727 
0.0128828 9.3959 0.123138 
-0.0459727 0.123138 10.1046 
9.68568 -0.0900759 0.822992 
-0.0900759 10.5318 0.57973 
0.822992 0.57973 9.30301 
9.80935 -0.357133 0.235612 
-0.357133 9.23555 -0.429937 
0.235612 -0.429937 9.51906 
9.08437 -0.661748 -0.657007 
-0.661748 9.27714 -0.0156642 
-0.657007 -0.0156642 10.2025 
9.11583 0.312897 -0.715787 
0.312897 9.91856 0.0848991 
-0.715787 0.0848991 9.52957 
9.57728 -0.12152 -0.0382628 
-0.12152 8.95567 -1.21067 
-0.0382628 -1.21067 10.031 
9.03923 -0.291809 -0.198171 
-0.291809 9.46524 -0.367023 
-0.198171 -0.367023 9.64825 
9.14006 -0.290018 -0.657934 
-0.290018 9.26321 -0.254281 
-0.657934 -0.254281 9.74944 
9.172 -0.0995036 -0.466701 
-0.0995036 9.2889 -0.179496 
-0.466701 -0.179496 9.69181 
9.28833 -0.102269 -0.567108 
-0.102269 9.20635 -0.657444 
-0.567108 -0.657444 9.65804 
3.70455 -1.38629 0.527424 
-1.38629 4.95524 0.133034 
0.527424 0.133034 -0.0278034 
3.96344 0.848081 -0.758676 
0.848081 4.17104 0.127001 
-0.758676 0.127001 0.4975 
3.79514 0.642849 -0.303431 
0.642849 3.73104 0.157471 
-0.303431 0.157471 1.1058 
4.10815 -1.4796 -2.92054 
-1.4796 3.28668 -1.22333 
-2.92054 -1.22333 1.23715 
9.70944 -0.0881862 -0.636781 
-0.0881862 9.68599 -0.55397 
-0.636781 -0.55397 9.93562 
9.70165 -0.155352 -0.664395 
-0.155352 9.68664 -0.56275 
-0.664395 -0.56275 9.94277 
9.69574 -0.104869 -0.648611 
-0.104869 9.6868 -0.572978 
-0.648611 -0.572978 9.94851 
9.71531 -0.106473 -0.672537 
-0.106473 9.70348 -0.57751 
-0.672537 -0.57751 9.91226 
9.64346 0.050384 0.709635 
0.050384 9.79896 -0.096134 
0.709635 -0.096134 7.23264 
9.51522 -0.090167 0.382738 
-0.090167 9.63866 0.014896 
0.382738 0.014896 7.52118 
9.44528 -0.230491 0.345994 
-0.230491 9.70404 0.226566 
0.345994 0.226566 7.52574 
9.65128 0.212451 0.156582 
0.212451 9.08341 -0.00185683 
0.156582 -0.00185683 7.94037 
9.20123 0.567677 0.823914 
0.567677 9.30679 -0.761638 
0.823914 -0.761638 10.1407 
9.11906 0.5072 0.807683 
0.5072 9.398 -0.743917 
0.807683 -0.743917 10.1317 
9.20468 0.543198 0.815064 
0.543198 9.27395 -0.779723 
0.815064 -0.779723 10.1701 
9.27476 0.872962 0.880654 
0.872962 9.25349 -0.710928 
0.880654 -0.710928 10.1205 
9.46143 0.117027 -1.24822 
0.117027 9.69388 0.160555 
-1.24822 0.160555 9.33822 
9.32351 0.108096 -1.27004 
0.108096 9.92236 0.403086 
-1.27004 0.403086 9.24767 
9.23719 0.334963 -1.22169 
0.334963 9.72468 0.15376 
-1.22169 0.15376 9.53166 
9.02199 0.14114 -0.787983 
0.14114 9.44715 0.463717 
-0.787983 0.463717 10.0244 
9.66981 0.0397084 -0.866725 
0.0397084 9.67787 0.175504 
-0.866725 0.175504 9.91721 
9.65727 -0.0289194 -0.776986 
-0.0289194 9.79417 0.169029 
-0.776986 0.169029 9.81344 
9.65535 -0.00834591 -0.848756 
-0.00834591 9.82877 0.136344 
-0.848756 0.136344 9.78076 
9.59678 0.0275127 -0.829804 
0.0275127 9.7637 0.133505 
-0.829804 0.133505 9.9044 
9.94226 0.0556185 0.20418 
0.0556185 9.70697 0.0376016 
0.20418 0.0376016 10.0141 
9.11657 -0.0336834 0.069743 
-0.0336834 10.1691 -0.0585338 
0.069743 -0.0585338 10.3776 
9.74953 -0.0379674 0.208168 
-0.0379674 9.80871 -0.00404966 
0.208168 -0.00404966 10.105 
9.76626 -0.247025 0.461793 
-0.247025 9.68697 -0.0730331 
0.461793 -0.0730331 10.2101 
8.9614 -0.370899 1.26434 
-0.370899 9.60552 0.769691 
1.26434 0.769691 8.44438 
9.01685 -0.0939087 1.52192 
-0.0939087 9.72151 0.460205 
1.52192 0.460205 8.27294 
9.12514 -0.186417 1.3877 
-0.186417 9.65031 0.457371 
1.3877 0.457371 8.23585 
9.33104 0.131504 1.38346 
0.131504 8.95255 0.344055 
1.38346 0.344055 8.72772 
9.69318 0.0380665 -0.443856 
0.0380665 9.70666 0.7618 
-0.443856 0.7618 9.83676 
9.71797 0.022791 -0.427363 
0.022791 9.6662 0.733683 
-0.427363 0.733683 9.85244 
9.74461 0.0059838 -0.384045 
0.0059838 9.68578 0.643131 
-0.384045 0.643131 9.80622 
9.77113 0.0686783 -0.447097 
0.0686783 9.63568 0.742571 
-0.447097 0.742571 9.8298 
9.94554 0.0183997 -0.50761 
0.0183997 9.97281 0.589011 
-0.50761 0.589011 9.82189 
10.0181 0.0183851 -0.562718 
0.0183851 9.93167 0.609284 
-0.562718 0.609284 9.79042 
9.69211 -0.030596 -0.516551 
-0.030596 9.66651 0.752301 
-0.516551 0.752301 10.3816 
10.0009 -0.0152757 -0.429085 
-0.0152757 10.0025 0.64632 
-0.429085 0.64632 9.73677 
9.67021 -0.110841 0.568608 
-0.110841 9.61321 0.694882 
0.568608 0.694882 9.8331 
9.71167 -0.020706 0.723775 
-0.020706 9.64411 0.831339 
0.723775 0.831339 9.76074 
9.62024 -0.116053 0.560601 
-0.116053 9.59845 0.731027 
0.560601 0.731027 9.89783 
9.72886 -0.10516 0.637183 
-0.10516 9.66175 0.872311 
0.637183 0.872311 9.72591 
9.32565 -0.0474002 0.3745 
-0.0474002 9.22797 0.434006 
0.3745 0.434006 9.54626 
8.56704 -0.456419 -0.0643308 
-0.456419 9.39549 0.0973625 
-0.0643308 0.0973625 10.1373 
10.3106 0.398668 0.580327 
0.398668 9.09208 0.579316 
0.580327 0.579316 8.69715 
8.70958 -0.434179 1.00202 
-0.434179 9.165 0.112414 
1.00202 0.112414 10.2253 
9.16868 -1.25695 -0.127895 
-1.25695 9.29996 -0.107244 
-0.127895 -0.107244 11.5004 
9.54675 -0.735781 -0.740689 
-0.735781 10.196 -1.39137 
-0.740689 -1.39137 10.2263 
9.29659 -0.859496 -0.0492836 
-0.859496 9.36907 -0.001943 
-0.0492836 -0.001943 11.3034 
9.28224 -0.966016 -0.145984 
-0.966016 9.53781 -0.292939 
-0.145984 -0.292939 11.149 
9.80058 0.0260386 -0.940503 
0.0260386 9.796 -0.191189 
-0.940503 -0.191189 9.93449 
9.73894 -0.0232723 -0.856223 
-0.0232723 9.8407 -0.153898 
-0.856223 -0.153898 9.95143 
9.82202 -0.0473733 -0.700107 
-0.0473733 9.75664 -0.118376 
-0.700107 -0.118376 9.95241 
9.68072 -0.0432678 -0.86286 
-0.0432678 9.88055 -0.205922 
-0.86286 -0.205922 9.9698 
8.62809 -0.370372 -0.838913 
-0.370372 9.21008 -0.349592 
-0.838913 -0.349592 10.0046 
8.56955 -0.433844 -1.08387 
-0.433844 9.3181 -0.420591 
-1.08387 -0.420591 9.95508 
8.56444 -0.318226 -0.860143 
-0.318226 9.34856 -0.359237 
-0.860143 -0.359237 9.92972 
8.93974 -0.0986765 -1.13835 
-0.0986765 9.26634 -0.296677 
-1.13835 -0.296677 9.63665 
9.93988 0.331856 -0.0481092 
0.331856 9.70633 0.0268327 
-0.0481092 0.0268327 10.2085 
9.85512 -0.361315 -0.0251163 
-0.361315 10.2121 -0.117101 
-0.0251163 -0.117101 9.78755 
9.99167 0.0600551 -0.0142376 
0.0600551 9.77335 -0.0583238 
-0.0142376 -0.0583238 10.0897 
10.1599 0.0302791 0.163363 
0.0302791 9.59758 -0.0794126 
0.163363 -0.0794126 10.0973 
9.6813 -0.0320411 0.771752 
-0.0320411 9.76709 -0.112721 
0.771752 -0.112721 9.92279 
9.66386 -0.053171 0.891835 
-0.053171 9.76654 -0.208645 
0.891835 -0.208645 9.94078 
9.72945 0.04349 0.881582 
0.04349 9.76574 -0.165433 
0.881582 -0.165433 9.87599 
9.68095 -0.00425645 0.731413 
-0.00425645 9.84527 -0.0776653 
0.731413 -0.0776653 9.84496 
9.12418 -0.195377 -0.943865 
-0.195377 9.29712 -0.298828 
-0.943865 -0.298828 9.78592 
8.71437 -0.11568 -0.93296 
-0.11568 9.57293 -0.359237 
-0.93296 -0.359237 9.9199 
8.89194 -0.289871 -1.3895 
-0.289871 9.40697 -0.167502 
-1.3895 -0.167502 9.9083 
8.87408 -0.175944 -1.03586 
-0.175944 9.49004 -0.399676 
-1.03586 -0.399676 9.84309 
4.08992 -0.541504 0.797661 
-0.541504 4.85071 2.01031 
0.797661 2.01031 3.19161 
4.10996 0.836219 0.746302 
0.836219 4.38223 2.17216 
0.746302 2.17216 3.64006 
6.3461 0.994597 0.473913 
0.994597 6.44026 1.11149 
0.473913 1.11149 -0.654114 
3.92877 1.45104 1.57747 
1.45104 4.72693 3.66921 
1.57747 3.66921 3.47654 
3.90865 -0.448672 0.672961 
-0.448672 3.68607 0.376689 
0.672961 0.376689 0.196559 
3.75188 -0.352722 -0.31324 
-0.352722 3.90738 -0.0215091 
-0.31324 -0.0215091 0.132007 
3.33405 0.259343 -0.310355 
0.259343 3.64447 0.0345224 
-0.310355 0.0345224 0.81276 
3.6194 -0.175809 0.858587 
-0.175809 3.19048 0.7846 
0.858587 0.7846 0.981394 
9.8358 -0.0513274 0.205318 
-0.0513274 9.76211 0.913931 
0.205318 0.913931 9.94863 
9.82436 0.00423131 0.130093 
0.00423131 9.76998 0.843176 
0.130093 0.843176 9.95221 
9.80505 -0.10376 0.187433 
-0.10376 9.77081 0.880972 
0.187433 0.880972 9.97069 
9.93127 0.0341424 0.17641 
0.0341424 9.6618 0.956551 
0.17641 0.956551 9.95347 
11.3561 -0.736486 -0.613999 
-0.736486 10.6486 0.293435 
-0.613999 0.293435 9.03741 
9.41239 -0.44284 -0.0354776 
-0.44284 10.5757 -0.0912928 
-0.0354776 -0.0912928 11.0539 
9.85442 0.279244 0.240026 
0.279244 10.2307 -0.27228 
0.240026 -0.27228 10.9569 
9.61722 -0.0476393 -0.404036 
-0.0476393 10.3674 0.204671 
-0.404036 0.204671 11.0574 
9.58835 0.0117212 0.0994495 
0.0117212 9.43501 -0.786132 
0.0994495 -0.786132 9.64219 
9.4491 -0.00117239 0.0771948 
-0.00117239 9.66106 -0.839378 
0.0771948 -0.839378 9.5554 
9.58133 -0.000577301 0.0864114 
-0.000577301 9.37827 -0.717883 
0.0864114 -0.717883 9.70595 
9.55626 0.0825578 0.0486116 
0.0825578 9.41929 -0.776551 
0.0486116 -0.776551 9.69 
5.22496 0.0756566 -0.214657 
0.0756566 5.1106 0.0664411 
-0.214657 0.0664411 0.319316 
5.07457 0.0402584 -0.133293 
0.0402584 4.87502 0.0496603 
-0.133293 0.0496603 0.705292 
4.60556 -0.182056 -0.659387 
-0.182056 4.87188 -1.19069 
-0.659387 -1.19069 1.17744 
4.52247 -0.115393 -1.04348 
-0.115393 4.96658 -0.162302 
-1.04348 -0.162302 1.16583 
9.70029 -0.0182354 0.057875 
-0.0182354 10.1191 0.00659587 
0.057875 0.00659587 11.4613 
10.128 0.355083 -0.121561 
0.355083 10.2124 0.133989 
-0.121561 0.133989 10.9403 
10.8887 0.160516 -0.0516341 
0.160516 10.2951 0.203811 
-0.0516341 0.203811 10.0968 
10.0998 0.476194 -0.913924 
0.476194 10.3997 0.196687 
-0.913924 0.196687 10.7812 
9.62928 -0.499432 -1.48769 
-0.499432 9.9685 -0.827475 
-1.48769 -0.827475 7.86209 
9.89911 -0.445451 -1.90938 
-0.445451 10.2485 -1.18547 
-1.90938 -1.18547 7.31226 
9.1851 -0.476052 -2.04609 
-0.476052 10.6588 -0.572094 
-2.04609 -0.572094 7.616 
9.90928 -0.477302 -1.77518 
-0.477302 9.85994 -0.874433 
-1.77518 -0.874433 7.69065 
9.61548 -0.0919759 0.145757 
-0.0919759 9.51143 0.1322 
0.145757 0.1322 9.75882 
9.70346 -0.204369 0.0268064 
-0.204369 9.47644 0.139466 
0.0268064 0.139466 9.70582 
9.58089 0.0110269 0.088339 
0.0110269 9.6204 0.0858332 
0.088339 0.0858332 9.68444 
9.49237 -0.049235 0.166444 
-0.049235 9.70656 0.162098 
0.166444 0.162098 9.6868 
9.75927 -0.0427302 -0.378282 
-0.0427302 9.48737 -0.870062 
-0.378282 -0.870062 9.82562 
9.95362 -0.202048 -0.55835 
-0.202048 9.56745 -1.10794 
-0.55835 -1.10794 9.55118 
9.73939 -0.172341 -0.518409 
-0.172341 9.52955 -0.913524 
-0.518409 -0.913524 9.80332 
9.55827 -0.192855 -0.597877 
-0.192855 9.59382 -0.85198 
-0.597877 -0.85198 9.92016 
9.23179 0.298414 0.0504616 
0.298414 10.256 0.0189592 
0.0504616 0.0189592 10.5433 
9.19548 0.294255 -0.35095 
0.294255 10.2946 -0.0447935 
-0.35095 -0.0447935 10.541 
9.17182 0.725303 0.0236489 
0.725303 10.0851 -0.180773 
0.0236489 -0.180773 10.7741 
9.36471 0.11611 -0.697272 
0.11611 10.0868 0.310158 
-0.697272 0.310158 10.5795 
9.26469 -0.0204257 -0.0978209 
-0.0204257 9.17792 0.860968 
-0.0978209 0.860968 9.61168 
9.3779 0.0692766 -0.141088 
0.0692766 8.90928 0.868772 
-0.141088 0.868772 9.76712 
9.39096 0.153606 -0.120387 
0.153606 8.93717 0.715083 
-0.120387 0.715083 9.72617 
9.3786 0.0851363 -0.126501 
0.0851363 8.98138 0.813571 
-0.126501 0.813571 9.69432 
9.24977 0.167214 0.39762 
0.167214 9.17981 -0.450123 
0.39762 -0.450123 9.67335 
9.24369 0.140444 0.463966 
0.140444 9.24747 -0.5548 
0.463966 -0.5548 9.61177 
9.28583 0.169089 0.478845 
0.169089 9.16379 -0.633807 
0.478845 -0.633807 9.65332 
9.24506 0.132553 0.548461 
0.132553 9.34883 -0.584512 
0.548461 -0.584512 9.50904 
7.14442 -0.447607 1.43543 
-0.447607 6.03859 -1.0608 
1.43543 -1.0608 1.57662 
5.70923 -0.234178 0.77559 
-0.234178 6.85404 -0.72631 
0.77559 -0.72631 2.19635 
6.27473 -0.161989 0.81687 
-0.161989 5.50866 -1.995 
0.81687 -1.995 2.97624 
5.98595 -0.226521 1.64615 
-0.226521 5.91709 -1.57109 
1.64615 -1.57109 2.85659 
9.55584 0.0644945 -0.796419 
0.0644945 9.71179 0.368008 
-0.796419 0.368008 9.86071 
9.56034 0.106519 -0.872364 
0.106519 9.66285 0.363373 
-0.872364 0.363373 9.90515 
9.63142 0.196396 -0.80514 
0.196396 9.63474 0.397096 
-0.80514 0.397096 9.86218 
9.54932 0.105399 -0.859009 
0.105399 9.80365 0.58827 
-0.859009 0.58827 9.77536 
9.51125 0.0527066 0.679541 
0.0527066 9.20596 -0.130175 
0.679541 -0.130175 8.15213 
8.47415 -0.307055 1.65935 
-0.307055 9.69416 0.897543 
1.65935 0.897543 8.70102 
9.56528 -0.725429 1.49566 
-0.725429 9.53288 1.1331 
1.49566 1.1331 7.77118 
8.80355 0.0108001 1.5973 
0.0108001 9.02757 0.488166 
1.5973 0.488166 9.03822 
9.05995 0.292466 -0.19133 
0.292466 9.2134 0.118619 
-0.19133 0.118619 10.1216 
9.1152 0.204369 -0.400655 
0.204369 9.32095 0.305077 
-0.400655 0.305077 9.95882 
8.92465 0.717076 -0.352851 
0.717076 9.1104 0.358299 
-0.352851 0.358299 10.3599 
9.29455 0.212091 -0.373638 
0.212091 9.12694 0.298206 
-0.373638 0.298206 9.97346 
8.07763 -1.21446 1.21848 
-1.21446 7.9726 1.76992 
1.21848 1.76992 8.61271 
8.65802 -0.951276 1.65739 
-0.951276 7.84631 1.7918 
1.65739 1.7918 8.15861 
8.63985 -0.525145 1.32757 
-0.525145 7.93946 1.65066 
1.32757 1.65066 8.08363 
8.62682 -1.25868 1.98959 
-1.25868 8.3786 2.07271 
1.98959 2.07271 7.65753 
9.64275 0.051402 -0.453135 
0.051402 9.72411 0.689997 
-0.453135 0.689997 9.83808 
9.69982 0.0561424 -0.51053 
0.0561424 9.69076 0.701275 
-0.51053 0.701275 9.81437 
9.68888 0.0234725 -0.534339 
0.0234725 9.61809 0.729305 
-0.534339 0.729305 9.89798 
9.6579 0.11111 -0.471191 
0.11111 9.64442 0.695116 
-0.471191 0.695116 9.90264 
9.28403 -0.432304 0.796535 
-0.432304 9.39748 0.986629 
0.796535 0.986629 9.54256 
9.24124 -0.282701 0.957956 
-0.282701 9.55585 0.893918 
0.957956 0.893918 9.42697 
9.35669 -0.323889 0.939382 
-0.323889 9.46954 0.854592 
0.939382 0.854592 9.39784 
9.6082 -0.146146 0.941972 
-0.146146 8.9787 0.541609 
0.941972 0.541609 9.63717 
9.62118 -0.107971 0.495371 
-0.107971 9.59047 0.849887 
0.495371 0.849887 9.73967 
9.7295 -0.159423 0.490078 
-0.159423 9.44198 0.8502 
0.490078 0.8502 9.77983 
9.69269 -0.156883 0.559364 
-0.156883 9.55475 0.738713 
0.559364 0.738713 9.70387 
9.69212 -0.204757 0.580875 
-0.204757 9.59061 0.591821 
0.580875 0.591821 9.66858 
8.94956 0.215843 -0.6606 
0.215843 9.21644 0.366881 
-0.6606 0.366881 9.75162 
8.90345 0.271179 -0.668408 
0.271179 9.31793 0.42089 
-0.668408 0.42089 9.69623 
8.92483 0.197643 -0.684826 
0.197643 9.28115 0.385425 
-0.684826 0.385425 9.71164 
8.89542 0.128375 -0.674159 
0.128375 9.36816 0.352722 
-0.674159 0.352722 9.65403 
9.31961 0.0875653 0.177839 
0.0875653 8.62038 -2.21982 
0.177839 -2.21982 10.7292 
9.95241 1.39309 2.39896 
1.39309 7.92391 -1.06447 
2.39896 -1.06447 10.7928 
9.35895 0.334293 0.544303 
0.334293 8.49609 -0.323233 
0.544303 -0.323233 10.8141 
9.35729 1.32257 -0.91101 
1.32257 8.39432 -1.02302 
-0.91101 -1.02302 10.9175 
9.58009 0.0282889 -0.715083 
0.0282889 9.82094 -0.248348 
-0.715083 -0.248348 9.972 
9.64804 -0.0325375 -0.880787 
-0.0325375 9.87023 -0.361374 
-0.880787 -0.361374 9.85475 
9.7221 -0.036416 -0.811148 
-0.036416 9.78444 -0.360792 
-0.811148 -0.360792 9.86648 
9.71806 -0.0532268 -0.782106 
-0.0532268 9.77771 -0.350858 
-0.782106 -0.350858 9.87725 
9.87713 -0.709936 0.69002 
-0.709936 8.69972 0.805476 
0.69002 0.805476 10.7396 
8.94134 -0.097769 0.238994 
-0.097769 9.42692 0.388957 
0.238994 0.388957 10.9482 
9.86041 -0.85048 0.862405 
-0.85048 9.16817 1.4231 
0.862405 1.4231 10.2878 
8.97531 -1.53522 0.508955 
-1.53522 8.44785 0.762851 
0.508955 0.762851 11.8933 
4.43995 -0.112657 -0.342696 
-0.112657 5.01114 -0.142392 
-0.342696 -0.142392 0.0645995 
4.99224 -0.00246246 0.0167762 
-0.00246246 4.69984 -0.0529228 
0.0167762 -0.0529228 -0.176392 
4.37222 -0.04103 1.17816 
-0.04103 3.82986 -0.0820967 
1.17816 -0.0820967 1.31361 
5.27437 -0.763285 0.12244 
-0.763285 4.21112 0.0265585 
0.12244 0.0265585 0.0301993 
9.80395 0.210265 0.0748136 
0.210265 8.98683 -1.28533 
0.0748136 -1.28533 9.97407 
9.76357 -0.0846811 -0.0557429 
-0.0846811 8.55648 -1.11834 
-0.0557429 -1.11834 10.4448 
9.80785 0.244199 0.149871 
0.244199 8.78317 -1.09406 
0.149871 -1.09406 10.1738 
9.73364 -0.0109647 0.0269129 
-0.0109647 8.78119 -0.4883 
0.0269129 -0.4883 10.25 
9.59222 0.117046 -0.636686 
0.117046 9.65417 0.666109 
-0.636686 0.666109 9.80886 
9.77311 0.242768 -0.901678 
0.242768 9.65212 0.573234 
-0.901678 0.573234 9.63002 
9.46985 0.161009 -0.698373 
0.161009 9.72858 0.646484 
-0.698373 0.646484 9.85681 
9.60925 0.0590414 -0.663889 
0.0590414 9.63977 0.684247 
-0.663889 0.684247 9.80623 
9.85376 0.0376519 -0.0296245 
0.0376519 10.0363 -0.176734 
-0.0296245 -0.176734 10.2461 
10.2415 -0.0358466 0.0805806 
-0.0358466 9.87209 0.120372 
0.0805806 0.120372 10.0226 
10.1656 -0.208392 -0.122264 
-0.208392 9.90195 -0.0591005 
-0.122264 -0.0591005 10.0687 
10.0976 -0.025918 -0.0146294 
-0.025918 9.77883 0.0135049 
-0.0146294 0.0135049 10.2598 
9.84248 -0.0403519 -0.385386 
-0.0403519 9.57399 -0.667256 
-0.385386 -0.667256 9.97282 
9.73194 -0.0559126 -0.489359 
-0.0559126 9.84032 -0.751532 
-0.489359 -0.751532 9.81703 
9.84151 -0.0863549 -0.513542 
-0.0863549 9.66535 -0.842249 
-0.513542 -0.842249 9.88242 
9.70001 -0.0627195 -0.574376 
-0.0627195 9.81113 -0.737738 
-0.574376 -0.737738 9.87815 
9.13389 0.0219136 -0.17645 
0.0219136 9.97779 -0.548047 
-0.17645 -0.548047 9.13415 
9.82264 -0.124793 0.0295651 
-0.124793 8.60533 -0.128426 
0.0295651 -0.128426 9.81786 
9.3308 -0.00603671 -0.285865 
-0.00603671 9.40831 -0.486035 
-0.285865 -0.486035 9.50673 
9.40363 -0.158801 0.0701805 
-0.158801 8.89224 -0.779907 
0.0701805 -0.779907 9.94997 
9.70359 0.0919167 -0.503521 
0.0919167 9.67429 0.73133 
-0.503521 0.73133 9.93176 
9.76217 0.118462 -0.523095 
0.118462 9.6611 0.732289 
-0.523095 0.732289 9.88637 
9.73541 0.110189 -0.518732 
0.110189 9.69009 0.783619 
-0.518732 0.783619 9.88414 
9.7284 0.0929099 -0.516789 
0.0929099 9.66434 0.745522 
-0.516789 0.745522 9.91689 
9.01332 0.763956 -0.678555 
0.763956 8.75569 0.64111 
-0.678555 0.64111 10.5897 
9.0045 0.666846 -0.565065 
0.666846 8.8411 0.585018 
-0.565065 0.585018 10.5131 
8.98103 0.826934 -0.464469 
0.826934 8.88318 0.477946 
-0.464469 0.477946 10.4945 
9.05266 0.159416 -0.46299 
0.159416 9.24397 0.988516 
-0.46299 0.988516 10.0621 
9.48201 0.319838 -0.584563 
0.319838 9.25593 0.690077 
-0.584563 0.690077 9.82089 
9.38898 0.186693 -0.678288 
0.186693 9.37466 0.88762 
-0.678288 0.88762 9.7952 
9.60986 0.446189 -0.51695 
0.446189 9.22056 1.18679 
-0.51695 1.18679 9.72843 
9.58359 0.106982 -0.26431 
0.106982 9.32204 0.876497 
-0.26431 0.876497 9.65321 
8.53185 -1.48173 -2.09573 
-1.48173 9.31236 -1.05339 
-2.09573 -1.05339 10.3197 
8.84194 -0.0891144 -1.4599 
-0.0891144 9.68735 -0.875325 
-1.4599 -0.875325 9.6346 
8.80866 -0.353626 -0.988436 
-0.353626 9.16038 -0.255121 
-0.988436 -0.255121 10.1948 
9.10153 -0.499241 -1.17135 
-0.499241 9.69429 -1.10838 
-1.17135 -1.10838 9.36807 
9.25278 -0.495586 0.70041 
-0.495586 9.17139 0.820428 
0.70041 0.820428 10.3089 
9.44558 -0.478016 0.641623 
-0.478016 9.2133 0.696624 
0.641623 0.696624 10.0742 
9.40883 -0.527914 0.771167 
-0.527914 9.24632 1.03601 
0.771167 1.03601 10.0779 
9.38355 -0.404225 0.520525 
-0.404225 9.22966 0.752446 
0.520525 0.752446 10.1198 
9.64773 0.0432814 -0.67642 
0.0432814 9.69238 0.638123 
-0.67642 0.638123 9.5766 
9.86332 0.142422 -0.829929 
0.142422 9.89581 0.6795 
-0.829929 0.6795 9.15758 
9.69851 0.1205 -0.660685 
0.1205 9.69949 0.887046 
-0.660685 0.887046 9.51872 
9.80737 0.102743 -0.543015 
0.102743 9.5796 1.02882 
-0.543015 1.02882 9.52975 
9.74614 0.444894 0.32024 
0.444894 8.58142 -1.2674 
0.32024 -1.2674 10.7028 
9.81326 -0.530896 -0.00524124 
-0.530896 8.97264 -0.757294 
-0.00524124 -0.757294 10.2445 
10.0289 0.453775 0.533374 
0.453775 8.48483 -1.54643 
0.533374 -1.54643 10.5167 
9.64209 0.68808 0.331243 
0.68808 8.24586 -0.956032 
0.331243 -0.956032 11.1424 
8.79091 0.534835 0.90091 
0.534835 8.91486 -1.15094 
0.90091 -1.15094 9.59251 
8.90542 0.626188 1.37493 
0.626188 8.83456 -0.853941 
1.37493 -0.853941 9.5583 
8.45821 0.613044 1.06005 
0.613044 8.96757 -0.586683 
1.06005 -0.586683 9.8725 
8.94582 0.829715 1.70056 
0.829715 9.29083 -1.18083 
1.70056 -1.18083 9.06163 
2.04346 -1.74302 0.738493 
-1.74302 4.76936 0.546236 
0.738493 0.546236 1.29603 
5.29322 2.44238 -0.734725 
2.44238 3.37584 0.856268 
-0.734725 0.856268 -0.560214 
4.85975 -0.808603 2.26116 
-0.808603 3.19592 0.576118 
2.26116 0.576118 0.053184 
3.86582 0.303151 1.20175 
0.303151 3.97969 0.753354 
1.20175 0.753354 0.263341 
9.49108 0.230636 0.20307 
0.230636 9.11231 -0.363267 
0.20307 -0.363267 9.6227 
9.34979 0.17946 0.274446 
0.17946 9.16072 -0.503847 
0.274446 -0.503847 9.71559 
9.26833 -0.404531 0.232309 
-0.404531 9.78467 -0.268599 
0.232309 -0.268599 9.1731 
9.18679 0.231599 0.282369 
0.231599 9.45036 -0.403169 
0.282369 -0.403169 9.58895 
9.91136 -0.0499841 -0.289651 
-0.0499841 9.74484 -0.853397 
-0.289651 -0.853397 9.64195 
9.89952 -0.00704853 -0.360395 
-0.00704853 9.84565 -0.846502 
-0.360395 -0.846502 9.55298 
9.61356 0.0150679 -0.243512 
0.0150679 9.85623 -0.937471 
-0.243512 -0.937471 9.82836 
9.88309 -0.0286335 -0.304605 
-0.0286335 9.78069 -0.925506 
-0.304605 -0.925506 9.63437 
9.63283 -0.0184351 -0.171895 
-0.0184351 8.83814 1.15986 
-0.171895 1.15986 9.86655 
9.6485 0.125583 -0.136406 
0.125583 8.73449 0.870776 
-0.136406 0.870776 9.95452 
9.30165 0.15494 -0.288357 
0.15494 9.36074 0.852516 
-0.288357 0.852516 9.67514 
9.50331 0.0710988 -0.163869 
0.0710988 8.88964 0.925102 
-0.163869 0.925102 9.94456 
10.1306 0.172497 0.341394 
0.172497 9.87859 0.133265 
0.341394 0.133265 10.0557 
9.981 -0.0621326 -0.192563 
-0.0621326 10.1263 -0.139056 
-0.192563 -0.139056 9.95765 
9.87356 -0.0653394 -0.0437372 
-0.0653394 10.0594 -0.0386139 
-0.0437372 -0.0386139 10.132 
9.78903 -0.250505 -0.0114256 
-0.250505 10.0483 0.0339763 
-0.0114256 0.0339763 10.2276 
8.9248 0.32062 0.510383 
0.32062 9.09785 -0.358546 
0.510383 -0.358546 9.84535 
8.90694 0.364779 0.65956 
0.364779 9.14721 -0.425618 
0.65956 -0.425618 9.81385 
8.99928 0.103415 0.524686 
0.103415 9.15467 -0.393178 
0.524686 -0.393178 9.71405 
8.93528 0.28402 0.615488 
0.28402 9.11882 -0.377498 
0.615488 -0.377498 9.8139 
9.66519 0.0575636 -1.01038 
0.0575636 9.63494 -0.125372 
-1.01038 -0.125372 9.85839 
9.45311 -0.0199832 -0.852804 
-0.0199832 9.74744 -0.105582 
-0.852804 -0.105582 9.95797 
9.61785 -0.0898002 -0.684507 
-0.0898002 9.78283 -0.113671 
-0.684507 -0.113671 9.75784 
9.55448 -0.0114096 -0.855806 
-0.0114096 9.71045 -0.0810265 
-0.855806 -0.0810265 9.89358 
9.36783 -0.00435529 -0.0996462 
-0.00435529 9.95898 -0.208889 
-0.0996462 -0.208889 10.3176 
9.58227 -0.0590755 0.169207 
-0.0590755 9.83702 0.12142 
0.169207 0.12142 10.2251 
9.70004 0.0480937 0.0631909 
0.0480937 9.8054 0.24384 
0.0631909 0.24384 10.139 
9.62201 -0.0205045 0.0543889 
-0.0205045 9.82705 0.0587623 
0.0543889 0.0587623 10.1954 
9.5204 -0.0586536 -0.89174 
-0.0586536 9.91367 -0.128606 
-0.89174 -0.128606 9.75583 
9.69057 -0.0796597 -0.940044 
-0.0796597 10.032 -0.332822 
-0.940044 -0.332822 9.46738 
9.77729 -0.070537 -0.87175 
-0.070537 9.8044 -0.28712 
-0.87175 -0.28712 9.60822 
9.80881 -0.0557635 -0.871859 
-0.0557635 9.7277 -0.37218 
-0.871859 -0.37218 9.65339 
10.389 -0.0814682 -0.166162 
-0.0814682 9.67687 -0.173579 
-0.166162 -0.173579 10.8722 
10.2656 -0.128264 -0.0332177 
-0.128264 9.84803 -0.0195263 
-0.0332177 -0.0195263 10.8245 
10.0555 -0.118765 -0.0402887 
-0.118765 10.0719 -0.0169579 
-0.0402887 -0.0169579 10.8106 
10.3288 -0.180544 0.053073 
-0.180544 9.92365 0.0089618 
0.053073 0.0089618 10.6857 
9.69135 -0.0207304 0.540259 
-0.0207304 9.81981 -0.249736 
0.540259 -0.249736 6.88793 
9.54012 -0.130326 0.413565 
-0.130326 9.19371 0.527506 
0.413565 0.527506 7.66525 
9.70044 0.0137801 0.823114 
0.0137801 9.78111 -0.0385816 
0.823114 -0.0385816 6.91755 
10.0834 0.163766 0.27529 
0.163766 10.2367 0.819364 
0.27529 0.819364 6.07904 
5.82954 -0.406236 1.43717 
-0.406236 3.19269 -1.28794 
1.43717 -1.28794 3.27769 
4.7776 0.423273 0.809511 
0.423273 4.6715 -1.9061 
0.809511 -1.9061 2.85081 
9.38754 -0.181657 1.89871 
-0.181657 10.1743 -3.0163 
1.89871 -3.0163 -7.26193 
4.01455 -0.0686978 0.685275 
-0.0686978 4.32848 -4.33972 
0.685275 -4.33972 3.95688 
9.35441 -0.564622 -0.466618 
-0.564622 8.75338 -1.17814 
-0.466618 -1.17814 10.3456 
9.70998 -0.471543 -0.383643 
-0.471543 8.52241 -0.789521 
-0.383643 -0.789521 10.221 
9.70211 -0.450535 -0.384576 
-0.450535 8.8218 -0.959753 
-0.384576 -0.959753 9.92952 
9.44133 -0.239319 -0.431686 
-0.239319 9.0748 -0.939214 
-0.431686 -0.939214 9.93729 
9.77237 0.0204185 0.839432 
0.0204185 9.80819 0.126262 
0.839432 0.126262 9.95317 
9.77835 -0.0259481 0.882024 
-0.0259481 9.85736 0.147048 
0.882024 0.147048 9.89801 
9.78856 0.0537374 0.799875 
0.0537374 9.83362 0.136978 
0.799875 0.136978 9.91154 
9.74992 -0.0279098 0.865076 
-0.0279098 9.87939 0.134752 
0.865076 0.134752 9.90441 
9.89589 0.0961962 -0.213575 
0.0961962 10.0308 -0.187616 
-0.213575 -0.187616 9.85926 
9.58381 0.224968 0.192172 
0.224968 9.77525 0.160046 
0.192172 0.160046 10.4269 
9.74018 0.0966984 -0.229163 
0.0966984 9.87691 0.163597 
-0.229163 0.163597 10.1689 
9.8174 0.197125 -0.198085 
0.197125 9.88293 0.139843 
-0.198085 0.139843 10.0856 
9.82778 -0.0414307 -0.778053 
-0.0414307 9.77522 -0.298274 
-0.778053 -0.298274 9.9496 
9.63813 -0.042418 -0.843474 
-0.042418 9.92942 -0.305727 
-0.843474 -0.305727 9.98506 
9.68565 -0.0380157 -0.889849 
-0.0380157 9.91809 -0.314472 
-0.889849 -0.314472 9.94886 
9.81396 -0.142866 -0.963357 
-0.142866 9.81155 -0.37741 
-0.963357 -0.37741 9.92709 
9.38595 0.0752057 0.0267573 
0.0752057 9.71219 0.74617 
0.0267573 0.74617 9.5438 
9.75623 -0.0877587 -0.0180491 
-0.0877587 9.13282 0.672417 
-0.0180491 0.672417 9.75289 
9.50522 0.0394221 0.103758 
0.0394221 9.50958 0.770351 
0.103758 0.770351 9.62714 
9.46185 -0.0306441 0.0350478 
-0.0306441 9.45715 0.919775 
0.0350478 0.919775 9.72293 
2.51772 0.298596 0.331956 
0.298596 3.05656 -0.411254 
0.331956 -0.411254 -0.537018 
1.88653 -0.198997 0.282744 
-0.198997 3.25586 0.111652 
0.282744 0.111652 -0.105126 
1.89087 -0.0216616 -0.114561 
-0.0216616 1.61861 0.602064 
-0.114561 0.602064 1.52778 
2.17224 -0.546246 -0.338628 
-0.546246 2.89111 0.4733 
-0.338628 0.4733 -0.0260939 
9.28764 0.257141 0.735163 
0.257141 9.22961 -0.727651 
0.735163 -0.727651 9.87197 
9.30823 0.244068 0.532824 
0.244068 9.19338 -0.605592 
0.532824 -0.605592 9.88761 
9.34795 0.265525 0.661532 
0.265525 9.17255 -0.846761 
0.661532 -0.846761 9.86872 
9.37308 0.240806 0.526894 
0.240806 9.24256 -0.658002 
0.526894 -0.658002 9.77357 
9.13693 -0.130346 -0.411621 
-0.130346 9.33791 0.265702 
-0.411621 0.265702 10.0186 
8.98645 0.105682 -0.432424 
0.105682 9.58711 -0.137838 
-0.432424 -0.137838 9.91992 
8.75129 -0.10788 -0.250528 
-0.10788 9.76018 -0.183295 
-0.250528 -0.183295 9.98201 
8.86128 -0.0572837 -0.442683 
-0.0572837 9.56971 0.103553 
-0.442683 0.103553 10.0625 
9.97063 -0.0455837 0.927523 
-0.0455837 10.0323 -0.242708 
0.927523 -0.242708 9.81036 
9.89599 0.154328 0.805781 
0.154328 9.78944 -0.280879 
0.805781 -0.280879 10.1279 
9.8369 0.0249838 0.835039 
0.0249838 9.89058 -0.285154 
0.835039 -0.285154 10.0858 
9.72945 0.0473791 0.924051 
0.0473791 10.0688 -0.377406 
0.924051 -0.377406 10.0151 
9.82526 -0.0415627 -0.137744 
-0.0415627 9.18111 1.18837 
-0.137744 1.18837 9.39487 
9.84576 0.227398 -0.360425 
0.227398 9.31825 1.3922 
-0.360425 1.3922 9.23724 
9.78133 0.106461 -0.281518 
0.106461 9.21194 1.28135 
-0.281518 1.28135 9.40798 
9.79868 0.0500638 -0.214341 
0.0500638 9.36978 1.33822 
-0.214341 1.33822 9.23278 
9.37837 -0.098675 -0.231209 
-0.098675 8.89822 -0.734511 
-0.231209 -0.734511 9.72033 
9.20926 -0.16736 -0.426485 
-0.16736 9.0429 -0.723942 
-0.426485 -0.723942 9.74477 
9.34806 -0.329007 -0.298716 
-0.329007 8.77309 -0.905202 
-0.298716 -0.905202 9.87577 
9.31 -0.246266 -0.27045 
-0.246266 9.13016 -0.527484 
-0.27045 -0.527484 9.55676 
9.40723 -0.0203383 -0.31465 
-0.0203383 9.27614 0.216727 
-0.31465 0.216727 6.0163 
9.92857 0.476199 -0.221613 
0.476199 9.60325 -0.135528 
-0.221613 -0.135528 5.16785 
9.17472 -0.127979 -0.230209 
-0.127979 9.71282 0.215872 
-0.230209 0.215872 5.81214 
9.66684 -0.131261 0.131243 
-0.131261 9.6449 0.722052 
0.131243 0.722052 5.38794 
8.50394 0.731367 1.69294 
0.731367 10.1332 -0.769792 
1.69294 -0.769792 9.96441 
8.86324 0.372145 0.62539 
0.372145 9.59727 -0.476858 
0.62539 -0.476858 10.141 
8.48758 0.357518 0.957064 
0.357518 9.6947 -0.199487 
0.957064 -0.199487 10.4193 
8.67453 0.19899 1.18059 
0.19899 9.61403 -0.206477 
1.18059 -0.206477 10.313 
9.06291 0.207086 -1.58393 
0.207086 10.0905 -0.480153 
-1.58393 -0.480153 7.48447 
9.52652 0.350792 -1.22282 
0.350792 9.42574 -1.04003 
-1.22282 -1.04003 7.68561 
8.80376 -0.452799 -2.12611 
-0.452799 9.90003 -1.11501 
-2.12611 -1.11501 7.93408 
9.18196 -0.169072 -1.92315 
-0.169072 9.70446 -0.614007 
-1.92315 -0.614007 7.75144 
9.96128 -0.145275 0.772785 
-0.145275 9.95082 0.672228 
0.772785 0.672228 9.87643 
10.0017 -0.0542614 0.676409 
-0.0542614 9.89149 0.71934 
0.676409 0.71934 9.89535 
9.92613 -0.0608887 0.705465 
-0.0608887 9.84725 0.602052 
0.705465 0.602052 10.0152 
9.95016 -0.142646 0.779016 
-0.142646 9.90767 0.671149 
0.779016 0.671149 9.93069 
6.16468 -1.93485 0.434965 
-1.93485 8.31268 4.81045 
0.434965 4.81045 8.07664 
8.0295 1.87702 2.50359 
1.87702 6.39796 4.81896 
2.50359 4.81896 8.12654 
9.25682 1.55187 1.04628 
1.55187 8.08582 4.45731 
1.04628 4.45731 5.21136 
8.42995 0.0114788 2.3999 
0.0114788 7.52257 4.30179 
2.3999 4.30179 6.60148 
8.92377 -0.234943 -0.314229 
-0.234943 9.02353 -0.0805797 
-0.314229 -0.0805797 10.46 
9.61047 -0.221402 -0.274273 
-0.221402 9.5921 -0.314852 
-0.274273 -0.314852 9.20471 
9.18589 -0.495167 -0.548962 
-0.495167 9.51013 -0.432303 
-0.548962 -0.432303 9.71126 
9.12428 -0.165236 -0.486166 
-0.165236 9.34157 -0.479639 
-0.486166 -0.479639 9.94143 
9.5034 0.881127 0.65365 
0.881127 11.02 -0.193616 
0.65365 -0.193616 12.0749 
9.33352 0.457616 0.558673 
0.457616 11.0177 -0.174201 
0.558673 -0.174201 12.247 
9.23391 0.786625 0.00511532 
0.786625 10.9649 0.11282 
0.00511532 0.11282 12.3995 
11.3268 0.287813 -0.80653 
0.287813 9.5995 0.844681 
-0.80653 0.844681 11.672 
9.92689 -0.242009 -0.634028 
-0.242009 9.39593 0.25946 
-0.634028 0.25946 9.45496 
9.26484 -0.128521 -0.0190149 
-0.128521 9.21606 -0.216996 
-0.0190149 -0.216996 10.2969 
9.05899 -0.113692 -0.204029 
-0.113692 9.64139 -0.273432 
-0.204029 -0.273432 10.0774 
8.88364 -0.373932 -0.527266 
-0.373932 9.95555 -0.0603175 
-0.527266 -0.0603175 9.93859 
9.44979 0.175393 -0.239269 
0.175393 9.71238 0.302948 
-0.239269 0.302948 9.39113 
9.33351 0.225435 -0.435313 
0.225435 9.31352 0.554022 
-0.435313 0.554022 9.90627 
9.07685 0.182151 -0.262652 
0.182151 9.07487 0.191727 
-0.262652 0.191727 10.4016 
9.31658 0.19196 -0.483047 
0.19196 9.36493 0.382282 
-0.483047 0.382282 9.87179 
9.65466 -0.0571055 0.906434 
-0.0571055 9.74387 0.273244 
0.906434 0.273244 9.84646 
9.66576 -0.0627583 0.702167 
-0.0627583 9.85657 0.164473 
0.702167 0.164473 9.72265 
9.77529 0.0740235 0.733682 
0.0740235 9.63457 0.0505376 
0.733682 0.0505376 9.83513 
9.62711 -0.0428054 0.850831 
-0.0428054 9.73614 0.144949 
0.850831 0.144949 9.88175 
8.03046 -0.735688 -2.12057 
-0.735688 8.09376 -1.53929 
-2.12057 -1.53929 3.46422 
7.63432 -0.48862 -2.34744 
-0.48862 8.08672 -1.26889 
-2.34744 -1.26889 3.8674 
8.35856 -1.22534 -2.21108 
-1.22534 5.76512 -2.04116 
-2.21108 -2.04116 5.46476 
7.45481 -0.854762 -1.79953 
-0.854762 8.11265 -1.54921 
-1.79953 -1.54921 4.02098 
9.74811 0.0458478 0.898728 
0.0458478 9.76508 -0.0860099 
0.898728 -0.0860099 10.0386 
9.8025 0.00527593 0.853165 
0.00527593 9.8273 -0.129981 
0.853165 -0.129981 9.92198 
9.78626 0.0071206 0.851372 
0.0071206 9.87013 -0.144427 
0.851372 -0.144427 9.89539 
9.77181 0.0343041 0.813197 
0.0343041 9.90561 -0.131209 
0.813197 -0.131209 9.87436 
9.68873 0.222821 0.0296347 
0.222821 9.09527 -1.08824 
0.0296347 -1.08824 10.7029 
10.072 0.133926 0.1766 
0.133926 8.45342 -0.565031 
0.1766 -0.565031 10.9616 
9.91665 0.106385 0.0879698 
0.106385 8.92363 -0.747963 
0.0879698 -0.747963 10.6467 
9.99146 0.119655 0.100087 
0.119655 9.00469 -0.659838 
0.100087 -0.659838 10.4908 
7.46207 -0.959849 -2.04755 
-0.959849 9.45584 -2.17911 
-2.04755 -2.17911 6.2771 
8.17238 -0.582921 -2.07457 
-0.582921 8.19095 -1.65075 
-2.07457 -1.65075 6.83168 
7.44294 -0.074108 -2.88994 
-0.074108 8.10765 -0.336798 
-2.88994 -0.336798 7.64442 
8.78459 -1.15308 -4.81654 
-1.15308 8.5892 -3.14366 
-4.81654 -3.14366 5.82122 
9.58496 -0.0588628 0.13923 
-0.0588628 9.8339 0.353193 
0.13923 0.353193 10.9441 
9.61182 0.993134 -0.334134 
0.993134 9.14691 1.18851 
-0.334134 1.18851 11.6042 
9.16221 0.531368 -1.85272 
0.531368 9.95178 0.574421 
-1.85272 0.574421 11.2489 
9.63543 1.11497 -0.854813 
1.11497 10.2569 -0.67428 
-0.854813 -0.67428 10.4706 
9.60285 -0.0743142 0.98677 
-0.0743142 9.79324 0.457346 
0.98677 0.457346 8.9258 
9.49267 -0.071751 0.874493 
-0.071751 9.67307 0.38175 
0.874493 0.38175 9.15616 
9.47867 -0.0854812 0.834956 
-0.0854812 9.62974 0.531846 
0.834956 0.531846 9.21349 
9.58806 -0.0846519 0.897797 
-0.0846519 9.61172 0.349941 
0.897797 0.349941 9.12212 
13.0667 0.0614034 0.109462 
0.0614034 3.98743 6.60183 
0.109462 6.60183 0.00305426 
7.7234 -0.203647 4.25258 
-0.203647 3.97791 -0.0670318 
4.25258 -0.0670318 5.35587 
6.05267 0.591931 1.5219 
0.591931 7.41074 2.2054 
1.5219 2.2054 3.59376 
7.95792 -0.46994 0.652207 
-0.46994 6.09261 3.5784 
0.652207 3.5784 3.00664 
10.1044 0.250463 -0.245209 
0.250463 9.77593 -0.466069 
-0.245209 -0.466069 12.9265 
11.3348 0.053243 0.169178 
0.053243 11.4845 0.0306337 
0.169178 0.0306337 9.98753 
10.9358 0.0159729 0.00787177 
0.0159729 11.2201 0.321486 
0.00787177 0.321486 10.651 
11.4823 0.301036 -1.06085 
0.301036 11.0933 0.917494 
-1.06085 0.917494 10.2313 
9.61864 0.319187 -0.436205 
0.319187 8.98321 0.900934 
-0.436205 0.900934 10.1211 
9.50918 0.545615 -0.514688 
0.545615 8.93221 0.94649 
-0.514688 0.94649 10.2816 
9.50883 0.33464 -0.445178 
0.33464 9.09532 0.927687 
-0.445178 0.927687 10.1188 
9.6804 0.350828 -0.612359 
0.350828 8.86437 0.994273 
-0.612359 0.994273 10.1782 
10.1885 0.179607 1.81717 
0.179607 8.89869 -5.85271 
1.81717 -5.85271 10.2694 
10.8428 -0.0643336 2.22254 
-0.0643336 9.2087 -5.7225 
2.22254 -5.7225 9.30515 
10.6071 0.711812 2.43106 
0.711812 8.9538 -6.3659 
2.43106 -6.3659 9.79573 
10.8986 0.269254 1.61544 
0.269254 8.75869 -4.4037 
1.61544 -4.4037 9.69931 
9.79687 0.00908475 -0.469954 
0.00908475 9.83117 0.668216 
-0.469954 0.668216 9.9228 
9.83469 0.0460971 -0.526315 
0.0460971 9.78251 0.716273 
-0.526315 0.716273 9.93364 
9.7911 -0.00222396 -0.528796 
-0.00222396 9.795 0.716029 
-0.528796 0.716029 9.96474 
9.81651 0.0707133 -0.504969 
0.0707133 9.7944 0.69574 
-0.504969 0.69574 9.93992 
9.51241 -0.0717757 -0.348962 
-0.0717757 9.41042 -0.677785 
-0.348962 -0.677785 9.70579 
9.52683 -0.0693258 -0.324856 
-0.0693258 9.3782 -0.660239 
-0.324856 -0.660239 9.72358 
9.52543 -0.0354967 -0.319977 
-0.0354967 9.47762 -0.690409 
-0.319977 -0.690409 9.62556 
9.46264 -0.0867748 -0.30651 
-0.0867748 9.47401 -0.638001 
-0.30651 -0.638001 9.69197 
8.80307 -0.200566 0.960607 
-0.200566 9.64674 1.02522 
0.960607 1.02522 8.37173 
9.32252 -0.162707 1.4912 
-0.162707 9.42425 0.654529 
1.4912 0.654529 8.07476 
9.21698 -0.283842 1.38609 
-0.283842 10.0405 1.27083 
1.38609 1.27083 7.56402 
9.1774 -0.420509 1.65846 
-0.420509 9.33926 0.750935 
1.65846 0.750935 8.30488 
9.29443 -0.163536 0.664366 
-0.163536 9.6581 0.227927 
0.664366 0.227927 9.68061 
9.27135 -0.126702 0.75783 
-0.126702 9.58083 0.319715 
0.75783 0.319715 9.78097 
9.64363 0.125968 0.65264 
0.125968 9.476 0.311961 
0.65264 0.311961 9.51352 
9.59986 -0.183018 0.690182 
-0.183018 9.32971 0.330014 
0.690182 0.330014 9.70357 
9.47862 0.00615595 -0.0514901 
0.00615595 9.11418 0.314165 
-0.0514901 0.314165 9.87626 
9.60445 -0.0858172 -0.00265273 
-0.0858172 9.2313 0.416919 
-0.00265273 0.416919 9.63331 
9.62274 0.0107247 -0.000379994 
0.0107247 9.03243 0.195662 
-0.000379994 0.195662 9.81388 
9.43596 -0.031831 -0.0625346 
-0.031831 9.02462 0.395292 
-0.0625346 0.395292 10.0085 
3.96317 -0.299804 -0.673826 
-0.299804 5.44762 1.94815 
-0.673826 1.94815 -1.10331 
3.08466 -0.664206 -0.778952 
-0.664206 4.45718 0.332939 
-0.778952 0.332939 0.765639 
2.9818 -0.94089 -0.390901 
-0.94089 4.73137 0.498624 
-0.390901 0.498624 0.594312 
2.21754 -1.05131 -0.278578 
-1.05131 5.48704 -0.784378 
-0.278578 -0.784378 0.602896 
7.06993 -1.15981 1.61842 
-1.15981 7.22501 3.15814 
1.61842 3.15814 -2.29893 
-2.66482 0.195789 -3.22526 
0.195789 -0.289559 -0.242436 
-3.22526 -0.242436 14.9504 
11.5927 0.0949015 1.28027 
0.0949015 11.5726 -0.0454358 
1.28027 -0.0454358 -11.1693 
8.39608 -0.480501 -2.91612 
-0.480501 5.44991 11.5021 
-2.91612 11.5021 -1.84999 
3.19258 0.293073 1.05131 
0.293073 3.70316 -0.416631 
1.05131 -0.416631 0.0501753 
3.80349 -0.346503 0.96098 
-0.346503 2.82398 0.334771 
0.96098 0.334771 0.318456 
2.94213 -0.451158 0.578653 
-0.451158 4.10609 0.554569 
0.578653 0.554569 -0.102298 
3.60543 -0.282825 0.944208 
-0.282825 3.08684 0.2478 
0.944208 0.2478 0.253654 
8.93708 0.189249 1.2726 
0.189249 9.74474 -0.218417 
1.2726 -0.218417 8.22306 
9.21428 0.0445444 1.41613 
0.0445444 9.72566 0.169178 
1.41613 0.169178 7.96493 
9.03467 -0.0230843 1.47418 
-0.0230843 9.70885 0.0932202 
1.47418 0.0932202 8.16134 
9.20522 -0.145013 1.52069 
-0.145013 9.01772 0.0848439 
1.52069 0.0848439 8.68193 
9.89636 -0.0882497 -0.802863 
-0.0882497 9.93921 -0.696492 
-0.802863 -0.696492 9.2114 
9.69844 -0.0703155 -0.664108 
-0.0703155 9.71166 -0.587971 
-0.664108 -0.587971 9.63687 
9.60362 -0.144218 -0.983773 
-0.144218 9.77598 -0.680535 
-0.983773 -0.680535 9.66736 
9.67561 -0.147987 -0.889352 
-0.147987 9.75032 -0.739487 
-0.889352 -0.739487 9.62104 
8.93851 -0.387915 1.43076 
-0.387915 9.49183 0.556294 
1.43076 0.556294 9.25079 
9.30275 -0.100423 1.32135 
-0.100423 9.40904 0.60173 
1.32135 0.60173 8.96935 
8.94891 -0.422377 1.18914 
-0.422377 9.53688 0.417087 
1.18914 0.417087 9.19534 
8.84451 -0.329282 1.46547 
-0.329282 9.58939 0.531469 
1.46547 0.531469 9.24723 
8.74273 -0.203217 2.37376 
-0.203217 8.82429 0.80443 
2.37376 0.80443 4.71671 
8.19697 -0.0672092 1.67289 
-0.0672092 8.64944 1.37778 
1.67289 1.37778 5.43732 
8.43355 -0.454421 2.84965 
-0.454421 8.81752 0.634477 
2.84965 0.634477 5.03266 
9.13712 -0.205129 2.0432 
-0.205129 9.24721 2.06792 
2.0432 2.06792 3.8994 
9.89044 -0.98138 -1.05126 
-0.98138 9.15053 -1.61169 
-1.05126 -1.61169 10.154 
9.88668 -0.714214 -1.06647 
-0.714214 8.93258 -1.20877 
-1.06647 -1.20877 10.3757 
9.68911 -0.886176 -1.00794 
-0.886176 8.89675 -1.55135 
-1.00794 -1.55135 10.6091 
9.94803 -0.891238 -0.967271 
-0.891238 9.22811 -1.54644 
-0.967271 -1.54644 10.0189 
5.91192 -2.91417 5.13008 
-2.91417 17.6203 -2.33133 
5.13008 -2.33133 -5.57346 
2.85443 -0.956389 0.487814 
-0.956389 7.08781 -8.19047 
0.487814 -8.19047 8.01656 
11.5721 4.00895 -0.397987 
4.00895 1.78464 -1.69158 
-0.397987 -1.69158 4.60204 
8.27237 0.417995 0.85065 
0.417995 6.8205 -4.71312 
0.85065 -4.71312 2.86593 
9.69279 -0.0393568 0.780577 
-0.0393568 9.82085 -0.628051 
0.780577 -0.628051 9.64421 
9.7122 0.159896 0.670591 
0.159896 9.65348 -0.629477 
0.670591 -0.629477 9.79217 
9.66933 0.163509 0.847875 
0.163509 9.76931 -0.699695 
0.847875 -0.699695 9.71921 
9.66541 0.0367555 0.801624 
0.0367555 9.75223 -0.631427 
0.801624 -0.631427 9.74021 
9.36834 0.243711 -0.387947 
0.243711 9.04982 0.756509 
-0.387947 0.756509 9.76453 
9.32042 0.179146 -0.394875 
0.179146 9.1247 0.746251 
-0.394875 0.746251 9.73757 
9.31444 0.234608 -0.284351 
0.234608 9.16547 0.665306 
-0.284351 0.665306 9.70279 
9.35421 0.0075256 -0.415652 
0.0075256 9.18311 0.836061 
-0.415652 0.836061 9.64537 
9.77854 0.0109868 0.777608 
0.0109868 9.79075 -0.185966 
0.777608 -0.185966 9.98413 
9.81833 -0.016574 0.892633 
-0.016574 9.82529 -0.174023 
0.892633 -0.174023 9.9098 
9.77495 0.0746811 0.794422 
0.0746811 9.83739 -0.138277 
0.794422 -0.138277 9.94107 
9.80054 0.0104137 0.87236 
0.0104137 9.87465 -0.192874 
0.87236 -0.192874 9.87823 
10.0851 -0.214701 -0.140548 
-0.214701 10.3295 0.244663 
-0.140548 0.244663 10.9736 
10.424 -0.0391792 -0.0856756 
-0.0391792 10.4797 -0.101725 
-0.0856756 -0.101725 10.4846 
10.514 -0.0450088 0.0493806 
-0.0450088 11.29 -0.454274 
0.0493806 -0.454274 9.5843 
10.558 -0.128881 -0.133192 
-0.128881 10.0643 -0.208069 
-0.133192 -0.208069 10.7659 
9.90948 -0.0795452 0.0783246 
-0.0795452 10.1446 -0.690203 
0.0783246 -0.690203 8.39764 
10.0701 0.0875273 0.14734 
0.0875273 9.87723 -0.900906 
0.14734 -0.900906 8.50437 
9.95536 0.0144718 -0.0449162 
0.0144718 9.70971 -0.573646 
-0.0449162 -0.573646 8.78667 
9.835 0.0989044 0.0935262 
0.0989044 9.82827 -0.48515 
0.0935262 -0.48515 8.78846 
9.46942 -0.0405004 -0.586979 
-0.0405004 9.40537 -0.403155 
-0.586979 -0.403155 7.19665 
10.0539 -0.0716642 -1.50964 
-0.0716642 9.65231 -1.16759 
-1.50964 -1.16759 6.36521 
9.09162 -0.219954 -0.717909 
-0.219954 9.24865 -0.872759 
-0.717909 -0.872759 7.73117 
9.45079 0.00587571 -0.798849 
0.00587571 9.38104 -0.258437 
-0.798849 -0.258437 7.2396 
9.88868 -0.0403012 -0.435068 
-0.0403012 9.85093 -0.777675 
-0.435068 -0.777675 9.88327 
9.91554 -0.0126533 -0.423513 
-0.0126533 9.85657 -0.777592 
-0.423513 -0.777592 9.85078 
9.78834 -0.0453134 -0.40334 
-0.0453134 9.69872 -0.705676 
-0.40334 -0.705676 10.1358 
9.94401 -0.0615138 -0.456002 
-0.0615138 9.74295 -0.898607 
-0.456002 -0.898607 9.93592 
9.46653 -0.0395268 -0.156396 
-0.0395268 8.89796 -0.845104 
-0.156396 -0.845104 9.75954 
9.32709 0.0880395 -0.0981956 
0.0880395 9.25026 -0.915088 
-0.0981956 -0.915088 9.54668 
9.52506 -0.0651922 -0.113138 
-0.0651922 8.89782 -0.663949 
-0.113138 -0.663949 9.70115 
9.44316 -0.0473046 -0.141615 
-0.0473046 8.95868 -0.830532 
-0.141615 -0.830532 9.7222 
9.31399 -0.300336 0.557444 
-0.300336 9.18629 0.659039 
0.557444 0.659039 9.75668 
9.28929 -0.190449 0.584916 
-0.190449 9.31989 0.614939 
0.584916 0.614939 9.64779 
9.37613 -0.158815 0.577289 
-0.158815 9.20462 0.630042 
0.577289 0.630042 9.67622 
9.09217 -0.12604 0.602965 
-0.12604 9.49532 0.685763 
0.602965 0.685763 9.66947 
9.8154 -0.00353986 0.220009 
-0.00353986 9.68788 0.774422 
0.220009 0.774422 9.80788 
9.69446 0.0102153 0.182488 
0.0102153 9.77308 0.751072 
0.182488 0.751072 9.84363 
9.78158 -0.0239629 0.182148 
-0.0239629 9.68456 0.828401 
0.182148 0.828401 9.84502 
9.79467 -0.051155 0.192837 
-0.051155 9.67753 0.825195 
0.192837 0.825195 9.83896 
9.92341 -0.0431443 -0.032093 
-0.0431443 9.98512 -0.0351238 
-0.032093 -0.0351238 9.95587 
9.91784 -0.0365566 -0.0281993 
-0.0365566 9.94802 -0.0142812 
-0.0281993 -0.0142812 9.99854 
9.92809 0.111362 0.0111688 
0.111362 9.89112 -0.00809167 
0.0111688 -0.00809167 10.0452 
9.89255 0.0875075 -0.0475065 
0.0875075 9.99793 0.119191 
-0.0475065 0.119191 9.97392 
1.68038 -0.0236929 -0.666951 
-0.0236929 1.46474 -0.531256 
-0.666951 -0.531256 0.699681 
1.57014 0.000159924 0.152287 
0.000159924 2.98757 0.261786 
0.152287 0.261786 -0.712909 
1.09521 0.0767871 -0.812073 
0.0767871 1.28679 -0.701946 
-0.812073 -0.701946 1.46281 
1.81777 0.625506 -0.603598 
0.625506 2.0037 -0.571546 
-0.603598 -0.571546 0.0233421 
9.46523 0.177797 -0.79049 
0.177797 9.20724 -0.783962 
-0.79049 -0.783962 8.27947 
9.412 -0.685728 0.182019 
-0.685728 8.89491 -0.588254 
0.182019 -0.588254 8.64503 
9.79534 -0.481769 -0.444905 
-0.481769 10.2782 -0.520009 
-0.444905 -0.520009 6.87835 
9.30591 0.279624 -0.795081 
0.279624 9.73881 -0.590681 
-0.795081 -0.590681 7.90721 
9.69302 -0.125343 0.0414855 
-0.125343 8.99579 1.19651 
0.0414855 1.19651 9.86961 
9.73716 0.00797952 -0.0140902 
0.00797952 9.18912 0.915775 
-0.0140902 0.915775 9.63214 
9.6898 -0.0643598 0.217964 
-0.0643598 8.77032 1.10486 
0.217964 1.10486 10.0983 
9.78985 0.057273 -0.0310909 
0.057273 9.04094 1.23903 
-0.0310909 1.23903 9.72764 
9.48436 -0.58002 0.593462 
-0.58002 8.62391 0.867392 
0.593462 0.867392 10.4592 
9.45908 -0.628357 0.542459 
-0.628357 8.6385 0.696528 
0.542459 0.696528 10.4699 
9.36559 -0.598086 0.576599 
-0.598086 8.76576 0.789798 
0.576599 0.789798 10.4362 
9.25301 -0.550223 0.328575 
-0.550223 9.00759 0.681735 
0.328575 0.681735 10.3069 
9.44182 -0.06051 -0.681266 
-0.06051 9.46338 -0.282221 
-0.681266 -0.282221 9.63904 
9.37258 -0.104419 -0.723986 
-0.104419 9.55185 -0.393262 
-0.723986 -0.393262 9.61981 
9.36353 -0.0973479 -0.727856 
-0.0973479 9.46776 -0.252478 
-0.727856 -0.252478 9.71294 
9.44928 -0.108687 -0.660455 
-0.108687 9.50294 -0.390458 
-0.660455 -0.390458 9.59202 
9.88423 0.0475575 -0.101412 
0.0475575 9.72389 0.947125 
-0.101412 0.947125 9.9397 
9.88759 0.0332022 -0.12062 
0.0332022 9.678 0.902501 
-0.12062 0.902501 9.98222 
9.85097 -0.0765042 -0.0214879 
-0.0765042 9.73065 0.818073 
-0.0214879 0.818073 9.96618 
9.93731 0.0158665 -0.103786 
0.0158665 9.72655 0.999026 
-0.103786 0.999026 9.88395 
9.14328 0.23165 0.498879 
0.23165 9.30126 -0.415917 
0.498879 -0.415917 9.76671 
9.16321 0.160191 0.678857 
0.160191 9.31491 -0.396803 
0.678857 -0.396803 9.73313 
9.28455 0.151102 0.655089 
0.151102 9.24219 -0.359915 
0.655089 -0.359915 9.68452 
9.15234 0.138629 0.50545 
0.138629 9.33288 -0.418584 
0.50545 -0.418584 9.72603 
9.57586 0.724258 -0.371592 
0.724258 8.57045 0.785098 
-0.371592 0.785098 10.2121 
9.09911 0.302873 -0.492292 
0.302873 9.32596 0.823569 
-0.492292 0.823569 9.93336 
9.46985 0.659968 -0.568114 
0.659968 8.73093 0.832855 
-0.568114 0.832855 10.1576 
9.70559 0.551103 -0.538004 
0.551103 8.27396 1.20901 
-0.538004 1.20901 10.3789 
9.30007 -0.177751 -0.412291 
-0.177751 9.33076 0.41605 
-0.412291 0.41605 9.90455 
9.34856 0.25783 -0.383853 
0.25783 9.61404 0.56745 
-0.383853 0.56745 9.57277 
9.36955 0.183909 -0.585441 
0.183909 8.96612 0.548057 
-0.585441 0.548057 10.1997 
9.64496 0.253983 -0.735201 
0.253983 9.41763 0.657648 
-0.735201 0.657648 9.47279 
9.10384 0.494187 0.917573 
0.494187 9.46811 -0.753366 
0.917573 -0.753366 10.1191 
9.07637 0.563229 0.678285 
0.563229 9.47673 -0.465161 
0.678285 -0.465161 10.1379 
8.73145 0.514914 1.03977 
0.514914 9.63657 -0.542404 
1.03977 -0.542404 10.323 
9.03536 0.191569 0.403974 
0.191569 9.34869 -0.240693 
0.403974 -0.240693 10.307 
10.2649 -0.00828851 -0.284298 
-0.00828851 10.2333 0.229481 
-0.284298 0.229481 9.61868 
9.97255 -0.171198 -0.497357 
-0.171198 9.8519 0.125506 
-0.497357 0.125506 10.2924 
9.94712 -0.117851 -0.385282 
-0.117851 10.1369 0.0683834 
-0.385282 0.0683834 10.0329 
10.2184 0.119154 -0.429638 
0.119154 10.2287 0.0426777 
-0.429638 0.0426777 9.66983 
9.93951 0.0647882 0.385961 
0.0647882 10.3514 0.17054 
0.385961 0.17054 10.1102 
10.2942 -0.0148086 -0.21447 
-0.0148086 9.9172 -0.0364476 
-0.21447 -0.0364476 10.1897 
10.0613 -0.0439453 -0.147369 
-0.0439453 10.3367 -0.0592169 
-0.147369 -0.0592169 10.0031 
10.1186 0.00387894 -0.0381875 
0.00387894 10.0174 -0.0164376 
-0.0381875 -0.0164376 10.2651 
2.36499 3.61033 -1.68834 
3.61033 11.0244 -0.237444 
-1.68834 -0.237444 26.6122 
3.14163 1.45857 -0.855996 
1.45857 13.4005 1.07303 
-0.855996 1.07303 23.4594 
6.85908 1.29045 -0.279537 
1.29045 13.0481 0.237579 
-0.279537 0.237579 20.0944 
7.97234 1.48905 -0.451347 
1.48905 12.9282 1.17127 
-0.451347 1.17127 19.1011 
9.37035 0.12823 -0.665564 
0.12823 9.49751 0.451947 
-0.665564 0.451947 9.72687 
9.34945 0.241788 -0.617358 
0.241788 9.58829 0.345445 
-0.617358 0.345445 9.65699 
9.52943 -0.0780291 -0.584429 
-0.0780291 9.52805 0.462903 
-0.584429 0.462903 9.53725 
9.59698 0.0767444 -0.650096 
0.0767444 9.33533 0.459737 
-0.650096 0.459737 9.66242 
4.34347 0.669954 0.602936 
0.669954 4.87397 -0.6847 
0.602936 -0.6847 -0.365734 
5.01728 1.5693 0.588994 
1.5693 3.93195 -2.07323 
0.588994 -2.07323 -0.0975258 
4.60969 -0.468919 -0.79982 
-0.468919 4.52362 -1.08419 
-0.79982 -1.08419 -0.281604 
4.1043 -1.45651 -1.56 
-1.45651 2.76071 -2.37956 
-1.56 -2.37956 1.98669 
9.52858 -0.164409 0.270139 
-0.164409 9.06584 0.508823 
0.270139 0.508823 9.60858 
9.20091 -0.135137 0.317154 
-0.135137 9.10793 0.763719 
0.317154 0.763719 9.89416 
9.31371 0.0250122 0.160852 
0.0250122 9.14 0.600814 
0.160852 0.600814 9.74929 
9.41459 -0.15278 0.333316 
-0.15278 9.2988 0.819149 
0.333316 0.819149 9.48961 
9.3846 0.0253835 -0.585675 
0.0253835 9.35373 -0.599419 
-0.585675 -0.599419 9.65594 
9.35761 -0.128973 -0.591061 
-0.128973 9.26935 -0.603781 
-0.591061 -0.603781 9.7673 
9.47215 -0.0446436 -0.481618 
-0.0446436 9.31036 -0.664023 
-0.481618 -0.664023 9.61175 
9.46911 -0.189242 -0.387415 
-0.189242 9.47008 -0.597583 
-0.387415 -0.597583 9.45508 
9.60511 -0.078646 -0.832962 
-0.078646 9.71915 -0.497485 
-0.832962 -0.497485 9.87433 
9.67039 -0.1241 -0.786748 
-0.1241 9.7472 -0.557623 
-0.786748 -0.557623 9.781 
9.66968 -0.262496 -0.818509 
-0.262496 9.89397 -0.618725 
-0.818509 -0.618725 9.63495 
9.66696 -0.09297 -0.79997 
-0.09297 9.65524 -0.610074 
-0.79997 -0.610074 9.87639 
9.04735 -0.0966904 1.55874 
-0.0966904 9.59731 0.581745 
1.55874 0.581745 7.68963 
8.77852 -0.32984 2.63324 
-0.32984 9.69115 1.41444 
2.63324 1.41444 7.86462 
9.11687 -0.0487371 1.59273 
-0.0487371 9.57542 0.547185 
1.59273 0.547185 7.642 
9.31965 -0.11547 0.668083 
-0.11547 9.05121 0.749441 
0.668083 0.749441 7.96344 
8.82233 -0.653628 -0.0949346 
-0.653628 9.31938 0.178344 
-0.0949346 0.178344 10.7139 
9.48227 -0.0886846 -0.410932 
-0.0886846 9.38543 -0.290898 
-0.410932 -0.290898 9.98789 
9.25918 -0.273162 0.0229072 
-0.273162 9.70159 0.0226331 
0.0229072 0.0226331 9.89481 
8.64529 -0.484159 0.00548952 
-0.484159 9.53145 -0.106417 
0.00548952 -0.106417 10.6789 
9.42408 -0.216939 0.384783 
-0.216939 9.16657 0.917909 
0.384783 0.917909 9.80421 
9.35901 -0.273186 0.351003 
-0.273186 9.14964 0.808479 
0.351003 0.808479 9.88621 
9.56397 -0.297853 0.554621 
-0.297853 9.09405 1.12212 
0.554621 1.12212 9.73684 
9.55489 -0.0902328 0.276524 
-0.0902328 9.12395 0.828414 
0.276524 0.828414 9.71601 
10.3852 -0.0384949 0.0700626 
-0.0384949 8.01128 0.863644 
0.0700626 0.863644 10.4818 
10.42 -0.0988864 0.547317 
-0.0988864 8.90633 2.02855 
0.547317 2.02855 9.55188 
10.2899 -0.153501 0.464842 
-0.153501 8.08542 1.43229 
0.464842 1.43229 10.5029 
9.95326 -1.13327 0.229915 
-1.13327 7.70941 2.62595 
0.229915 2.62595 11.2156 
9.51231 -0.089299 -0.122937 
-0.089299 9.35314 -0.460721 
-0.122937 -0.460721 9.51748 
9.3664 -0.254712 -0.492644 
-0.254712 9.23022 0.160613 
-0.492644 0.160613 9.78632 
9.27177 0.0689589 -0.876411 
0.0689589 9.39983 -0.403608 
-0.876411 -0.403608 9.71133 
9.30396 -0.23535 -0.58731 
-0.23535 9.54384 -0.637892 
-0.58731 -0.637892 9.53513 
9.22288 0.152656 -0.670171 
0.152656 9.34084 0.286939 
-0.670171 0.286939 9.55465 
9.22789 0.110352 -0.702689 
0.110352 9.36433 0.326176 
-0.702689 0.326176 9.52616 
9.23383 0.00783567 -0.6396 
0.00783567 9.2545 0.195855 
-0.6396 0.195855 9.63004 
9.14392 0.12133 -0.73349 
0.12133 9.36737 0.278988 
-0.73349 0.278988 9.60709 
9.71267 0.0189012 0.690049 
0.0189012 9.75571 0.239544 
0.690049 0.239544 9.99527 
9.70238 0.0961367 1.15649 
0.0961367 10.1558 0.396253 
1.15649 0.396253 9.60544 
9.82043 -0.125932 0.942274 
-0.125932 9.89704 0.391343 
0.942274 0.391343 9.74617 
9.79364 -0.190335 0.893719 
-0.190335 9.90413 0.451438 
0.893719 0.451438 9.76588 
9.76412 -0.0106282 -0.110448 
-0.0106282 9.65055 -0.781079 
-0.110448 -0.781079 9.77129 
9.66582 -0.0184749 -0.114584 
-0.0184749 9.71368 -0.743933 
-0.114584 -0.743933 9.80646 
9.76301 0.0176251 -0.0592956 
0.0176251 9.63071 -0.903909 
-0.0592956 -0.903909 9.79224 
9.74641 -0.016297 -0.109253 
-0.016297 9.60839 -0.851049 
-0.109253 -0.851049 9.83115 
9.8808 -0.00935064 0.00933031 
-0.00935064 9.83234 -0.050138 
0.00933031 -0.050138 10.1169 
9.87065 0.00753619 0.039143 
0.00753619 9.96362 0.0543581 
0.039143 0.0543581 9.99579 
9.79493 0.0126883 0.0525222 
0.0126883 10.0127 -0.0011871 
0.0525222 -0.0011871 10.0225 
9.91777 0.0299285 0.101663 
0.0299285 9.90558 7.1576e-05 
0.101663 7.1576e-05 10.0067 
9.79881 -0.0268988 -0.158254 
-0.0268988 9.788 0.894473 
-0.158254 0.894473 9.95616 
9.85702 0.0334616 -0.138469 
0.0334616 9.75761 0.864003 
-0.138469 0.864003 9.92834 
9.80103 -0.0312186 -0.0933822 
-0.0312186 9.81228 0.7323 
-0.0933822 0.7323 9.92966 
9.86955 0.0583712 -0.14296 
0.0583712 9.70174 0.851404 
-0.14296 0.851404 9.97168 
9.68563 0.0735479 0.544905 
0.0735479 9.64931 0.53102 
0.544905 0.53102 9.81505 
9.65962 -0.0622779 0.631131 
-0.0622779 9.6741 0.730212 
0.631131 0.730212 9.81628 
9.80777 -0.105579 0.516221 
-0.105579 9.71205 0.475427 
0.516221 0.475427 9.63017 
9.65727 -0.0276098 0.61188 
-0.0276098 9.59714 0.58314 
0.61188 0.58314 9.89559 
8.77396 0.408038 1.30136 
0.408038 9.43953 -0.66794 
1.30136 -0.66794 9.8243 
8.8422 0.517396 1.15261 
0.517396 9.31377 -0.71303 
1.15261 -0.71303 9.88182 
8.84552 0.507686 1.16061 
0.507686 9.44981 -0.681917 
1.16061 -0.681917 9.74246 
8.78318 0.252249 1.07064 
0.252249 9.09312 -0.88602 
1.07064 -0.88602 10.1615 
11.9814 0.39444 1.43863 
0.39444 14.8287 -0.430514 
1.43863 -0.430514 13.9851 
11.6209 0.591288 0.0232521 
0.591288 12.3976 -0.926467 
0.0232521 -0.926467 16.7767 
9.06948 0.206499 0.355327 
0.206499 12.8593 -1.16964 
0.355327 -1.16964 18.8665 
11.0668 0.401404 0.981244 
0.401404 14.1865 0.107609 
0.981244 0.107609 15.5421 
9.46588 0.627048 -0.513537 
0.627048 8.92103 0.885652 
-0.513537 0.885652 9.62032 
9.25777 0.478899 -0.739035 
0.478899 8.94928 1.12347 
-0.739035 1.12347 9.80019 
9.01321 0.564757 -0.776603 
0.564757 8.50622 1.03933 
-0.776603 1.03933 10.4878 
9.34275 0.588152 -0.873401 
0.588152 8.96605 1.10143 
-0.873401 1.10143 9.69844 
9.36763 -0.12035 -0.985036 
-0.12035 9.71989 -0.302315 
-0.985036 -0.302315 9.73799 
9.09274 -0.0437555 -1.35065 
-0.0437555 10.0481 -0.414749 
-1.35065 -0.414749 9.68463 
9.47968 -0.118335 -1.08732 
-0.118335 9.77941 -0.219355 
-1.08732 -0.219355 9.56642 
9.5616 -0.180406 -1.10077 
-0.180406 9.63594 -0.28386 
-1.10077 -0.28386 9.62796 
9.6377 0.116901 -0.347381 
0.116901 9.41229 1.11204 
-0.347381 1.11204 9.61129 
9.98657 0.150652 0.0874222 
0.150652 9.01721 1.119 
0.0874222 1.119 9.6575 
9.74549 0.0676476 -0.0485526 
0.0676476 9.15082 0.979976 
-0.0485526 0.979976 9.76498 
9.6581 -0.01529 -0.145566 
-0.01529 9.28597 1.15253 
-0.145566 1.15253 9.71722 
9.14518 0.0410309 -0.793085 
0.0410309 9.52737 -0.61036 
-0.793085 -0.61036 9.77457 
9.0122 -0.351521 -0.464091 
-0.351521 9.65614 0.257038 
-0.464091 0.257038 9.77878 
9.4532 -0.155746 -0.650628 
-0.155746 9.4477 0.101492 
-0.650628 0.101492 9.54622 
8.92593 0.284408 -0.206316 
0.284408 9.31878 -0.218591 
-0.206316 -0.218591 10.2024 
9.60018 0.440689 -0.372922 
0.440689 9.35918 -0.245188 
-0.372922 -0.245188 9.98643 
9.66602 0.530124 0.253203 
0.530124 9.04374 0.64164 
0.253203 0.64164 10.236 
9.64441 -0.145728 0.354266 
-0.145728 9.49891 0.387193 
0.354266 0.387193 9.80246 
9.24529 0.091226 -0.928206 
0.091226 9.58325 0.319433 
-0.928206 0.319433 10.1172 
9.43826 -0.089738 1.67146 
-0.089738 9.9174 0.573644 
1.67146 0.573644 8.25309 
9.2218 -0.396474 1.17963 
-0.396474 9.46671 0.759681 
1.17963 0.759681 8.92025 
8.51977 0.163874 1.18407 
0.163874 9.54192 0.203432 
1.18407 0.203432 9.54707 
9.37045 -0.276534 1.43917 
-0.276534 9.4077 0.674903 
1.43917 0.674903 8.8306 
9.53326 0.15757 -0.433471 
0.15757 9.41774 0.661331 
-0.433471 0.661331 9.78098 
9.591 0.237812 -0.425116 
0.237812 9.28856 0.778819 
-0.425116 0.778819 9.85243 
9.58962 0.0676753 -0.503971 
0.0676753 9.4078 0.737923 
-0.503971 0.737923 9.73456 
9.57668 0.135572 -0.488424 
0.135572 9.43742 0.743738 
-0.488424 0.743738 9.71788 
9.77984 0.0822076 -0.470781 
0.0822076 10.5043 -0.00614456 
-0.470781 -0.00614456 10.036 
9.7355 -0.0428442 0.0867947 
-0.0428442 9.87905 0.0983936 
0.0867947 0.0983936 10.7056 
10.2139 0.0109145 0.529835 
0.0109145 9.8376 -0.0863574 
0.529835 -0.0863574 10.2686 
9.53254 -0.208007 0.0996601 
-0.208007 10.2787 0.0235724 
0.0996601 0.0235724 10.5089 
9.41743 0.412106 0.111358 
0.412106 9.59195 0.0133359 
0.111358 0.0133359 10.0895 
9.55986 0.155231 0.160483 
0.155231 9.68686 -0.0840315 
0.160483 -0.0840315 9.85211 
9.84226 -0.343721 -0.0133018 
-0.343721 9.68627 0.0656426 
-0.0133018 0.0656426 9.57032 
9.44617 -0.0254728 0.289705 
-0.0254728 9.78105 -0.123242 
0.289705 -0.123242 9.87163 
10.4486 -0.140028 0.144692 
-0.140028 8.52489 1.46564 
0.144692 1.46564 10.369 
9.81987 0.220464 -0.124696 
0.220464 8.98434 0.737342 
-0.124696 0.737342 10.5383 
9.86614 -0.254914 0.0380463 
-0.254914 8.69558 0.975841 
0.0380463 0.975841 10.7808 
9.7872 0.0218465 0.0939387 
0.0218465 8.59424 0.859802 
0.0939387 0.859802 10.9611 
10.0879 0.0937383 -0.0533047 
0.0937383 9.0764 0.614594 
-0.0533047 0.614594 10.7591 
10.1774 0.0127816 -0.0344381 
0.0127816 8.90839 0.565882 
-0.0344381 0.565882 10.8376 
10.0623 0.162601 0.0105741 
0.162601 9.03499 0.600641 
0.0105741 0.600641 10.8261 
10.0214 0.0781349 -0.0640385 
0.0781349 9.07891 0.636298 
-0.0640385 0.636298 10.8231 
9.6557 0.0959751 -0.476819 
0.0959751 9.33573 0.730112 
-0.476819 0.730112 9.63175 
9.41356 -0.0768153 -0.569154 
-0.0768153 9.3719 0.711979 
-0.569154 0.711979 9.83771 
9.5306 0.216939 -0.468183 
0.216939 9.56551 0.529401 
-0.468183 0.529401 9.52707 
9.27534 0.149205 -0.530449 
0.149205 9.3836 0.630482 
-0.530449 0.630482 9.96423 
9.15335 -0.634034 0.553288 
-0.634034 8.30533 1.18155 
0.553288 1.18155 9.91257 
9.39277 -0.438864 0.841912 
-0.438864 8.6146 1.01463 
0.841912 1.01463 9.36388 
9.06656 -0.657632 0.387542 
-0.657632 8.23835 0.962984 
0.387542 0.962984 10.0663 
9.0057 -0.672152 0.619198 
-0.672152 8.31239 1.35028 
0.619198 1.35028 10.0532 
9.3734 -0.156094 -0.331873 
-0.156094 9.11495 -0.673524 
-0.331873 -0.673524 9.63559 
9.24696 -0.0648048 -0.373244 
-0.0648048 9.16476 -0.66164 
-0.373244 -0.66164 9.71222 
9.29651 -0.164031 -0.35613 
-0.164031 9.14719 -0.664662 
-0.35613 -0.664662 9.68024 
9.34882 -0.189852 -0.326799 
-0.189852 9.18898 -0.59964 
-0.326799 -0.59964 9.58615 
7.4789 1.23211 2.79301 
1.23211 9.47355 -1.38792 
2.79301 -1.38792 5.29461 
7.51872 1.27652 3.07261 
1.27652 8.80125 -1.82715 
3.07261 -1.82715 5.92709 
7.0928 1.80415 3.12489 
1.80415 9.18655 -1.16328 
3.12489 -1.16328 5.96771 
7.54466 1.4503 3.24339 
1.4503 8.96007 -1.74585 
3.24339 -1.74585 5.74232 
9.84897 0.0158597 0.725063 
0.0158597 9.95267 -0.434697 
0.725063 -0.434697 9.89871 
9.83128 -0.0673376 0.829751 
-0.0673376 9.76305 -0.393456 
0.829751 -0.393456 10.106 
9.88188 0.0399788 0.720921 
0.0399788 9.92879 -0.431199 
0.720921 -0.431199 9.88968 
9.87101 0.0578047 0.714258 
0.0578047 9.93874 -0.396502 
0.714258 -0.396502 9.8906 
9.13626 0.239453 1.00535 
0.239453 9.45471 -0.551859 
1.00535 -0.551859 9.71657 
9.15411 0.102464 0.865067 
0.102464 9.40097 -0.462369 
0.865067 -0.462369 9.75245 
9.16237 0.149558 0.858984 
0.149558 9.35969 -0.425483 
0.858984 -0.425483 9.78548 
9.1006 0.100207 0.932309 
0.100207 9.4201 -0.288863 
0.932309 -0.288863 9.78683 
10.1683 0.0123642 0.362787 
0.0123642 9.97193 -0.404992 
0.362787 -0.404992 10.0487 
10.2503 0.00953783 0.460046 
0.00953783 10.1899 -0.552472 
0.460046 -0.552472 9.7487 
10.1151 0.100565 0.44885 
0.100565 9.94167 -0.361425 
0.44885 -0.361425 10.1322 
10.1612 -0.0150402 0.413382 
-0.0150402 10.2547 -0.417195 
0.413382 -0.417195 9.77297 
-1.91806 0.174764 -0.428433 
0.174764 -1.67086 1.61416 
-0.428433 1.61416 18.3748 
10.6883 -0.847427 -2.54212 
-0.847427 10.3174 -2.27557 
-2.54212 -2.27557 -6.21986 
12.0297 0.0453813 -1.13624 
0.0453813 11.9508 2.41262 
-1.13624 2.41262 -9.19467 
4.7381 -0.160349 -16.869 
-0.160349 11.0062 2.50524 
-16.869 2.50524 -0.958506 
9.88457 -0.0166004 -0.0227595 
-0.0166004 10.0315 -0.279174 
-0.0227595 -0.279174 8.25661 
9.61123 0.106941 -0.155792 
0.106941 9.78422 -0.291681 
-0.155792 -0.291681 8.77724 
9.53501 -0.0864113 -0.350324 
-0.0864113 9.60234 -0.0588187 
-0.350324 -0.0588187 9.03533 
9.55376 0.0561443 -0.122282 
0.0561443 9.6278 -0.442896 
-0.122282 -0.442896 8.99113 
9.25167 0.24228 -0.0447175 
0.24228 10.0271 -0.743565 
-0.0447175 -0.743565 9.53576 
9.06074 -0.153547 -0.212911 
-0.153547 9.52632 0.114377 
-0.212911 0.114377 10.2275 
9.33949 -0.502507 -0.19481 
-0.502507 9.3799 -0.381053 
-0.19481 -0.381053 10.0952 
9.42685 -0.249065 -0.270677 
-0.249065 9.39306 -0.0306186 
-0.270677 -0.0306186 9.99465 
9.56091 0.201579 -0.548565 
0.201579 9.39077 0.773742 
-0.548565 0.773742 9.84811 
9.60232 0.208348 -0.490494 
0.208348 9.45632 0.740844 
-0.490494 0.740844 9.74115 
9.59383 0.286969 -0.541351 
0.286969 9.39373 0.656617 
-0.541351 0.656617 9.81223 
9.57181 0.0975325 -0.502174 
0.0975325 9.42811 0.727759 
-0.502174 0.727759 9.79986 
9.21603 -0.774067 -0.0906533 
-0.774067 9.90844 -0.111047 
-0.0906533 -0.111047 11.5166 
9.92436 -0.656147 -0.869994 
-0.656147 10.1282 -0.0819591 
-0.869994 -0.0819591 10.5884 
9.44345 -0.887236 0.210043 
-0.887236 10.1043 0.0227615 
0.210043 0.0227615 11.0933 
9.75788 -0.40037 -0.68159 
-0.40037 10.2346 -0.713099 
-0.68159 -0.713099 10.6486 
9.22886 -0.132766 0.981693 
-0.132766 9.62808 0.539449 
0.981693 0.539449 9.11564 
9.25414 -0.226495 1.07819 
-0.226495 9.63896 0.795538 
1.07819 0.795538 9.07948 
9.24548 -0.223216 1.05135 
-0.223216 9.55589 0.651625 
1.05135 0.651625 9.17122 
9.35084 -0.199791 1.04806 
-0.199791 9.19713 0.603866 
1.04806 0.603866 9.42462 
9.01682 0.200571 0.169629 
0.200571 10.1595 0.443574 
0.169629 0.443574 8.992 
9.41331 -0.0694628 0.173234 
-0.0694628 9.10483 0.531941 
0.173234 0.531941 9.65016 
9.57561 -0.205238 0.0425961 
-0.205238 8.71355 0.351516 
0.0425961 0.351516 9.87914 
9.24264 -0.293465 0.208367 
-0.293465 9.15736 1.01576 
0.208367 1.01576 9.7683 
9.23336 -0.179497 -0.123518 
-0.179497 8.89391 -0.271858 
-0.123518 -0.271858 10.0977 
9.35588 -0.111378 -0.227678 
-0.111378 9.09226 -0.790044 
-0.227678 -0.790044 9.77682 
9.61044 -0.419474 -0.226243 
-0.419474 8.31078 -0.732955 
-0.226243 -0.732955 10.3037 
9.27456 -0.309107 -0.266515 
-0.309107 9.12527 -0.765426 
-0.266515 -0.765426 9.82512 
8.66841 -1.03252 1.32011 
-1.03252 9.33838 1.62236 
1.32011 1.62236 8.6702 
8.81223 -0.435805 1.35599 
-0.435805 9.59361 1.58382 
1.35599 1.58382 8.27115 
9.10135 -0.72505 2.03821 
-0.72505 9.23385 1.32091 
2.03821 1.32091 8.34179 
9.00587 -0.489878 1.67087 
-0.489878 8.45475 0.587432 
1.67087 0.587432 9.21637 
9.98961 1.4155 0.177549 
1.4155 10.441 0.00624345 
0.177549 0.00624345 12.1368 
10.0865 0.947245 0.242629 
0.947245 10.007 -0.0941274 
0.242629 -0.0941274 12.474 
10.0016 -0.781834 -0.677144 
-0.781834 11.1071 0.178421 
-0.677144 0.178421 11.4588 
9.7988 1.37757 -0.306922 
1.37757 10.1068 0.354244 
-0.306922 0.354244 12.6619 
9.58631 0.096542 -0.223575 
0.096542 9.32505 0.312433 
-0.223575 0.312433 9.96074 
9.6217 0.225901 0.0970382 
0.225901 9.3701 0.17088 
0.0970382 0.17088 9.8803 
9.39668 -0.0552244 -0.175187 
-0.0552244 9.15299 0.0116452 
-0.175187 0.0116452 10.3224 
9.73994 0.199553 0.185755 
0.199553 9.09654 0.0774059 
0.185755 0.0774059 10.0356 
9.8822 -0.0851142 -0.490623 
-0.0851142 9.65994 -0.786608 
-0.490623 -0.786608 9.8767 
9.83283 -0.0979142 -0.500021 
-0.0979142 9.65481 -0.756867 
-0.500021 -0.756867 9.9312 
9.63926 -0.0802105 -0.471818 
-0.0802105 9.8445 -0.699017 
-0.471818 -0.699017 9.93509 
9.73466 -0.154728 -0.556375 
-0.154728 9.81032 -0.897674 
-0.556375 -0.897674 9.87386 
9.2244 0.0916696 -0.360031 
0.0916696 8.99448 1.44328 
-0.360031 1.44328 6.75549 
9.36238 -0.0384542 0.13667 
-0.0384542 9.03181 0.845556 
0.13667 0.845556 6.58018 
9.30099 0.0138196 -0.278226 
0.0138196 9.2371 1.16141 
-0.278226 1.16141 6.43629 
9.75316 -0.115951 -0.065984 
-0.115951 9.82411 1.13819 
-0.065984 1.13819 5.3971 
10.0379 0.114665 0.00155303 
0.114665 10.0319 -0.0390926 
0.00155303 -0.0390926 10.1737 
10.013 0.0906561 -0.0586516 
0.0906561 10.0748 -0.055098 
-0.0586516 -0.055098 10.1557 
10.0613 0.11848 -0.0718444 
0.11848 9.99027 -0.0459729 
-0.0718444 -0.0459729 10.1919 
10.0013 0.0878345 -0.0476076 
0.0878345 10.0349 -0.0838746 
-0.0476076 -0.0838746 10.2073 
9.23103 -0.296024 -0.471715 
-0.296024 9.54103 -0.578904 
-0.471715 -0.578904 9.45233 
8.91664 -0.386013 -1.22299 
-0.386013 9.38736 -0.569511 
-1.22299 -0.569511 9.9204 
8.97284 -0.241479 -1.23325 
-0.241479 9.49935 -0.596646 
-1.23325 -0.596646 9.75221 
9.13371 -0.503596 -1.28012 
-0.503596 9.51899 -0.857154 
-1.28012 -0.857154 9.5717 
9.0113 -0.572421 -0.0299551 
-0.572421 9.75503 -0.162377 
-0.0299551 -0.162377 10.304 
9.63079 -0.0324392 0.270625 
-0.0324392 9.60592 0.101453 
0.270625 0.101453 9.83361 
10.0415 0.269479 0.22089 
0.269479 9.80424 0.270592 
0.22089 0.270592 9.22463 
9.62096 -0.256347 0.707086 
-0.256347 9.17461 0.334876 
0.707086 0.334876 10.2748 
9.87158 0.0255927 -0.758653 
0.0255927 9.85513 -0.348703 
-0.758653 -0.348703 9.93817 
9.83299 -0.00757745 -0.75081 
-0.00757745 9.89866 -0.345702 
-0.75081 -0.345702 9.93323 
9.80094 -0.0156182 -0.769635 
-0.0156182 9.83376 -0.385662 
-0.769635 -0.385662 10.0302 
9.86864 -0.0296621 -0.724194 
-0.0296621 9.89419 -0.31077 
-0.724194 -0.31077 9.90204 
10.3246 -0.260614 -1.72162 
-0.260614 7.8923 -3.61231 
-1.72162 -3.61231 6.56351 
8.90548 -0.22662 1.40872 
-0.22662 7.61808 -3.19535 
1.40872 -3.19535 8.25688 
9.12593 2.3325 0.0578379 
2.3325 8.19135 -1.65103 
0.0578379 -1.65103 7.46315 
9.65308 -1.27206 0.0665694 
-1.27206 7.58104 -2.83586 
0.0665694 -2.83586 7.54631 
9.52279 0.301093 -0.305689 
0.301093 8.99138 1.31873 
-0.305689 1.31873 9.79165 
9.56281 0.113974 -0.187323 
0.113974 9.03957 1.38242 
-0.187323 1.38242 9.70344 
9.58045 0.240587 -0.403027 
0.240587 8.84891 1.22089 
-0.403027 1.22089 9.87647 
10.1878 0.24046 -0.451428 
0.24046 8.50365 1.32112 
-0.451428 1.32112 9.61437 
9.99855 0.20546 -0.11453 
0.20546 10.0233 0.306483 
-0.11453 0.306483 10.1254 
10.0359 0.391076 0.0703307 
0.391076 9.61858 -0.034822 
0.0703307 -0.034822 10.4927 
10.0397 -0.016166 0.147978 
-0.016166 9.84009 -0.179924 
0.147978 -0.179924 10.2674 
10.0453 -0.000674867 -0.00184255 
-0.000674867 9.71415 -0.0704722 
-0.00184255 -0.0704722 10.3878 
7.02854 0.183519 2.21456 
0.183519 5.34348 -1.19191 
2.21456 -1.19191 3.30618 
6.43022 -1.78875 2.39705 
-1.78875 7.54838 0.0688746 
2.39705 0.0688746 1.69959 
7.00304 -0.369069 2.73482 
-0.369069 6.94859 -2.06927 
2.73482 -2.06927 1.72657 
4.93322 -1.77428 3.92024 
-1.77428 7.01208 0.224134 
3.92024 0.224134 3.7329 
9.53633 0.0293006 -0.787924 
0.0293006 9.64208 0.134317 
-0.787924 0.134317 9.80266 
9.56877 0.0166794 -0.781182 
0.0166794 9.64062 0.148404 
-0.781182 0.148404 9.77168 
9.55869 -0.00643026 -0.794324 
-0.00643026 9.6743 0.13354 
-0.794324 0.13354 9.74808 
9.53093 0.0491258 -0.822359 
0.0491258 9.71024 0.14869 
-0.822359 0.14869 9.7399 
10.04 0.154957 -0.171929 
0.154957 8.93961 0.85846 
-0.171929 0.85846 10.7757 
9.96342 0.0567334 -0.127823 
0.0567334 9.06977 0.681435 
-0.127823 0.681435 10.7221 
10.1236 0.00962545 0.012907 
0.00962545 8.87439 0.746504 
0.012907 0.746504 10.7572 
10.0461 0.0810279 -0.171654 
0.0810279 8.95034 0.718319 
-0.171654 0.718319 10.7588 
9.53302 -0.349188 0.97854 
-0.349188 9.87663 0.578485 
0.97854 0.578485 9.37789 
9.61533 -0.126217 0.911735 
-0.126217 9.68652 0.580519 
0.911735 0.580519 9.48568 
9.56798 -0.035365 0.977746 
-0.035365 9.72748 0.542016 
0.977746 0.542016 9.49207 
9.74832 -0.124449 0.794458 
-0.124449 9.63946 0.534575 
0.794458 0.534575 9.39976 
9.29463 -0.639701 -0.349774 
-0.639701 10.4966 0.0472789 
-0.349774 0.0472789 11.3422 
10.1323 0.226228 -0.220561 
0.226228 10.2661 0.0855894 
-0.220561 0.0855894 10.735 
9.84693 -0.0720863 0.0560793 
-0.0720863 10.3243 0.174272 
0.0560793 0.174272 10.9622 
9.71961 0.0286722 0.171451 
0.0286722 10.4951 0.168223 
0.171451 0.168223 10.9187 
9.79489 -0.325867 -0.286742 
-0.325867 9.14669 -0.0192473 
-0.286742 -0.0192473 9.70707 
9.3115 0.0696801 0.172378 
0.0696801 9.39629 -0.262344 
0.172378 -0.262344 9.94086 
9.54608 -0.222754 0.162511 
-0.222754 8.82526 -0.604994 
0.162511 -0.604994 10.2773 
9.49784 -0.176422 -0.67733 
-0.176422 9.32823 -0.605455 
-0.67733 -0.605455 9.82258 
9.13566 -0.1093 0.716124 
-0.1093 9.43834 0.442809 
0.716124 0.442809 9.70272 
9.2327 -0.167212 0.744647 
-0.167212 9.30486 0.417304 
0.744647 0.417304 9.73917 
9.03915 -0.255527 0.74087 
-0.255527 9.43563 0.454764 
0.74087 0.454764 9.80194 
9.47736 -0.169076 0.834025 
-0.169076 9.15412 0.471534 
0.834025 0.471534 9.64524 
9.03555 -0.354855 -0.299123 
-0.354855 9.16421 -0.350326 
-0.299123 -0.350326 9.67377 
8.81646 -0.544679 -0.471954 
-0.544679 9.15461 -0.431118 
-0.471954 -0.431118 9.90247 
8.93274 -0.338845 -0.583206 
-0.338845 9.07354 -0.340074 
-0.583206 -0.340074 9.86726 
9.20497 0.0567172 -0.848047 
0.0567172 9.0147 -0.664887 
-0.848047 -0.664887 9.65387 
12.777 -0.154487 -0.358631 
-0.154487 14.397 -0.269183 
-0.358631 -0.269183 13.5695 
11.9284 -1.60417 -1.94498 
-1.60417 12.6334 -0.413921 
-1.94498 -0.413921 16.1817 
12.5451 0.767442 -0.407574 
0.767442 14.8264 0.0889673 
-0.407574 0.0889673 13.3719 
14.0142 0.08485 -0.177073 
0.08485 13.6843 -0.541624 
-0.177073 -0.541624 13.0451 
9.99905 0.0699736 -0.150621 
0.0699736 10.165 0.0859284 
-0.150621 0.0859284 10.121 
10.1515 0.0456209 0.109005 
0.0456209 10.0637 -0.0911075 
0.109005 -0.0911075 10.0698 
9.97643 0.0102494 0.0675131 
0.0102494 10.0653 0.029598 
0.0675131 0.029598 10.2433 
9.95081 0.0602521 0.0943936 
0.0602521 10.0251 0.0364123 
0.0943936 0.0364123 10.3091 
9.98945 -0.0985598 -0.212611 
-0.0985598 10.0286 -0.722044 
-0.212611 -0.722044 9.9232 
10.088 -0.0310972 -0.261908 
-0.0310972 10.0686 -0.8001 
-0.261908 -0.8001 9.78467 
9.89499 -0.052942 -0.137895 
-0.052942 9.8184 -0.714193 
-0.137895 -0.714193 10.2278 
10.106 0.0102607 -0.237417 
0.0102607 10.0673 -0.694365 
-0.237417 -0.694365 9.76787 
9.73933 0.0491868 -0.252292 
0.0491868 9.55979 0.859908 
-0.252292 0.859908 9.85505 
9.69456 0.0265251 -0.222009 
0.0265251 9.65967 0.834041 
-0.222009 0.834041 9.79993 
9.70991 0.0286078 -0.239633 
0.0286078 9.62676 0.807276 
-0.239633 0.807276 9.8175 
9.77432 0.0625657 -0.205593 
0.0625657 9.59452 0.816218 
-0.205593 0.816218 9.78532 
9.68788 5.89117e-05 -0.752332 
5.89117e-05 9.71577 -0.156606 
-0.752332 -0.156606 9.79354 
9.63302 -0.0280577 -0.77939 
-0.0280577 9.76632 -0.218996 
-0.77939 -0.218996 9.79786 
9.65332 -0.0524005 -0.850494 
-0.0524005 9.73783 -0.1998 
-0.850494 -0.1998 9.80605 
9.65361 -0.0751674 -0.818118 
-0.0751674 9.71549 -0.196173 
-0.818118 -0.196173 9.82809 
9.50267 -0.0506379 0.386951 
-0.0506379 9.45537 0.670995 
0.386951 0.670995 9.73504 
9.6059 -0.0313947 0.34597 
-0.0313947 9.52092 0.732263 
0.34597 0.732263 9.56627 
9.52978 -0.0791674 0.40235 
-0.0791674 9.45113 0.726701 
0.40235 0.726701 9.71217 
9.45991 -0.0310607 0.410061 
-0.0310607 9.46793 0.724596 
0.410061 0.724596 9.76524 
9.8634 -0.0884328 0.226299 
-0.0884328 9.7229 0.952211 
0.226299 0.952211 9.66867 
10.1094 -0.0541538 0.268514 
-0.0541538 9.60663 0.921716 
0.268514 0.921716 9.53896 
9.86596 -0.0543048 0.171697 
-0.0543048 9.70735 0.942081 
0.171697 0.942081 9.68167 
9.78232 -0.0989687 0.341198 
-0.0989687 9.80419 0.914993 
0.341198 0.914993 9.66846 
9.67235 -0.451079 -0.362034 
-0.451079 11.3175 0.27559 
-0.362034 0.27559 9.98673 
9.17996 -0.504886 0.204081 
-0.504886 10.4655 0.489682 
0.204081 0.489682 11.3311 
10.661 0.44066 -0.130277 
0.44066 9.72405 -0.437267 
-0.130277 -0.437267 10.5915 
10.8596 -0.170605 0.425792 
-0.170605 9.37897 0.495029 
0.425792 0.495029 10.738 
9.80219 -0.0562994 -0.59612 
-0.0562994 9.75289 -0.582931 
-0.59612 -0.582931 9.88205 
9.73003 -0.0926306 -0.737205 
-0.0926306 9.81085 -0.487741 
-0.737205 -0.487741 9.89625 
9.71504 -0.0305511 -0.807399 
-0.0305511 9.8206 -0.528956 
-0.807399 -0.528956 9.90149 
9.74057 -0.112063 -0.772544 
-0.112063 9.83898 -0.616102 
-0.772544 -0.616102 9.85758 
8.12406 -0.638052 -2.46314 
-0.638052 9.14547 -1.10278 
-2.46314 -1.10278 10.959 
8.79399 -0.0980861 -0.892923 
-0.0980861 8.85291 -0.479601 
-0.892923 -0.479601 10.5817 
9.20761 -1.15517 -0.862592 
-1.15517 9.17873 -0.739937 
-0.862592 -0.739937 9.84224 
9.15291 -0.553456 -1.02524 
-0.553456 9.76771 -1.1453 
-1.02524 -1.1453 9.30795 
9.63758 0.0325017 -0.911265 
0.0325017 9.75105 -0.120669 
-0.911265 -0.120669 9.80997 
9.64618 0.0206781 -0.899398 
0.0206781 9.80757 -0.0829018 
-0.899398 -0.0829018 9.74485 
9.52971 0.025814 -0.847085 
0.025814 9.82919 -0.0990966 
-0.847085 -0.0990966 9.8397 
9.65549 -0.004407 -0.924337 
-0.004407 9.77864 -0.126402 
-0.924337 -0.126402 9.76446 
9.69429 -0.0399421 -1.23579 
-0.0399421 9.19144 -0.942484 
-1.23579 -0.942484 -7.82003 
4.49235 -2.83135 -2.04376 
-2.83135 9.74525 -1.73907 
-2.04376 -1.73907 -3.1719 
-0.783659 3.08963 5.28166 
3.08963 1.40825 -0.782303 
5.28166 -0.782303 10.4411 
7.32694 -1.70183 0.432795 
-1.70183 3.50377 -6.98463 
0.432795 -6.98463 0.234991 
9.45538 -0.334574 0.873818 
-0.334574 9.506 0.467526 
0.873818 0.467526 9.69503 
9.14351 -0.147662 1.15095 
-0.147662 9.97245 0.787476 
1.15095 0.787476 9.54045 
9.51224 -0.115162 1.16164 
-0.115162 9.73303 0.356536 
1.16164 0.356536 9.41115 
9.39228 -0.23711 1.01148 
-0.23711 9.4853 0.494638 
1.01148 0.494638 9.77884 
9.2112 0.317186 0.976196 
0.317186 9.53888 -0.536987 
0.976196 -0.536987 9.7553 
9.23721 0.193746 0.890218 
0.193746 9.40997 -0.361643 
0.890218 -0.361643 9.85821 
9.06292 0.130643 0.728067 
0.130643 9.46732 -0.374108 
0.728067 -0.374108 9.97515 
9.14937 0.0767965 0.762966 
0.0767965 9.60043 -0.277438 
0.762966 -0.277438 9.75558 
10.1559 0.00844471 0.021726 
0.00844471 10.0345 0.0435998 
0.021726 0.0435998 10.1823 
10.1949 -0.000821888 -0.0562414 
-0.000821888 10.0356 0.105492 
-0.0562414 0.105492 10.1422 
10.1009 -0.0651454 0.0475897 
-0.0651454 10.092 -0.0272564 
0.0475897 -0.0272564 10.1798 
10.1861 -0.0205604 -0.0154171 
-0.0205604 10.102 0.0414767 
-0.0154171 0.0414767 10.0846 
10.0201 -0.187424 0.764673 
-0.187424 9.7702 0.256853 
0.764673 0.256853 8.05885 
9.86086 0.0502108 0.212582 
0.0502108 9.76952 0.3362 
0.212582 0.3362 8.2188 
9.80874 0.0700543 0.472642 
0.0700543 9.72536 0.187225 
0.472642 0.187225 8.31508 
9.44096 -0.0217381 0.760922 
-0.0217381 9.42969 0.100856 
0.760922 0.100856 8.97854 
9.18394 0.144017 -0.951481 
0.144017 9.55959 0.284798 
-0.951481 0.284798 9.87411 
9.21443 0.163287 -0.915342 
0.163287 9.51477 0.377948 
-0.915342 0.377948 9.88843 
9.24591 0.143631 -0.771782 
0.143631 9.58723 0.301002 
-0.771782 0.301002 9.78449 
9.16065 0.207696 -0.821553 
0.207696 9.43331 0.280469 
-0.821553 0.280469 10.0237 
9.2101 -0.160293 -0.839125 
-0.160293 9.65305 -0.335599 
-0.839125 -0.335599 9.75098 
9.32312 -0.115021 -0.797136 
-0.115021 9.53726 -0.298148 
-0.797136 -0.298148 9.75375 
9.40188 -0.0116881 -0.839685 
-0.0116881 9.63892 -0.260269 
-0.839685 -0.260269 9.57334 
9.47478 -0.133231 -0.631643 
-0.133231 9.48366 -0.310245 
-0.631643 -0.310245 9.65569 
10.5524 0.27975 -0.236602 
0.27975 8.92733 0.146637 
-0.236602 0.146637 11.2914 
10.332 -0.455578 0.868191 
-0.455578 9.42815 0.780393 
0.868191 0.780393 11.011 
10.4387 0.155196 -0.255588 
0.155196 8.844 0.571414 
-0.255588 0.571414 11.4884 
10.8471 -0.11571 -0.0655299 
-0.11571 8.24084 0.478812 
-0.0655299 0.478812 11.6833 
9.65464 -0.0373126 0.0210865 
-0.0373126 9.2791 1.03193 
0.0210865 1.03193 9.82939 
9.8412 0.111958 0.0536922 
0.111958 9.11706 1.09914 
0.0536922 1.09914 9.80488 
9.72364 -0.303334 0.186741 
-0.303334 9.16354 1.13804 
0.186741 1.13804 9.87595 
9.74795 -0.132033 0.0511168 
-0.132033 9.23475 1.09319 
0.0511168 1.09319 9.78042 
10.0718 -0.0131926 -0.0706818 
-0.0131926 9.97521 -0.15876 
-0.0706818 -0.15876 10.1283 
10.0041 0.113376 0.0629705 
0.113376 10.0032 0.215447 
0.0629705 0.215447 10.1679 
10.1048 -0.0224383 -0.00760333 
-0.0224383 9.87782 -0.0475976 
-0.00760333 -0.0475976 10.1927 
10.1182 -0.0769138 0.0318403 
-0.0769138 9.79302 -0.0340218 
0.0318403 -0.0340218 10.2641 
9.26629 0.693939 1.59245 
0.693939 9.06096 -1.39285 
1.59245 -1.39285 8.05559 
9.35629 0.098224 2.08032 
0.098224 9.38972 -1.88569 
2.08032 -1.88569 7.63684 
9.64795 0.551494 1.18566 
0.551494 9.65354 -1.18505 
1.18566 -1.18505 7.08136 
8.85119 0.58932 1.3895 
0.58932 9.04333 -1.5918 
1.3895 -1.5918 8.48833 
9.7521 -0.0632449 -0.415452 
-0.0632449 9.669 -0.860367 
-0.415452 -0.860367 9.74682 
9.73945 -0.101833 -0.447194 
-0.101833 9.69204 -0.888267 
-0.447194 -0.888267 9.73643 
10.0461 -0.193004 -0.483235 
-0.193004 9.58191 -0.887984 
-0.483235 -0.887984 9.53994 
9.62722 -0.0679457 -0.558778 
-0.0679457 9.81019 -0.831554 
-0.558778 -0.831554 9.73052 
9.67286 -0.016838 -0.133211 
-0.016838 9.69547 0.740693 
-0.133211 0.740693 9.84597 
9.73241 0.0489186 -0.233116 
0.0489186 9.66616 0.89007 
-0.233116 0.89007 9.81573 
9.80106 0.0278324 -0.138282 
0.0278324 9.6489 0.713288 
-0.138282 0.713288 9.76434 
9.68993 0.0490451 -0.146493 
0.0490451 9.63627 0.836767 
-0.146493 0.836767 9.88809 
9.44079 -0.0290989 -0.21785 
-0.0290989 8.53004 1.72882 
-0.21785 1.72882 10.2073 
9.47724 0.138871 -0.222154 
0.138871 8.50517 1.02816 
-0.222154 1.02816 10.1957 
9.77345 0.289619 -0.115245 
0.289619 8.44072 1.11664 
-0.115245 1.11664 9.96392 
9.83358 0.13462 -0.126998 
0.13462 8.74276 1.11363 
-0.126998 1.11363 9.60175 
7.1405 0.589473 -2.74267 
0.589473 8.8409 1.46317 
-2.74267 1.46317 7.45909 
7.4405 0.730958 -3.26282 
0.730958 8.8439 1.58562 
-3.26282 1.58562 7.1561 
7.02084 0.886975 -2.70865 
0.886975 8.46841 1.64714 
-2.70865 1.64714 7.95124 
9.85167 0.735325 -1.33809 
0.735325 7.50859 0.355659 
-1.33809 0.355659 6.08024 
9.2182 -0.118671 0.119882 
-0.118671 9.64653 0.617791 
0.119882 0.617791 9.39337 
9.36474 -0.280447 0.0514034 
-0.280447 9.71232 0.557271 
0.0514034 0.557271 9.18103 
9.58787 0.261203 0.0227249 
0.261203 8.78486 0.0806728 
0.0227249 0.0806728 9.88537 
9.44607 -0.0168078 -0.304734 
-0.0168078 8.89673 0.552267 
-0.304734 0.552267 9.9153 
9.56004 0.0546051 -0.0863114 
0.0546051 9.21087 0.595245 
-0.0863114 0.595245 9.43209 
9.31117 0.076061 -0.133736 
0.076061 8.9843 0.729548 
-0.133736 0.729548 9.90753 
9.59749 0.0545922 -0.091298 
0.0545922 9.01471 0.554259 
-0.091298 0.554259 9.5908 
9.49592 0.101788 -0.0540302 
0.101788 9.07334 0.546121 
-0.0540302 0.546121 9.63374 
9.20905 -0.00743993 -0.590724 
-0.00743993 9.45366 -0.0550898 
-0.590724 -0.0550898 9.44377 
9.08316 0.0435684 -0.596742 
0.0435684 9.44322 0.0125079 
-0.596742 0.0125079 9.58011 
9.04093 0.0253556 -0.671881 
0.0253556 9.33414 0.184841 
-0.671881 0.184841 9.73142 
9.09166 0.117101 -0.593771 
0.117101 9.38391 0.0589901 
-0.593771 0.0589901 9.63091 
9.57367 0.0954074 -0.432193 
0.0954074 9.38481 0.664941 
-0.432193 0.664941 9.67435 
9.39954 0.141547 -0.398719 
0.141547 9.52368 0.665537 
-0.398719 0.665537 9.7096 
9.49568 0.0966175 -0.558636 
0.0966175 9.32978 0.582646 
-0.558636 0.582646 9.80737 
9.43544 0.0800774 -0.513796 
0.0800774 9.4616 0.609296 
-0.513796 0.609296 9.73578 
9.63696 0.0372259 -0.110081 
0.0372259 9.6141 0.0698402 
-0.110081 0.0698402 9.86095 
9.52667 0.0266488 -0.137522 
0.0266488 9.72253 0.0701719 
-0.137522 0.0701719 9.8628 
9.71174 0.0355288 -0.121682 
0.0355288 9.60793 0.04329 
-0.121682 0.04329 9.79233 
9.53866 0.0743903 -0.0782918 
0.0743903 9.71916 0.0618779 
-0.0782918 0.0618779 9.85419 
8.98086 0.869516 1.25682 
0.869516 8.75577 -1.8715 
1.25682 -1.8715 8.82264 
9.40137 0.811678 1.15061 
0.811678 8.518 -1.81114 
1.15061 -1.81114 8.63991 
8.87986 1.23699 1.29948 
1.23699 9.02322 -2.14263 
1.29948 -2.14263 8.65619 
8.94298 0.560752 1.37573 
0.560752 8.93874 -1.59805 
1.37573 -1.59805 8.67756 
9.91105 -0.0762297 -0.895274 
-0.0762297 9.95976 -0.353426 
-0.895274 -0.353426 9.9336 
9.92374 -0.00523147 -0.831676 
-0.00523147 9.91111 -0.424111 
-0.831676 -0.424111 9.96955 
9.92037 -0.0499919 -0.874779 
-0.0499919 10.0218 -0.365361 
-0.874779 -0.365361 9.8622 
9.95679 -0.0467813 -0.857348 
-0.0467813 10.0196 -0.350441 
-0.857348 -0.350441 9.82798 
9.79573 0.138815 -0.137674 
0.138815 10.3908 -0.223709 
-0.137674 -0.223709 10.3771 
10.0909 0.128245 0.191169 
0.128245 10.1219 0.100927 
0.191169 0.100927 10.3508 
10.3261 -0.17088 0.156658 
-0.17088 10.1957 0.328809 
0.156658 0.328809 10.0418 
10.0805 -0.151571 0.0195253 
-0.151571 10.0912 0.109562 
0.0195253 0.109562 10.3918 
4.36176 0.651438 1.93248 
0.651438 6.07933 0.240545 
1.93248 0.240545 0.92043 
4.59305 0.409369 1.66676 
0.409369 3.6539 0.0402192 
1.66676 0.0402192 3.11456 
6.99262 0.511791 0.999092 
0.511791 5.97904 0.323522 
0.999092 0.323522 -1.61015 
5.41146 0.177568 2.62916 
0.177568 3.2111 1.1848 
2.62916 1.1848 2.73896 
9.76759 -0.195204 0.292409 
-0.195204 9.8523 0.722154 
0.292409 0.722154 9.82562 
10.0052 -0.464842 0.0297304 
-0.464842 10.2106 0.300273 
0.0297304 0.300273 9.22972 
10.1828 0.145995 0.359172 
0.145995 9.80253 0.577931 
0.359172 0.577931 9.46023 
10.0086 0.256222 0.501911 
0.256222 9.9876 0.0144676 
0.501911 0.0144676 9.44933 
5.4539 -0.282497 1.77886 
-0.282497 5.98773 -0.225142 
1.77886 -0.225142 1.49977 
7.50509 0.597226 1.91975 
0.597226 4.46639 -0.256489 
1.91975 -0.256489 0.969918 
5.86628 -0.0874891 1.65736 
-0.0874891 5.11046 -0.285697 
1.65736 -0.285697 1.96466 
2.4479 -1.20463 4.19258 
-1.20463 7.31855 0.513095 
4.19258 0.513095 3.17496 
13.7105 -1.36701 2.55392 
-1.36701 18.0946 -5.54902 
2.55392 -5.54902 -14.2508 
11.3063 -3.53667 -0.296903 
-3.53667 10.6849 -6.44398 
-0.296903 -6.44398 -4.43687 
-4.06206 -0.441366 1.49667 
-0.441366 0.104699 4.98939 
1.49667 4.98939 21.5117 
10.995 4.87529 9.91308 
4.87529 -4.52395 -17.4881 
9.91308 -17.4881 11.0834 
9.53969 0.32411 -0.462706 
0.32411 8.3122 1.53719 
-0.462706 1.53719 9.71488 
9.4978 0.145643 -0.284764 
0.145643 8.49343 1.38322 
-0.284764 1.38322 9.57553 
9.47618 0.332448 -0.304401 
0.332448 8.42568 1.35297 
-0.304401 1.35297 9.66492 
9.69509 0.346389 -0.398602 
0.346389 8.10104 1.58731 
-0.398602 1.58731 9.77064 
9.95223 -0.0540105 0.323441 
-0.0540105 9.93908 0.870095 
0.323441 0.870095 9.97839 
9.9896 -0.0456709 0.342861 
-0.0456709 9.96747 0.843318 
0.342861 0.843318 9.91263 
9.9642 -0.0299969 0.355366 
-0.0299969 9.95225 0.816831 
0.355366 0.816831 9.95326 
10.0078 -0.0424358 0.330185 
-0.0424358 9.98046 0.820391 
0.330185 0.820391 9.88144 
10.0909 -0.00819134 -0.0957163 
-0.00819134 10.1033 -0.0105479 
-0.0957163 -0.0105479 10.1408 
10.0346 -0.0499563 -0.0639887 
-0.0499563 10.1697 -0.043337 
-0.0639887 -0.043337 10.1306 
9.96909 0.112793 0.0688701 
0.112793 10.1663 0.0565648 
0.0688701 0.0565648 10.1995 
10.0063 -0.0698829 -0.0510298 
-0.0698829 10.1752 -0.0252448 
-0.0510298 -0.0252448 10.1534 
9.67521 -0.0304893 0.0958602 
-0.0304893 9.67406 0.778925 
0.0958602 0.778925 9.64498 
9.54311 0.0133269 0.178754 
0.0133269 9.83799 0.746407 
0.178754 0.746407 9.61316 
9.65898 0.012817 0.1987 
0.012817 9.38055 0.846031 
0.1987 0.846031 9.95472 
9.72989 -0.134972 0.267792 
-0.134972 9.52188 0.703789 
0.267792 0.703789 9.74249 
8.95006 -0.562105 -0.959147 
-0.562105 9.14509 -0.819561 
-0.959147 -0.819561 10.1322 
8.93314 -0.606884 -1.00467 
-0.606884 9.38413 -0.780827 
-1.00467 -0.780827 9.91012 
9.15401 0.0489367 -0.487159 
0.0489367 9.3217 -0.45429 
-0.487159 -0.45429 9.75168 
9.02201 -0.534281 -1.21 
-0.534281 9.49358 -0.953081 
-1.21 -0.953081 9.7118 
10.0043 0.011047 0.0519775 
0.011047 10.2218 -0.0719881 
0.0519775 -0.0719881 10.2635 
10.0786 0.0631136 -0.0554446 
0.0631136 10.1964 0.0885023 
-0.0554446 0.0885023 10.2146 
10.1136 0.0697395 -0.0527543 
0.0697395 10.1563 0.0903398 
-0.0527543 0.0903398 10.2196 
10.0818 0.149873 -0.0452997 
0.149873 10.1462 0.0475556 
-0.0452997 0.0475556 10.2616 
9.21511 -0.155618 0.0906706 
-0.155618 9.79599 -0.396926 
0.0906706 -0.396926 9.37431 
9.51544 0.234731 0.310456 
0.234731 8.99606 -0.673055 
0.310456 -0.673055 9.87392 
9.64073 0.187167 0.0321157 
0.187167 9.35752 -0.480195 
0.0321157 -0.480195 9.38716 
9.40975 7.52164e-05 0.0405422 
7.52164e-05 9.14649 -0.359149 
0.0405422 -0.359149 9.82918 
9.26495 0.565943 -0.623361 
0.565943 9.66321 0.366069 
-0.623361 0.366069 10.7073 
9.15685 0.24859 -0.694072 
0.24859 9.91865 0.199203 
-0.694072 0.199203 10.5599 
9.15001 0.434556 -0.570405 
0.434556 9.6846 0.394324 
-0.570405 0.394324 10.8008 
9.17441 0.573486 -0.591787 
0.573486 9.56462 0.268323 
-0.591787 0.268323 10.8964 
8.97362 -0.44333 -0.280784 
-0.44333 9.23753 -0.186796 
-0.280784 -0.186796 10.0261 
8.9954 -0.457279 -0.322943 
-0.457279 9.28582 -0.201903 
-0.322943 -0.201903 9.95599 
9.03968 -0.228618 -0.358449 
-0.228618 9.18733 -0.18525 
-0.358449 -0.18525 10.0102 
8.92167 -0.634289 -0.335951 
-0.634289 9.19018 -0.308646 
-0.335951 -0.308646 10.1254 
9.73384 0.151153 -0.207422 
0.151153 9.18148 0.883044 
-0.207422 0.883044 9.80754 
9.75214 0.188542 -0.234899 
0.188542 9.0289 0.79715 
-0.234899 0.79715 9.94182 
9.53282 0.1934 -0.396147 
0.1934 9.22131 1.15106 
-0.396147 1.15106 9.96873 
9.57094 0.0483636 -0.243807 
0.0483636 9.31957 0.839082 
-0.243807 0.839082 9.83235 
9.32851 -0.772298 0.201839 
-0.772298 10.6531 0.229754 
0.201839 0.229754 11.2821 
10.34 -0.211513 0.279862 
-0.211513 10.1334 -0.146276 
0.279862 -0.146276 10.7903 
9.62561 -0.270516 0.0855498 
-0.270516 9.85856 -0.0951454 
0.0855498 -0.0951454 11.7796 
9.81554 -0.781524 0.492193 
-0.781524 10.4104 0.106118 
0.492193 0.106118 11.0378 
9.80274 0.0982296 0.982496 
0.0982296 9.96883 -0.287156 
0.982496 -0.287156 8.49818 
9.96159 -0.211632 0.9708 
-0.211632 10.1198 0.230317 
0.9708 0.230317 8.18837 
9.71019 0.165397 0.770704 
0.165397 10.07 -0.183943 
0.770704 -0.183943 8.48955 
9.42995 -0.161419 0.668519 
-0.161419 9.59969 0.0639203 
0.668519 0.0639203 9.24011 
9.75185 -0.0534984 0.666326 
-0.0534984 9.65 0.679911 
0.666326 0.679911 9.92869 
9.8365 -0.0458482 0.556534 
-0.0458482 9.63655 0.605532 
0.556534 0.605532 9.8575 
9.83423 -0.0501 0.54211 
-0.0501 9.71963 0.614571 
0.54211 0.614571 9.77668 
9.75752 -0.0865328 0.672337 
-0.0865328 9.70332 0.685917 
0.672337 0.685917 9.86971 
9.11872 0.569364 -0.00281595 
0.569364 8.35379 0.839445 
-0.00281595 0.839445 10.04 
8.90465 0.462865 -1.04829 
0.462865 9.38418 0.551605 
-1.04829 0.551605 9.22367 
9.34616 1.46628 -1.26564 
1.46628 7.9008 1.10016 
-1.26564 1.10016 10.2655 
8.84782 0.469781 -0.554585 
0.469781 8.11517 1.30055 
-0.554585 1.30055 10.5495 
9.82012 0.151401 -0.297608 
0.151401 9.82891 -0.333477 
-0.297608 -0.333477 10.3423 
10.1374 -0.330701 -0.0629387 
-0.330701 9.33104 -0.00642209 
-0.0629387 -0.00642209 10.5229 
10.0019 -0.297084 0.0634655 
-0.297084 10.1344 0.515195 
0.0634655 0.515195 9.85507 
9.8149 0.0895515 0.0792279 
0.0895515 9.55753 -0.106878 
0.0792279 -0.106878 10.6189 
8.68723 0.394854 -0.753487 
0.394854 9.26042 1.46083 
-0.753487 1.46083 8.97827 
9.56854 0.119822 -0.0788546 
0.119822 8.33349 1.56948 
-0.0788546 1.56948 9.02389 
9.63354 0.346738 -0.475234 
0.346738 8.54295 1.77297 
-0.475234 1.77297 8.74943 
9.68607 0.205168 -0.491744 
0.205168 8.43981 1.62949 
-0.491744 1.62949 8.80004 
9.93531 -0.00418288 0.0504457 
-0.00418288 9.81996 -0.96477 
0.0504457 -0.96477 9.90342 
9.81105 -0.012326 0.0951249 
-0.012326 9.87878 -0.958164 
0.0951249 -0.958164 9.96886 
9.83167 0.0181183 0.124037 
0.0181183 9.77812 -0.916129 
0.124037 -0.916129 10.0489 
9.95914 -0.0346561 0.0743349 
-0.0346561 9.81172 -0.980269 
0.0743349 -0.980269 9.88784 
9.8573 0.0437604 0.416862 
0.0437604 9.69388 -0.875727 
0.416862 -0.875727 9.71132 
9.92592 0.188728 0.437757 
0.188728 9.771 -0.897227 
0.437757 -0.897227 9.56558 
9.77084 0.0535182 0.497477 
0.0535182 9.68006 -0.758934 
0.497477 -0.758934 9.8116 
9.8716 -0.0242507 0.319412 
-0.0242507 9.66377 -0.90979 
0.319412 -0.90979 9.72713 
13.9571 -0.232828 0.0129367 
-0.232828 12.4346 0.367875 
0.0129367 0.367875 12.8213 
13.272 0.0312482 0.252315 
0.0312482 11.819 0.88257 
0.252315 0.88257 14.1219 
12.8153 -0.61062 -0.00488316 
-0.61062 11.8018 0.778857 
-0.00488316 0.778857 14.5959 
13.3732 -0.292037 0.522489 
-0.292037 12.3025 0.111322 
0.522489 0.111322 13.5373 
9.80385 0.0200193 0.14987 
0.0200193 9.95615 -0.0120497 
0.14987 -0.0120497 9.93004 
9.92253 -0.124763 -0.051833 
-0.124763 9.64916 -0.00925963 
-0.051833 -0.00925963 10.1183 
9.84891 0.0649949 0.0206876 
0.0649949 9.96137 0.107435 
0.0206876 0.107435 9.87976 
9.79667 -0.140494 -0.0133757 
-0.140494 9.89709 0.185693 
-0.0133757 0.185693 9.99628 
9.22249 0.0546337 -0.161537 
0.0546337 9.13034 0.271002 
-0.161537 0.271002 9.96555 
9.58404 -0.034127 -0.229372 
-0.034127 9.02449 0.28354 
-0.229372 0.28354 9.70986 
9.58475 0.202845 -0.0614259 
0.202845 9.00197 0.123359 
-0.0614259 0.123359 9.73166 
9.36807 0.0356295 -0.153503 
0.0356295 8.88882 0.362995 
-0.153503 0.362995 10.0615 
10.2945 0.0750115 0.0448446 
0.0750115 9.13862 -0.0602515 
0.0448446 -0.0602515 10.6022 
10.1302 0.0306452 -0.0650916 
0.0306452 8.97365 0.0378076 
-0.0650916 0.0378076 10.9315 
10.1494 0.123843 0.152468 
0.123843 9.26683 0.516292 
0.152468 0.516292 10.6191 
10.3993 0.0261716 -0.0936297 
0.0261716 9.22527 0.710286 
-0.0936297 0.710286 10.4108 
6.80917 0.138331 -0.25035 
0.138331 6.53708 0.527251 
-0.25035 0.527251 1.77193 
6.75915 -0.589555 0.145378 
-0.589555 6.77645 0.283689 
0.145378 0.283689 1.58258 
6.88453 0.0523763 -0.236157 
0.0523763 6.49457 0.311673 
-0.236157 0.311673 1.73909 
6.67855 0.23405 -0.165185 
0.23405 6.7901 0.376641 
-0.165185 0.376641 1.64952 
9.9364 -0.815228 1.06023 
-0.815228 8.54012 1.61058 
1.06023 1.61058 8.83416 
9.0284 -0.533825 0.890884 
-0.533825 8.78008 1.53859 
0.890884 1.53859 9.50219 
9.12389 -0.795677 0.853858 
-0.795677 9.22164 2.87789 
0.853858 2.87789 8.96514 
10.1186 -0.223909 1.47778 
-0.223909 9.35936 1.55167 
1.47778 1.55167 7.83276 
9.81103 -0.0125328 -0.840252 
-0.0125328 9.88981 -0.186103 
-0.840252 -0.186103 9.89674 
9.73606 -0.00112553 -0.869936 
-0.00112553 9.8122 -0.201395 
-0.869936 -0.201395 10.0493 
9.80613 0.00735021 -0.835373 
0.00735021 9.84729 -0.177567 
-0.835373 -0.177567 9.94416 
9.82265 -0.0268568 -0.811731 
-0.0268568 9.89987 -0.187001 
-0.811731 -0.187001 9.87506 
9.54192 -0.0368849 0.783975 
-0.0368849 9.70143 0.149666 
0.783975 0.149666 9.79227 
9.74102 0.104412 0.776341 
0.104412 9.57659 0.144754 
0.776341 0.144754 9.71801 
9.56516 -0.0506515 0.808013 
-0.0506515 9.6825 0.156072 
0.808013 0.156072 9.78795 
9.54748 0.0119982 0.85376 
0.0119982 9.73239 0.16804 
0.85376 0.16804 9.75574 
8.2638 0.0666161 -0.630788 
0.0666161 8.39085 -1.19631 
-0.630788 -1.19631 3.98852 
9.02045 0.344189 -0.735045 
0.344189 8.96311 -1.66833 
-0.735045 -1.66833 2.6596 
8.17407 0.126571 -1.56905 
0.126571 7.9813 -0.913432 
-1.56905 -0.913432 4.4878 
8.10671 -0.173267 -0.431107 
-0.173267 8.51925 -1.01853 
-0.431107 -1.01853 4.01722 
9.47154 -0.0097815 0.106842 
-0.0097815 9.13782 -0.197098 
0.106842 -0.197098 9.79387 
9.53921 -0.0224915 -0.0012318 
-0.0224915 9.0664 -0.121793 
-0.0012318 -0.121793 9.79763 
9.3109 -0.107852 0.104269 
-0.107852 8.95558 -0.455198 
0.104269 -0.455198 10.1368 
9.64421 -0.129403 -0.0569847 
-0.129403 9.24137 -0.507841 
-0.0569847 -0.507841 9.51765 
14.2383 1.19195 1.12863 
1.19195 12.8135 -1.13692 
1.12863 -1.13692 13.8367 
11.3687 1.55262 1.30848 
1.55262 10.2025 0.0398468 
1.30848 0.0398468 19.3173 
11.8798 0.890524 0.744879 
0.890524 12.2488 0.249232 
0.744879 0.249232 16.7599 
13.3124 1.45071 0.0264111 
1.45071 12.0597 -0.836921 
0.0264111 -0.836921 15.5163 
9.94115 -0.0466627 -0.754284 
-0.0466627 9.37639 -0.614503 
-0.754284 -0.614503 7.82719 
9.64914 0.142732 -0.360267 
0.142732 9.54189 -0.239054 
-0.360267 -0.239054 7.9537 
9.62916 -0.0138024 -0.491477 
-0.0138024 9.62826 -0.365405 
-0.491477 -0.365405 7.8873 
9.43473 -0.0482568 -0.567328 
-0.0482568 9.76077 -0.324771 
-0.567328 -0.324771 7.94923 
9.10223 -0.0288708 -0.285615 
-0.0288708 9.37114 0.428498 
-0.285615 0.428498 9.87004 
9.4377 0.282577 -0.155521 
0.282577 9.27648 0.615032 
-0.155521 0.615032 9.62922 
9.39307 0.0581284 -0.33771 
0.0581284 9.06485 0.703668 
-0.33771 0.703668 9.88549 
9.60322 0.0887087 -0.375377 
0.0887087 9.21945 0.804707 
-0.375377 0.804707 9.52074 
8.39116 -0.222047 -0.125068 
-0.222047 9.94625 0.0409594 
-0.125068 0.0409594 10.2706 
9.52711 -0.0423208 -0.487275 
-0.0423208 9.43907 0.0503142 
-0.487275 0.0503142 9.64181 
9.96735 0.159341 -0.394034 
0.159341 9.3682 0.0215559 
-0.394034 0.0215559 9.27244 
9.13439 0.10445 -1.04741 
0.10445 9.42509 -0.26024 
-1.04741 -0.26024 10.0485 
9.99126 -0.242732 -0.263158 
-0.242732 10.3214 -0.121205 
-0.263158 -0.121205 10.1136 
9.80995 0.0691893 0.537275 
0.0691893 10.188 0.46023 
0.537275 0.46023 10.4283 
10.343 -0.289543 -0.262873 
-0.289543 9.60385 -0.0682166 
-0.262873 -0.0682166 10.4794 
9.59347 0.0984236 0.0253408 
0.0984236 9.91017 -0.15507 
0.0253408 -0.15507 10.9226 
13.851 -1.17605 0.346435 
-1.17605 13.138 -0.0137098 
0.346435 -0.0137098 12.7638 
13.9497 -0.45517 0.0766415 
-0.45517 12.4974 0.419918 
0.0766415 0.419918 13.3057 
13.2708 0.684947 0.533426 
0.684947 10.6972 1.66783 
0.533426 1.66783 15.7848 
13.3684 -0.0530167 -0.48595 
-0.0530167 13.8234 0.40707 
-0.48595 0.40707 12.5611 
10.0376 -0.0121668 -0.033667 
-0.0121668 9.94477 0.0719803 
-0.033667 0.0719803 10.0735 
10.0479 0.0398842 -0.00116053 
0.0398842 9.92357 0.0109333 
-0.00116053 0.0109333 10.0844 
10.046 0.0369 0.0292196 
0.0369 9.95292 -0.0171485 
0.0292196 -0.0171485 10.057 
10.0587 0.0207378 0.0141421 
0.0207378 9.93523 0.0154568 
0.0141421 0.0154568 10.062 
10.4914 0.277678 -0.188778 
0.277678 9.18042 0.118852 
-0.188778 0.118852 11.1146 
10.5527 -0.0135448 0.156977 
-0.0135448 9.55366 -0.762455 
0.156977 -0.762455 10.6801 
10.3325 0.14017 -0.0403028 
0.14017 9.00658 -0.0757047 
-0.0403028 -0.0757047 11.4474 
10.3123 0.194926 -0.278053 
0.194926 9.60271 -0.695128 
-0.278053 -0.695128 10.8714 
9.54552 0.0199366 0.122665 
0.0199366 9.51076 -0.023219 
0.122665 -0.023219 9.76835 
9.25953 0.10015 0.375938 
0.10015 9.60008 -0.0264167 
0.375938 -0.0264167 9.96502 
9.88492 0.0537907 0.0446351 
0.0537907 9.59303 0.103399 
0.0446351 0.103399 9.34668 
9.35816 0.0765762 0.0684076 
0.0765762 9.51131 -0.0503839 
0.0684076 -0.0503839 9.95516 
7.75871 -0.683832 0.98625 
-0.683832 5.63538 -0.342744 
0.98625 -0.342744 -2.25696 
5.07031 -0.0413717 1.72649 
-0.0413717 4.00076 0.329888 
1.72649 0.329888 2.06606 
4.66591 -1.11482 1.69686 
-1.11482 4.9994 0.259972 
1.69686 0.259972 1.47183 
5.52412 0.159684 2.91787 
0.159684 3.22498 1.03485 
2.91787 1.03485 2.38804 
9.18448 -0.62611 2.558 
-0.62611 9.06854 1.20834 
2.558 1.20834 7.84114 
9.05652 -0.211516 1.3008 
-0.211516 9.60398 0.874692 
1.3008 0.874692 7.43365 
8.57637 -0.196252 1.81 
-0.196252 9.66725 0.771932 
1.81 0.771932 7.85054 
8.22119 -0.495829 1.92298 
-0.495829 8.69771 0.740947 
1.92298 0.740947 9.17526 
9.68353 -0.10549 0.691262 
-0.10549 9.38322 1.97806 
0.691262 1.97806 7.21697 
10.2011 -0.595509 1.08603 
-0.595509 8.64437 3.15064 
1.08603 3.15064 7.43823 
8.70587 -0.675257 0.59836 
-0.675257 8.40471 1.45179 
0.59836 1.45179 9.17313 
9.42421 -0.424977 0.928959 
-0.424977 9.49115 1.88178 
0.928959 1.88178 7.36835 
9.42466 0.251096 0.654244 
0.251096 9.16819 -0.906624 
0.654244 -0.906624 9.68765 
9.31139 0.238771 0.569018 
0.238771 9.22663 -0.843695 
0.569018 -0.843695 9.74249 
9.36946 0.245989 0.574394 
0.245989 9.14235 -0.779317 
0.574394 -0.779317 9.7687 
9.28151 0.205452 0.789508 
0.205452 9.24402 -0.643404 
0.789508 -0.643404 9.75498 
9.42687 -0.192392 0.405458 
-0.192392 9.22073 0.878966 
0.405458 0.878966 9.74115 
9.46214 -0.10014 0.26289 
-0.10014 9.10387 0.911121 
0.26289 0.911121 9.82273 
9.52791 -0.289006 0.51279 
-0.289006 9.13861 1.08226 
0.51279 1.08226 9.72223 
9.46074 -0.102449 0.530061 
-0.102449 9.27891 0.836236 
0.530061 0.836236 9.6491 
9.4096 0.191544 0.380276 
0.191544 10.8004 -0.114219 
0.380276 -0.114219 10.9552 
10.4804 -0.0798233 0.291083 
-0.0798233 10.2358 0.163437 
0.291083 0.163437 10.449 
10.0681 0.0347232 0.090214 
0.0347232 10.4421 -0.0164932 
0.090214 -0.0164932 10.655 
10.1077 0.212474 -0.0420409 
0.212474 10.3732 -0.0834599 
-0.0420409 -0.0834599 10.6842 
9.53173 0.0974531 -0.181519 
0.0974531 9.54456 0.634715 
-0.181519 0.634715 9.83526 
9.59594 -0.0768759 -0.458867 
-0.0768759 9.3389 0.922376 
-0.458867 0.922376 9.97671 
9.57624 0.0749933 -0.46147 
0.0749933 9.75099 0.468642 
-0.46147 0.468642 9.58432 
9.68936 0.239848 -0.615587 
0.239848 9.51263 0.712544 
-0.615587 0.712544 9.70956 
3.09446 -0.0101364 0.835076 
-0.0101364 2.90637 0.775926 
0.835076 0.775926 -0.355569 
3.06429 -0.190102 0.380786 
-0.190102 2.62345 0.102065 
0.380786 0.102065 -0.0424785 
1.87179 -0.0206875 0.670745 
-0.0206875 1.89212 -0.691951 
0.670745 -0.691951 1.88136 
2.28527 0.0765084 0.97 
0.0765084 3.29735 -0.556615 
0.97 -0.556615 0.062649 
10.1151 -0.285355 -0.00754476 
-0.285355 8.53991 -0.484086 
-0.00754476 -0.484086 11.3103 
10.0846 0.11915 -0.0752358 
0.11915 8.61327 -0.579305 
-0.0752358 -0.579305 11.2674 
10.2157 0.0871477 -0.1931 
0.0871477 8.79833 -0.717639 
-0.1931 -0.717639 10.9512 
10.0112 0.105076 -0.00311447 
0.105076 9.05991 -0.776833 
-0.00311447 -0.776833 10.8941 
9.61032 -0.0591724 -0.261419 
-0.0591724 9.5287 -0.77547 
-0.261419 -0.77547 9.77336 
9.58642 0.107556 -0.266405 
0.107556 9.67071 -0.720422 
-0.266405 -0.720422 9.65525 
9.63883 -0.065372 -0.277827 
-0.065372 9.51506 -0.712284 
-0.277827 -0.712284 9.75849 
9.68684 -0.0162572 -0.285319 
-0.0162572 9.49956 -0.791893 
-0.285319 -0.791893 9.72599 
9.34179 0.0413649 -0.114617 
0.0413649 9.22558 -0.675661 
-0.114617 -0.675661 9.82948 
9.6457 -0.0684468 -0.219946 
-0.0684468 9.07081 -0.609599 
-0.219946 -0.609599 9.68033 
9.3537 -0.0926453 -0.200034 
-0.0926453 9.16201 -0.793959 
-0.200034 -0.793959 9.88113 
9.54598 -0.156556 -0.223134 
-0.156556 9.40166 -0.91161 
-0.223134 -0.91161 9.44921 
9.16926 -0.0591068 -0.597045 
-0.0591068 9.10699 -0.377513 
-0.597045 -0.377513 6.95311 
9.0683 0.0595635 -0.736872 
0.0595635 9.3647 -0.0045866 
-0.736872 -0.0045866 6.79636 
9.26926 -0.133909 -0.767306 
-0.133909 9.47882 -0.18562 
-0.767306 -0.18562 6.48129 
9.22824 -0.100428 -0.717022 
-0.100428 9.24437 -0.218906 
-0.717022 -0.218906 6.75675 
9.18341 0.170418 -0.924271 
0.170418 9.4325 0.351634 
-0.924271 0.351634 9.77952 
9.1628 0.104844 -0.990823 
0.104844 9.4468 0.223388 
-0.990823 0.223388 9.78583 
9.20441 0.198639 -1.00324 
0.198639 9.42826 0.431993 
-1.00324 0.431993 9.76277 
9.18784 0.106631 -0.881257 
0.106631 9.43665 0.453857 
-0.881257 0.453857 9.77094 
9.19499 0.253053 -0.277479 
0.253053 9.24135 0.309539 
-0.277479 0.309539 9.78554 
9.49569 -0.31878 -0.442938 
-0.31878 9.42243 0.185805 
-0.442938 0.185805 9.30376 
9.32907 0.326024 -0.188633 
0.326024 9.32061 0.218759 
-0.188633 0.218759 9.5722 
9.0797 0.0860339 -0.267241 
0.0860339 9.53404 0.283212 
-0.267241 0.283212 9.60815 
13.7677 0.463881 -0.132488 
0.463881 13.6779 -0.159279 
-0.132488 -0.159279 13.0329 
13.5122 0.28698 0.976579 
0.28698 10.8766 -0.779121 
0.976579 -0.779121 16.0897 
12.9866 0.926351 0.0526184 
0.926351 12.3155 -0.902654 
0.0526184 -0.902654 15.1764 
13.7026 -0.602414 -0.00165292 
-0.602414 14.0559 -1.32324 
-0.00165292 -1.32324 12.72 
9.85779 0.0986865 1.12125 
0.0986865 9.93237 -0.231142 
1.12125 -0.231142 8.65476 
9.82431 -0.0665561 1.01301 
-0.0665561 9.83731 0.0584816 
1.01301 0.0584816 8.7833 
9.65266 -0.11871 0.857343 
-0.11871 10.3668 0.257394 
0.857343 0.257394 8.42551 
9.49831 -0.0275031 0.866875 
-0.0275031 9.78747 0.141367 
0.866875 0.141367 9.15914 
9.64486 -0.101482 -0.556327 
-0.101482 9.64383 -0.661721 
-0.556327 -0.661721 9.82379 
9.72673 -0.122867 -0.568099 
-0.122867 9.54459 -0.688167 
-0.568099 -0.688167 9.84115 
9.65029 -0.134544 -0.650258 
-0.134544 9.54169 -0.677268 
-0.650258 -0.677268 9.92051 
9.70397 -0.17297 -0.513795 
-0.17297 9.71401 -0.869019 
-0.513795 -0.869019 9.6945 
9.55709 0.0735318 0.392809 
0.0735318 9.41979 -0.636037 
0.392809 -0.636037 9.75829 
9.53819 0.108124 0.416877 
0.108124 9.44191 -0.60802 
0.416877 -0.60802 9.75507 
9.63343 0.199719 0.324103 
0.199719 9.42843 -0.689958 
0.324103 -0.689958 9.67331 
9.37477 0.104901 0.492379 
0.104901 9.56993 -0.644334 
0.492379 -0.644334 9.79046 
9.62138 0.128742 0.00467735 
0.128742 9.94014 -0.00610188 
0.00467735 -0.00610188 10.173 
10.0413 -0.179008 0.0734928 
-0.179008 9.79148 -0.062527 
0.0734928 -0.062527 9.90168 
9.77087 0.0944775 0.0533779 
0.0944775 9.88127 -0.0868492 
0.0533779 -0.0868492 10.0824 
9.91238 0.151035 0.117197 
0.151035 9.76177 0.00784538 
0.117197 0.00784538 10.0603 
9.68399 -0.368746 -0.464473 
-0.368746 9.3687 -0.957491 
-0.464473 -0.957491 9.9734 
9.81999 -0.295834 -0.393878 
-0.295834 8.96262 -1.10355 
-0.393878 -1.10355 10.2435 
9.60495 -0.234271 -0.442756 
-0.234271 9.27158 -0.865299 
-0.442756 -0.865299 10.1496 
9.68909 -0.347785 -0.441006 
-0.347785 9.18087 -0.987211 
-0.441006 -0.987211 10.1561 
9.73435 -0.0256055 0.574829 
-0.0256055 9.74692 0.761997 
0.574829 0.761997 8.29468 
9.84231 -0.100333 0.880275 
-0.100333 9.95149 0.459967 
0.880275 0.459967 7.98216 
9.56491 -0.101153 0.739519 
-0.101153 9.79541 0.776274 
0.739519 0.776274 8.41563 
9.46139 -0.206821 0.760662 
-0.206821 9.40382 0.15255 
0.760662 0.15255 8.91075 
7.03694 -0.437983 2.13217 
-0.437983 7.1895 1.8822 
2.13217 1.8822 6.72287 
6.71483 -0.653505 2.04259 
-0.653505 8.82892 1.91949 
2.04259 1.91949 5.40556 
7.62675 -0.568191 3.10519 
-0.568191 8.10657 2.4576 
3.10519 2.4576 5.21599 
7.37123 -1.02698 1.75925 
-1.02698 8.35699 2.34146 
1.75925 2.34146 5.22109 
9.45192 -0.0508837 -0.829707 
-0.0508837 9.57366 -0.0989849 
-0.829707 -0.0989849 9.84414 
9.46753 -0.0220041 -0.778356 
-0.0220041 9.66896 -0.0969031 
-0.778356 -0.0969031 9.73324 
9.50274 -0.032441 -0.805975 
-0.032441 9.66115 -0.0976256 
-0.805975 -0.0976256 9.70584 
9.48043 -0.0388986 -0.795362 
-0.0388986 9.66328 -0.0944964 
-0.795362 -0.0944964 9.72602 
9.43893 -0.209072 0.253527 
-0.209072 9.5251 0.223117 
0.253527 0.223117 10.0972 
9.89828 0.511953 -0.0667559 
0.511953 9.66353 0.0598901 
-0.0667559 0.0598901 9.4994 
9.35015 -0.33954 0.100937 
-0.33954 9.6472 0.0909032 
0.100937 0.0909032 10.0639 
9.825 -0.214108 0.119535 
-0.214108 9.24545 0.242386 
0.119535 0.242386 9.99077 
10.24 0.0188019 -0.097672 
0.0188019 9.68474 -0.0955923 
-0.097672 -0.0955923 9.96888 
9.55895 -0.00287249 0.0570481 
-0.00287249 10.1659 0.030658 
0.0570481 0.030658 10.1687 
9.85839 -0.0537791 -0.0404115 
-0.0537791 9.96112 0.000403358 
-0.0404115 0.000403358 10.0741 
9.75386 -0.236157 -0.154485 
-0.236157 10.0161 0.15184 
-0.154485 0.15184 10.1237 
9.34462 -0.336335 0.991118 
-0.336335 9.60773 0.645553 
0.991118 0.645553 9.96235 
9.3512 -0.266839 0.943997 
-0.266839 9.69412 0.646865 
0.943997 0.646865 9.86938 
9.33426 -0.293689 0.936303 
-0.293689 9.67106 0.650403 
0.936303 0.650403 9.90938 
9.34761 -0.304601 0.930861 
-0.304601 9.62816 0.597667 
0.930861 0.597667 9.93893 
9.19552 -0.146768 -0.897472 
-0.146768 9.65232 -0.305596 
-0.897472 -0.305596 9.78287 
9.33744 -0.0501977 -0.752534 
-0.0501977 9.32234 -0.556484 
-0.752534 -0.556484 9.97092 
9.33514 -0.283225 -1.0987 
-0.283225 9.63129 -0.612711 
-1.0987 -0.612711 9.66427 
9.33435 -0.185254 -0.896219 
-0.185254 9.55195 -0.398213 
-0.896219 -0.398213 9.74441 
10.0083 0.0678029 -0.307091 
0.0678029 9.97319 0.829279 
-0.307091 0.829279 10.0001 
10.058 0.013342 -0.342276 
0.013342 9.99217 0.886702 
-0.342276 0.886702 9.9314 
10.0477 0.0126479 -0.318785 
0.0126479 9.92394 0.851105 
-0.318785 0.851105 10.01 
10.0681 0.0310932 -0.356205 
0.0310932 9.94414 0.889075 
-0.356205 0.889075 9.96932 
9.31638 0.190462 0.487877 
0.190462 9.24386 -0.514951 
0.487877 -0.514951 9.64008 
9.31334 0.10517 0.413946 
0.10517 9.34376 -0.379273 
0.413946 -0.379273 9.54322 
9.4374 -0.192294 0.256781 
-0.192294 9.56994 -0.357594 
0.256781 -0.357594 9.19298 
9.32161 0.133161 0.346215 
0.133161 9.24022 -0.298751 
0.346215 -0.298751 9.63848 
9.27323 -0.188932 -0.455116 
-0.188932 9.11534 -0.639181 
-0.455116 -0.639181 9.71536 
9.24376 -0.2154 -0.441095 
-0.2154 9.15581 -0.592479 
-0.441095 -0.592479 9.70436 
9.23197 -0.217245 -0.428096 
-0.217245 9.11858 -0.625436 
-0.428096 -0.625436 9.75337 
9.28725 -0.242176 -0.3738 
-0.242176 9.16357 -0.565514 
-0.3738 -0.565514 9.65311 
9.77492 -0.0520396 -0.803174 
-0.0520396 9.85986 -0.467484 
-0.803174 -0.467484 9.92603 
9.82302 -0.112492 -0.784032 
-0.112492 9.83012 -0.497271 
-0.784032 -0.497271 9.90766 
9.85028 -0.0618125 -0.798066 
-0.0618125 9.78629 -0.340802 
-0.798066 -0.340802 9.92423 
9.7431 -0.0105763 -0.83667 
-0.0105763 9.94681 -0.463486 
-0.83667 -0.463486 9.8709 
9.84295 -0.0277137 -0.948201 
-0.0277137 10.0109 -0.200116 
-0.948201 -0.200116 8.65343 
9.63791 -0.00263738 -0.990529 
-0.00263738 9.88137 -0.200528 
-0.990529 -0.200528 8.98797 
9.84954 0.0649389 -0.982791 
0.0649389 10.0064 -0.269171 
-0.982791 -0.269171 8.65135 
9.8055 7.998e-05 -0.922939 
7.998e-05 10.0635 -0.137263 
-0.922939 -0.137263 8.6382 
10.258 0.177589 -0.0744323 
0.177589 10.2016 -0.105494 
-0.0744323 -0.105494 10.7958 
10.6559 0.182465 0.130791 
0.182465 10.0502 -0.0959124 
0.130791 -0.0959124 10.5492 
10.4954 0.0869506 0.0868903 
0.0869506 10.1953 -0.0771017 
0.0868903 -0.0771017 10.5646 
10.3915 0.0496677 0.206523 
0.0496677 10.1903 -0.192057 
0.206523 -0.192057 10.6735 
9.80951 -0.402208 0.444898 
-0.402208 7.98895 2.15499 
0.444898 2.15499 9.16352 
10.0345 -0.575294 0.23447 
-0.575294 7.7362 2.1237 
0.23447 2.1237 9.19124 
9.94827 -0.466189 0.21021 
-0.466189 7.74453 2.2704 
0.21021 2.2704 9.26918 
10.0517 -0.301725 0.253141 
-0.301725 7.58266 2.36599 
0.253141 2.36599 9.32764 
9.43698 -0.291797 -1.00557 
-0.291797 9.76135 -0.553151 
-1.00557 -0.553151 9.29925 
9.37698 -0.139906 -0.551888 
-0.139906 9.31796 -0.915629 
-0.551888 -0.915629 9.80264 
8.8717 -0.112504 -1.18502 
-0.112504 9.9026 -1.07296 
-1.18502 -1.07296 9.72328 
9.78068 -0.548998 -0.985487 
-0.548998 9.1231 -0.615539 
-0.985487 -0.615539 9.59379 
7.94668 -0.438621 -1.15039 
-0.438621 7.6621 0.0501225 
-1.15039 0.0501225 3.23083 
7.68518 -0.546168 -1.41241 
-0.546168 8.04668 0.376472 
-1.41241 0.376472 3.10775 
8.13402 -0.366244 -1.71926 
-0.366244 8.36906 -0.33007 
-1.71926 -0.33007 2.33654 
8.19786 0.595904 -1.42236 
0.595904 8.65916 0.437758 
-1.42236 0.437758 1.9826 
10.1668 0.804784 -1.37975 
0.804784 7.84061 2.87768 
-1.37975 2.87768 7.99831 
9.51527 0.484186 -0.890867 
0.484186 7.53 1.67597 
-0.890867 1.67597 8.96047 
9.19134 0.141284 -0.725621 
0.141284 9.329 2.26545 
-0.725621 2.26545 7.48541 
9.50301 0.0601095 0.00262403 
0.0601095 8.79739 2.36895 
0.00262403 2.36895 7.70535 
9.62395 -0.178484 -0.0360874 
-0.178484 10.3423 -0.0764157 
-0.0360874 -0.0764157 9.71067 
9.95779 -0.0254391 0.00926981 
-0.0254391 9.80359 -0.0537389 
0.00926981 -0.0537389 9.91551 
10.0252 0.181789 0.0103842 
0.181789 9.45597 0.0562944 
0.0103842 0.0562944 10.1957 
10.0631 -0.171881 0.232585 
-0.171881 9.56577 -0.193953 
0.232585 -0.193953 10.048 
9.91854 0.0280887 0.620602 
0.0280887 9.86461 -0.671019 
0.620602 -0.671019 10.0293 
9.95978 0.0288169 0.634244 
0.0288169 10.0028 -0.684078 
0.634244 -0.684078 9.84993 
9.89524 0.0716312 0.556578 
0.0716312 9.88601 -0.677613 
0.556578 -0.677613 10.0312 
9.87947 0.064745 0.623118 
0.064745 9.98792 -0.75956 
0.623118 -0.75956 9.94511 
10.0302 0.0311291 0.0444196 
0.0311291 9.75345 -0.0146463 
0.0444196 -0.0146463 9.90993 
9.88047 0.030131 0.0635394 
0.030131 9.86128 0.0638145 
0.0635394 0.0638145 9.95182 
9.51715 -0.0240779 -0.0434722 
-0.0240779 10.0717 -0.000584495 
-0.0434722 -0.000584495 10.1048 
9.86948 -0.0603687 0.263684 
-0.0603687 9.78052 -0.00849417 
0.263684 -0.00849417 10.0436 
9.62032 -0.0336137 0.799271 
-0.0336137 9.39088 -0.0346741 
0.799271 -0.0346741 9.51224 
9.23396 0.0386591 0.708932 
0.0386591 9.66198 -0.00440516 
0.708932 -0.00440516 9.62749 
9.4638 -0.0113855 0.800634 
-0.0113855 9.48383 -0.0896484 
0.800634 -0.0896484 9.5758 
9.40749 0.0324631 0.871089 
0.0324631 9.46428 -0.0255895 
0.871089 -0.0255895 9.65166 
9.82702 0.00212374 0.198201 
0.00212374 9.84645 0.819527 
0.198201 0.819527 9.95733 
9.81162 0.0170846 0.231337 
0.0170846 9.78609 0.846469 
0.231337 0.846469 10.0331 
9.87438 -0.0117617 0.192096 
-0.0117617 9.84534 0.830084 
0.192096 0.830084 9.91107 
9.89509 -0.023704 0.180342 
-0.023704 9.84978 0.810854 
0.180342 0.810854 9.88593 
9.65258 -0.0114119 -0.75935 
-0.0114119 9.57937 -0.356663 
-0.75935 -0.356663 9.66388 
9.52166 -0.0288516 -0.748853 
-0.0288516 9.66726 -0.367469 
-0.748853 -0.367469 9.70691 
9.64869 0.00281848 -0.747429 
0.00281848 9.54913 -0.364128 
-0.747429 -0.364128 9.69801 
9.61216 -0.0668938 -0.703429 
-0.0668938 9.63447 -0.366952 
-0.703429 -0.366952 9.64921 
9.83478 -0.0399903 0.783831 
-0.0399903 9.83256 -0.31326 
0.783831 -0.31326 10.0521 
9.88271 0.0405843 0.809933 
0.0405843 9.90296 -0.394428 
0.809933 -0.394428 9.93373 
9.8347 0.13632 0.819056 
0.13632 9.90778 -0.328145 
0.819056 -0.328145 9.97693 
9.80521 0.114047 0.814567 
0.114047 9.93093 -0.398485 
0.814567 -0.398485 9.98327 
10.0807 -0.354286 -0.114806 
-0.354286 10.1858 -0.507948 
-0.114806 -0.507948 9.85885 
9.8877 0.156793 0.326811 
0.156793 9.88891 0.37036 
0.326811 0.37036 10.3488 
10.2097 -0.326855 0.0479315 
-0.326855 9.37865 0.0372431 
0.0479315 0.0372431 10.5371 
9.84701 0.0863067 -0.093209 
0.0863067 9.56988 0.126409 
-0.093209 0.126409 10.7085 
9.38529 -0.201609 0.279388 
-0.201609 9.26238 0.391472 
0.279388 0.391472 9.7856 
9.37755 -0.122994 0.304059 
-0.122994 9.36698 0.471307 
0.304059 0.471307 9.68874 
9.45952 0.157522 0.270927 
0.157522 9.46023 0.407981 
0.270927 0.407981 9.51351 
9.47304 -0.0797651 0.38361 
-0.0797651 9.31824 0.569227 
0.38361 0.569227 9.64198 
9.73003 0.0423152 -0.159104 
0.0423152 9.55819 0.751779 
-0.159104 0.751779 9.77252 
9.64062 0.0541828 -0.202356 
0.0541828 9.53223 0.830245 
-0.202356 0.830245 9.88788 
9.57567 0.0284247 -0.295896 
0.0284247 9.6453 0.903361 
-0.295896 0.903361 9.83976 
9.74066 0.0589281 -0.176008 
0.0589281 9.49486 0.832697 
-0.176008 0.832697 9.82522 
10.6613 0.373258 -0.206879 
0.373258 10.3931 0.00744749 
-0.206879 0.00744749 10.6406 
10.5891 0.182734 -0.132271 
0.182734 10.5052 -0.0223831 
-0.132271 -0.0223831 10.6008 
10.2632 0.110715 0.0356149 
0.110715 10.5469 0.0923577 
0.0356149 0.0923577 10.8849 
10.5445 0.0583492 -0.237028 
0.0583492 10.3817 0.0431986 
-0.237028 0.0431986 10.7689 
10.2582 0.10708 -0.222322 
0.10708 8.40662 -0.130641 
-0.222322 -0.130641 11.6747 
10.432 0.4441 -0.115741 
0.4441 8.03429 -0.622993 
-0.115741 -0.622993 11.8733 
10.3154 0.305761 -0.00175452 
0.305761 8.35995 -0.469896 
-0.00175452 -0.469896 11.6642 
11.4136 0.457549 1.52195 
0.457549 9.45204 -1.34224 
1.52195 -1.34224 9.47391 
12.6297 -0.647943 0.587364 
-0.647943 12.9821 0.189861 
0.587364 0.189861 14.0273 
13.2807 -0.760303 0.18613 
-0.760303 12.9373 0.490042 
0.18613 0.490042 13.4212 
11.4015 -0.483336 0.846319 
-0.483336 13.4474 0.559299 
0.846319 0.559299 14.7903 
13.2936 -0.297771 0.339533 
-0.297771 13.2748 0.31916 
0.339533 0.31916 13.0707 
6.86611 -0.0904444 0.897593 
-0.0904444 3.94793 0.0138485 
0.897593 0.0138485 2.77267 
7.46421 -0.326002 1.39838 
-0.326002 4.64851 1.56929 
1.39838 1.56929 1.47399 
4.75401 -0.26209 1.64278 
-0.26209 8.57845 0.495106 
1.64278 0.495106 0.254243 
2.80245 0.0088389 4.96284 
0.0088389 7.96446 1.05252 
4.96284 1.05252 2.8198 
10.8585 -0.963577 0.0157674 
-0.963577 9.80066 0.0723029 
0.0157674 0.0723029 12.5085 
11.0626 0.28502 -0.253049 
0.28502 10.1183 0.543924 
-0.253049 0.543924 11.9867 
10.9771 -0.566346 0.120279 
-0.566346 9.66495 0.364365 
0.120279 0.364365 12.5257 
11.2307 -1.14878 0.464939 
-1.14878 9.44111 0.702542 
0.464939 0.702542 12.4959 
8.94055 0.237354 -0.925294 
0.237354 9.01963 2.23543 
-0.925294 2.23543 8.70605 
9.52539 -0.00996339 0.645404 
-0.00996339 8.91697 0.379751 
0.645404 0.379751 8.22387 
10.3389 0.572496 -0.0539738 
0.572496 8.49339 2.8174 
-0.0539738 2.8174 7.83392 
9.35537 0.0543166 -0.934108 
0.0543166 8.4488 1.40908 
-0.934108 1.40908 8.86206 
9.0837 -0.398363 -0.137158 
-0.398363 9.49395 -0.0801891 
-0.137158 -0.0801891 9.796 
8.79227 0.0173866 -0.561146 
0.0173866 9.24678 -0.223016 
-0.561146 -0.223016 10.3346 
9.08994 -0.0296218 -0.199582 
-0.0296218 9.19586 -0.182175 
-0.199582 -0.182175 10.0879 
9.1348 -0.0158111 -0.542343 
-0.0158111 9.85881 -0.479858 
-0.542343 -0.479858 9.38004 
9.59548 -0.0422703 -0.894198 
-0.0422703 9.89073 0.0939006 
-0.894198 0.0939006 9.82336 
9.8752 0.114061 -0.960872 
0.114061 9.79759 0.165478 
-0.960872 0.165478 9.63677 
9.62978 -0.0165919 -1.08176 
-0.0165919 10.0701 0.182178 
-1.08176 0.182178 9.60969 
9.79094 0.0911063 -1.01097 
0.0911063 9.76421 0.22995 
-1.01097 0.22995 9.75443 
9.92255 -0.110102 -0.270327 
-0.110102 9.25422 0.182976 
-0.270327 0.182976 10.3597 
9.76227 0.0249052 -0.151468 
0.0249052 9.61341 -0.309031 
-0.151468 -0.309031 10.1608 
9.9226 -0.0388801 0.32249 
-0.0388801 9.67555 -0.131359 
0.32249 -0.131359 9.93828 
9.99998 -0.203542 0.131574 
-0.203542 9.49569 -0.33798 
0.131574 -0.33798 10.0408 
10.0608 0.110849 0.148998 
0.110849 10.0278 -0.119794 
0.148998 -0.119794 10.0884 
10.0492 0.0092968 -0.0618969 
0.0092968 9.99221 0.132333 
-0.0618969 0.132333 10.1357 
10.0225 0.020603 -0.0673619 
0.020603 9.96585 0.0379165 
-0.0673619 0.0379165 10.1887 
9.97743 0.0461525 -0.0650078 
0.0461525 9.90744 0.0090328 
-0.0650078 0.0090328 10.2922 
9.60915 -0.181275 0.387467 
-0.181275 9.53394 -0.168868 
0.387467 -0.168868 9.88252 
9.15052 -0.145161 0.393532 
-0.145161 9.76867 -0.0102038 
0.393532 -0.0102038 10.1064 
9.20534 -0.296718 0.01055 
-0.296718 9.62743 0.201176 
0.01055 0.201176 10.1928 
9.33527 -0.121204 0.167522 
-0.121204 9.65003 0.0384941 
0.167522 0.0384941 10.0403 
9.15677 -0.483074 -0.187007 
-0.483074 9.10942 -0.0353721 
-0.187007 -0.0353721 10.0743 
9.54252 0.391114 -0.429862 
0.391114 9.47127 -0.256958 
-0.429862 -0.256958 9.32664 
9.35899 0.0180939 -0.383086 
0.0180939 9.61739 -0.199514 
-0.383086 -0.199514 9.36406 
9.00889 -0.175224 -0.345055 
-0.175224 9.50364 -0.563031 
-0.345055 -0.563031 9.8279 
9.97617 0.0180481 -0.0163617 
0.0180481 10.0601 -0.0382773 
-0.0163617 -0.0382773 10.1 
10.0294 -0.0793323 0.153953 
-0.0793323 10.0182 -0.0952937 
0.153953 -0.0952937 10.0886 
10.0658 0.0309696 -0.0986961 
0.0309696 10.0626 0.0348574 
-0.0986961 0.0348574 10.0078 
9.95667 -0.00319918 -0.0489075 
-0.00319918 10.0695 -0.0189448 
-0.0489075 -0.0189448 10.1101 
9.72845 -0.0364839 -0.763086 
-0.0364839 9.87213 0.375932 
-0.763086 0.375932 10.1684 
9.90703 0.0380807 -0.822144 
0.0380807 9.98036 0.509929 
-0.822144 0.509929 9.88161 
9.88787 -0.0258498 -0.828112 
-0.0258498 9.92087 0.467636 
-0.828112 0.467636 9.96027 
9.79942 0.15214 -0.956568 
0.15214 9.96986 0.472579 
-0.956568 0.472579 9.99972 
9.75951 -0.0563716 0.75324 
-0.0563716 9.75429 0.436302 
0.75324 0.436302 10.1071 
9.88182 -0.097359 0.889355 
-0.097359 9.89467 0.339497 
0.889355 0.339497 9.84443 
9.89177 0.073458 0.818407 
0.073458 9.75091 0.434634 
0.818407 0.434634 9.97825 
9.83064 -0.0704181 0.910419 
-0.0704181 9.97392 0.390226 
0.910419 0.390226 9.81636 
9.42603 0.297072 -0.932658 
0.297072 9.64342 0.679516 
-0.932658 0.679516 9.15531 
9.42581 0.305393 -0.975049 
0.305393 9.64177 0.708302 
-0.975049 0.708302 9.15718 
9.63057 0.139126 -1.18837 
0.139126 9.60926 0.629788 
-1.18837 0.629788 8.98493 
9.33583 0.177601 -0.990903 
0.177601 9.30684 0.794491 
-0.990903 0.794491 9.58208 
8.62926 -0.473869 -1.22696 
-0.473869 9.88557 -0.385399 
-1.22696 -0.385399 10.852 
8.56532 -0.640026 -0.999004 
-0.640026 9.86767 0.0295718 
-0.999004 0.0295718 10.9338 
8.90492 -0.973154 -1.27809 
-0.973154 9.81432 -0.652984 
-1.27809 -0.652984 10.6476 
9.7007 -0.240595 -0.447588 
-0.240595 9.44688 -0.309214 
-0.447588 -0.309214 10.2192 
10.1076 0.29751 -0.802139 
0.29751 9.12924 1.92188 
-0.802139 1.92188 7.2054 
9.21411 -0.122223 -0.31855 
-0.122223 9.6725 1.89927 
-0.31855 1.89927 7.55565 
9.55767 -0.534272 0.172972 
-0.534272 8.30172 1.977 
0.172972 1.977 8.58287 
9.69146 0.473188 -1.54181 
0.473188 8.53606 3.10438 
-1.54181 3.10438 8.21474 
9.84624 -0.123469 0.0122282 
-0.123469 9.62777 0.113667 
0.0122282 0.113667 10.0755 
9.772 0.0572996 -0.00784329 
0.0572996 9.84815 0.180152 
-0.00784329 0.180152 9.92935 
9.89078 -0.259684 0.0685144 
-0.259684 9.42967 0.255145 
0.0685144 0.255145 10.229 
9.5509 -0.150113 0.00170982 
-0.150113 9.92003 0.0737064 
0.00170982 0.0737064 10.0786 
9.91113 -0.0215909 0.0350593 
-0.0215909 9.82742 -0.859487 
0.0350593 -0.859487 9.91443 
9.83716 -0.0202238 0.0715564 
-0.0202238 9.79242 -0.890325 
0.0715564 -0.890325 10.0234 
9.79247 -0.0108808 0.0663225 
-0.0108808 9.86827 -0.8549 
0.0663225 -0.8549 9.99225 
9.92759 0.00344236 0.0420515 
0.00344236 9.83263 -0.845894 
0.0420515 -0.845894 9.89276 
9.38681 -0.220895 -0.784212 
-0.220895 9.50263 -0.57339 
-0.784212 -0.57339 9.82645 
9.36881 -0.29808 -1.08603 
-0.29808 9.71108 -0.722555 
-1.08603 -0.722555 9.636 
9.48848 -0.179936 -0.809977 
-0.179936 9.56181 -0.555538 
-0.809977 -0.555538 9.66561 
9.5091 -0.199953 -0.790339 
-0.199953 9.5306 -0.602975 
-0.790339 -0.602975 9.6762 
9.49399 0.00908252 -0.436554 
0.00908252 9.48792 0.547229 
-0.436554 0.547229 9.60561 
9.46399 0.221604 -0.487599 
0.221604 9.36831 0.692823 
-0.487599 0.692823 9.75522 
9.57674 -0.0178995 -0.445668 
-0.0178995 9.53356 0.546053 
-0.445668 0.546053 9.47722 
9.4902 0.0603886 -0.327455 
0.0603886 9.37678 0.546003 
-0.327455 0.546003 9.72054 
7.14524 -0.0905084 -3.88745 
-0.0905084 9.3608 -0.743156 
-3.88745 -0.743156 8.4901 
8.25392 1.17255 -2.62147 
1.17255 9.47296 -0.119837 
-2.62147 -0.119837 7.26925 
7.36134 -0.415601 -3.1488 
-0.415601 8.86224 -0.269018 
-3.1488 -0.269018 8.77256 
6.72683 0.19967 -3.34731 
0.19967 9.9667 -0.947618 
-3.34731 -0.947618 8.30261 
9.7361 0.179655 0.267692 
0.179655 9.33035 0.126949 
0.267692 0.126949 9.47994 
8.99073 -0.44476 0.499064 
-0.44476 9.54023 0.14937 
0.499064 0.14937 10.0154 
9.28624 -0.202559 0.272872 
-0.202559 9.57444 0.0750449 
0.272872 0.0750449 9.68571 
9.10386 0.140769 0.112044 
0.140769 9.54078 -0.0648892 
0.112044 -0.0648892 9.90175 
9.75116 0.100811 -0.159182 
0.100811 9.30262 1.18778 
-0.159182 1.18778 9.33056 
9.73316 0.0880887 -0.11252 
0.0880887 9.38305 1.14348 
-0.11252 1.14348 9.26814 
9.89469 -0.0139357 0.0257635 
-0.0139357 9.18506 1.37012 
0.0257635 1.37012 9.3046 
9.6869 0.0193185 -0.0605511 
0.0193185 9.15217 1.20211 
-0.0605511 1.20211 9.54527 
8.80698 -0.500659 2.61053 
-0.500659 8.75028 2.4589 
2.61053 2.4589 5.94572 
8.62477 -0.417187 2.04134 
-0.417187 8.98712 2.0649 
2.04134 2.0649 5.8911 
8.84813 -0.519195 2.45739 
-0.519195 8.78033 2.50609 
2.45739 2.50609 5.87453 
9.04537 -0.445317 2.3492 
-0.445317 8.94098 2.32437 
2.3492 2.32437 5.51664 
9.55867 -0.228848 0.521839 
-0.228848 9.43651 0.649549 
0.521839 0.649549 9.71486 
9.44392 -0.15517 0.66606 
-0.15517 9.52727 0.613798 
0.66606 0.613798 9.73886 
9.52146 -0.146883 0.524147 
-0.146883 9.46023 0.586014 
0.524147 0.586014 9.72836 
9.48334 -0.0357417 0.624936 
-0.0357417 9.39383 0.649248 
0.624936 0.649248 9.83287 
9.2358 -0.0575553 0.671824 
-0.0575553 9.47287 0.0533033 
0.671824 0.0533033 9.74469 
9.09915 0.0330197 0.80511 
0.0330197 9.40247 0.238102 
0.80511 0.238102 9.95173 
9.26601 -0.0495803 0.667371 
-0.0495803 9.48754 0.128093 
0.667371 0.128093 9.6998 
9.33308 0.0556955 0.91799 
0.0556955 9.57891 0.00331604 
0.91799 0.00331604 9.54136 
7.84378 -0.257928 -1.22224 
-0.257928 8.94834 -0.76805 
-1.22224 -0.76805 2.4338 
7.84885 -0.082354 -0.22292 
-0.082354 8.2808 -1.31805 
-0.22292 -1.31805 3.09626 
7.2673 0.0746075 -0.243928 
0.0746075 8.95217 -0.668613 
-0.243928 -0.668613 3.00645 
9.05785 0.0871186 -0.805358 
0.0871186 8.3012 -1.33707 
-0.805358 -1.33707 1.86686 
9.00937 0.0721877 0.44044 
0.0721877 9.31586 -0.102853 
0.44044 -0.102853 9.52695 
8.87968 0.413345 0.129926 
0.413345 9.20997 -0.0154012 
0.129926 -0.0154012 9.76252 
9.60141 -0.627256 0.702637 
-0.627256 9.35942 -0.191905 
0.702637 -0.191905 8.89134 
8.75426 0.265001 0.494841 
0.265001 9.30556 -0.457796 
0.494841 -0.457796 9.79236 
9.59414 -0.128382 0.733204 
-0.128382 9.70194 0.534816 
0.733204 0.534816 9.83538 
9.58305 -0.0987084 0.784745 
-0.0987084 9.71343 0.518209 
0.784745 0.518209 9.83497 
9.48848 -0.0740586 0.747866 
-0.0740586 9.80389 0.50725 
0.747866 0.50725 9.83908 
9.57815 -0.151014 0.996021 
-0.151014 9.7734 0.370123 
0.996021 0.370123 9.77989 
9.40212 0.0752195 -0.678371 
0.0752195 9.49135 0.304306 
-0.678371 0.304306 9.59995 
9.41606 -0.0105894 -0.714448 
-0.0105894 9.49367 0.322329 
-0.714448 0.322329 9.58369 
9.47996 -0.0375874 -0.751859 
-0.0375874 9.46834 0.337746 
-0.751859 0.337746 9.54512 
9.37639 0.0176398 -0.714384 
0.0176398 9.50452 0.354606 
-0.714384 0.354606 9.61251 
9.75927 1.14636 0.47312 
1.14636 10.1589 -0.329865 
0.47312 -0.329865 11.5209 
9.25918 0.591852 -0.437783 
0.591852 9.88086 0.384307 
-0.437783 0.384307 12.299 
9.89767 0.419232 -0.342015 
0.419232 10.5844 0.275731 
-0.342015 0.275731 10.9569 
9.93116 0.487252 -0.633753 
0.487252 10.374 -0.0078403 
-0.633753 -0.0078403 11.1339 
9.63531 -0.226704 -0.0251098 
-0.226704 8.86686 0.13401 
-0.0251098 0.13401 9.87989 
9.5213 0.112856 -0.0115335 
0.112856 9.45714 0.501325 
-0.0115335 0.501325 9.40362 
9.2216 0.151423 -0.156387 
0.151423 9.82605 0.680491 
-0.156387 0.680491 9.33441 
9.56026 0.0953309 0.270478 
0.0953309 8.95527 0.509821 
0.270478 0.509821 9.86654 
9.59393 -0.127524 -0.93596 
-0.127524 9.57937 0.383331 
-0.93596 0.383331 7.84912 
9.67176 0.424574 -0.991656 
0.424574 9.7275 0.251087 
-0.991656 0.251087 7.62315 
9.52218 0.23587 -0.839039 
0.23587 9.55281 0.279815 
-0.839039 0.279815 7.94742 
9.29813 -0.281246 -1.20218 
-0.281246 9.75068 0.138666 
-1.20218 0.138666 7.9736 
8.99963 -0.376997 -0.906266 
-0.376997 9.26464 -0.470137 
-0.906266 -0.470137 9.86758 
8.82435 -0.400407 -0.988019 
-0.400407 9.40285 -0.521526 
-0.988019 -0.521526 9.90466 
8.94354 -0.385006 -0.892439 
-0.385006 9.29659 -0.441379 
-0.892439 -0.441379 9.89172 
8.89321 -0.169737 -0.930581 
-0.169737 9.56064 -0.407166 
-0.930581 -0.407166 9.678 
8.10319 0.289675 0.39942 
0.289675 7.08116 -0.069287 
0.39942 -0.069287 2.48534 
7.73961 -0.0217659 0.738779 
-0.0217659 7.28223 0.098239 
0.738779 0.098239 2.64786 
8.15596 0.0801014 0.391391 
0.0801014 7.19142 0.365331 
0.391391 0.365331 2.32232 
7.86743 -0.0150143 0.42173 
-0.0150143 7.88678 0.78706 
0.42173 0.78706 1.91548 
10.1305 -0.00145626 0.030116 
-0.00145626 10.0162 0.100657 
0.030116 0.100657 10.2613 
10.1482 -0.0470543 0.0809333 
-0.0470543 10.1068 0.210854 
0.0809333 0.210854 10.153 
10.0441 0.0662142 -0.0651991 
0.0662142 10.1259 -0.171178 
-0.0651991 -0.171178 10.238 
10.1745 -0.112182 -0.0495631 
-0.112182 9.87624 0.0715833 
-0.0495631 0.0715833 10.3573 
9.51718 0.210249 -0.458716 
0.210249 9.43411 0.548302 
-0.458716 0.548302 9.64697 
9.49257 -0.0363864 -0.5596 
-0.0363864 9.53654 0.572108 
-0.5596 0.572108 9.56916 
9.50514 -0.046436 -0.61627 
-0.046436 9.49396 0.546475 
-0.61627 0.546475 9.59917 
9.38141 0.0453498 -0.549363 
0.0453498 9.50771 0.659992 
-0.549363 0.659992 9.70915 
2.4056 -0.284975 -0.517299 
-0.284975 2.71495 -0.486268 
-0.517299 -0.486268 1.46305 
3.31824 0.468109 -0.256401 
0.468109 3.26939 -0.206144 
-0.256401 -0.206144 -0.00402588 
4.08746 -0.333746 -1.07645 
-0.333746 3.34436 0.263174 
-1.07645 0.263174 -0.848221 
2.83956 -0.700191 -0.43157 
-0.700191 3.13054 -1.48147 
-0.43157 -1.48147 0.613505 
9.86336 0.0765722 -0.0487362 
0.0765722 9.76836 0.0379574 
-0.0487362 0.0379574 10.1872 
9.91086 0.0989512 -0.138575 
0.0989512 9.83689 0.0302694 
-0.138575 0.0302694 10.0712 
9.86495 0.181674 -0.0173953 
0.181674 9.86566 0.0869559 
-0.0173953 0.0869559 10.0883 
9.90926 0.0583426 -0.144551 
0.0583426 9.85342 0.13846 
-0.144551 0.13846 10.0562 
9.68758 -0.0533578 -0.737423 
-0.0533578 10.12 -0.404645 
-0.737423 -0.404645 8.57841 
9.32933 0.198397 -0.70396 
0.198397 9.69852 -0.445764 
-0.70396 -0.445764 9.35814 
9.8382 -0.13435 -0.720533 
-0.13435 10.1598 -0.478706 
-0.720533 -0.478706 8.388 
9.90855 -0.103388 -0.762789 
-0.103388 10.1287 -0.240846 
-0.762789 -0.240846 8.34872 
9.53025 0.127551 -0.00519337 
0.127551 9.41758 0.624984 
-0.00519337 0.624984 9.89852 
9.50829 -0.0420759 -0.1599 
-0.0420759 9.47994 0.914318 
-0.1599 0.914318 9.85813 
9.69065 0.0664458 -0.26329 
0.0664458 9.52606 0.660505 
-0.26329 0.660505 9.62964 
9.71764 0.0322471 -0.213951 
0.0322471 9.40643 0.799061 
-0.213951 0.799061 9.72228 
9.5431 -0.151358 -0.446426 
-0.151358 9.57136 -0.236427 
-0.446426 -0.236427 9.96134 
9.3452 0.413352 -0.60549 
0.413352 9.38391 -0.14324 
-0.60549 -0.14324 10.3467 
9.59236 0.376147 0.222185 
0.376147 9.55848 0.204639 
0.222185 0.204639 9.92495 
9.60268 0.0272961 -0.0846953 
0.0272961 9.50855 0.787718 
-0.0846953 0.787718 9.96457 
10.8785 -0.192739 -0.0361306 
-0.192739 10.7156 -0.170694 
-0.0361306 -0.170694 10.3333 
10.6174 -0.137304 -0.164704 
-0.137304 10.5368 -0.192473 
-0.164704 -0.192473 10.7732 
9.99182 -0.171483 0.0760575 
-0.171483 9.89942 -0.0352022 
0.0760575 -0.0352022 12.0362 
10.7671 -0.339081 -0.593331 
-0.339081 10.4357 -0.963819 
-0.593331 -0.963819 10.7246 
9.67324 -0.0278583 0.867914 
-0.0278583 10.2892 0.336203 
0.867914 0.336203 8.48963 
9.85064 -0.0521572 0.994289 
-0.0521572 9.73321 0.37358 
0.994289 0.37358 8.86824 
9.85122 -0.232745 1.06448 
-0.232745 9.82998 0.692235 
1.06448 0.692235 8.77089 
9.49987 -0.0990411 0.827747 
-0.0990411 9.73974 0.217093 
0.827747 0.217093 9.21249 
9.68892 0.205319 -0.407404 
0.205319 8.60066 1.83623 
-0.407404 1.83623 8.02364 
9.67751 0.376529 -0.555836 
0.376529 8.50555 1.88497 
-0.555836 1.88497 8.13016 
8.73825 0.222577 0.0132914 
0.222577 8.9534 1.99987 
0.0132914 1.99987 8.62157 
9.89439 0.174133 -0.109358 
0.174133 8.53523 2.24581 
-0.109358 2.24581 7.8836 
9.68636 0.0286627 -0.104815 
0.0286627 9.7072 0.774427 
-0.104815 0.774427 9.81073 
9.78338 -0.0198041 -0.0884492 
-0.0198041 9.63261 0.917642 
-0.0884492 0.917642 9.78829 
9.78394 0.0415706 -0.016353 
0.0415706 9.66438 0.736253 
-0.016353 0.736253 9.75597 
9.71549 0.0175751 -0.102107 
0.0175751 9.61361 0.834214 
-0.102107 0.834214 9.87519 
9.95227 0.0902311 -0.65548 
0.0902311 9.56829 0.463541 
-0.65548 0.463541 9.6763 
9.72512 0.196728 -0.953672 
0.196728 9.66916 0.627948 
-0.953672 0.627948 9.80258 
9.68492 0.0531691 -0.880097 
0.0531691 9.70755 0.588713 
-0.880097 0.588713 9.8044 
9.84609 0.0783679 -0.71254 
0.0783679 9.72423 0.503206 
-0.71254 0.503206 9.62654 
10.7845 -0.0693431 -0.198744 
-0.0693431 10.9224 -0.149417 
-0.198744 -0.149417 9.92638 
10.4203 -0.00739098 -0.281759 
-0.00739098 10.7564 0.140432 
-0.281759 0.140432 10.4567 
9.4209 0.129843 0.106458 
0.129843 9.72932 -0.0915735 
0.106458 -0.0915735 12.4831 
9.96088 0.0630039 -1.61084 
0.0630039 11.0096 0.16909 
-1.61084 0.16909 10.6628 
8.66316 -0.0139818 -0.524441 
-0.0139818 9.50356 0.0159092 
-0.524441 0.0159092 9.98998 
8.6726 0.0414099 -0.494387 
0.0414099 9.47497 0.00505294 
-0.494387 0.00505294 10.0091 
8.59831 0.0145223 -0.51966 
0.0145223 9.51626 -0.0236729 
-0.51966 -0.0236729 10.0421 
8.77324 0.129779 -0.523467 
0.129779 9.48534 5.5284e-05 
-0.523467 5.5284e-05 9.89811 
9.68651 0.0176753 -0.796368 
0.0176753 9.77582 0.226857 
-0.796368 0.226857 9.82563 
9.7588 0.00233517 -0.756086 
0.00233517 9.7087 0.194333 
-0.756086 0.194333 9.82046 
9.68411 0.018258 -0.844175 
0.018258 9.75373 0.213511 
-0.844175 0.213511 9.85011 
9.67898 0.0576458 -0.836595 
0.0576458 9.76977 0.207119 
-0.836595 0.207119 9.83922 
9.75105 0.0226048 0.560047 
0.0226048 9.7669 0.548132 
0.560047 0.548132 9.87616 
9.74043 0.0226431 0.637498 
0.0226431 9.70727 0.579809 
0.637498 0.579809 9.94641 
9.76531 -0.0637286 0.659484 
-0.0637286 9.76804 0.60391 
0.659484 0.60391 9.86075 
9.72511 -0.093581 0.657255 
-0.093581 9.79589 0.586755 
0.657255 0.586755 9.87311 
9.32572 -0.0749879 -0.939031 
-0.0749879 9.3935 -0.297062 
-0.939031 -0.297062 9.85698 
9.63133 -0.357452 -0.804595 
-0.357452 9.71245 -0.961143 
-0.804595 -0.961143 9.23243 
9.88361 -0.637131 -1.33247 
-0.637131 9.0263 -0.914432 
-1.33247 -0.914432 9.6663 
9.11698 -0.0667569 -0.887058 
-0.0667569 9.94567 -0.831987 
-0.887058 -0.831987 9.51355 
9.43245 -0.22173 -1.45672 
-0.22173 9.3839 -0.894137 
-1.45672 -0.894137 7.26917 
8.87858 -0.236901 -1.58631 
-0.236901 9.23723 -0.709699 
-1.58631 -0.709699 7.96972 
8.934 -0.374835 -0.936203 
-0.374835 9.46269 -0.730737 
-0.936203 -0.730737 7.68884 
9.03738 -0.194235 -1.439 
-0.194235 9.31469 -0.742225 
-1.439 -0.742225 7.73345 
9.88627 -0.145027 0.236277 
-0.145027 9.24298 -0.0660104 
0.236277 -0.0660104 10.2712 
9.78338 -0.0305809 0.10859 
-0.0305809 9.48293 0.336892 
0.10859 0.336892 10.1341 
9.83147 -0.0892723 -0.204516 
-0.0892723 9.58889 0.217179 
-0.204516 0.217179 9.98009 
9.86783 -0.168409 -0.0515587 
-0.168409 9.45606 0.288441 
-0.0515587 0.288441 10.0766 
9.47998 -0.276723 -0.904561 
-0.276723 9.70209 -0.688059 
-0.904561 -0.688059 9.63462 
9.52768 -0.235771 -1.03082 
-0.235771 9.65665 -0.732884 
-1.03082 -0.732884 9.63236 
9.58795 -0.255189 -0.789657 
-0.255189 9.67321 -0.605259 
-0.789657 -0.605259 9.55553 
9.53817 -0.1569 -0.693023 
-0.1569 9.79495 -0.593261 
-0.693023 -0.593261 9.48357 
9.60628 -0.133888 0.633748 
-0.133888 9.80422 0.601508 
0.633748 0.601508 9.88278 
9.69627 -0.0215288 0.603816 
-0.0215288 9.81858 0.772346 
0.603816 0.772346 9.77843 
9.75522 -0.0713548 0.600915 
-0.0713548 9.76487 0.638404 
0.600915 0.638404 9.77319 
9.78859 -0.139538 0.658836 
-0.139538 9.83501 0.867491 
0.658836 0.867491 9.66968 
6.82644 1.55784 -3.10343 
1.55784 7.22108 1.80678 
-3.10343 1.80678 -1.86323 
0.168896 0.103095 1.76777 
0.103095 -1.18436 -6.43622 
1.76777 -6.43622 13.1998 
10.4165 0.220257 -0.356262 
0.220257 10.2158 1.92911 
-0.356262 1.92911 -8.448 
3.84065 1.58713 -9.81444 
1.58713 9.4248 -2.55382 
-9.81444 -2.55382 -1.08117 
7.47404 -0.0722611 -1.54875 
-0.0722611 4.2491 -0.993355 
-1.54875 -0.993355 1.21961 
7.07861 -0.338487 -2.1435 
-0.338487 4.88646 -1.06923 
-2.1435 -1.06923 0.977697 
4.88712 -0.372408 -1.70451 
-0.372408 5.55306 -1.23274 
-1.70451 -1.23274 2.50258 
9.04925 -0.443319 -4.18454 
-0.443319 3.28304 -1.60566 
-4.18454 -1.60566 0.61047 
9.91779 -0.0361751 0.0857767 
-0.0361751 9.91138 0.071989 
0.0857767 0.071989 10.087 
9.95855 -0.110831 -0.077407 
-0.110831 9.9662 0.00515948 
-0.077407 0.00515948 9.99144 
9.93942 -0.119725 0.0633246 
-0.119725 9.93393 0.0492809 
0.0633246 0.0492809 10.0428 
9.88167 -0.123229 0.0403315 
-0.123229 9.85389 -0.0269732 
0.0403315 -0.0269732 10.1806 
9.89122 -0.034984 -0.0849253 
-0.034984 9.70707 -0.0791443 
-0.0849253 -0.0791443 10.0067 
9.69118 0.268968 0.034812 
0.268968 10.1518 -0.274747 
0.034812 -0.274747 9.76198 
10.0187 -0.589646 -0.0578334 
-0.589646 9.47912 0.133406 
-0.0578334 0.133406 10.1072 
10.0941 -0.00280794 -0.461682 
-0.00280794 9.2596 -0.229928 
-0.461682 -0.229928 10.2513 
9.47815 -0.0788818 -0.0720905 
-0.0788818 9.22938 -0.620326 
-0.0720905 -0.620326 9.48287 
9.63889 -0.128467 -0.0634206 
-0.128467 9.02318 -0.590108 
-0.0634206 -0.590108 9.52833 
9.3129 -0.0461766 -0.156012 
-0.0461766 9.01583 -0.724946 
-0.156012 -0.724946 9.86166 
9.35342 0.0362494 -0.0853623 
0.0362494 9.15018 -0.597734 
-0.0853623 -0.597734 9.68679 
9.44147 0.331502 -0.175565 
0.331502 8.87093 0.27429 
-0.175565 0.27429 9.93793 
9.52658 -0.0771474 -0.0380226 
-0.0771474 8.90268 0.546698 
-0.0380226 0.546698 9.82109 
9.56473 0.303251 -0.274334 
0.303251 8.46992 0.373122 
-0.274334 0.373122 10.2157 
9.55055 0.163404 -0.0938431 
0.163404 8.73618 0.322692 
-0.0938431 0.322692 9.9636 
9.66193 -0.533168 -0.0317896 
-0.533168 9.10767 -0.0718648 
-0.0317896 -0.0718648 9.84147 
9.27776 0.104211 -0.104985 
0.104211 8.90857 -0.220919 
-0.104985 -0.220919 10.4247 
9.28532 -0.363052 -0.194627 
-0.363052 9.72765 -0.422324 
-0.194627 -0.422324 9.5981 
9.19777 -0.269018 -0.264472 
-0.269018 9.18982 -0.304308 
-0.264472 -0.304308 10.2235 
5.03523 -2.75892 7.08565 
-2.75892 13.0901 1.38772 
7.08565 1.38772 -0.10229 
7.44841 0.552663 3.12573 
0.552663 6.7367 1.26637 
3.12573 1.26637 3.8379 
3.37869 -1.46633 0.447058 
-1.46633 8.45782 3.36116 
0.447058 3.36116 6.18651 
6.66824 -1.03135 4.30316 
-1.03135 8.04198 1.10617 
4.30316 1.10617 3.3128 
9.44632 -0.409839 -0.0310136 
-0.409839 9.86279 -0.0965425 
-0.0310136 -0.0965425 10.1975 
10.1639 0.362043 0.00620617 
0.362043 9.7061 0.0597021 
0.00620617 0.0597021 9.63658 
9.54739 -0.100855 -0.191696 
-0.100855 9.83609 -0.134191 
-0.191696 -0.134191 10.1231 
9.35166 0.0733093 -0.249637 
0.0733093 10.086 -0.119453 
-0.249637 -0.119453 10.0689 
8.74352 0.312313 -1.81558 
0.312313 9.9423 0.110067 
-1.81558 0.110067 10.636 
9.04261 -0.430855 -0.498287 
-0.430855 9.47283 -0.235404 
-0.498287 -0.235404 10.8064 
8.30448 -0.493381 -1.32262 
-0.493381 9.78382 0.671549 
-1.32262 0.671549 11.2335 
8.3895 -0.179057 -1.97115 
-0.179057 11.0499 -0.373611 
-1.97115 -0.373611 9.88236 
9.91624 0.0457967 0.403549 
0.0457967 9.85556 -0.899019 
0.403549 -0.899019 10.0244 
9.95861 0.114128 0.379575 
0.114128 9.88945 -0.923464 
0.379575 -0.923464 9.94818 
10.0012 -0.0082446 0.355594 
-0.0082446 9.97135 -0.854283 
0.355594 -0.854283 9.82369 
10.0404 0.0433395 0.333788 
0.0433395 9.87336 -0.864159 
0.333788 -0.864159 9.88245 
9.87978 0.0134061 -0.177222 
0.0134061 9.80235 0.875995 
-0.177222 0.875995 9.97933 
9.86946 0.0145105 -0.119979 
0.0145105 9.74142 0.927157 
-0.119979 0.927157 10.0506 
9.91576 -0.00443022 -0.171012 
-0.00443022 9.85523 0.86003 
-0.171012 0.86003 9.89048 
9.91646 -0.0569999 -0.172456 
-0.0569999 9.79482 0.803181 
-0.172456 0.803181 9.95018 
9.85802 -0.0602323 -0.25357 
-0.0602323 9.83377 -0.972781 
-0.25357 -0.972781 10.1292 
10.0812 -0.0376018 -0.236659 
-0.0376018 9.95404 -0.934013 
-0.236659 -0.934013 9.78574 
9.97836 -0.0311236 -0.301611 
-0.0311236 9.91525 -0.910141 
-0.301611 -0.910141 9.92735 
10.0627 0.00201395 -0.318437 
0.00201395 9.97022 -0.963146 
-0.318437 -0.963146 9.788 
9.65613 -0.302931 0.69132 
-0.302931 9.63185 0.970465 
0.69132 0.970465 9.73364 
9.70887 -0.252288 0.726684 
-0.252288 9.63939 0.892221 
0.726684 0.892221 9.67336 
9.59708 -0.244523 0.977956 
-0.244523 9.81612 0.879105 
0.977956 0.879105 9.60842 
9.74113 -0.0482495 0.461853 
-0.0482495 9.54108 0.605045 
0.461853 0.605045 9.73941 
2.14287 -1.03411 0.819031 
-1.03411 1.44041 -1.32188 
0.819031 -1.32188 2.43409 
3.15403 -0.852809 -0.42469 
-0.852809 2.80733 -0.332144 
-0.42469 -0.332144 0.0560124 
2.19714 0.711653 1.06691 
0.711653 1.61903 -1.39057 
1.06691 -1.39057 2.2012 
2.89691 -1.56512 0.825153 
-1.56512 2.20408 -1.8776 
0.825153 -1.8776 0.916378 
10.0426 0.00139109 0.039306 
0.00139109 9.79361 -0.0809115 
0.039306 -0.0809115 10.0665 
10.2645 0.0235691 0.0642428 
0.0235691 9.6217 -0.131203 
0.0642428 -0.131203 10.0165 
9.76197 0.100604 -0.0528448 
0.100604 9.65336 -0.0186167 
-0.0528448 -0.0186167 10.4874 
9.92412 -0.0440842 0.111738 
-0.0440842 9.78991 -0.202315 
0.111738 -0.202315 10.1887 
10.0751 -0.234275 0.216911 
-0.234275 10.1008 -0.453296 
0.216911 -0.453296 8.49351 
9.93644 -0.00776269 -0.145688 
-0.00776269 9.8926 -0.372494 
-0.145688 -0.372494 8.84038 
10.187 -0.0308287 -0.175542 
-0.0308287 10.0602 -0.293783 
-0.175542 -0.293783 8.42215 
10.1263 -0.000277323 -0.0705327 
-0.000277323 9.9934 -0.371406 
-0.0705327 -0.371406 8.54968 
9.63926 0.0317898 -0.838387 
0.0317898 9.87585 0.575138 
-0.838387 0.575138 9.69317 
9.51572 0.0328877 -0.754814 
0.0328877 9.83547 0.360522 
-0.754814 0.360522 9.85709 
9.76001 0.0228681 -0.740958 
0.0228681 9.72736 0.549846 
-0.740958 0.549846 9.72091 
9.56497 0.142135 -0.935743 
0.142135 10.1443 0.679761 
-0.935743 0.679761 9.49898 
9.4169 -0.172974 -0.629629 
-0.172974 9.49298 -0.49847 
-0.629629 -0.49847 9.94168 
9.30315 -0.246275 -0.684468 
-0.246275 9.52675 -0.49796 
-0.684468 -0.49796 10.0217 
9.45983 -0.233174 -0.78796 
-0.233174 9.52797 -0.539716 
-0.78796 -0.539716 9.86376 
9.38365 -0.218096 -0.677145 
-0.218096 9.4723 -0.512651 
-0.677145 -0.512651 9.9956 
9.58832 0.0138728 0.388461 
0.0138728 8.74168 2.4504 
0.388461 2.4504 7.51053 
9.29148 -0.787285 0.87958 
-0.787285 8.23796 1.6251 
0.87958 1.6251 8.31109 
9.97033 -0.469552 0.908824 
-0.469552 8.35331 3.09885 
0.908824 3.09885 7.51689 
9.55671 0.0235528 0.285696 
0.0235528 8.44276 2.42783 
0.285696 2.42783 7.84106 
9.5566 -0.121127 -0.147824 
-0.121127 9.59915 -0.206555 
-0.147824 -0.206555 10.0716 
9.67989 -0.214985 -0.0516059 
-0.214985 9.56961 -0.0858375 
-0.0516059 -0.0858375 9.97788 
9.73458 0.302798 -0.13623 
0.302798 9.84255 0.112795 
-0.13623 0.112795 9.65026 
9.45922 -0.106574 -0.147706 
-0.106574 9.80658 -0.0565695 
-0.147706 -0.0565695 9.96159 
1.4283 0.428604 -1.40187 
0.428604 3.83002 -0.357033 
-1.40187 -0.357033 5.33718 
4.4605 -0.0859568 -0.356231 
-0.0859568 4.34191 -1.93407 
-0.356231 -1.93407 1.79309 
3.3519 0.134376 0.325493 
0.134376 8.30353 -1.21167 
0.325493 -1.21167 -1.05993 
3.16826 0.871444 -3.18254 
0.871444 5.38933 -1.88573 
-3.18254 -1.88573 2.03791 
8.41245 -0.674727 -0.952 
-0.674727 10.048 0.0581051 
-0.952 0.0581051 10.6468 
8.4996 -0.206226 -1.59634 
-0.206226 9.83023 -0.796804 
-1.59634 -0.796804 10.7774 
7.7412 -0.222938 -1.25938 
-0.222938 10.1898 -0.873181 
-1.25938 -0.873181 11.1763 
8.15457 -0.875789 -2.06045 
-0.875789 10.7804 -0.103087 
-2.06045 -0.103087 10.1723 
8.4094 -0.62156 0.926223 
-0.62156 9.07365 0.517366 
0.926223 0.517366 9.8412 
8.79702 -0.462259 0.651595 
-0.462259 8.9931 1.1209 
0.651595 1.1209 9.53413 
8.4878 -0.723128 1.17592 
-0.723128 9.09603 0.814593 
1.17592 0.814593 9.74042 
8.61418 -0.605505 1.24009 
-0.605505 8.85435 0.653405 
1.24009 0.653405 9.85573 
9.21663 0.261399 -0.378678 
0.261399 8.96599 0.543891 
-0.378678 0.543891 9.60856 
9.15599 0.21648 -0.403658 
0.21648 9.0658 0.584873 
-0.403658 0.584873 9.56939 
9.13629 0.138535 -0.483372 
0.138535 8.99599 0.503446 
-0.483372 0.503446 9.6589 
9.15319 0.21931 -0.455414 
0.21931 9.01311 0.550355 
-0.455414 0.550355 9.62488 
9.59583 0.216829 -0.483029 
0.216829 9.22893 -0.374239 
-0.483029 -0.374239 9.44265 
9.19172 -0.264458 -0.436597 
-0.264458 9.42693 -0.371698 
-0.436597 -0.371698 9.64876 
9.33187 -0.0549152 -0.552409 
-0.0549152 9.34944 -0.368126 
-0.552409 -0.368126 9.5861 
9.35879 -0.0785795 -0.635908 
-0.0785795 9.30862 -0.455525 
-0.635908 -0.455525 9.6 
9.75485 0.775745 1.6488 
0.775745 9.74185 -1.62619 
1.6488 -1.62619 9.13944 
9.42415 0.948482 1.80381 
0.948482 9.58437 -1.26645 
1.80381 -1.26645 9.62763 
9.18759 0.233311 1.32983 
0.233311 9.59712 -1.40492 
1.32983 -1.40492 9.85144 
9.485 0.504871 1.39586 
0.504871 9.67942 -1.10826 
1.39586 -1.10826 9.47173 
10.0626 -0.0373055 -0.0181682 
-0.0373055 10.1232 0.0511209 
-0.0181682 0.0511209 10.2606 
10.2055 0.0466193 0.0622181 
0.0466193 10.1297 -0.0174913 
0.0622181 -0.0174913 10.1112 
10.1944 -0.0669518 -0.0510466 
-0.0669518 10.0702 0.00989139 
-0.0510466 0.00989139 10.1818 
10.1645 -0.00565779 0.0116976 
-0.00565779 10.1643 0.014969 
0.0116976 0.014969 10.1177 
9.45938 0.0750947 0.167325 
0.0750947 9.06619 -0.282415 
0.167325 -0.282415 10.0049 
9.54956 0.16915 0.103644 
0.16915 9.03569 -0.24459 
0.103644 -0.24459 9.94517 
9.66415 0.133308 0.0308575 
0.133308 9.18623 -0.406806 
0.0308575 -0.406806 9.68004 
9.44869 0.106496 0.199337 
0.106496 8.91636 -0.348278 
0.199337 -0.348278 10.1654 
10.0452 -0.128066 0.0169865 
-0.128066 10.0392 -0.0250992 
0.0169865 -0.0250992 10.3149 
10.0286 0.0659763 -0.0615636 
0.0659763 10.2648 0.130998 
-0.0615636 0.130998 10.1059 
10.1843 0.12658 -0.00798736 
0.12658 10.1073 -0.115111 
-0.00798736 -0.115111 10.1077 
9.96787 0.0393584 -0.0222584 
0.0393584 10.126 -0.00590359 
-0.0222584 -0.00590359 10.3054 
12.5482 -1.0018 0.510677 
-1.0018 11.3482 -0.491262 
0.510677 -0.491262 15.7975 
15.6395 -0.799679 -1.79264 
-0.799679 13.3302 -1.66638 
-1.79264 -1.66638 10.7244 
12.3713 -0.569833 -0.168156 
-0.569833 10.8177 -1.375 
-0.168156 -1.375 16.505 
12.771 -0.791547 -1.18219 
-0.791547 12.2138 -0.0219953 
-1.18219 -0.0219953 14.7091 
10.1001 -0.0108906 -0.08764 
-0.0108906 10.1964 0.0532305 
-0.08764 0.0532305 10.2623 
10.2188 -0.098912 -0.0204441 
-0.098912 10.0034 0.0286299 
-0.0204441 0.0286299 10.3365 
10.1774 -0.0364407 -0.0470938 
-0.0364407 10.1366 0.0624766 
-0.0470938 0.0624766 10.2448 
10.2051 -0.071776 -0.0213249 
-0.071776 10.1102 0.0555728 
-0.0213249 0.0555728 10.2435 
9.43384 0.273451 -0.408972 
0.273451 9.08179 0.846632 
-0.408972 0.846632 9.82203 
9.48424 0.314452 -0.465301 
0.314452 9.06551 1.15952 
-0.465301 1.15952 9.78791 
9.50384 0.321564 -0.333306 
0.321564 8.95077 0.764153 
-0.333306 0.764153 9.88305 
9.48413 0.0407492 -0.361785 
0.0407492 9.22692 0.827621 
-0.361785 0.827621 9.62661 
7.59107 0.207403 -0.236216 
0.207403 7.05794 3.09554 
-0.236216 3.09554 2.94023 
7.48119 0.207155 -0.711306 
0.207155 7.20782 1.91787 
-0.711306 1.91787 2.90023 
7.8506 0.136014 -0.316087 
0.136014 5.62349 0.551046 
-0.316087 0.551046 4.11515 
7.72879 0.105885 -1.27726 
0.105885 8.44582 2.23145 
-1.27726 2.23145 1.41463 
10.1294 0.0108164 0.0572551 
0.0108164 10.0818 0.0298529 
0.0572551 0.0298529 10.2526 
10.135 -0.0600182 -0.0198168 
-0.0600182 10.1849 -0.0552093 
-0.0198168 -0.0552093 10.144 
10.1085 0.0496788 0.0136296 
0.0496788 10.1886 0.0487319 
0.0136296 0.0487319 10.1667 
10.1792 -0.0188606 0.0106931 
-0.0188606 10.1524 -0.0107177 
0.0106931 -0.0107177 10.1322 
9.88766 0.091591 -0.0347315 
0.091591 8.73052 0.146165 
-0.0347315 0.146165 9.75563 
9.26312 0.0706619 -0.180873 
0.0706619 9.77184 0.452191 
-0.180873 0.452191 9.33885 
9.28069 -0.0245564 -0.356024 
-0.0245564 9.5772 0.486005 
-0.356024 0.486005 9.51592 
9.46463 0.254188 0.0750982 
0.254188 9.04106 0.63684 
0.0750982 0.63684 9.86811 
9.5186 0.121888 -0.0247848 
0.121888 9.10028 0.67704 
-0.0247848 0.67704 9.6757 
9.21982 0.0654154 -0.12683 
0.0654154 9.23455 0.641192 
-0.12683 0.641192 9.84021 
9.48709 -0.0218168 -0.0826024 
-0.0218168 9.19886 0.783798 
-0.0826024 0.783798 9.60863 
9.37597 -0.0278129 -0.0807522 
-0.0278129 9.10924 0.781391 
-0.0807522 0.781391 9.80937 
9.36048 -0.29565 0.731788 
-0.29565 9.39483 0.57908 
0.731788 0.57908 9.67423 
9.30702 -0.225033 0.686051 
-0.225033 9.38795 0.59836 
0.686051 0.59836 9.73458 
9.32354 -0.192932 0.622494 
-0.192932 9.43486 0.659902 
0.622494 0.659902 9.67114 
9.28789 -0.277902 0.71497 
-0.277902 9.3603 0.616858 
0.71497 0.616858 9.78135 
9.57466 -0.132509 0.179186 
-0.132509 8.95303 0.801851 
0.179186 0.801851 9.97022 
9.20982 0.134028 0.121656 
0.134028 9.96851 0.388078 
0.121656 0.388078 9.31959 
9.63847 0.00044853 0.0904471 
0.00044853 9.38091 0.501062 
0.0904471 0.501062 9.47853 
9.5409 0.159837 -0.107762 
0.159837 9.10758 0.470015 
-0.107762 0.470015 9.84943 
9.42531 0.14176 0.0195151 
0.14176 10.5447 1.174 
0.0195151 1.174 -8.18222 
-0.50486 -1.75662 1.91997 
-1.75662 0.101266 2.42518 
1.91997 2.42518 12.1913 
4.90101 0.00522064 -2.83799 
0.00522064 9.84001 1.82613 
-2.83799 1.82613 -2.95327 
5.79222 1.13178 -3.69357 
1.13178 6.60903 9.0648 
-3.69357 9.0648 -0.613495 
10.437 -0.224948 -0.0606095 
-0.224948 10.1252 -0.364646 
-0.0606095 -0.364646 10.7137 
10.1245 -0.114445 -0.0437186 
-0.114445 10.0185 0.00930177 
-0.0437186 0.00930177 11.1329 
9.95011 0.324704 0.120205 
0.324704 10.1878 -0.296236 
0.120205 -0.296236 11.1379 
10.3035 0.635337 0.000287135 
0.635337 10.1864 0.383203 
0.000287135 0.383203 10.786 
9.51168 -0.0235653 0.351597 
-0.0235653 9.58704 -0.60752 
0.351597 -0.60752 9.57179 
9.57614 0.24629 0.389993 
0.24629 9.25039 -0.74315 
0.389993 -0.74315 9.84399 
9.58831 0.0373099 0.322842 
0.0373099 9.4974 -0.62435 
0.322842 -0.62435 9.58481 
9.56189 -0.0285544 0.210148 
-0.0285544 9.37297 -0.527182 
0.210148 -0.527182 9.73565 
9.86822 -0.0638648 -0.615868 
-0.0638648 9.79988 -0.639739 
-0.615868 -0.639739 10.0062 
9.84737 -0.0455252 -0.631246 
-0.0455252 9.82257 -0.659929 
-0.631246 -0.659929 10.0043 
9.8596 -0.0561794 -0.600969 
-0.0561794 9.84058 -0.623497 
-0.600969 -0.623497 9.9741 
9.88775 -0.0704201 -0.646324 
-0.0704201 9.78277 -0.630311 
-0.646324 -0.630311 10.0038 
9.43316 -0.0937475 -0.441456 
-0.0937475 9.31592 0.0631819 
-0.441456 0.0631819 9.33956 
8.96458 0.150876 -0.779371 
0.150876 9.57335 -0.00981136 
-0.779371 -0.00981136 9.5507 
9.47747 -0.0613406 -0.359011 
-0.0613406 9.27729 0.231984 
-0.359011 0.231984 9.33387 
9.05139 -0.0455691 -0.519753 
-0.0455691 9.32589 -0.0380495 
-0.519753 -0.0380495 9.71135 
9.31564 0.0972371 0.844942 
0.0972371 9.6216 -0.105006 
0.844942 -0.105006 9.89162 
9.75956 -0.0497785 0.804781 
-0.0497785 9.49616 -0.054652 
0.804781 -0.054652 9.57314 
9.59862 -0.02216 0.806318 
-0.02216 9.64311 -0.0891641 
0.806318 -0.0891641 9.58712 
9.44825 -0.0949214 0.699113 
-0.0949214 9.67699 0.0567837 
0.699113 0.0567837 9.70362 
3.59446 -0.982151 1.9476 
-0.982151 7.05065 -0.536204 
1.9476 -0.536204 3.88731 
6.20531 -0.475323 3.18375 
-0.475323 6.74801 -0.906832 
3.18375 -0.906832 1.57909 
7.66614 -0.548571 1.4087 
-0.548571 5.25999 -1.95093 
1.4087 -1.95093 1.60629 
6.46193 0.315085 1.30439 
0.315085 4.26093 -3.31573 
1.30439 -3.31573 3.80955 
9.86588 0.0800321 -0.0330635 
0.0800321 9.70321 -0.096811 
-0.0330635 -0.096811 10.0207 
9.76697 -0.2217 0.0535698 
-0.2217 9.99613 -0.0693104 
0.0535698 -0.0693104 9.82672 
9.91647 0.214531 0.0935745 
0.214531 9.51756 -0.17454 
0.0935745 -0.17454 10.1558 
9.84386 0.0434088 -0.00161227 
0.0434088 9.64903 0.0899259 
-0.00161227 0.0899259 10.0969 
2.36935 1.45294 -0.459664 
1.45294 3.37611 -1.17089 
-0.459664 -1.17089 2.88987 
3.51329 1.45778 -1.94312 
1.45778 5.44145 0.587098 
-1.94312 0.587098 -0.319408 
7.69802 -2.09236 1.29783 
-2.09236 0.0857243 -1.27448 
1.29783 -1.27448 0.851597 
5.32293 -3.05156 0.0761198 
-3.05156 3.58864 4.16055 
0.0761198 4.16055 -0.276233 
9.5219 -0.184991 -0.00117008 
-0.184991 9.52306 -0.303099 
-0.00117008 -0.303099 9.53411 
9.04558 -0.308739 -0.881859 
-0.308739 9.8797 -0.548717 
-0.881859 -0.548717 9.65379 
8.96497 -0.146832 -0.187632 
-0.146832 9.52955 1.03291 
-0.187632 1.03291 10.0846 
9.18121 0.317029 -1.36255 
0.317029 9.31996 0.398654 
-1.36255 0.398654 10.0779 
9.17966 -1.17144 -0.860166 
-1.17144 3.08214 -2.75092 
-0.860166 -2.75092 5.33531 
5.53412 0.563377 -0.994305 
0.563377 7.16419 -4.38715 
-0.994305 -4.38715 4.8988 
5.73168 0.975255 -0.950329 
0.975255 10.3196 -3.17311 
-0.950329 -3.17311 1.54587 
6.43414 0.512797 -2.15047 
0.512797 6.94337 -4.03667 
-2.15047 -4.03667 4.2196 
10.0611 0.00350054 0.0567844 
0.00350054 10.0643 0.00532993 
0.0567844 0.00532993 10.1736 
10.0603 0.0669359 -0.167122 
0.0669359 10.1017 0.0221171 
-0.167122 0.0221171 10.137 
10.074 -0.017504 0.0422662 
-0.017504 10.048 -0.0296728 
0.0422662 -0.0296728 10.177 
10.0305 -0.00450946 0.0140374 
-0.00450946 10.0289 0.00343064 
0.0140374 0.00343064 10.2395 
9.76044 -0.0580191 0.352722 
-0.0580191 9.68561 0.742367 
0.352722 0.742367 9.97168 
9.87445 -0.0901501 0.413832 
-0.0901501 9.78401 0.854173 
0.413832 0.854173 9.75928 
9.83625 -0.0822745 0.404601 
-0.0822745 9.67221 0.835724 
0.404601 0.835724 9.90928 
9.84609 -0.103388 0.385721 
-0.103388 9.69802 0.82352 
0.385721 0.82352 9.87362 
8.98202 -0.292751 -0.744793 
-0.292751 9.44873 -0.499126 
-0.744793 -0.499126 9.99372 
9.22426 -0.252379 -0.688007 
-0.252379 9.307 -0.513183 
-0.688007 -0.513183 9.89321 
9.10413 -0.321792 -0.646857 
-0.321792 9.43964 -0.481422 
-0.646857 -0.481422 9.8807 
9.16319 -0.346868 -0.658634 
-0.346868 9.37275 -0.519884 
-0.658634 -0.519884 9.88853 
13.0153 0.80764 -0.231764 
0.80764 13.8752 0.267973 
-0.231764 0.267973 13.2836 
12.4206 0.451771 -0.361707 
0.451771 14.4197 0.158997 
-0.361707 0.158997 13.3339 
12.8618 1.27285 -1.11622 
1.27285 11.6574 0.578667 
-1.11622 0.578667 15.655 
13.5359 0.0877409 -0.0600698 
0.0877409 13.6361 0.661684 
-0.0600698 0.661684 13.0023 
9.92781 -0.0645547 -0.502807 
-0.0645547 9.91345 -0.810962 
-0.502807 -0.810962 9.87653 
9.83987 0.0238232 -0.512712 
0.0238232 9.77093 -0.78426 
-0.512712 -0.78426 10.107 
9.92238 -0.025569 -0.536792 
-0.025569 9.86155 -0.799101 
-0.536792 -0.799101 9.93387 
9.92014 -0.0321623 -0.536683 
-0.0321623 9.96042 -0.778223 
-0.536683 -0.778223 9.83724 
9.60396 -0.0344303 -0.151388 
-0.0344303 9.64441 0.785517 
-0.151388 0.785517 9.79843 
9.68999 0.0278266 -0.172802 
0.0278266 9.5891 0.784492 
-0.172802 0.784492 9.76771 
9.70494 0.0175877 -0.138483 
0.0175877 9.58921 0.789558 
-0.138483 0.789558 9.75264 
9.69502 -0.00404835 -0.153551 
-0.00404835 9.59715 0.784118 
-0.153551 0.784118 9.75463 
9.88199 -0.00924511 -0.886143 
-0.00924511 9.99256 0.00170175 
-0.886143 0.00170175 10.1248 
9.9934 0.0314286 -0.896062 
0.0314286 10.1517 -0.0472786 
-0.896062 -0.0472786 9.85419 
9.97781 0.00112294 -0.922727 
0.00112294 10.086 -0.0564884 
-0.922727 -0.0564884 9.93555 
9.9925 -0.0236683 -0.937299 
-0.0236683 10.1184 -0.134957 
-0.937299 -0.134957 9.88841 
9.86948 0.0300448 -0.465115 
0.0300448 9.87547 -0.775673 
-0.465115 -0.775673 10.0261 
9.91673 0.000810136 -0.455675 
0.000810136 9.91019 -0.717528 
-0.455675 -0.717528 9.94413 
9.93267 0.00648599 -0.468752 
0.00648599 9.90546 -0.728563 
-0.468752 -0.728563 9.93291 
9.91031 -0.00749793 -0.454479 
-0.00749793 9.88916 -0.759696 
-0.454479 -0.759696 9.97158 
9.86576 -0.00846442 -0.876343 
-0.00846442 9.9115 -0.0824507 
-0.876343 -0.0824507 9.91662 
9.85946 0.00651904 -0.879758 
0.00651904 9.91847 -0.0717173 
-0.879758 -0.0717173 9.91595 
9.80827 0.0420162 -0.858664 
0.0420162 9.85611 -0.028936 
-0.858664 -0.028936 10.0295 
9.88297 0.00117186 -0.898501 
0.00117186 9.90294 -0.104802 
-0.898501 -0.104802 9.90797 
9.06485 -0.379412 0.867006 
-0.379412 9.37643 0.595904 
0.867006 0.595904 9.84803 
8.96029 -0.338884 0.92097 
-0.338884 9.45553 0.68938 
0.92097 0.68938 9.87349 
8.76405 -0.448745 0.912801 
-0.448745 9.52666 0.581044 
0.912801 0.581044 9.9986 
8.9535 -0.411969 1.35415 
-0.411969 9.35495 0.533454 
1.35415 0.533454 9.98087 
14.4464 0.612939 -0.460713 
0.612939 8.33742 0.903644 
-0.460713 0.903644 17.7054 
13.9813 1.29597 -0.0135416 
1.29597 9.50054 1.32159 
-0.0135416 1.32159 17.0074 
13.7127 -0.0376028 -0.298141 
-0.0376028 5.24037 1.27764 
-0.298141 1.27764 21.5362 
14.5522 0.25464 -0.354447 
0.25464 9.66524 0.0913896 
-0.354447 0.0913896 16.2717 
10.0835 -0.0643489 -0.0653201 
-0.0643489 10.0231 -0.154434 
-0.0653201 -0.154434 10.0203 
10.0482 -0.00118926 0.025545 
-0.00118926 9.95903 -0.0537938 
0.025545 -0.0537938 10.1196 
10.0249 0.118956 0.0886032 
0.118956 10.055 0.170227 
0.0886032 0.170227 10.0469 
10.117 0.00548405 0.0421588 
0.00548405 9.85603 -0.0894844 
0.0421588 -0.0894844 10.1538 
9.88334 -0.00439706 0.811626 
-0.00439706 9.87512 -0.201813 
0.811626 -0.201813 9.94756 
9.81709 -0.0267154 0.828862 
-0.0267154 9.82218 -0.245016 
0.828862 -0.245016 10.0667 
9.88505 0.00657355 0.820086 
0.00657355 9.90968 -0.188387 
0.820086 -0.188387 9.91129 
9.87945 0.0209546 0.780742 
0.0209546 9.93423 -0.190253 
0.780742 -0.190253 9.89234 
10.0059 -0.0146795 -0.324018 
-0.0146795 9.93888 -0.942325 
-0.324018 -0.942325 9.89727 
9.85973 -0.0396888 -0.292635 
-0.0396888 9.88698 -0.863821 
-0.292635 -0.863821 10.0953 
9.96033 0.0193207 -0.331869 
0.0193207 9.97651 -0.933246 
-0.331869 -0.933246 9.9052 
9.97431 -0.0815127 -0.379592 
-0.0815127 9.91254 -0.964061 
-0.379592 -0.964061 9.95518 
10.2114 -0.83408 1.05243 
-0.83408 8.21136 4.18354 
1.05243 4.18354 7.74228 
9.26342 -0.632786 0.947705 
-0.632786 7.99442 1.81174 
0.947705 1.81174 8.9072 
9.66294 -0.22627 0.36539 
-0.22627 7.32736 2.80669 
0.36539 2.80669 9.17474 
9.69451 0.0337598 -0.0602268 
0.0337598 7.50468 2.71491 
-0.0602268 2.71491 8.96585 
9.84293 -0.0418201 0.0795025 
-0.0418201 6.91886 3.11189 
0.0795025 3.11189 8.75835 
9.4055 -0.466685 0.2715 
-0.466685 7.39377 2.4747 
0.2715 2.4747 8.72087 
9.18815 0.407399 -1.17301 
0.407399 7.91167 2.23697 
-1.17301 2.23697 8.42032 
9.03495 -0.478318 0.713417 
-0.478318 7.84592 2.88369 
0.713417 2.88369 8.63928 
8.75118 0.621647 0.879551 
0.621647 8.95877 -0.90539 
0.879551 -0.90539 10.556 
8.6182 0.653422 0.694557 
0.653422 8.72964 -0.444793 
0.694557 -0.444793 10.9181 
9.34156 0.529964 0.601476 
0.529964 9.18724 -0.735773 
0.601476 -0.735773 9.73716 
9.02825 1.32188 1.2058 
1.32188 8.98181 -1.24416 
1.2058 -1.24416 10.2559 
9.94048 0.022405 -0.85317 
0.022405 9.89437 -0.323554 
-0.85317 -0.323554 10.0265 
9.92003 -0.0361125 -0.788646 
-0.0361125 9.86548 -0.306404 
-0.788646 -0.306404 10.0758 
9.95525 -0.0451502 -0.890982 
-0.0451502 10.0012 -0.316808 
-0.890982 -0.316808 9.90487 
9.86312 -0.103055 -0.847655 
-0.103055 9.96976 -0.385897 
-0.847655 -0.385897 10.0285 
9.1018 0.647667 -0.709029 
0.647667 9.22383 0.63187 
-0.709029 0.63187 10.5605 
9.05101 0.729256 -0.456106 
0.729256 9.30341 0.628991 
-0.456106 0.628991 10.5317 
9.34358 0.599225 -0.629976 
0.599225 9.36428 0.561583 
-0.629976 0.561583 10.1783 
9.21962 0.380134 -0.595223 
0.380134 9.42538 0.667217 
-0.595223 0.667217 10.2412 
9.81067 -0.026169 -0.842192 
-0.026169 9.8969 -0.277679 
-0.842192 -0.277679 9.90898 
9.70058 -0.0158951 -0.796265 
-0.0158951 9.80287 -0.250081 
-0.796265 -0.250081 10.1131 
9.85112 -0.00542968 -0.833576 
-0.00542968 9.8998 -0.276103 
-0.833576 -0.276103 9.86563 
9.78163 -0.0321112 -0.948619 
-0.0321112 9.93817 -0.298846 
-0.948619 -0.298846 9.89675 
2.91133 0.46751 0.149116 
0.46751 2.31783 -0.0252013 
0.149116 -0.0252013 0.0110499 
2.47519 0.111434 0.25769 
0.111434 1.62509 0.150684 
0.25769 0.150684 1.13993 
3.25636 0.219607 -0.412095 
0.219607 2.33738 0.510877 
-0.412095 0.510877 -0.353531 
2.59796 -0.126568 0.650181 
-0.126568 1.58233 0.162374 
0.650181 0.162374 1.05992 
10.0022 -0.317369 -0.013221 
-0.317369 9.05457 0.0506372 
-0.013221 0.0506372 10.2837 
9.63811 0.0750985 -0.0106832 
0.0750985 9.96519 0.134149 
-0.0106832 0.134149 9.73712 
9.72587 -0.0626595 -0.00623574 
-0.0626595 9.6834 0.229539 
-0.00623574 0.229539 9.93115 
9.6813 0.0289976 0.175331 
0.0289976 9.66458 0.52272 
0.175331 0.52272 9.99454 
9.65375 0.0368811 -0.794604 
0.0368811 9.67194 0.120544 
-0.794604 0.120544 9.64501 
9.80875 -0.00579579 -0.771405 
-0.00579579 9.53977 0.178813 
-0.771405 0.178813 9.62218 
9.3903 0.00107815 -0.846546 
0.00107815 9.64999 0.208614 
-0.846546 0.208614 9.93042 
9.53819 0.135609 -0.721851 
0.135609 9.71099 0.2659 
-0.721851 0.2659 9.72152 
9.84986 0.017994 0.0312476 
0.017994 9.68364 0.919421 
0.0312476 0.919421 9.90015 
9.84799 0.110088 0.0291221 
0.110088 9.66761 0.875114 
0.0291221 0.875114 9.91805 
9.82154 -0.0210628 0.064501 
-0.0210628 9.71754 0.861124 
0.064501 0.861124 9.89458 
9.89316 -0.111662 -0.0104563 
-0.111662 9.68139 1.00085 
-0.0104563 1.00085 9.8591 
4.57211 0.255778 -0.520536 
0.255778 3.32554 -0.0261717 
-0.520536 -0.0261717 -0.66204 
3.15107 -0.175953 -1.04278 
-0.175953 2.39549 -0.598604 
-1.04278 -0.598604 1.68906 
3.69844 0.00146908 -0.748767 
0.00146908 3.15581 -0.828531 
-0.748767 -0.828531 0.381365 
2.88628 0.0259397 -1.57646 
0.0259397 2.74444 -0.928673 
-1.57646 -0.928673 1.6049 
8.82469 -0.490161 1.19452 
-0.490161 8.50551 0.0421676 
1.19452 0.0421676 6.83476 
8.89229 -0.217862 1.18437 
-0.217862 9.42208 1.08838 
1.18437 1.08838 5.85059 
9.2533 -0.0631609 1.49923 
-0.0631609 9.66682 0.548349 
1.49923 0.548349 5.24484 
9.23361 0.0745675 0.874696 
0.0745675 9.34448 1.23154 
0.874696 1.23154 5.58688 
9.89519 -0.0279314 -0.246674 
-0.0279314 9.77057 -0.877981 
-0.246674 -0.877981 9.95213 
9.86723 0.0225209 -0.265593 
0.0225209 9.79596 -0.855838 
-0.265593 -0.855838 9.9547 
9.85844 -0.0168825 -0.239842 
-0.0168825 9.77174 -0.833817 
-0.239842 -0.833817 9.98771 
9.90584 -0.0178468 -0.277122 
-0.0178468 9.81989 -0.852791 
-0.277122 -0.852791 9.89216 
10.1397 -0.0385283 0.0275655 
-0.0385283 10.168 -0.0684802 
0.0275655 -0.0684802 10.224 
10.1176 0.0354379 0.03143 
0.0354379 10.2458 0.0627477 
0.03143 0.0627477 10.1683 
10.1967 0.0274594 0.0119803 
0.0274594 10.1754 0.0365667 
0.0119803 0.0365667 10.1595 
10.1993 0.0291493 0.0336257 
0.0291493 10.154 0.0243631 
0.0336257 0.0243631 10.1784 
9.41834 0.116621 0.250338 
0.116621 9.24537 -0.642107 
0.250338 -0.642107 9.70213 
9.40821 -0.155922 0.386666 
-0.155922 9.60466 -0.61402 
0.386666 -0.61402 9.35299 
9.72621 0.30758 0.0487553 
0.30758 9.06149 -0.607311 
0.0487553 -0.607311 9.57815 
9.17882 0.241404 0.268849 
0.241404 9.46587 -0.848046 
0.268849 -0.848046 9.72115 
9.9433 0.0497579 0.518689 
0.0497579 9.91936 -0.698704 
0.518689 -0.698704 9.92761 
9.92622 0.0159297 0.519169 
0.0159297 9.93002 -0.690894 
0.519169 -0.690894 9.93403 
9.87049 0.0573189 0.620849 
0.0573189 9.83202 -0.774189 
0.620849 -0.774189 10.0878 
9.86585 0.118165 0.506413 
0.118165 9.89451 -0.674659 
0.506413 -0.674659 10.0299 
3.60708 -2.12699 -2.63789 
-2.12699 9.11219 -1.02423 
-2.63789 -1.02423 5.22042 
7.12464 -0.377538 -4.67086 
-0.377538 7.90123 -0.826376 
-4.67086 -0.826376 2.91383 
9.21272 1.43844 -2.80594 
1.43844 7.18706 -0.725282 
-2.80594 -0.725282 1.53991 
9.29178 0.423115 -5.49755 
0.423115 5.753 2.55378 
-5.49755 2.55378 2.89491 
9.89202 -0.0276944 0.891028 
-0.0276944 9.96352 -0.270592 
0.891028 -0.270592 9.90301 
9.88281 0.00458025 0.890854 
0.00458025 9.9702 -0.273562 
0.890854 -0.273562 9.90554 
9.81252 -0.0300287 0.842105 
-0.0300287 9.8169 -0.275985 
0.842105 -0.275985 10.1291 
9.9356 0.00930719 0.922036 
0.00930719 9.96667 -0.313148 
0.922036 -0.313148 9.85628 
10.0244 0.00515236 0.0188612 
0.00515236 10.0807 -0.0794889 
0.0188612 -0.0794889 10.2034 
10.1165 -0.0646933 0.189377 
-0.0646933 10.1343 0.0651226 
0.189377 0.0651226 10.0578 
10.0354 -0.000912475 -0.136787 
-0.000912475 10.1288 -0.0253722 
-0.136787 -0.0253722 10.1443 
9.92316 -0.0325617 0.0992563 
-0.0325617 9.99684 -0.0536752 
0.0992563 -0.0536752 10.3886 
9.83282 0.0181472 0.013083 
0.0181472 10.2354 -0.288402 
0.013083 -0.288402 10.2608 
10.3277 0.194265 -0.0209565 
0.194265 9.93841 -0.174361 
-0.0209565 -0.174361 10.063 
10.0176 -0.116582 -0.0321908 
-0.116582 10.0823 0.299284 
-0.0321908 0.299284 10.2292 
10.1635 0.237686 0.0141225 
0.237686 9.74365 -0.0253889 
0.0141225 -0.0253889 10.4219 
9.79656 0.0143301 -0.049304 
0.0143301 9.7954 1.00436 
-0.049304 1.00436 9.63125 
9.86173 0.130666 -0.0646579 
0.130666 9.6909 0.917453 
-0.0646579 0.917453 9.67058 
10.0148 0.173768 -0.0701367 
0.173768 9.7448 0.912793 
-0.0701367 0.912793 9.46361 
9.8087 -0.0388026 -0.163507 
-0.0388026 9.79788 0.93932 
-0.163507 0.93932 9.61664 
9.20762 1.29074 1.4899 
1.29074 10.009 -1.15222 
1.4899 -1.15222 9.53325 
9.81947 1.01725 2.15849 
1.01725 9.58168 -1.33222 
2.15849 -1.33222 9.34877 
9.35756 1.05954 1.44737 
1.05954 9.21071 -1.54403 
1.44737 -1.54403 10.1816 
8.87244 -0.134687 0.67796 
-0.134687 9.63904 -0.733342 
0.67796 -0.733342 10.2384 
9.82328 0.00738831 -0.0308303 
0.00738831 9.75257 0.895682 
-0.0308303 0.895682 10.0308 
9.78729 0.005797 -0.0183742 
0.005797 9.8243 0.847013 
-0.0183742 0.847013 9.99501 
9.91407 -0.00247433 -0.0134378 
-0.00247433 9.80828 0.86617 
-0.0134378 0.86617 9.88425 
9.92266 0.0287316 -0.0476508 
0.0287316 9.81156 0.854981 
-0.0476508 0.854981 9.87238 
9.927 0.0606693 -0.112308 
0.0606693 9.81566 0.886456 
-0.112308 0.886456 9.95023 
9.74378 -0.0216752 -0.028317 
-0.0216752 9.81756 0.880057 
-0.028317 0.880057 10.1315 
9.93719 -0.0020171 -0.14262 
-0.0020171 9.86097 0.900534 
-0.14262 0.900534 9.89473 
9.93223 0.00511432 -0.124376 
0.00511432 9.86019 0.960998 
-0.124376 0.960998 9.90047 
9.67936 -0.0868422 0.606291 
-0.0868422 9.83104 0.402642 
0.606291 0.402642 9.70174 
9.69518 -0.0477406 0.788453 
-0.0477406 9.70019 0.464736 
0.788453 0.464736 9.81677 
9.6652 0.0422131 0.680455 
0.0422131 9.70324 0.426028 
0.680455 0.426028 9.8437 
9.64453 -0.025077 0.725028 
-0.025077 9.72802 0.449339 
0.725028 0.449339 9.83959 
9.49534 0.128378 0.282824 
0.128378 9.19065 -0.963072 
0.282824 -0.963072 9.76422 
9.66997 0.183534 0.317996 
0.183534 9.06213 -1.15775 
0.317996 -1.15775 9.71811 
9.52017 -0.0179838 0.0101498 
-0.0179838 9.07768 -0.883064 
0.0101498 -0.883064 9.85237 
9.46572 0.0967002 0.337211 
0.0967002 9.31652 -0.939146 
0.337211 -0.939146 9.66797 
10.7836 0.0916297 0.211937 
0.0916297 10.3524 0.193743 
0.211937 0.193743 11.1421 
11.5324 -0.164607 -0.554275 
-0.164607 9.44867 -0.39658 
-0.554275 -0.39658 11.297 
11.0565 -0.033629 0.165485 
-0.033629 10.3255 0.146781 
0.165485 0.146781 10.8961 
10.5109 0.226826 -0.165769 
0.226826 10.8199 -0.0890728 
-0.165769 -0.0890728 10.9474 
10.1628 0.281257 -3.74042e-05 
0.281257 10.021 0.229863 
-3.74042e-05 0.229863 9.96144 
10.0264 -0.0608052 0.0410068 
-0.0608052 9.89333 -0.188014 
0.0410068 -0.188014 10.2254 
9.86798 -0.0905624 0.0257258 
-0.0905624 9.81803 -0.159985 
0.0257258 -0.159985 10.4592 
10.3707 -0.0338971 -0.0275045 
-0.0338971 9.46183 -0.187185 
-0.0275045 -0.187185 10.3126 
9.83695 -0.00857517 -0.746008 
-0.00857517 9.88307 0.604084 
-0.746008 0.604084 9.93902 
9.90586 0.0312352 -0.781582 
0.0312352 9.94178 0.542672 
-0.781582 0.542672 9.8114 
9.79312 -0.0427311 -0.653095 
-0.0427311 9.70844 0.569157 
-0.653095 0.569157 10.1575 
9.94402 0.0840273 -0.765557 
0.0840273 9.91152 0.636096 
-0.765557 0.636096 9.8035 
9.30803 -0.176665 0.535131 
-0.176665 9.29572 0.483498 
0.535131 0.483498 9.67429 
9.112 -0.188889 0.494758 
-0.188889 9.34386 0.561078 
0.494758 0.561078 9.82218 
9.29722 -0.031044 0.392519 
-0.031044 9.27932 0.488982 
0.392519 0.488982 9.70149 
9.29689 -0.139328 0.619585 
-0.139328 9.42498 0.549606 
0.619585 0.549606 9.55617 
9.47222 0.431088 -1.13206 
0.431088 9.74047 0.576147 
-1.13206 0.576147 9.77227 
9.66882 0.21318 -1.03422 
0.21318 9.73131 0.729445 
-1.03422 0.729445 9.58483 
9.36563 0.119528 -0.810456 
0.119528 9.81317 0.544202 
-0.810456 0.544202 9.80615 
9.44311 0.140272 -0.938172 
0.140272 9.69968 0.647784 
-0.938172 0.647784 9.84216 
9.71205 0.0109593 0.103527 
0.0109593 9.75259 -0.764301 
0.103527 -0.764301 9.81258 
9.78656 0.000579156 0.102096 
0.000579156 9.68989 -0.809495 
0.102096 -0.809495 9.80077 
9.79325 -0.014952 0.0682177 
-0.014952 9.67292 -0.892298 
0.0682177 -0.892298 9.81105 
9.78507 0.0314714 0.102815 
0.0314714 9.65671 -0.847907 
0.102815 -0.847907 9.83544 
10.3261 0.154884 0.172517 
0.154884 9.69692 0.0849994 
0.172517 0.0849994 12.0777 
10.9902 0.144918 0.0233434 
0.144918 11.0418 -0.045834 
0.0233434 -0.045834 10.0687 
10.6134 0.226436 0.0720193 
0.226436 10.7782 -0.301084 
0.0720193 -0.301084 10.7091 
10.9671 0.246821 0.543731 
0.246821 10.675 -0.941941 
0.543731 -0.941941 10.4587 
10.1486 -0.0219975 -0.00328155 
-0.0219975 10.0452 -0.0357765 
-0.00328155 -0.0357765 10.2663 
10.0962 -0.083663 0.0534073 
-0.083663 10.2286 -0.0317981 
0.0534073 -0.0317981 10.1353 
10.0883 0.0355575 -0.0366229 
0.0355575 10.2075 0.0627627 
-0.0366229 0.0627627 10.1643 
10.0849 -0.0339513 0.00073334 
-0.0339513 10.141 -0.00592112 
0.00073334 -0.00592112 10.2342 
11.448 -0.716581 0.145229 
-0.716581 9.12002 -0.195536 
0.145229 -0.195536 11.1192 
9.65763 -0.289326 0.205344 
-0.289326 10.047 -0.207665 
0.205344 -0.207665 11.9826 
10.3139 -0.287166 -0.260599 
-0.287166 10.2654 0.226493 
-0.260599 0.226493 11.1079 
10.5207 -0.680058 -0.242959 
-0.680058 9.72216 0.374211 
-0.242959 0.374211 11.4443 
11.4481 -0.102355 0.3617 
-0.102355 11.0751 0.143307 
0.3617 0.143307 10.8401 
9.72315 -0.301977 -0.181555 
-0.301977 9.92926 -0.127183 
-0.181555 -0.127183 13.7109 
11.69 0.0322193 -0.0635036 
0.0322193 11.5037 0.148119 
-0.0635036 0.148119 10.1695 
11.5281 -0.441472 1.02919 
-0.441472 10.9413 1.68992 
1.02919 1.68992 10.8939 
10.0736 -0.012219 -0.0288997 
-0.012219 9.96853 0.0340408 
-0.0288997 0.0340408 10.2269 
10.2129 -0.00454976 -0.0110364 
-0.00454976 10.05 -0.206525 
-0.0110364 -0.206525 10.0061 
10.0167 0.00128876 -0.0285882 
0.00128876 10.1203 0.178393 
-0.0285882 0.178393 10.132 
10.016 -0.0461956 0.0216422 
-0.0461956 9.87924 0.00038908 
0.0216422 0.00038908 10.3739 
10.6607 0.294225 0.0316874 
0.294225 11.1585 0.336767 
0.0316874 0.336767 9.55743 
10.4002 0.0228546 -0.0806121 
0.0228546 10.4297 0.118176 
-0.0806121 0.118176 10.5467 
10.1661 0.146657 -0.192475 
0.146657 10.0767 -0.2365 
-0.192475 -0.2365 11.1339 
10.5478 -0.111146 0.0231774 
-0.111146 9.93157 0.404031 
0.0231774 0.404031 10.8973 
9.30106 -0.255291 0.508324 
-0.255291 9.17318 0.591854 
0.508324 0.591854 9.8355 
9.43485 -0.184261 0.317589 
-0.184261 9.4219 0.47294 
0.317589 0.47294 9.453 
9.47373 0.347464 0.337619 
0.347464 9.54341 0.375534 
0.337619 0.375534 9.2926 
9.10678 -0.152905 0.469988 
-0.152905 9.54278 0.343451 
0.469988 0.343451 9.66019 
9.8973 -0.129202 0.000880536 
-0.129202 9.97991 -0.389099 
0.000880536 -0.389099 9.37704 
10.0176 0.0585962 0.0107526 
0.0585962 9.92448 -0.557016 
0.0107526 -0.557016 9.31218 
9.86416 0.311702 0.0600458 
0.311702 9.70548 -0.325327 
0.0600458 -0.325327 9.68461 
9.86234 -0.0596 0.0418902 
-0.0596 9.95231 -0.484404 
0.0418902 -0.484404 9.4396 
9.50947 0.00584155 0.304731 
0.00584155 9.4582 0.755454 
0.304731 0.755454 9.61665 
9.51531 -0.098756 0.30082 
-0.098756 9.42686 0.69157 
0.30082 0.69157 9.64214 
9.53478 0.0861846 0.30941 
0.0861846 9.49812 0.743621 
0.30941 0.743621 9.55142 
9.5203 -0.0349719 0.372243 
-0.0349719 9.40845 0.750023 
0.372243 0.750023 9.65557 
9.4633 0.020198 -0.15496 
0.020198 9.51444 0.75119 
-0.15496 0.75119 9.65057 
9.42086 -0.00385138 -0.225601 
-0.00385138 9.61493 0.727961 
-0.225601 0.727961 9.59253 
9.66451 0.0645721 -0.230242 
0.0645721 9.29692 0.669992 
-0.230242 0.669992 9.66688 
9.48768 -0.0123703 -0.248978 
-0.0123703 9.44656 0.779336 
-0.248978 0.779336 9.69407 
8.857 0.0782465 -0.480019 
0.0782465 9.36382 -0.0786492 
-0.480019 -0.0786492 9.89375 
8.92987 0.333373 -0.691061 
0.333373 9.51606 0.369619 
-0.691061 0.369619 9.66864 
9.43641 0.103629 -0.320904 
0.103629 9.38401 0.589069 
-0.320904 0.589069 9.29415 
9.05879 0.00937328 -0.712741 
0.00937328 9.22719 0.105946 
-0.712741 0.105946 9.82859 
9.22463 0.347391 0.207955 
0.347391 9.25885 -0.247971 
0.207955 -0.247971 9.85109 
9.23395 0.302226 0.416851 
0.302226 8.91189 -0.169659 
0.416851 -0.169659 10.1887 
9.15291 0.172942 0.249634 
0.172942 9.28067 -0.0154892 
0.249634 -0.0154892 9.90099 
9.61997 0.251451 0.279999 
0.251451 9.31361 -0.579435 
0.279999 -0.579435 9.40099 
9.56409 -0.15124 0.363553 
-0.15124 9.07055 0.667957 
0.363553 0.667957 9.78274 
9.47622 -0.000784083 0.126059 
-0.000784083 9.5985 0.521176 
0.126059 0.521176 9.34266 
9.40065 0.0760349 0.247492 
0.0760349 9.49176 0.466414 
0.247492 0.466414 9.52497 
9.37425 -0.102026 0.317796 
-0.102026 9.3043 0.308403 
0.317796 0.308403 9.73882 
9.43372 -0.00714141 0.0603502 
-0.00714141 9.22794 -0.539232 
0.0603502 -0.539232 9.36541 
9.071 -0.140729 0.0197218 
-0.140729 9.72808 -0.433071 
0.0197218 -0.433071 9.228 
9.35788 0.0787635 0.132194 
0.0787635 8.94877 -0.773227 
0.132194 -0.773227 9.72042 
9.36472 -0.112298 -0.0653853 
-0.112298 9.04592 -0.565634 
-0.0653853 -0.565634 9.61644 
9.20251 -0.0287636 -0.338911 
-0.0287636 9.39377 -0.247023 
-0.338911 -0.247023 9.7149 
9.08153 -0.190285 -0.451012 
-0.190285 8.71209 -0.0635961 
-0.451012 -0.0635961 10.5176 
9.22853 -0.263857 -0.17487 
-0.263857 9.42419 -0.431386 
-0.17487 -0.431386 9.65846 
9.7537 -0.376021 -0.748265 
-0.376021 9.25021 -0.904836 
-0.748265 -0.904836 9.30727 
9.73687 0.309737 -0.221307 
0.309737 10.31 -0.0108129 
-0.221307 -0.0108129 11.0544 
10.0759 -0.271217 0.0710108 
-0.271217 10.0004 -0.213396 
0.0710108 -0.213396 11.0249 
10.1067 -0.140284 -0.260132 
-0.140284 10.334 -0.13863 
-0.260132 -0.13863 10.6606 
9.75126 0.212279 0.23539 
0.212279 10.5877 0.327854 
0.23539 0.327854 10.7623 
10.0578 0.0396122 -0.0560038 
0.0396122 10.0411 0.0698077 
-0.0560038 0.0698077 10.1963 
10.1609 0.0679921 -0.0473439 
0.0679921 10.0798 -0.193075 
-0.0473439 -0.193075 10.0545 
10.1256 -0.0878725 0.0415085 
-0.0878725 10.135 0.188294 
0.0415085 0.188294 10.0347 
10.1213 -0.00128821 -0.067444 
-0.00128821 9.9562 0.0826496 
-0.067444 0.0826496 10.2178 
9.74431 0.0208264 0.88807 
0.0208264 9.8539 0.00170804 
0.88807 0.00170804 9.92164 
9.76194 -0.0148219 0.893791 
-0.0148219 9.8133 -0.0197035 
0.893791 -0.0197035 9.94462 
9.79901 -0.00391537 0.807334 
-0.00391537 9.83732 0.0152581 
0.807334 0.0152581 9.88352 
9.68052 0.0309253 0.853679 
0.0309253 9.89561 0.0109527 
0.853679 0.0109527 9.94372 
10.085 -0.00901064 0.183451 
-0.00901064 10.2167 0.0220486 
0.183451 0.0220486 10.0796 
10.0576 -0.00714985 -0.0523774 
-0.00714985 10.1753 0.0529077 
-0.0523774 0.0529077 10.1484 
10.1981 0.0454276 -0.171046 
0.0454276 9.9893 0.00557981 
-0.171046 0.00557981 10.1939 
10.0434 -0.0347842 0.031291 
-0.0347842 10.0855 0.0609398 
0.031291 0.0609398 10.2525 
6.71855 -0.432721 0.657876 
-0.432721 5.04095 -0.240451 
0.657876 -0.240451 -1.77402 
3.80189 -0.79269 1.07029 
-0.79269 2.94792 -0.854569 
1.07029 -0.854569 3.23568 
2.76055 -0.0253862 1.28738 
-0.0253862 6.38966 -0.517687 
1.28738 -0.517687 0.835278 
4.83131 -0.676602 1.76277 
-0.676602 3.16509 -2.38418 
1.76277 -2.38418 1.98908 
9.42597 0.14997 -0.442716 
0.14997 9.25747 0.0472468 
-0.442716 0.0472468 9.647 
9.2623 0.06383 -0.476072 
0.06383 9.41071 -0.0414961 
-0.476072 -0.0414961 9.65743 
9.11961 0.00858974 -0.449945 
0.00858974 9.44632 -0.0188113 
-0.449945 -0.0188113 9.76451 
9.24472 0.0694457 -0.527526 
0.0694457 9.47068 -0.00924374 
-0.527526 -0.00924374 9.61504 
9.92903 -0.193377 0.014527 
-0.193377 9.32973 -0.103915 
0.014527 -0.103915 10.2411 
9.70466 0.0292258 -0.00933269 
0.0292258 9.89945 -0.122953 
-0.00933269 -0.122953 9.89576 
9.84222 -0.0593586 -0.101197 
-0.0593586 9.56314 -0.205053 
-0.101197 -0.205053 10.0945 
9.7692 -0.0777842 -0.102475 
-0.0777842 9.71123 -0.326451 
-0.102475 -0.326451 10.0194 
9.869 0.164889 -0.0542916 
0.164889 9.67052 0.154481 
-0.0542916 0.154481 10.0363 
9.96768 0.26905 0.0340505 
0.26905 9.59033 0.174605 
0.0340505 0.174605 10.0178 
9.7727 0.190604 -0.155879 
0.190604 9.51872 0.0357645 
-0.155879 0.0357645 10.2844 
9.86044 0.0179537 -0.0819088 
0.0179537 9.55385 0.0411475 
-0.0819088 0.0411475 10.1615 
9.09515 -0.168837 0.188189 
-0.168837 10.7131 -0.0778124 
0.188189 -0.0778124 11.3983 
9.69335 -0.164395 -0.595281 
-0.164395 10.6461 0.13677 
-0.595281 0.13677 10.8671 
9.26536 -0.101185 -0.302761 
-0.101185 10.6999 -0.256449 
-0.302761 -0.256449 11.2412 
8.83144 0.12229 -0.2415 
0.12229 10.437 -0.169782 
-0.2415 -0.169782 11.938 
9.54344 0.190547 -0.22219 
0.190547 9.57175 -0.412423 
-0.22219 -0.412423 9.64229 
9.16593 -0.61831 -0.131881 
-0.61831 9.48446 -0.14087 
-0.131881 -0.14087 10.1071 
9.64608 0.0787639 -0.243585 
0.0787639 9.41623 -0.294915 
-0.243585 -0.294915 9.69517 
9.61295 -0.152726 -0.626512 
-0.152726 9.19967 -0.389491 
-0.626512 -0.389491 9.94487 
9.78435 -0.0114779 0.790794 
-0.0114779 9.50672 -0.208602 
0.790794 -0.208602 9.5334 
9.25954 -0.00491173 0.832419 
-0.00491173 9.60831 -0.187233 
0.832419 -0.187233 9.95661 
9.67381 0.0450331 0.815738 
0.0450331 9.64514 -0.101457 
0.815738 -0.101457 9.50552 
9.53645 0.137763 0.671417 
0.137763 9.65803 -0.287685 
0.671417 -0.287685 9.62998 
9.56654 -0.0616471 0.551121 
-0.0616471 9.514 0.603357 
0.551121 0.603357 9.74983 
9.568 -0.072737 0.552177 
-0.072737 9.55804 0.604536 
0.552177 0.604536 9.70434 
9.56278 -0.0420678 0.543355 
-0.0420678 9.53385 0.574383 
0.543355 0.574383 9.73374 
9.56367 -0.0989517 0.57435 
-0.0989517 9.55646 0.60373 
0.57435 0.60373 9.71024 
8.20378 0.36913 -2.24301 
0.36913 9.19169 0.633866 
-2.24301 0.633866 8.90378 
7.60538 0.928329 -2.59638 
0.928329 9.55022 1.06641 
-2.59638 1.06641 9.14365 
8.44765 0.739915 -2.07036 
0.739915 8.95972 0.912821 
-2.07036 0.912821 8.89188 
8.16375 0.631776 -2.26077 
0.631776 9.13884 0.922552 
-2.26077 0.922552 8.99666 
9.86208 0.288504 -0.433572 
0.288504 9.23313 1.23093 
-0.433572 1.23093 9.84882 
9.69086 0.283812 -0.382233 
0.283812 9.12901 1.00938 
-0.382233 1.00938 10.1242 
9.7918 0.358188 -0.404259 
0.358188 9.12492 0.99465 
-0.404259 0.99465 10.0273 
9.61507 0.308734 -0.631728 
0.308734 8.9196 1.08344 
-0.631728 1.08344 10.4094 
10.183 0.0396084 -0.140762 
0.0396084 10.0504 -0.0845233 
-0.140762 -0.0845233 10.8117 
10.4706 -0.134438 0.0129011 
-0.134438 10.12 -0.0593297 
0.0129011 -0.0593297 10.4544 
10.2906 -0.00450673 -0.038437 
-0.00450673 10.238 -0.0650536 
-0.038437 -0.0650536 10.5165 
10.3505 -0.0369972 -0.0680061 
-0.0369972 10.2138 -0.0506645 
-0.0680061 -0.0506645 10.4809 
9.91057 -0.0970764 0.161215 
-0.0970764 10.072 -0.312034 
0.161215 -0.312034 10.2812 
9.87068 0.449233 0.0344728 
0.449233 9.96557 -0.0825852 
0.0344728 -0.0825852 10.4276 
10.2417 0.158099 -0.2976 
0.158099 9.97197 0.195467 
-0.2976 0.195467 10.0501 
9.76662 0.0221638 0.113079 
0.0221638 9.98814 -0.0120594 
0.113079 -0.0120594 10.5091 
9.24497 -0.783755 -0.16787 
-0.783755 8.83398 -0.228507 
-0.16787 -0.228507 10.3092 
9.26134 -0.105887 -0.598654 
-0.105887 9.27857 -0.767601 
-0.598654 -0.767601 9.84827 
9.24704 -0.103069 -0.288793 
-0.103069 9.43611 -0.253944 
-0.288793 -0.253944 9.70503 
9.42093 -0.102952 -0.499989 
-0.102952 9.10105 -0.583787 
-0.499989 -0.583787 9.8662 
9.75058 0.0594819 0.386822 
0.0594819 9.85908 -0.666916 
0.386822 -0.666916 9.90065 
9.78755 -0.0192427 0.549568 
-0.0192427 9.80825 -0.78064 
0.549568 -0.78064 9.91451 
9.77007 0.022391 0.412096 
0.022391 9.76941 -0.651621 
0.412096 -0.651621 9.97082 
9.81937 0.0587967 0.54602 
0.0587967 9.81589 -0.731866 
0.54602 -0.731866 9.87505 
4.13269 0.0889651 0.266196 
0.0889651 3.78697 0.554147 
0.266196 0.554147 0.591357 
3.76787 0.0583805 0.310002 
0.0583805 3.54023 0.729283 
0.310002 0.729283 1.20291 
3.97374 -0.630187 0.357851 
-0.630187 4.16013 1.34559 
0.357851 1.34559 0.377139 
3.59785 0.0476106 -0.181132 
0.0476106 3.87866 0.196099 
-0.181132 0.196099 1.03451 
9.78404 0.0234421 -0.132329 
0.0234421 9.69444 -0.10555 
-0.132329 -0.10555 9.92358 
9.63371 -0.0569269 0.0135758 
-0.0569269 9.9043 -0.0768986 
0.0135758 -0.0768986 9.86404 
9.9908 0.0611425 0.0263595 
0.0611425 9.46859 -0.160859 
0.0263595 -0.160859 9.94266 
9.79733 0.0129178 -0.0214447 
0.0129178 9.63006 0.0294566 
-0.0214447 0.0294566 9.97467 
9.34519 0.0443878 -0.103691 
0.0443878 9.53954 -0.545313 
-0.103691 -0.545313 9.52199 
9.59198 -0.105591 -0.200944 
-0.105591 8.98007 -0.769604 
-0.200944 -0.769604 9.83466 
9.4866 -0.0760936 -0.123273 
-0.0760936 9.34556 -0.581954 
-0.123273 -0.581954 9.57455 
9.34945 -0.210036 -0.258286 
-0.210036 9.33417 -0.444077 
-0.258286 -0.444077 9.72309 
9.63794 -0.0364862 0.509409 
-0.0364862 9.70698 0.520781 
0.509409 0.520781 9.90685 
9.68172 -0.0617101 0.59073 
-0.0617101 9.80787 0.676122 
0.59073 0.676122 9.76217 
9.60776 -0.0519557 0.596034 
-0.0519557 9.79507 0.651302 
0.596034 0.651302 9.84893 
9.70553 -0.0829557 0.514097 
-0.0829557 9.72613 0.56114 
0.514097 0.56114 9.8201 
10.5212 -0.101685 0.0506754 
-0.101685 9.90746 -0.339766 
0.0506754 -0.339766 10.0308 
9.90125 0.033682 0.00381356 
0.033682 9.85173 0.0698304 
0.00381356 0.0698304 10.7065 
9.91262 0.00647462 0.0601848 
0.00647462 10.2644 0.468749 
0.0601848 0.468749 10.2824 
10.186 0.137018 0.0522137 
0.137018 9.78334 0.078369 
0.0522137 0.078369 10.4901 
9.9786 0.0361549 -0.0134672 
0.0361549 9.95189 -0.0485546 
-0.0134672 -0.0485546 10.0265 
9.95948 0.0267647 -0.014585 
0.0267647 9.96798 -0.0287383 
-0.014585 -0.0287383 10.0296 
10.0233 -0.0984357 -0.00828446 
-0.0984357 9.70347 0.0398361 
-0.00828446 0.0398361 10.2302 
9.8958 -0.0282102 -0.0446356 
-0.0282102 10.0003 -0.163596 
-0.0446356 -0.163596 10.0609 
9.95458 -0.0131949 -0.000176541 
-0.0131949 9.8731 0.0496864 
-0.000176541 0.0496864 10.01 
9.939 -0.00713469 0.0161776 
-0.00713469 9.88396 0.0341699 
0.0161776 0.0341699 10.0147 
9.93894 -0.0524124 0.0167456 
-0.0524124 9.76696 -0.00231937 
0.0167456 -0.00231937 10.1318 
9.91904 -0.0325674 0.0392793 
-0.0325674 9.89495 0.113139 
0.0392793 0.113139 10.0237 
8.40978 -2.15927 -2.25019 
-2.15927 13.631 -1.60925 
-2.25019 -1.60925 22.8364 
12.4599 -1.28712 -1.92296 
-1.28712 16.0021 -0.163978 
-1.92296 -0.163978 16.4151 
13.38 -2.97828 -0.657022 
-2.97828 9.70186 -1.80198 
-0.657022 -1.80198 21.7953 
12.4054 -1.7753 -0.523066 
-1.7753 16.6793 -1.23255 
-0.523066 -1.23255 15.7925 
9.18867 -0.0555213 -0.764887 
-0.0555213 9.40045 -0.239159 
-0.764887 -0.239159 9.67788 
9.25485 -0.0875766 -0.727626 
-0.0875766 9.45956 -0.281078 
-0.727626 -0.281078 9.55258 
9.18083 -0.164551 -0.782754 
-0.164551 9.5917 -0.380188 
-0.782754 -0.380188 9.49447 
9.33534 -0.129363 -0.759635 
-0.129363 9.27668 -0.219837 
-0.759635 -0.219837 9.65498 
9.66144 0.0378525 -0.796846 
0.0378525 9.39928 -0.0565353 
-0.796846 -0.0565353 9.53904 
9.46986 0.0138117 -0.788856 
0.0138117 9.50055 -0.0674444 
-0.788856 -0.0674444 9.62935 
9.29527 -0.0175761 -0.68411 
-0.0175761 9.63814 -0.0242552 
-0.68411 -0.0242552 9.66635 
9.43691 -0.0156855 -0.824962 
-0.0156855 9.4745 -0.037326 
-0.824962 -0.037326 9.68836 
10.871 0.0150797 -0.0345288 
0.0150797 10.9173 -0.0142677 
-0.0345288 -0.0142677 10.5777 
10.1617 0.056478 0.0703746 
0.056478 10.1226 -0.168438 
0.0703746 -0.168438 12.0817 
10.9175 0.0465982 -0.0101117 
0.0465982 10.9648 0.16249 
-0.0101117 0.16249 10.4837 
10.9527 -0.0202083 0.325642 
-0.0202083 11.0036 -0.0658324 
0.325642 -0.0658324 10.4097 
9.50602 0.062703 0.591995 
0.062703 9.3927 0.145905 
0.591995 0.145905 9.53814 
9.06159 -0.17113 0.69055 
-0.17113 9.65152 0.196557 
0.69055 0.196557 9.72375 
9.40702 0.0203226 0.604936 
0.0203226 9.44094 0.0533988 
0.604936 0.0533988 9.5889 
9.38139 -0.0313945 0.416642 
-0.0313945 9.39645 0.120765 
0.416642 0.120765 9.65901 
9.88651 -0.021745 0.290343 
-0.021745 9.82799 0.750338 
0.290343 0.750338 10.0236 
9.92054 -0.0261333 0.321098 
-0.0261333 9.89355 0.826321 
0.321098 0.826321 9.92398 
9.91984 -0.00434382 0.334202 
-0.00434382 9.88213 0.816979 
0.334202 0.816979 9.9361 
9.92562 -0.0603919 0.348574 
-0.0603919 9.85763 0.837015 
0.348574 0.837015 9.95481 
9.71959 0.0795895 0.420606 
0.0795895 9.78882 0.770004 
0.420606 0.770004 10.2291 
9.93732 -0.083443 0.555607 
-0.083443 9.95009 0.754907 
0.555607 0.754907 9.85013 
9.92968 -0.0363538 0.514115 
-0.0363538 9.90631 0.783203 
0.514115 0.783203 9.90155 
10.0032 -0.0678043 0.502455 
-0.0678043 9.89709 0.846356 
0.502455 0.846356 9.83725 
9.84461 0.0439056 -0.85149 
0.0439056 9.82944 0.359519 
-0.85149 0.359519 10.0101 
9.81161 0.0488461 -0.82924 
0.0488461 9.9185 0.335758 
-0.82924 0.335758 9.95399 
9.75575 0.00738442 -0.837489 
0.00738442 9.94624 0.379894 
-0.837489 0.379894 9.9821 
9.80491 0.025258 -0.851347 
0.025258 9.92196 0.358257 
-0.851347 0.358257 9.95723 
9.35609 0.217223 -0.676717 
0.217223 9.30098 0.652785 
-0.676717 0.652785 9.74539 
9.31558 0.254535 -0.690373 
0.254535 9.30662 0.73428 
-0.690373 0.73428 9.78026 
9.34945 0.26476 -0.63707 
0.26476 9.28751 0.642698 
-0.63707 0.642698 9.7655 
9.43545 0.0874718 -0.678307 
0.0874718 9.33332 0.654358 
-0.678307 0.654358 9.63369 
10.0731 -0.223021 0.17601 
-0.223021 8.76993 2.12546 
0.17601 2.12546 9.45412 
10.0238 -0.134248 0.163792 
-0.134248 8.71558 1.87035 
0.163792 1.87035 9.5578 
10.0459 -0.121386 0.27548 
-0.121386 8.60917 2.17788 
0.27548 2.17788 9.64208 
10.1546 -0.146708 0.155212 
-0.146708 8.84115 2.09704 
0.155212 2.09704 9.30145 
9.0271 -0.410923 -0.127452 
-0.410923 9.50022 -0.0377593 
-0.127452 -0.0377593 9.81436 
9.61594 -0.298629 -0.522783 
-0.298629 9.34354 -0.255873 
-0.522783 -0.255873 9.3822 
9.04041 -0.105384 -0.271137 
-0.105384 9.22888 -0.0111027 
-0.271137 -0.0111027 10.0724 
9.12397 -0.134264 -0.522631 
-0.134264 8.891 -0.348947 
-0.522631 -0.348947 10.3267 
9.97826 0.056374 0.336608 
0.056374 9.79729 -0.824512 
0.336608 -0.824512 9.9924 
9.8032 0.0278031 0.323995 
0.0278031 9.80047 -0.796107 
0.323995 -0.796107 10.1643 
9.9878 -0.0035481 0.424991 
-0.0035481 9.98991 -0.834591 
0.424991 -0.834591 9.79024 
9.913 0.0622823 0.346418 
0.0622823 9.94207 -0.922961 
0.346418 -0.922961 9.91287 
11.4964 -0.0295999 0.122923 
-0.0295999 11.342 -0.105196 
0.122923 -0.105196 10.0235 
11.1562 -0.156794 -0.176345 
-0.156794 11.1526 -0.333813 
-0.176345 -0.333813 10.5531 
9.46765 -0.0211966 0.285001 
-0.0211966 9.47295 0.354842 
0.285001 0.354842 13.9213 
11.6011 0.0245966 0.515155 
0.0245966 10.6386 -1.96985 
0.515155 -1.96985 10.6222 
11.6061 -5.02709 -6.83559 
-5.02709 12.0189 1.64143 
-6.83559 1.64143 -7.12243 
14.2581 -3.12208 -4.28582 
-3.12208 8.12087 5.15872 
-4.28582 5.15872 -5.87648 
1.64102 -1.32568 1.22564 
-1.32568 0.568288 -1.34364 
1.22564 -1.34364 14.2932 
3.08669 3.5046 -9.17288 
3.5046 5.98829 6.0381 
-9.17288 6.0381 7.42754 
9.56874 -0.189674 -0.120452 
-0.189674 9.00176 -1.09663 
-0.120452 -1.09663 9.87256 
9.57797 -0.0581674 -0.0607222 
-0.0581674 8.96065 -0.914293 
-0.0607222 -0.914293 9.90444 
9.60403 -0.116214 -0.0372773 
-0.116214 8.96961 -1.00826 
-0.0372773 -1.00826 9.86942 
9.59958 -0.14083 -0.051361 
-0.14083 8.95458 -0.97091 
-0.051361 -0.97091 9.88889 
9.79525 -0.0194982 0.052939 
-0.0194982 9.76095 -0.0927355 
0.052939 -0.0927355 9.96223 
9.73921 0.0379079 0.084968 
0.0379079 9.81361 -0.0730551 
0.084968 -0.0730551 9.9656 
9.58786 0.237174 0.195372 
0.237174 9.82211 -0.12306 
0.195372 -0.12306 10.1084 
9.62362 -0.0245418 0.0514461 
-0.0245418 9.84346 0.026499 
0.0514461 0.026499 10.0513 
9.06843 -0.00154366 -1.1114 
-0.00154366 9.7696 -0.264239 
-1.1114 -0.264239 9.26866 
9.20955 -0.158277 -1.07893 
-0.158277 9.7194 -0.379509 
-1.07893 -0.379509 9.17774 
9.10303 -0.24339 -1.16611 
-0.24339 9.81481 -0.395035 
-1.16611 -0.395035 9.18886 
9.6308 -0.248084 -0.879679 
-0.248084 9.18376 -0.33061 
-0.879679 -0.33061 9.29213 
9.85842 0.00425956 -0.69158 
0.00425956 9.85181 0.654487 
-0.69158 0.654487 9.94403 
9.8945 0.070461 -0.616361 
0.070461 9.81616 0.557149 
-0.616361 0.557149 9.9436 
9.81542 0.0533541 -0.615283 
0.0533541 9.83895 0.564108 
-0.615283 0.564108 9.99989 
9.87583 0.0661146 -0.631455 
0.0661146 9.84028 0.658772 
-0.631455 0.658772 9.93814 
9.07355 -0.18251 -1.07236 
-0.18251 9.52127 -0.492424 
-1.07236 -0.492424 8.91938 
9.14348 -0.131898 -1.20119 
-0.131898 9.56793 -0.593357 
-1.20119 -0.593357 8.80279 
9.1827 -0.141773 -1.03779 
-0.141773 9.42895 -0.377628 
-1.03779 -0.377628 8.90255 
8.9939 -0.237327 -1.09565 
-0.237327 9.51603 -0.719298 
-1.09565 -0.719298 9.00427 
9.65849 -0.0591023 -0.226639 
-0.0591023 9.31884 -0.47294 
-0.226639 -0.47294 9.51216 
9.62727 -0.19852 -0.275334 
-0.19852 9.09644 -0.629805 
-0.275334 -0.629805 9.76579 
9.34049 -0.094492 -0.218059 
-0.094492 9.02671 -0.4735 
-0.218059 -0.4735 10.1223 
9.30401 -0.124927 -0.219894 
-0.124927 9.25296 -0.641569 
-0.219894 -0.641569 9.93252 
9.83502 0.0604676 0.600647 
0.0604676 9.84218 -0.661445 
0.600647 -0.661445 9.91792 
9.82905 -0.0106257 0.527942 
-0.0106257 9.83562 -0.572996 
0.527942 -0.572996 9.93046 
9.8056 -0.0284842 0.607197 
-0.0284842 9.82228 -0.669688 
0.607197 -0.669688 9.96725 
9.83298 0.0975434 0.587749 
0.0975434 9.80763 -0.663538 
0.587749 -0.663538 9.95452 
9.10737 -0.131137 -0.326295 
-0.131137 9.19661 -0.391071 
-0.326295 -0.391071 9.89081 
9.2692 -0.142324 -0.396569 
-0.142324 9.21207 -0.560197 
-0.396569 -0.560197 9.71351 
9.48436 -0.132676 -0.235308 
-0.132676 9.54913 -0.62712 
-0.235308 -0.62712 9.16128 
9.27563 -0.238968 -0.432365 
-0.238968 9.26526 -0.590632 
-0.432365 -0.590632 9.65389 
10.4137 0.103567 -0.102312 
0.103567 9.60575 0.0730897 
-0.102312 0.0730897 9.75474 
9.79722 0.0150856 -0.0435058 
0.0150856 9.93559 -0.0224079 
-0.0435058 -0.0224079 10.0413 
9.41168 -0.215392 0.113425 
-0.215392 10.1632 -0.0648902 
0.113425 -0.0648902 10.1993 
9.56996 0.233016 -0.239032 
0.233016 10.0184 -0.235501 
-0.239032 -0.235501 10.1857 
9.91294 -0.0581468 -0.655829 
-0.0581468 9.78912 -0.593551 
-0.655829 -0.593551 10.0296 
9.91834 -0.0139527 -0.728305 
-0.0139527 9.93985 -0.609056 
-0.728305 -0.609056 9.8735 
9.93198 0.0110041 -0.720504 
0.0110041 9.85036 -0.614259 
-0.720504 -0.614259 9.94935 
9.88745 -0.0767573 -0.720015 
-0.0767573 9.9248 -0.649173 
-0.720015 -0.649173 9.91944 
9.45599 -0.0125696 0.800398 
-0.0125696 9.52293 0.0807546 
0.800398 0.0807546 9.63296 
9.34126 -0.00108004 0.737221 
-0.00108004 9.61075 0.0579553 
0.737221 0.0579553 9.65987 
9.61344 -0.0130956 0.799406 
-0.0130956 9.4401 0.077046 
0.799406 0.077046 9.55834 
9.43295 -0.0186434 0.846621 
-0.0186434 9.51269 0.0568901 
0.846621 0.0568901 9.66623 
9.30302 -0.0422642 0.0479555 
-0.0422642 9.84938 -0.345974 
0.0479555 -0.345974 9.43973 
9.81873 0.0536725 0.08756 
0.0536725 8.78886 -0.19771 
0.08756 -0.19771 9.98453 
9.44882 0.0409594 -0.00870267 
0.0409594 9.43535 -0.441569 
-0.00870267 -0.441569 9.70795 
9.41575 -0.0654235 0.156947 
-0.0654235 9.28887 -0.70457 
0.156947 -0.70457 9.88751 
9.73398 0.0242527 -0.444417 
0.0242527 9.69495 0.780829 
-0.444417 0.780829 9.84443 
9.7541 0.0535533 -0.407089 
0.0535533 9.6275 0.759509 
-0.407089 0.759509 9.89175 
9.81882 0.123986 -0.518923 
0.123986 9.69838 0.763987 
-0.518923 0.763987 9.75616 
9.73904 0.00169412 -0.492627 
0.00169412 9.69834 0.746564 
-0.492627 0.746564 9.83598 
8.97904 -0.0177212 0.434935 
-0.0177212 9.60801 0.00302003 
0.434935 0.00302003 9.583 
8.93061 -0.0224147 0.602629 
-0.0224147 9.51798 0.0554954 
0.602629 0.0554954 9.72147 
9.72742 0.0575226 0.624089 
0.0575226 9.14256 0.164803 
0.624089 0.164803 9.30007 
9.24184 -0.30535 0.558249 
-0.30535 9.30066 0.00950928 
0.558249 0.00950928 9.62756 
9.98848 -0.019136 0.445902 
-0.019136 9.86262 -0.166404 
0.445902 -0.166404 9.495 
9.9237 0.286827 0.661243 
0.286827 10.1405 -0.0998971 
0.661243 -0.0998971 9.2819 
9.85293 0.105845 0.517321 
0.105845 9.94112 -0.18233 
0.517321 -0.18233 9.55204 
9.93219 -0.169193 0.578934 
-0.169193 9.91216 -0.00246697 
0.578934 -0.00246697 9.50174 
9.86955 -0.0639666 0.0803801 
-0.0639666 10.7837 -0.0257007 
0.0803801 -0.0257007 11.2233 
10.2906 0.00560819 0.222716 
0.00560819 10.6127 0.188313 
0.222716 0.188313 10.9732 
10.284 -0.06167 0.238909 
-0.06167 10.7188 0.146623 
0.238909 0.146623 10.8738 
10.2983 -0.117062 0.0768913 
-0.117062 10.6215 -0.0160481 
0.0768913 -0.0160481 10.9567 
9.82277 -0.0415323 0.243076 
-0.0415323 9.7751 0.835204 
0.243076 0.835204 9.92232 
9.84657 0.00162433 0.281077 
0.00162433 9.77962 0.836453 
0.281077 0.836453 9.89401 
9.79225 -0.0318001 0.330874 
-0.0318001 9.86012 0.758403 
0.330874 0.758403 9.86783 
9.86462 0.0108537 0.290447 
0.0108537 9.7543 0.810979 
0.290447 0.810979 9.90128 
3.06714 -0.215144 -0.622689 
-0.215144 3.20023 -0.0475223 
-0.622689 -0.0475223 0.0989715 
2.91219 0.256785 0.373727 
0.256785 2.65976 -0.493668 
0.373727 -0.493668 0.794392 
2.95674 -0.0755028 0.2499 
-0.0755028 3.17607 -0.325766 
0.2499 -0.325766 0.23353 
3.51768 -0.442295 -0.439516 
-0.442295 2.69033 -0.666863 
-0.439516 -0.666863 0.158335 
9.38644 -0.0585372 -0.389766 
-0.0585372 9.46108 -0.22944 
-0.389766 -0.22944 9.64552 
9.41553 -0.0117897 -0.39248 
-0.0117897 9.48842 -0.234106 
-0.39248 -0.234106 9.58909 
9.25974 -0.248255 -0.467572 
-0.248255 9.47885 -0.315455 
-0.467572 -0.315455 9.75445 
9.37073 -0.0510581 -0.293089 
-0.0510581 9.44682 -0.197284 
-0.293089 -0.197284 9.67549 
7.92902 -2.79433 1.99777 
-2.79433 7.70742 -0.570339 
1.99777 -0.570339 -2.79976 
7.66569 -0.502964 1.10513 
-0.502964 7.38391 -2.88461 
1.10513 -2.88461 -2.21291 
2.18734 -0.388001 1.80707 
-0.388001 2.01257 -0.378688 
1.80707 -0.378688 8.63678 
5.7654 0.540918 5.37597 
0.540918 5.90454 -3.90694 
5.37597 -3.90694 1.16674 
9.92551 0.0116569 -0.918599 
0.0116569 10.0319 0.207577 
-0.918599 0.207577 9.86771 
9.84235 0.0858456 -0.80759 
0.0858456 9.85578 0.244597 
-0.80759 0.244597 10.127 
9.97156 0.0168539 -0.904341 
0.0168539 9.87578 0.237285 
-0.904341 0.237285 9.97779 
9.7942 0.0425441 -0.948368 
0.0425441 10.0508 0.295181 
-0.948368 0.295181 9.98017 
9.44993 0.0785144 0.554709 
0.0785144 9.45345 -0.572864 
0.554709 -0.572864 9.64549 
9.44516 0.0836404 0.516812 
0.0836404 9.45704 -0.52957 
0.516812 -0.52957 9.64668 
9.5475 -0.135793 0.617627 
-0.135793 9.49871 -0.592988 
0.617627 -0.592988 9.50267 
9.51778 0.0622324 0.574062 
0.0622324 9.38465 -0.544082 
0.574062 -0.544082 9.64646 
9.86378 0.0273717 -0.842784 
0.0273717 9.98347 -0.0158834 
-0.842784 -0.0158834 10.0915 
10.0014 0.0357926 -0.907824 
0.0357926 10.0442 0.0126963 
-0.907824 0.0126963 9.89322 
9.97206 -0.0152801 -0.908299 
-0.0152801 10.0302 0.0132011 
-0.908299 0.0132011 9.93655 
9.90599 0.0660692 -0.981565 
0.0660692 10.0707 0.00812367 
-0.981565 0.00812367 9.96205 
9.96685 -0.0507785 -0.520658 
-0.0507785 9.92927 -0.810987 
-0.520658 -0.810987 9.85139 
9.7359 -0.0275352 -0.526333 
-0.0275352 9.88085 -0.683682 
-0.526333 -0.683682 10.1308 
9.85437 0.00121941 -0.547454 
0.00121941 9.88533 -0.764518 
-0.547454 -0.764518 10.0078 
9.93941 -0.149014 -0.64566 
-0.149014 9.85477 -0.805539 
-0.64566 -0.805539 9.95333 
1.80056 -0.909301 0.93345 
-0.909301 2.9966 0.588355 
0.93345 0.588355 -0.0958994 
2.76678 0.389393 1.20216 
0.389393 2.75546 0.801905 
1.20216 0.801905 -0.820973 
2.95121 -1.93211 1.49266 
-1.93211 -0.231042 1.94209 
1.49266 1.94209 1.9811 
1.92474 -0.457176 0.969506 
-0.457176 2.23466 1.87016 
0.969506 1.87016 0.541869 
9.72952 0.0390057 -0.58867 
0.0390057 9.74493 0.624745 
-0.58867 0.624745 9.87187 
9.76765 0.0685174 -0.58613 
0.0685174 9.74073 0.620582 
-0.58613 0.620582 9.83794 
9.78139 0.0541234 -0.575043 
0.0541234 9.75339 0.589999 
-0.575043 0.589999 9.81153 
9.80892 0.0592036 -0.593226 
0.0592036 9.72986 0.628678 
-0.593226 0.628678 9.80753 
9.92987 0.00259063 -0.345832 
0.00259063 9.91022 -0.775743 
-0.345832 -0.775743 9.93423 
9.90782 -0.00462821 -0.366507 
-0.00462821 9.89828 -0.790016 
-0.366507 -0.790016 9.96824 
9.84009 0.00846849 -0.370622 
0.00846849 9.90619 -0.813322 
-0.370622 -0.813322 10.028 
9.9072 -0.0144784 -0.345074 
-0.0144784 9.92412 -0.783859 
-0.345074 -0.783859 9.94301 
9.31594 -0.389534 -0.684171 
-0.389534 9.16701 -0.872946 
-0.684171 -0.872946 10.1129 
9.38867 -0.2743 -0.634921 
-0.2743 9.28996 -0.812708 
-0.634921 -0.812708 9.91723 
9.50275 -0.205336 -0.623039 
-0.205336 9.30888 -0.798508 
-0.623039 -0.798508 9.78423 
9.37992 -0.163517 -0.641529 
-0.163517 9.40053 -0.655055 
-0.641529 -0.655055 9.8154 
9.31059 0.0425012 0.274155 
0.0425012 9.38922 -0.361381 
0.274155 -0.361381 9.56507 
9.35687 -0.22827 0.225182 
-0.22827 9.62816 -0.290688 
0.225182 -0.290688 9.27984 
9.3647 0.406758 0.206943 
0.406758 9.12798 -0.170779 
0.206943 -0.170779 9.7722 
9.32183 0.0877999 0.466964 
0.0877999 9.28722 -0.501843 
0.466964 -0.501843 9.65582 
10.0697 -0.0641774 -0.0673528 
-0.0641774 10.1217 0.0699083 
-0.0673528 0.0699083 10.0699 
10.0915 0.0260761 0.0605227 
0.0260761 10.1057 -0.0349666 
0.0605227 -0.0349666 10.064 
10.0431 0.0233836 0.0408182 
0.0233836 10.1036 -0.0199092 
0.0408182 -0.0199092 10.1146 
10.039 0.0189472 0.032648 
0.0189472 10.144 -0.0217172 
0.032648 -0.0217172 10.0783 
9.4696 -0.136462 -0.71107 
-0.136462 9.46845 -0.623639 
-0.71107 -0.623639 9.93217 
9.49242 -0.266965 -0.692551 
-0.266965 9.53366 -0.637619 
-0.692551 -0.637619 9.84414 
9.51183 -0.0917119 -0.899484 
-0.0917119 9.5373 -0.63656 
-0.899484 -0.63656 9.82109 
9.51261 -0.13832 -0.692046 
-0.13832 9.62135 -0.643246 
-0.692046 -0.643246 9.73626 
9.8532 0.0170497 0.824016 
0.0170497 9.77772 0.124929 
0.824016 0.124929 10.0194 
9.8189 -0.015642 0.864924 
-0.015642 9.83475 0.133936 
0.864924 0.133936 9.99673 
9.84529 -0.0201375 0.838062 
-0.0201375 9.89796 0.150845 
0.838062 0.150845 9.90712 
9.84465 -0.00149556 0.842412 
-0.00149556 9.92824 0.143217 
0.842412 0.143217 9.87749 
5.89694 0.0438695 -1.2473 
0.0438695 10.6586 1.04001 
-1.2473 1.04001 14.9762 
13.0948 -1.14045 -2.27731 
-1.14045 5.77831 -0.197035 
-2.27731 -0.197035 12.6586 
12.8223 -2.58315 -0.142011 
-2.58315 6.59462 -3.15065 
-0.142011 -3.15065 12.1147 
7.31129 -0.182638 2.33759 
-0.182638 15.7989 -3.46978 
2.33759 -3.46978 8.42146 
9.81763 0.0170349 -0.180938 
0.0170349 9.81536 -0.909705 
-0.180938 -0.909705 9.94347 
9.81068 -0.0387933 -0.12508 
-0.0387933 9.83182 -0.739363 
-0.12508 -0.739363 9.93395 
9.86424 -0.0248002 -0.148998 
-0.0248002 9.76542 -0.865999 
-0.148998 -0.865999 9.9468 
9.90141 -0.0315413 -0.174757 
-0.0315413 9.71434 -0.862534 
-0.174757 -0.862534 9.96071 
9.53036 0.131075 -0.0787361 
0.131075 8.96463 0.78947 
-0.0787361 0.78947 9.844 
9.51097 -0.0271137 -0.0618594 
-0.0271137 9.30243 0.545129 
-0.0618594 0.545129 9.52559 
9.17297 -0.133521 -0.118383 
-0.133521 9.83247 0.432597 
-0.118383 0.432597 9.33355 
9.50404 -0.182175 0.12605 
-0.182175 9.09493 0.526932 
0.12605 0.526932 9.74001 
9.90123 0.00535496 -0.117441 
0.00535496 9.85691 0.862941 
-0.117441 0.862941 9.87081 
9.81167 0.000968741 -0.106773 
0.000968741 9.77834 0.813773 
-0.106773 0.813773 10.0389 
9.81017 0.0105883 -0.123198 
0.0105883 9.81622 0.884226 
-0.123198 0.884226 10.0026 
9.93154 0.00221895 -0.0698369 
0.00221895 9.82387 0.899486 
-0.0698369 0.899486 9.87354 
10.1572 -0.00217209 -0.0732064 
-0.00217209 10.1628 -0.0133074 
-0.0732064 -0.0133074 10.2315 
10.156 -0.0325135 0.0367186 
-0.0325135 10.1955 0.0218803 
0.0367186 0.0218803 10.2 
10.1726 -0.00475122 0.0686247 
-0.00475122 10.2318 0.0177069 
0.0686247 0.0177069 10.1471 
10.0943 -0.0239013 0.0077528 
-0.0239013 10.2312 0.00645521 
0.0077528 0.00645521 10.226 
9.7633 0.320731 -0.222202 
0.320731 8.74134 0.657258 
-0.222202 0.657258 10.8088 
9.84743 0.194326 -0.0688182 
0.194326 8.7941 0.80175 
-0.0688182 0.80175 10.6719 
9.95393 0.350996 -0.186023 
0.350996 8.63275 0.59964 
-0.186023 0.59964 10.7268 
9.87526 0.288741 -0.240234 
0.288741 8.84511 0.762758 
-0.240234 0.762758 10.5931 
9.95608 -0.088652 0.820003 
-0.088652 9.74923 0.255789 
0.820003 0.255789 9.75772 
9.84816 0.00378729 0.789142 
0.00378729 9.99357 0.231832 
0.789142 0.231832 9.6213 
9.81219 -0.00923863 0.799915 
-0.00923863 10.0335 0.171261 
0.799915 0.171261 9.61733 
9.94072 -0.0356198 0.890408 
-0.0356198 9.93014 0.20933 
0.890408 0.20933 9.59217 
9.66382 0.416687 -0.0218264 
0.416687 9.83521 -0.0448962 
-0.0218264 -0.0448962 10.3694 
10.0172 -0.151283 -0.0560781 
-0.151283 9.9646 0.00958272 
-0.0560781 0.00958272 9.88667 
9.85681 0.0660869 -0.0875812 
0.0660869 9.86777 0.124265 
-0.0875812 0.124265 10.1439 
9.86687 0.000698007 -0.292396 
0.000698007 9.85463 0.289237 
-0.292396 0.289237 10.147 
9.33608 0.154568 0.508776 
0.154568 9.44582 -0.154321 
0.508776 -0.154321 9.43586 
9.67253 0.253024 0.344388 
0.253024 8.80388 -0.702073 
0.344388 -0.702073 9.74135 
9.66738 0.0713662 -0.475253 
0.0713662 8.81047 -0.230651 
-0.475253 -0.230651 9.73991 
9.14198 -0.124901 -0.349902 
-0.124901 9.10044 -1.12105 
-0.349902 -1.12105 9.97535 
9.27205 0.0975362 0.669198 
0.0975362 9.6019 -0.225666 
0.669198 -0.225666 9.64115 
9.64267 -0.0283517 0.782121 
-0.0283517 9.39321 -0.197651 
0.782121 -0.197651 9.47922 
9.4728 0.0128368 0.790824 
0.0128368 9.43531 -0.183103 
0.790824 -0.183103 9.60699 
9.40444 -0.00292486 0.818076 
-0.00292486 9.45108 -0.270387 
0.818076 -0.270387 9.65959 
9.68603 0.0337888 -0.423764 
0.0337888 9.61762 0.689649 
-0.423764 0.689649 9.75292 
9.65116 -0.0549372 -0.422231 
-0.0549372 9.61853 0.701996 
-0.422231 0.701996 9.78688 
9.67308 0.0399406 -0.434536 
0.0399406 9.63265 0.693528 
-0.434536 0.693528 9.75084 
9.70213 0.0213236 -0.429462 
0.0213236 9.61765 0.70066 
-0.429462 0.70066 9.73679 
9.18289 -0.173509 0.677471 
-0.173509 9.38868 0.332302 
0.677471 0.332302 9.85666 
9.67906 0.262201 0.427304 
0.262201 9.42635 0.284468 
0.427304 0.284468 9.32282 
9.35295 -0.19587 0.528859 
-0.19587 9.5916 0.198998 
0.528859 0.198998 9.48369 
9.52247 -0.208669 0.475537 
-0.208669 9.26399 0.364462 
0.475537 0.364462 9.64178 
10.862 -5.23035 -1.60312 
-5.23035 3.05311 -0.0724868 
-1.60312 -0.0724868 26.6804 
11.2729 -3.34622 0.00558519 
-3.34622 9.7984 -0.0333909 
0.00558519 -0.0333909 19.5242 
9.11705 -5.05171 0.682048 
-5.05171 7.21753 -1.13007 
0.682048 -1.13007 24.261 
12.0134 -1.78064 -0.270186 
-1.78064 10.6951 -1.37042 
-0.270186 -1.37042 17.887 
9.84984 0.0528844 0.545081 
0.0528844 9.8064 -0.690103 
0.545081 -0.690103 10.1655 
9.92395 -0.0105664 0.573846 
-0.0105664 9.94904 -0.761373 
0.573846 -0.761373 9.94879 
10.0183 0.0387496 0.571671 
0.0387496 9.99195 -0.731908 
0.571671 -0.731908 9.81158 
10.0229 0.0607986 0.534938 
0.0607986 9.933 -0.847829 
0.534938 -0.847829 9.86587 
9.38046 -0.302374 -0.950405 
-0.302374 9.72406 -0.56214 
-0.950405 -0.56214 9.74525 
9.54026 -0.13572 -0.557908 
-0.13572 9.40065 -0.388857 
-0.557908 -0.388857 9.90887 
9.26118 -0.146668 -0.855626 
-0.146668 9.65694 -0.400772 
-0.855626 -0.400772 9.93165 
9.19519 -0.219625 -0.841898 
-0.219625 9.57943 -0.29021 
-0.841898 -0.29021 10.0751 
9.16027 -0.119776 -0.795387 
-0.119776 9.52474 -0.206273 
-0.795387 -0.206273 9.67615 
9.30378 -0.0569015 -0.712959 
-0.0569015 9.4967 -0.192195 
-0.712959 -0.192195 9.56067 
9.55339 0.0291563 -0.766941 
0.0291563 9.35359 -0.213493 
-0.766941 -0.213493 9.45418 
9.30243 0.131962 -0.680419 
0.131962 9.47388 -0.180544 
-0.680419 -0.180544 9.58485 
10.0379 0.0389311 -0.0480948 
0.0389311 10.1223 -0.0814226 
-0.0480948 -0.0814226 10.206 
10.1014 -0.0981449 -0.0191495 
-0.0981449 10.109 0.000547177 
-0.0191495 0.000547177 10.1558 
10.0848 -0.0541339 0.0150126 
-0.0541339 10.165 0.0862785 
0.0150126 0.0862785 10.1164 
9.9856 -0.0804343 0.0508677 
-0.0804343 10.146 0.00086828 
0.0508677 0.00086828 10.2346 
9.83784 0.0555253 -0.932493 
0.0555253 9.87785 0.364888 
-0.932493 0.364888 10.1137 
9.94687 0.0419078 -0.801186 
0.0419078 9.96221 0.319443 
-0.801186 0.319443 9.92032 
9.92971 0.00763626 -0.795607 
0.00763626 9.97806 0.322011 
-0.795607 0.322011 9.92163 
9.79914 0.10443 -0.790385 
0.10443 9.97227 0.29423 
-0.790385 0.29423 10.058 
9.67987 -0.244391 0.327545 
-0.244391 9.2642 0.82097 
0.327545 0.82097 9.81024 
9.54671 -0.174742 0.40945 
-0.174742 9.48225 0.861687 
0.40945 0.861687 9.72535 
9.60709 -0.148269 0.620659 
-0.148269 9.44392 0.945108 
0.620659 0.945108 9.7033 
9.4237 -0.0252502 0.555822 
-0.0252502 9.35501 0.692209 
0.555822 0.692209 9.9756 
9.77663 -0.0210266 -0.100516 
-0.0210266 9.56829 0.0898292 
-0.100516 0.0898292 9.90958 
9.72785 -0.0496227 0.00207255 
-0.0496227 9.69726 0.114032 
0.00207255 0.114032 9.82939 
9.70466 -0.0338878 0.029255 
-0.0338878 9.55622 0.178422 
0.029255 0.178422 9.99362 
9.76467 -0.0406519 -0.0081094 
-0.0406519 9.57838 0.057235 
-0.0081094 0.057235 9.91145 
9.84492 0.0526403 -0.571726 
0.0526403 9.8408 0.713223 
-0.571726 0.713223 10.046 
9.84715 0.102445 -0.563155 
0.102445 9.87458 0.692777 
-0.563155 0.692777 10.0099 
9.88782 0.0475606 -0.584055 
0.0475606 9.86813 0.724262 
-0.584055 0.724262 9.97573 
9.86257 0.138881 -0.612032 
0.138881 9.85318 0.684005 
-0.612032 0.684005 10.0159 
9.8231 -0.0326616 0.727823 
-0.0326616 9.82388 0.478089 
0.727823 0.478089 9.90588 
9.827 -0.0828993 0.692936 
-0.0828993 9.85252 0.483478 
0.692936 0.483478 9.87334 
9.83591 0.00624108 0.76117 
0.00624108 9.8357 0.466189 
0.76117 0.466189 9.88124 
9.82118 0.0343525 0.7609 
0.0343525 9.85057 0.472898 
0.7609 0.472898 9.8811 
9.82818 0.098224 -0.12227 
0.098224 9.6428 0.20014 
-0.12227 0.20014 10.1711 
9.89501 -0.0865706 -0.109041 
-0.0865706 9.98656 0.0568286 
-0.109041 0.0568286 9.76053 
9.90773 0.380351 0.022589 
0.380351 9.42003 0.0789635 
0.022589 0.0789635 10.3143 
9.59755 0.158019 -0.247924 
0.158019 9.97462 0.347639 
-0.247924 0.347639 10.0699 
9.66329 0.00449836 0.801571 
0.00449836 9.80973 -0.235424 
0.801571 -0.235424 9.77569 
9.73504 0.00056591 0.796465 
0.00056591 9.69438 -0.195836 
0.796465 -0.195836 9.8193 
9.68615 0.0173807 0.799039 
0.0173807 9.72175 -0.201569 
0.799039 -0.201569 9.84081 
9.71097 0.0438405 0.846646 
0.0438405 9.78447 -0.20291 
0.846646 -0.20291 9.75327 
9.90413 -0.0144649 -0.484703 
-0.0144649 9.84038 -0.674972 
-0.484703 -0.674972 9.95496 
9.85106 0.062095 -0.492697 
0.062095 9.86015 -0.680555 
-0.492697 -0.680555 9.98826 
9.84588 -0.020207 -0.500944 
-0.020207 9.86974 -0.705234 
-0.500944 -0.705234 9.98385 
9.89215 -0.00723852 -0.464738 
-0.00723852 9.89031 -0.697054 
-0.464738 -0.697054 9.91702 
9.81991 0.179839 0.0167097 
0.179839 9.8529 0.00356626 
0.0167097 0.00356626 10.3179 
9.9936 0.0761727 -0.130123 
0.0761727 9.94573 0.00795488 
-0.130123 0.00795488 10.0514 
9.99592 0.0930788 0.0320391 
0.0930788 9.98364 0.136379 
0.0320391 0.136379 10.0112 
9.9955 0.0322671 -0.128428 
0.0322671 9.90991 0.119532 
-0.128428 0.119532 10.0853 
6.95759 0.823548 0.759883 
0.823548 13.6059 -0.169812 
0.759883 -0.169812 21.1901 
3.59248 4.21065 0.715405 
4.21065 13.3585 0.299858 
0.715405 0.299858 24.8026 
4.81407 1.51251 0.023319 
1.51251 13.6405 -1.21746 
0.023319 -1.21746 23.2991 
8.87404 1.52098 -0.216857 
1.52098 14.1497 -0.281925 
-0.216857 -0.281925 18.7299 
8.83557 -0.642039 -1.22724 
-0.642039 10.0301 -0.62375 
-1.22724 -0.62375 10.7537 
9.30746 -0.76625 -0.8562 
-0.76625 9.56865 -0.69717 
-0.8562 -0.69717 10.7432 
9.46728 0.0109255 -0.525764 
0.0109255 9.68411 -0.285199 
-0.525764 -0.285199 10.4679 
9.12062 -0.952719 -0.676995 
-0.952719 9.45879 -0.607305 
-0.676995 -0.607305 11.0399 
9.73848 -0.19174 0.00322213 
-0.19174 9.87778 0.091622 
0.00322213 0.091622 9.94005 
9.87695 0.0824814 -0.0130035 
0.0824814 9.72087 0.0857223 
-0.0130035 0.0857223 9.95849 
9.84044 0.124028 -0.0149707 
0.124028 9.72533 0.0266731 
-0.0149707 0.0266731 9.99054 
9.92587 0.0413068 0.0290587 
0.0413068 9.67153 -0.0242284 
0.0290587 -0.0242284 9.9589 
9.31958 -0.208614 0.802287 
-0.208614 9.34274 0.42567 
0.802287 0.42567 9.646 
9.2225 -0.261619 0.688575 
-0.261619 9.29234 0.563916 
0.688575 0.563916 9.79349 
9.25443 -0.301012 0.774322 
-0.301012 9.44326 0.566871 
0.774322 0.566871 9.61064 
9.23031 -0.279281 0.763845 
-0.279281 9.3544 0.542758 
0.763845 0.542758 9.72361 
9.89991 -0.0146966 -0.594045 
-0.0146966 10.0329 0.764741 
-0.594045 0.764741 9.85138 
9.91367 -0.00577417 -0.55835 
-0.00577417 9.78905 0.717929 
-0.55835 0.717929 10.0815 
9.91973 0.104267 -0.576154 
0.104267 9.89113 0.711633 
-0.576154 0.711633 9.97337 
9.93121 0.0259063 -0.644139 
0.0259063 9.90725 0.752235 
-0.644139 0.752235 9.94577 
9.31981 -0.26654 -0.941807 
-0.26654 9.48623 -0.622564 
-0.941807 -0.622564 9.48783 
9.18562 -0.489171 -1.12477 
-0.489171 9.62065 -0.693647 
-1.12477 -0.693647 9.4876 
9.10737 -0.197921 -1.12618 
-0.197921 9.66321 -0.617964 
-1.12618 -0.617964 9.52329 
9.19063 -0.249961 -1.11245 
-0.249961 9.60965 -0.681717 
-1.11245 -0.681717 9.49358 
9.63422 -0.0186173 -0.111661 
-0.0186173 9.61604 -0.797173 
-0.111661 -0.797173 9.70806 
9.66964 -0.0101832 -0.108257 
-0.0101832 9.5708 -0.794417 
-0.108257 -0.794417 9.71787 
9.66612 -0.0077108 -0.114914 
-0.0077108 9.51954 -0.821674 
-0.114914 -0.821674 9.77267 
9.62025 0.0224252 -0.0972429 
0.0224252 9.60709 -0.752233 
-0.0972429 -0.752233 9.73098 
9.52354 0.0196629 -0.0659995 
0.0196629 9.52875 0.767754 
-0.0659995 0.767754 9.61897 
9.46876 -0.0179891 -0.0760482 
-0.0179891 9.58685 0.786448 
-0.0760482 0.786448 9.61565 
9.63186 -0.0101679 -0.0364121 
-0.0101679 9.28553 0.688718 
-0.0364121 0.688718 9.75388 
9.49924 0.0851335 -0.00220982 
0.0851335 9.45388 0.836971 
-0.00220982 0.836971 9.71814 
9.3899 -0.183571 -0.216123 
-0.183571 9.53246 0.313906 
-0.216123 0.313906 9.35735 
9.39991 0.0637156 -0.249096 
0.0637156 9.32284 0.293836 
-0.249096 0.293836 9.55695 
9.3894 0.26916 -0.295966 
0.26916 9.2162 0.465777 
-0.295966 0.465777 9.6741 
9.34228 0.112499 -0.113598 
0.112499 9.29476 0.235173 
-0.113598 0.235173 9.64266 
9.88392 0.00733179 -0.4852 
0.00733179 9.87494 0.731953 
-0.4852 0.731953 9.92216 
9.86303 0.000783381 -0.468329 
0.000783381 9.82943 0.703432 
-0.468329 0.703432 9.98855 
9.87622 0.0607581 -0.479838 
0.0607581 9.81409 0.672604 
-0.479838 0.672604 9.9907 
9.91093 -0.00748158 -0.485121 
-0.00748158 9.83256 0.7506 
-0.485121 0.7506 9.93753 
9.86554 0.00433708 0.87448 
0.00433708 9.87443 -0.00147771 
0.87448 -0.00147771 10.0053 
9.90557 0.000401309 0.889173 
0.000401309 9.87944 0.0042305 
0.889173 0.0042305 9.96028 
9.89737 -0.0150276 0.887392 
-0.0150276 9.88199 -0.00907518 
0.887392 -0.00907518 9.96592 
9.9095 0.00228577 0.886319 
0.00228577 9.91906 -0.00136642 
0.886319 -0.00136642 9.91673 
9.31968 0.469474 -0.41651 
0.469474 9.85152 -0.422743 
-0.41651 -0.422743 8.9785 
9.4052 -0.329411 -0.0584794 
-0.329411 9.0012 -0.136129 
-0.0584794 -0.136129 9.7433 
9.30372 -0.0436223 -0.282805 
-0.0436223 9.25357 -0.356152 
-0.282805 -0.356152 9.59241 
9.23212 -0.138621 -0.237265 
-0.138621 9.13734 -0.498056 
-0.237265 -0.498056 9.78024 
5.975 0.545907 0.159412 
0.545907 8.73967 -1.57095 
0.159412 -1.57095 -3.67969 
3.24064 0.634796 -1.08835 
0.634796 4.39803 -0.512472 
-1.08835 -0.512472 3.39631 
6.04019 -0.752214 -0.723492 
-0.752214 3.73079 -0.970841 
-0.723492 -0.970841 1.264 
3.73732 0.620201 -2.99434 
0.620201 5.30737 -1.56703 
-2.99434 -1.56703 1.99028 
9.09629 -0.643713 -0.815534 
-0.643713 9.76357 -0.514992 
-0.815534 -0.514992 10.7541 
9.35566 -0.41856 -0.663035 
-0.41856 9.64194 -0.235524 
-0.663035 -0.235524 10.6163 
8.88048 -0.655109 -0.652975 
-0.655109 9.83279 -0.430723 
-0.652975 -0.430723 10.9006 
9.03388 -0.673255 -0.633203 
-0.673255 9.64178 -0.467733 
-0.633203 -0.467733 10.9383 
9.72377 -0.0433055 -0.583655 
-0.0433055 9.71475 -0.609591 
-0.583655 -0.609591 9.82606 
9.70069 -0.0354588 -0.599328 
-0.0354588 9.72082 -0.65126 
-0.599328 -0.65126 9.84307 
9.76449 -0.0721272 -0.558579 
-0.0721272 9.74739 -0.596612 
-0.558579 -0.596612 9.7527 
9.74145 -0.0449182 -0.592751 
-0.0449182 9.70651 -0.613149 
-0.592751 -0.613149 9.81661 
9.69189 0.0430719 -0.755379 
0.0430719 9.55336 -0.148115 
-0.755379 -0.148115 9.58943 
9.6087 -0.0331747 -0.793234 
-0.0331747 9.65079 -0.106526 
-0.793234 -0.106526 9.57519 
9.275 -0.0439343 -0.887667 
-0.0439343 9.70484 -0.188944 
-0.887667 -0.188944 9.85485 
9.52161 -0.159467 -0.64566 
-0.159467 9.58684 -0.248931 
-0.64566 -0.248931 9.72624 
9.19102 0.0667411 -0.72556 
0.0667411 9.46735 0.22045 
-0.72556 0.22045 9.6212 
9.24587 0.034825 -0.684816 
0.034825 9.36736 0.161804 
-0.684816 0.161804 9.66633 
9.23205 0.0691607 -0.754601 
0.0691607 9.41924 0.211412 
-0.754601 0.211412 9.62828 
9.23143 0.117139 -0.737527 
0.117139 9.41778 0.224259 
-0.737527 0.224259 9.63036 
10.5527 -0.268607 -0.0219963 
-0.268607 10.4586 -0.162416 
-0.0219963 -0.162416 10.1621 
9.98785 0.0316427 -0.12175 
0.0316427 9.97043 0.113517 
-0.12175 0.113517 11.2152 
10.3915 -0.0121561 -0.000946813 
-0.0121561 10.1928 -0.124586 
-0.000946813 -0.124586 10.5892 
10.4425 0.190458 0.241059 
0.190458 9.98085 -0.562537 
0.241059 -0.562537 10.7501 
9.43048 0.458586 -0.0373773 
0.458586 9.17282 -0.0690341 
-0.0373773 -0.0690341 9.92075 
9.38485 0.00135887 -0.0937526 
0.00135887 9.50648 0.307347 
-0.0937526 0.307347 9.63272 
9.52862 -0.428362 -0.122927 
-0.428362 9.86768 0.298917 
-0.122927 0.298917 9.12776 
9.30643 0.139505 -0.309783 
0.139505 9.28652 0.341512 
-0.309783 0.341512 9.9311 
9.76223 -0.00680597 -0.80641 
-0.00680597 9.83218 -0.316626 
-0.80641 -0.316626 9.87923 
9.76925 -0.0280867 -0.788253 
-0.0280867 9.8576 -0.337195 
-0.788253 -0.337195 9.84678 
9.83111 -0.00172041 -0.820868 
-0.00172041 9.81637 -0.382224 
-0.820868 -0.382224 9.82616 
9.79881 0.00954352 -0.824177 
0.00954352 9.82287 -0.383104 
-0.824177 -0.383104 9.85195 
10.1507 0.0272533 -0.0122675 
0.0272533 10.1397 0.08642 
-0.0122675 0.08642 10.1291 
10.1011 -0.00935002 -0.00667211 
-0.00935002 10.1154 -0.0358833 
-0.00667211 -0.0358833 10.203 
10.1282 -0.0113762 0.011828 
-0.0113762 10.1156 -0.0435619 
0.011828 -0.0435619 10.1757 
10.057 0.00809096 0.0768272 
0.00809096 10.0341 0.0147956 
0.0768272 0.0147956 10.3284 
9.2121 -0.101224 -0.0212755 
-0.101224 9.71634 0.476464 
-0.0212755 0.476464 9.41724 
9.44859 0.0763275 -0.0909548 
0.0763275 9.4046 0.541169 
-0.0909548 0.541169 9.49249 
9.59707 0.0748827 -0.213277 
0.0748827 8.91922 0.780608 
-0.213277 0.780608 9.82939 
9.31178 0.225865 -0.283742 
0.225865 9.26727 0.429309 
-0.283742 0.429309 9.76663 
9.78862 0.0975343 0.518319 
0.0975343 9.81591 -0.514718 
0.518319 -0.514718 9.72495 
9.72071 -0.0278175 0.524009 
-0.0278175 9.76966 -0.561884 
0.524009 -0.561884 9.83911 
9.71965 0.0523283 0.700958 
0.0523283 9.76425 -0.629965 
0.700958 -0.629965 9.84558 
9.70358 0.0672468 0.581292 
0.0672468 9.74368 -0.640772 
0.581292 -0.640772 9.88222 
9.43292 -0.232763 -0.98142 
-0.232763 9.54443 -0.556536 
-0.98142 -0.556536 9.81314 
9.30134 -0.166369 -0.717792 
-0.166369 9.59911 -0.266135 
-0.717792 -0.266135 9.89004 
9.30557 -0.265203 -1.09554 
-0.265203 9.83448 -0.28374 
-1.09554 -0.28374 9.65044 
9.22233 -0.189376 -0.902294 
-0.189376 9.65199 -0.568555 
-0.902294 -0.568555 9.91617 
9.9139 -0.00552298 -0.802598 
-0.00552298 9.91771 -0.312884 
-0.802598 -0.312884 9.92558 
9.89143 0.0182573 -0.839002 
0.0182573 9.86755 -0.317113 
-0.839002 -0.317113 9.99822 
9.87667 0.0142357 -0.81395 
0.0142357 9.91222 -0.303307 
-0.81395 -0.303307 9.9683 
9.90677 -0.00397365 -0.82174 
-0.00397365 9.89129 -0.299342 
-0.82174 -0.299342 9.95913 
9.39138 0.00683234 -0.665944 
0.00683234 9.26788 -0.360075 
-0.665944 -0.360075 9.7585 
9.31121 -0.0475273 -0.704968 
-0.0475273 9.45304 -0.449458 
-0.704968 -0.449458 9.6535 
9.3704 -0.210091 -0.597767 
-0.210091 9.46534 -0.382471 
-0.597767 -0.382471 9.58202 
9.35482 -0.076677 -0.671684 
-0.076677 9.43763 -0.414039 
-0.671684 -0.414039 9.62531 
9.86415 0.0119886 -0.392333 
0.0119886 9.94878 0.819171 
-0.392333 0.819171 10.0141 
9.97155 -0.0020492 -0.351144 
-0.0020492 9.93661 0.797543 
-0.351144 0.797543 9.91884 
9.93062 0.00863062 -0.366161 
0.00863062 9.92599 0.784928 
-0.366161 0.784928 9.97039 
9.94448 0.0153097 -0.354688 
0.0153097 9.93752 0.794798 
-0.354688 0.794798 9.945 
7.82565 -0.851825 2.18547 
-0.851825 9.19439 1.61212 
2.18547 1.61212 6.5487 
8.78634 -0.579448 2.83625 
-0.579448 8.88744 3.43526 
2.83625 3.43526 5.89496 
9.3869 -0.553006 1.37048 
-0.553006 7.62168 1.99584 
1.37048 1.99584 6.56015 
8.72582 -0.498148 3.30014 
-0.498148 9.0064 3.00054 
3.30014 3.00054 5.83652 
8.07931 1.15284 -3.26906 
1.15284 10.6953 -1.56629 
-3.26906 -1.56629 -6.16605 
-0.530427 0.158624 0.667943 
0.158624 1.48613 0.00270558 
0.667943 0.00270558 11.6528 
9.32744 3.27063 -0.0941413 
3.27063 9.00297 -3.61836 
-0.0941413 -3.61836 -5.72188 
5.9948 -2.29176 -5.03965 
-2.29176 5.04825 -8.20973 
-5.03965 -8.20973 1.56549 
9.65973 -0.0499064 -0.55141 
-0.0499064 9.65898 0.606934 
-0.55141 0.606934 9.60192 
9.42792 0.157128 -0.630621 
0.157128 9.50406 0.601012 
-0.630621 0.601012 9.98864 
9.71971 0.0323557 -0.663031 
0.0323557 9.67101 0.52587 
-0.663031 0.52587 9.5299 
9.73491 0.0698684 -0.428674 
0.0698684 9.51024 0.548941 
-0.428674 0.548941 9.67547 
9.01702 0.27899 -0.434628 
0.27899 9.25068 0.140589 
-0.434628 0.140589 9.65798 
8.8785 0.166968 -0.504071 
0.166968 9.31942 0.52077 
-0.504071 0.52077 9.72777 
9.03077 0.130619 -0.469035 
0.130619 9.21817 0.311437 
-0.469035 0.311437 9.67674 
9.09033 0.000741459 -0.808 
0.000741459 9.31258 0.190452 
-0.808 0.190452 9.52278 
9.47476 -0.301102 -0.149941 
-0.301102 8.95116 -0.129976 
-0.149941 -0.129976 9.64524 
9.28399 0.225818 -0.152444 
0.225818 9.65199 -0.492826 
-0.152444 -0.492826 9.13518 
9.23018 0.0103041 -0.116173 
0.0103041 9.34992 -0.47715 
-0.116173 -0.47715 9.49107 
9.26171 -0.00361863 -0.28881 
-0.00361863 9.06755 -0.442216 
-0.28881 -0.442216 9.7419 
10.0264 0.00698452 -0.0226793 
0.00698452 9.9498 0.00198972 
-0.0226793 0.00198972 10.1443 
10.1164 -0.0422374 0.0352983 
-0.0422374 9.97387 0.128872 
0.0352983 0.128872 10.0303 
10.0272 -0.0648649 0.0392102 
-0.0648649 10.0202 -0.0594142 
0.0392102 -0.0594142 10.0732 
10.0611 -0.0016947 0.0236061 
-0.0016947 9.93952 0.0266712 
0.0236061 0.0266712 10.1199 
9.66075 0.0350193 -0.0363013 
0.0350193 9.68277 0.0482464 
-0.0363013 0.0482464 9.8755 
9.81747 -0.0391325 -0.0281349 
-0.0391325 9.64528 -0.0591469 
-0.0281349 -0.0591469 9.75627 
9.55951 0.0695955 -0.125808 
0.0695955 9.73478 0.0716973 
-0.125808 0.0716973 9.92474 
9.64717 0.113124 0.0298374 
0.113124 9.61727 0.101084 
0.0298374 0.101084 9.95459 
9.8164 -0.0730004 -0.63264 
-0.0730004 9.82561 -0.582237 
-0.63264 -0.582237 9.91107 
9.83653 0.00600449 -0.681781 
0.00600449 9.80645 -0.64708 
-0.681781 -0.64708 9.9101 
9.76414 -0.0392422 -0.608229 
-0.0392422 9.83608 -0.591602 
-0.608229 -0.591602 9.95287 
9.82231 -0.0420201 -0.634682 
-0.0420201 9.83243 -0.646361 
-0.634682 -0.646361 9.89834 
10.0289 0.0154147 0.96822 
0.0154147 10.1155 -0.0459573 
0.96822 -0.0459573 9.70415 
9.99096 0.0675134 0.952637 
0.0675134 9.95837 0.0451343 
0.952637 0.0451343 9.89924 
9.78856 -0.0103551 0.85479 
-0.0103551 9.71377 0.0382823 
0.85479 0.0382823 10.3462 
9.92036 -0.0388512 1.04817 
-0.0388512 10.1314 0.177062 
1.04817 0.177062 9.79686 
9.24475 0.0383919 0.557407 
0.0383919 9.27345 0.252702 
0.557407 0.252702 9.77238 
9.26311 -0.201802 0.665399 
-0.201802 9.15567 0.384387 
0.665399 0.384387 9.87179 
9.21049 -0.172895 0.573629 
-0.172895 9.40395 0.424471 
0.573629 0.424471 9.67614 
9.39653 -0.169594 0.701621 
-0.169594 9.38077 0.495461 
0.701621 0.495461 9.51327 
9.31554 -0.293485 -0.991128 
-0.293485 9.64534 -0.484 
-0.991128 -0.484 9.71469 
8.87027 -0.20383 -1.37265 
-0.20383 9.96349 -0.438112 
-1.37265 -0.438112 9.84181 
9.23921 -0.0753426 -0.884433 
-0.0753426 9.59782 -0.34471 
-0.884433 -0.34471 9.83854 
9.39709 -0.209417 -1.05361 
-0.209417 9.67128 -0.536224 
-1.05361 -0.536224 9.6072 
10.4523 -0.104458 -0.0424859 
-0.104458 10.5748 0.0795269 
-0.0424859 0.0795269 11.0796 
10.4855 -0.127149 -0.0713447 
-0.127149 10.6203 -0.16124 
-0.0713447 -0.16124 11.0009 
10.5861 -0.177734 0.0173385 
-0.177734 10.2386 -0.0949476 
0.0173385 -0.0949476 11.2821 
10.3226 -0.0530191 -0.0347378 
-0.0530191 10.7448 0.0231082 
-0.0347378 0.0231082 11.0394 
9.73235 0.0323873 0.461759 
0.0323873 9.73356 -0.63538 
0.461759 -0.63538 9.81679 
9.73522 0.0373288 0.513124 
0.0373288 9.71038 -0.677331 
0.513124 -0.677331 9.83709 
9.7475 0.032956 0.521006 
0.032956 9.69746 -0.696282 
0.521006 -0.696282 9.83774 
9.72855 0.0732575 0.514533 
0.0732575 9.73863 -0.69113 
0.514533 -0.69113 9.81551 
9.44386 0.0027598 -0.806013 
0.0027598 9.47173 0.0719145 
-0.806013 0.0719145 9.58554 
9.58701 0.015194 -0.808137 
0.015194 9.41786 0.0785369 
-0.808137 0.0785369 9.49626 
9.30226 0.0117182 -0.713012 
0.0117182 9.56421 0.0450874 
-0.713012 0.0450874 9.63465 
9.38392 0.0279842 -0.834751 
0.0279842 9.4663 0.0416347 
-0.834751 0.0416347 9.6509 
9.9794 -0.0035928 0.023407 
-0.0035928 9.68965 0.0413091 
0.023407 0.0413091 10.067 
10.0251 0.00117062 -0.0596206 
0.00117062 9.72229 0.0150594 
-0.0596206 0.0150594 9.98873 
9.98974 -0.0115807 0.125724 
-0.0115807 9.67083 0.231579 
0.125724 0.231579 10.0755 
9.90987 0.0456777 0.0152746 
0.0456777 9.76372 -0.035785 
0.0152746 -0.035785 10.0625 
9.41837 -0.0589703 -0.474057 
-0.0589703 9.58618 -0.677288 
-0.474057 -0.677288 9.60202 
9.40328 -0.270425 -0.64343 
-0.270425 9.35003 -0.779234 
-0.64343 -0.779234 9.85326 
9.45511 -0.206129 -0.587096 
-0.206129 9.28589 -0.682445 
-0.587096 -0.682445 9.86556 
9.42419 -0.230401 -0.564047 
-0.230401 9.32447 -0.675132 
-0.564047 -0.675132 9.85791 
10.0109 0.0464326 0.0958031 
0.0464326 10.0311 0.919816 
0.0958031 0.919816 9.92361 
10.0445 -0.0134852 0.0823489 
-0.0134852 10.0209 0.937722 
0.0823489 0.937722 9.9002 
9.97862 -0.0187877 0.0605378 
-0.0187877 9.86737 0.870711 
0.0605378 0.870711 10.1196 
10.0196 -0.0463043 0.155029 
-0.0463043 9.98803 0.975173 
0.155029 0.975173 9.95803 
9.77974 -0.00632421 -0.703391 
-0.00632421 9.80742 0.582843 
-0.703391 0.582843 9.99625 
9.83818 0.0743139 -0.727496 
0.0743139 9.8083 0.566076 
-0.727496 0.566076 9.93692 
9.78309 0.0346424 -0.674531 
0.0346424 9.80599 0.562101 
-0.674531 0.562101 9.99432 
9.81218 0.0415861 -0.712028 
0.0415861 9.8621 0.549052 
-0.712028 0.549052 9.90912 
9.47752 0.5711 -0.573342 
0.5711 8.15167 1.3662 
-0.573342 1.3662 9.87645 
9.42378 0.359473 0.128859 
0.359473 8.55473 1.24196 
0.128859 1.24196 9.52714 
9.23057 0.548446 -0.455685 
0.548446 8.15348 0.883949 
-0.455685 0.883949 10.1216 
9.33472 0.334055 -0.640834 
0.334055 8.09657 1.2933 
-0.640834 1.2933 10.0744 
10.2372 -0.0558884 -0.0598925 
-0.0558884 10.1318 -0.230283 
-0.0598925 -0.230283 10.5358 
10.5276 -0.471072 -0.2267 
-0.471072 9.38283 -0.288983 
-0.2267 -0.288983 10.9943 
10.0513 -0.0245156 -0.010421 
-0.0245156 10.0601 -0.0693099 
-0.010421 -0.0693099 10.7934 
10.4901 -0.151341 -0.0840702 
-0.151341 9.832 0.0156651 
-0.0840702 0.0156651 10.5827 
9.81542 0.0214207 0.623711 
0.0214207 9.79167 0.638117 
0.623711 0.638117 9.87286 
9.78964 0.0104879 0.629358 
0.0104879 9.81505 0.656808 
0.629358 0.656808 9.87525 
9.78219 -0.017283 0.617354 
-0.017283 9.81311 0.642418 
0.617354 0.642418 9.88464 
9.7778 -0.0722448 0.633667 
-0.0722448 9.85041 0.57332 
0.633667 0.57332 9.85174 
9.47463 0.0324071 -0.383802 
0.0324071 9.45776 0.235074 
-0.383802 0.235074 9.6081 
9.46377 0.0389669 -0.412058 
0.0389669 9.46782 0.193274 
-0.412058 0.193274 9.6089 
9.28681 0.288558 -0.495798 
0.288558 9.47237 0.314092 
-0.495798 0.314092 9.78132 
9.46366 0.0699085 -0.268107 
0.0699085 9.40193 0.191042 
-0.268107 0.191042 9.6749 
8.97375 0.142881 0.351582 
0.142881 9.63197 -0.143013 
0.351582 -0.143013 9.68582 
9.73225 -0.0730902 0.465621 
-0.0730902 9.13385 -0.122335 
0.465621 -0.122335 9.42544 
9.31553 0.0193962 0.528623 
0.0193962 9.37671 -0.0191216 
0.528623 -0.0191216 9.5993 
9.26562 0.0463211 0.613105 
0.0463211 9.36739 -0.153524 
0.613105 -0.153524 9.65853 
9.11436 -0.383689 -0.772561 
-0.383689 9.13804 -0.518826 
-0.772561 -0.518826 9.93722 
9.03238 -0.379115 -0.713001 
-0.379115 9.22112 -0.445621 
-0.713001 -0.445621 9.93613 
9.17106 -0.480692 -0.875595 
-0.480692 9.15502 -0.624089 
-0.875595 -0.624089 9.86355 
9.10379 -0.335325 -0.561378 
-0.335325 9.0454 -0.497992 
-0.561378 -0.497992 10.0404 
9.86721 -0.0128169 -0.340173 
-0.0128169 9.79895 0.703626 
-0.340173 0.703626 9.90548 
9.85449 0.0450957 -0.373695 
0.0450957 9.78241 0.785393 
-0.373695 0.785393 9.93475 
9.77677 -0.0292363 -0.367035 
-0.0292363 9.85831 0.858998 
-0.367035 0.858998 9.93657 
9.86955 0.0442786 -0.350925 
0.0442786 9.7726 0.819853 
-0.350925 0.819853 9.92949 
9.77959 -0.137927 -0.0377046 
-0.137927 9.50192 -0.0733402 
-0.0377046 -0.0733402 10.1507 
9.76184 0.0122974 0.132033 
0.0122974 9.76847 -0.253022 
0.132033 -0.253022 9.90193 
9.98722 -0.264913 -0.167421 
-0.264913 9.47325 -0.184611 
-0.167421 -0.184611 9.97176 
9.64925 -0.100641 -0.0226628 
-0.100641 9.78908 -0.0850933 
-0.0226628 -0.0850933 9.99391 
10.5851 -0.134668 -0.232838 
-0.134668 10.1469 0.438393 
-0.232838 0.438393 12.7502 
11.2957 0.0862993 0.0313173 
0.0862993 11.2962 -0.237674 
0.0313173 -0.237674 10.8904 
11.2507 0.0707102 -0.0803007 
0.0707102 11.2556 -0.0893049 
-0.0803007 -0.0893049 10.9758 
11.5479 -0.171971 -0.400898 
-0.171971 11.2232 -0.225925 
-0.400898 -0.225925 10.7111 
9.80188 -0.016696 -0.850237 
-0.016696 9.87683 0.287897 
-0.850237 0.287897 10.0212 
9.84895 0.0800669 -0.849565 
0.0800669 9.87543 0.29951 
-0.849565 0.29951 9.97558 
9.82811 0.0796171 -0.854418 
0.0796171 9.89879 0.354875 
-0.854418 0.354875 9.97305 
9.84943 0.0145916 -0.852655 
0.0145916 9.9066 0.34819 
-0.852655 0.34819 9.94392 
8.49616 0.941144 -1.13734 
0.941144 9.67779 1.64347 
-1.13734 1.64347 8.91134 
9.14998 0.106435 -1.35768 
0.106435 9.66262 1.70003 
-1.35768 1.70003 8.27269 
8.82049 0.533348 -1.31639 
0.533348 8.90506 0.496257 
-1.31639 0.496257 9.35974 
9.888 0.90404 -2.49644 
0.90404 9.7093 1.19092 
-2.49644 1.19092 7.48798 
9.26314 0.24466 -0.461751 
0.24466 9.55954 -0.474822 
-0.461751 -0.474822 9.16743 
9.35094 -0.316646 -0.228468 
-0.316646 9.15141 -0.364606 
-0.228468 -0.364606 9.48776 
9.26732 0.046109 -0.561193 
0.046109 9.33726 -0.384065 
-0.561193 -0.384065 9.38552 
9.19396 -0.132653 -0.388322 
-0.132653 9.21467 -0.56837 
-0.388322 -0.56837 9.58147 
9.37688 -0.754815 -0.940281 
-0.754815 8.9505 -0.95932 
-0.940281 -0.95932 10.6726 
8.93752 -0.664628 -0.538961 
-0.664628 9.71755 -0.647634 
-0.538961 -0.647634 10.3449 
9.09027 -0.906819 -0.959641 
-0.906819 8.79723 -0.537666 
-0.959641 -0.537666 11.1124 
9.27983 -0.832575 -0.952773 
-0.832575 9.1883 -0.839005 
-0.952773 -0.839005 10.5318 
9.62652 -0.00321746 0.881979 
-0.00321746 9.76821 -0.0964817 
0.881979 -0.0964817 9.82508 
9.73351 0.00572072 0.785487 
0.00572072 9.62085 -0.0660695 
0.785487 -0.0660695 9.86545 
9.65246 0.0877972 0.778967 
0.0877972 9.8657 -0.0159794 
0.778967 -0.0159794 9.70166 
9.64293 0.00881403 0.850609 
0.00881403 9.74691 -0.0793643 
0.850609 -0.0793643 9.82998 
11.1296 -0.0314036 0.014207 
-0.0314036 11.2643 0.248773 
0.014207 0.248773 10.7643 
11.3675 -0.0388411 0.0181587 
-0.0388411 11.3585 -0.0932312 
0.0181587 -0.0932312 10.4322 
10.0374 -0.107298 -0.00346737 
-0.107298 9.86141 -0.185308 
-0.00346737 -0.185308 13.2594 
11.2464 -0.183507 0.922061 
-0.183507 11.2691 0.553194 
0.922061 0.553194 10.6427 
10.062 -0.0126775 0.013987 
-0.0126775 10.0257 0.0451982 
0.013987 0.0451982 10.1496 
10.0638 -0.019693 -0.0213284 
-0.019693 10.048 0.0596339 
-0.0213284 0.0596339 10.1255 
10.1021 0.019562 0.00659191 
0.019562 10.04 -0.0748933 
0.00659191 -0.0748933 10.0953 
10.0285 0.0158002 -0.0607301 
0.0158002 9.95246 -0.00951783 
-0.0607301 -0.00951783 10.2564 
9.85145 -0.0634488 -0.460948 
-0.0634488 9.74996 -0.68681 
-0.460948 -0.68681 9.83239 
9.8057 -0.00430365 -0.470484 
-0.00430365 9.78328 -0.730777 
-0.470484 -0.730777 9.84482 
9.79242 0.00224401 -0.514841 
0.00224401 9.80974 -0.732063 
-0.514841 -0.732063 9.83164 
9.81158 0.0036715 -0.540297 
0.0036715 9.75486 -0.747602 
-0.540297 -0.747602 9.86736 
9.57318 -0.26376 0.37014 
-0.26376 10.6513 0.0377116 
0.37014 0.0377116 10.923 
10.1918 -0.0888212 0.230084 
-0.0888212 10.3441 0.101494 
0.230084 0.101494 10.6115 
10.1223 -0.112418 0.138991 
-0.112418 10.3279 0.0489672 
0.138991 0.0489672 10.6973 
10.1112 -0.0284292 0.139278 
-0.0284292 10.3251 -0.0330139 
0.139278 -0.0330139 10.7111 
9.77347 0.000924862 0.669725 
0.000924862 9.7865 0.441749 
0.669725 0.441749 9.85269 
9.75569 -0.0511338 0.71996 
-0.0511338 9.79172 0.513948 
0.71996 0.513948 9.86524 
9.74097 0.00095982 0.725356 
0.00095982 9.76583 0.501826 
0.725356 0.501826 9.90585 
9.76166 -0.0708431 0.719078 
-0.0708431 9.78131 0.50672 
0.719078 0.50672 9.86969 
9.47098 -0.0426249 -0.190776 
-0.0426249 10.0409 -0.0361674 
-0.190776 -0.0361674 10.0811 
9.77048 -0.0235426 -0.0871313 
-0.0235426 9.84534 0.107305 
-0.0871313 0.107305 9.97712 
9.92357 0.00146179 -0.0825074 
0.00146179 9.73024 -0.0142417 
-0.0825074 -0.0142417 9.93913 
9.70699 -0.0398172 0.0530566 
-0.0398172 9.82527 -0.0212979 
0.0530566 -0.0212979 10.0607 
8.89249 0.178718 -0.302021 
0.178718 9.58256 0.124387 
-0.302021 0.124387 9.93049 
9.54566 -0.0830094 -0.419122 
-0.0830094 9.32745 0.217773 
-0.419122 0.217773 9.53244 
9.47647 0.0642087 -0.329157 
0.0642087 9.40231 0.321542 
-0.329157 0.321542 9.52676 
9.38634 0.269129 -0.594155 
0.269129 9.3625 0.111715 
-0.594155 0.111715 9.6567 
8.31273 -2.46173 -0.410935 
-2.46173 11.2425 -1.31975 
-0.410935 -1.31975 12.2094 
10.2984 -0.444362 0.741124 
-0.444362 6.89643 -1.04767 
0.741124 -1.04767 14.5698 
8.71362 -2.18123 -1.83048 
-2.18123 9.89896 -1.04076 
-1.83048 -1.04076 13.152 
14.3794 2.00679 -3.88054 
2.00679 7.60245 0.578005 
-3.88054 0.578005 9.78276 
9.42018 -0.127218 0.176002 
-0.127218 9.16544 0.376847 
0.176002 0.376847 9.49256 
9.30248 -0.0158783 0.214353 
-0.0158783 9.35878 0.444626 
0.214353 0.444626 9.41692 
9.40668 -0.162632 0.221921 
-0.162632 9.14527 0.430247 
0.221921 0.430247 9.52623 
9.2802 -0.0868465 0.16129 
-0.0868465 9.35773 0.409465 
0.16129 0.409465 9.44025 
9.35872 0.0395332 0.501294 
0.0395332 9.38486 -0.272513 
0.501294 -0.272513 9.48225 
9.24906 0.276729 0.555235 
0.276729 9.38853 -0.398742 
0.555235 -0.398742 9.58823 
9.437 -0.147465 0.490851 
-0.147465 9.42667 -0.332666 
0.490851 -0.332666 9.36216 
9.33 0.0532773 0.358227 
0.0532773 9.37687 -0.246637 
0.358227 -0.246637 9.51896 
10.1172 -0.0821558 -0.56219 
-0.0821558 10.0703 -0.0776896 
-0.56219 -0.0776896 10.0094 
10.1519 0.0105024 -0.557928 
0.0105024 10.1022 -0.0501578 
-0.557928 -0.0501578 9.94274 
10.0399 -0.0147601 -0.534793 
-0.0147601 10.1607 -0.0462612 
-0.534793 -0.0462612 9.99633 
10.1293 -0.0234096 -0.574875 
-0.0234096 10.1177 -0.0429609 
-0.574875 -0.0429609 9.94985 
9.79768 -0.00773506 -0.306418 
-0.00773506 9.82848 -0.841498 
-0.306418 -0.841498 9.84886 
9.82442 0.0102271 -0.309688 
0.0102271 9.82656 -0.835787 
-0.309688 -0.835787 9.82405 
9.84724 -0.0458987 -0.315462 
-0.0458987 9.7867 -0.784183 
-0.315462 -0.784183 9.84108 
9.81044 -0.0210638 -0.337924 
-0.0210638 9.80257 -0.793723 
-0.337924 -0.793723 9.86201 
10.0308 1.13002 0.25535 
1.13002 7.649 2.60121 
0.25535 2.60121 9.22494 
9.46884 0.264683 -1.02625 
0.264683 7.79155 1.50668 
-1.02625 1.50668 9.64438 
10.3713 0.415447 -1.58798 
0.415447 8.20134 2.49182 
-1.58798 2.49182 8.33211 
9.23574 -0.0291427 0.648331 
-0.0291427 9.73659 2.88378 
0.648331 2.88378 7.93244 
9.87737 0.145356 0.452092 
0.145356 10.0354 0.347078 
0.452092 0.347078 10.018 
10.0839 -0.0197535 0.284864 
-0.0197535 10.1352 0.38062 
0.284864 0.38062 9.71157 
9.6843 0.0132595 0.458096 
0.0132595 10.0269 0.209111 
0.458096 0.209111 10.2195 
10.1936 -0.0725158 0.424803 
-0.0725158 10.0485 0.37066 
0.424803 0.37066 9.68867 
9.39732 -0.0491778 -0.44102 
-0.0491778 9.39866 -0.581996 
-0.44102 -0.581996 9.60038 
9.42754 -0.0572786 -0.391247 
-0.0572786 9.39508 -0.576006 
-0.391247 -0.576006 9.57374 
9.44935 0.0179812 -0.435745 
0.0179812 9.53745 -0.566995 
-0.435745 -0.566995 9.40957 
9.40755 -0.0849457 -0.388562 
-0.0849457 9.42185 -0.546068 
-0.388562 -0.546068 9.56697 
9.56381 0.104174 0.550178 
0.104174 9.62837 0.546627 
0.550178 0.546627 9.53019 
9.47274 -0.13095 0.637601 
-0.13095 9.33824 0.653714 
0.637601 0.653714 9.91138 
9.58212 -0.00846714 0.495534 
-0.00846714 9.68615 0.617351 
0.495534 0.617351 9.4541 
9.47712 -0.120438 0.608454 
-0.120438 9.58996 0.429584 
0.608454 0.429584 9.65528 
9.94236 -0.00304993 -0.590827 
-0.00304993 9.87882 -0.716256 
-0.590827 -0.716256 9.90541 
9.8078 -0.00727843 -0.598637 
-0.00727843 9.87438 -0.712016 
-0.598637 -0.712016 10.0444 
9.87806 0.0168313 -0.610266 
0.0168313 9.86246 -0.748194 
-0.610266 -0.748194 9.98607 
9.95779 -0.020882 -0.625695 
-0.020882 9.87416 -0.713439 
-0.625695 -0.713439 9.89462 
9.35252 0.2481 -0.400691 
0.2481 9.28264 0.390082 
-0.400691 0.390082 9.69716 
9.35775 0.0599947 -0.249152 
0.0599947 9.39948 0.305865 
-0.249152 0.305865 9.5751 
9.4412 -0.139359 -0.262038 
-0.139359 9.50246 0.282708 
-0.262038 0.282708 9.38866 
9.33842 0.0927311 -0.239306 
0.0927311 9.33871 0.157754 
-0.239306 0.157754 9.65519 
10.1689 0.0152021 0.619018 
0.0152021 10.09 -0.0979993 
0.619018 -0.0979993 9.71427 
10.0839 0.0804786 0.651505 
0.0804786 9.87458 0.0615479 
0.651505 0.0615479 10.0146 
10.0778 -0.0126885 0.502349 
-0.0126885 9.7615 0.0657071 
0.502349 0.0657071 10.1338 
10.0976 -0.0278658 0.627488 
-0.0278658 10.1722 0.0207698 
0.627488 0.0207698 9.70333 
9.78361 0.0700291 -0.819932 
0.0700291 9.49939 -0.0580818 
-0.819932 -0.0580818 9.61282 
9.38161 -0.072135 -0.828873 
-0.072135 9.6474 -0.0781444 
-0.828873 -0.0781444 9.86682 
9.59559 0.0388809 -0.806998 
0.0388809 9.63351 -0.0687003 
-0.806998 -0.0687003 9.66672 
9.50454 0.118334 -0.732191 
0.118334 9.66544 0.0149272 
-0.732191 0.0149272 9.72585 
9.7472 -0.022828 -0.197651 
-0.022828 9.69742 -0.767179 
-0.197651 -0.767179 9.81951 
9.80825 -0.0329886 -0.165619 
-0.0329886 9.68872 -0.74009 
-0.165619 -0.74009 9.76717 
9.76756 -0.0395541 -0.207979 
-0.0395541 9.68324 -0.863234 
-0.207979 -0.863234 9.81333 
9.73788 -0.0528045 -0.183652 
-0.0528045 9.66747 -0.82841 
-0.183652 -0.82841 9.85879 
10.6991 -0.272447 0.0146551 
-0.272447 9.59194 0.244096 
0.0146551 0.244096 11.8677 
10.8685 -0.189131 -0.385681 
-0.189131 9.84327 0.393996 
-0.385681 0.393996 11.4471 
10.6658 -0.498328 0.132808 
-0.498328 9.57143 -0.139756 
0.132808 -0.139756 11.9216 
10.5293 -0.0475523 0.168493 
-0.0475523 9.30975 0.430876 
0.168493 0.430876 12.3197 
8.54644 -1.06569 -2.57755 
-1.06569 11.2835 1.33299 
-2.57755 1.33299 12.4628 
10.571 -2.723 -0.639428 
-2.723 10.5826 1.25822 
-0.639428 1.25822 11.1392 
7.63051 0.0201823 -2.04339 
0.0201823 11.3568 0.437111 
-2.04339 0.437111 13.3055 
8.51764 0.243706 -2.93209 
0.243706 10.9808 0.559977 
-2.93209 0.559977 12.7943 
9.57745 -0.357836 -0.279917 
-0.357836 9.75072 0.164066 
-0.279917 0.164066 9.22101 
9.49367 -0.0611794 -0.3115 
-0.0611794 9.44427 0.138797 
-0.3115 0.138797 9.61125 
9.3848 0.435677 0.0413929 
0.435677 9.28369 0.0229902 
0.0413929 0.0229902 9.8807 
9.29678 0.118468 -0.255298 
0.118468 9.33832 0.34884 
-0.255298 0.34884 9.91408 
9.46159 0.287243 -0.341454 
0.287243 9.07464 0.466469 
-0.341454 0.466469 9.75395 
9.38375 0.0721182 -0.415309 
0.0721182 9.39555 0.548286 
-0.415309 0.548286 9.51089 
9.40717 -0.140417 -0.416344 
-0.140417 9.45644 0.562002 
-0.416344 0.562002 9.42657 
9.21792 0.139349 -0.413836 
0.139349 9.43593 0.699827 
-0.413836 0.699827 9.63634 
9.86124 0.030176 0.463938 
0.030176 9.79438 -0.654817 
0.463938 -0.654817 10.0597 
9.87585 0.00998105 0.467681 
0.00998105 9.83419 -0.72169 
0.467681 -0.72169 10.0053 
9.96657 0.00268453 0.436726 
0.00268453 9.90474 -0.743054 
0.436726 -0.743054 9.84403 
9.91981 -0.0124387 0.397197 
-0.0124387 9.81223 -0.761223 
0.397197 -0.761223 9.98331 
10.2072 0.0185648 0.252817 
0.0185648 10.3596 0.372709 
0.252817 0.372709 10.4728 
10.7428 -0.530314 0.303049 
-0.530314 9.14011 0.457604 
0.303049 0.457604 11.1568 
10.3521 -0.12772 -0.00425572 
-0.12772 9.9704 0.155212 
-0.00425572 0.155212 10.7172 
10.3818 0.0425275 -0.145972 
0.0425275 9.90559 0.0823213 
-0.145972 0.0823213 10.7523 
10.0762 -0.0204297 -0.0927275 
-0.0204297 10.1496 0.0904498 
-0.0927275 0.0904498 10.2293 
10.0783 0.0440606 0.0451555 
0.0440606 10.1583 -0.0388102 
0.0451555 -0.0388102 10.2186 
10.1577 0.0418045 0.0677002 
0.0418045 10.1439 -0.0872629 
0.0677002 -0.0872629 10.1535 
10.068 0.143337 0.0375842 
0.143337 10.1028 0.000890881 
0.0375842 0.000890881 10.2843 
10.1411 -0.0330064 0.0468037 
-0.0330064 10.2771 -0.0409218 
0.0468037 -0.0409218 10.2373 
10.1566 -0.0515037 -0.000905395 
-0.0515037 10.2293 -0.0141982 
-0.000905395 -0.0141982 10.2695 
10.1588 -0.0612793 0.0107909 
-0.0612793 10.1905 -0.0308857 
0.0107909 -0.0308857 10.3062 
10.1477 -0.0497285 0.0380562 
-0.0497285 10.2605 0.0092774 
0.0380562 0.0092774 10.2473 
7.28869 -0.193997 -1.38325 
-0.193997 9.20667 0.587507 
-1.38325 0.587507 13.7942 
9.75104 2.94981 0.169658 
2.94981 10.9951 -2.74378 
0.169658 -2.74378 9.54341 
7.71764 -2.13341 -2.24936 
-2.13341 11.1959 -1.14433 
-2.24936 -1.14433 11.376 
7.20421 -2.53983 -3.10757 
-2.53983 12.1466 -2.58696 
-3.10757 -2.58696 10.9387 
9.76754 -0.0608666 0.745747 
-0.0608666 9.85344 0.478082 
0.745747 0.478082 10.013 
9.87316 -0.0370592 0.733624 
-0.0370592 9.89729 0.421291 
0.733624 0.421291 9.86353 
9.83193 0.0168574 0.696269 
0.0168574 9.8346 0.449563 
0.696269 0.449563 9.96745 
9.85171 -0.0480867 0.743522 
-0.0480867 9.86572 0.392086 
0.743522 0.392086 9.91654 
9.54581 -0.199503 -0.00507652 
-0.199503 8.92459 -0.137527 
-0.00507652 -0.137527 9.72324 
9.37896 0.211296 0.0264491 
0.211296 9.57675 -0.507084 
0.0264491 -0.507084 9.23793 
9.2337 0.100131 0.128181 
0.100131 9.5982 -0.600795 
0.128181 -0.600795 9.36174 
9.43917 0.027021 -0.207361 
0.027021 9.01304 -0.457142 
-0.207361 -0.457142 9.74143 
9.80703 0.0738299 -0.607086 
0.0738299 9.92073 0.782957 
-0.607086 0.782957 9.7204 
9.87183 0.0660597 -0.575216 
0.0660597 9.87191 0.756504 
-0.575216 0.756504 9.70443 
9.95878 -0.0649074 -0.528701 
-0.0649074 9.64778 0.693988 
-0.528701 0.693988 9.8416 
9.89735 0.100781 -0.600031 
0.100781 9.87139 0.854357 
-0.600031 0.854357 9.67943 
11.1226 -0.0770173 -0.127119 
-0.0770173 11.1931 0.0351218 
-0.127119 0.0351218 10.6819 
11.2291 -0.0588092 0.0867807 
-0.0588092 11.2329 -0.0191394 
0.0867807 -0.0191394 10.5357 
10.0404 0.092872 0.311015 
0.092872 10.0987 -0.0206438 
0.311015 -0.0206438 12.8586 
11.2495 0.0436549 -0.038352 
0.0436549 11.2138 0.634424 
-0.038352 0.634424 10.5344 
9.91467 0.119862 0.296112 
0.119862 10.0355 -0.209892 
0.296112 -0.209892 10.2834 
10.2542 -0.0434934 0.0716378 
-0.0434934 10.3347 -0.247633 
0.0716378 -0.247633 9.64474 
10.0222 0.00581056 0.215675 
0.00581056 10.1853 -0.355762 
0.215675 -0.355762 10.0261 
10.3114 -0.0624509 0.27996 
-0.0624509 10.159 -0.390678 
0.27996 -0.390678 9.76309 
9.88514 -0.0107433 0.00162221 
-0.0107433 9.88832 0.859979 
0.00162221 0.859979 9.98581 
9.9108 -0.00419242 -0.00323703 
-0.00419242 9.91419 0.861739 
-0.00323703 0.861739 9.93427 
9.88316 -0.00413059 -0.00478596 
-0.00413059 9.91291 0.871991 
-0.00478596 0.871991 9.9632 
9.88043 0.00647446 0.0117008 
0.00647446 9.90038 0.879615 
0.0117008 0.879615 9.97845 
11.261 0.0210868 -0.0834037 
0.0210868 11.4084 0.00384622 
-0.0834037 0.00384622 10.5714 
11.2148 -0.0278805 0.0355734 
-0.0278805 11.2691 0.190956 
0.0355734 0.190956 10.7569 
10.1816 0.0231161 -0.110755 
0.0231161 9.8656 -0.293841 
-0.110755 -0.293841 13.1936 
11.3899 0.170077 -0.690412 
0.170077 11.2515 0.884584 
-0.690412 0.884584 10.5994 
13.1733 0.301896 2.18367 
0.301896 8.78571 -2.04123 
2.18367 -2.04123 -7.57889 
-0.813597 0.159219 -0.29287 
0.159219 -2.29826 -1.26538 
-0.29287 -1.26538 17.4919 
11.2197 -1.01735 3.35898 
-1.01735 8.88614 2.16806 
3.35898 2.16806 -5.72578 
4.10452 0.0106389 14.7023 
0.0106389 9.87356 -2.19745 
14.7023 -2.19745 0.402009 
9.89744 -0.0775898 0.352666 
-0.0775898 9.84257 0.854265 
0.352666 0.854265 9.99514 
9.9058 -0.105174 0.333709 
-0.105174 9.83586 0.860275 
0.333709 0.860275 9.99349 
9.86823 -0.0294553 0.278976 
-0.0294553 9.83238 0.815518 
0.278976 0.815518 10.0345 
9.88653 -0.0483549 0.38404 
-0.0483549 9.90263 0.87241 
0.38404 0.87241 9.946 
9.89745 -0.00891854 0.0366562 
-0.00891854 9.88961 0.959854 
0.0366562 0.959854 10.0064 
9.97704 0.00186685 0.072275 
0.00186685 9.9188 0.966258 
0.072275 0.966258 9.89761 
10.0461 -0.00328857 0.0556343 
-0.00328857 9.81022 0.948599 
0.0556343 0.948599 9.93712 
10.0474 0.00723337 0.0594109 
0.00723337 9.78059 1.00582 
0.0594109 1.00582 9.9654 
9.45777 -0.234706 -0.63045 
-0.234706 9.34114 -0.740628 
-0.63045 -0.740628 9.72208 
9.41196 -0.273678 -0.687762 
-0.273678 9.35083 -0.754853 
-0.687762 -0.754853 9.7582 
9.60316 -0.177541 -0.650759 
-0.177541 9.33314 -0.600477 
-0.650759 -0.600477 9.58468 
9.39552 -0.220154 -0.566459 
-0.220154 9.28677 -0.707416 
-0.566459 -0.707416 9.8387 
8.30545 0.0462826 -0.934074 
0.0462826 9.83509 0.0421636 
-0.934074 0.0421636 10.4145 
8.44542 0.0412638 -0.645218 
0.0412638 9.60992 -0.118325 
-0.645218 -0.118325 10.4997 
8.44533 0.0352431 -0.911834 
0.0352431 9.55338 0.00770086 
-0.911834 0.00770086 10.5563 
8.85007 0.404839 -0.637034 
0.404839 9.62894 0.141908 
-0.637034 0.141908 10.076 
10.4759 -0.0976479 0.00631834 
-0.0976479 10.518 0.128865 
0.00631834 0.128865 10.4894 
10.7192 -0.317644 0.0504423 
-0.317644 10.6845 0.184855 
0.0504423 0.184855 10.0795 
10.1131 -0.11827 0.191677 
-0.11827 9.9677 -0.18885 
0.191677 -0.18885 11.4024 
10.54 0.205893 -0.28811 
0.205893 10.0953 0.631414 
-0.28811 0.631414 10.8479 
10.1499 0.0341603 -0.01469 
0.0341603 10.1998 0.0131275 
-0.01469 0.0131275 10.2072 
10.156 0.0140809 -0.0490101 
0.0140809 10.1541 -0.012798 
-0.0490101 -0.012798 10.2468 
10.1035 -0.10451 -0.0454029 
-0.10451 10.2074 0.0788443 
-0.0454029 0.0788443 10.246 
10.15 -0.032 -0.0177592 
-0.032 10.1904 0.00788532 
-0.0177592 0.00788532 10.2165 
8.22649 0.0957086 0.472359 
0.0957086 7.98824 0.220131 
0.472359 0.220131 3.22433 
8.44364 0.0851103 0.526042 
0.0851103 8.60041 0.581234 
0.526042 0.581234 2.395 
8.04759 0.0377235 0.305766 
0.0377235 8.09093 0.25585 
0.305766 0.25585 3.30054 
7.69011 -0.212694 0.236727 
-0.212694 7.90792 1.12952 
0.236727 1.12952 3.84103 
9.76844 0.0479866 -0.808183 
0.0479866 9.87052 0.301756 
-0.808183 0.301756 9.93084 
9.84427 -0.0370788 -0.885107 
-0.0370788 9.77117 0.362488 
-0.885107 0.362488 9.95436 
9.8537 0.0353696 -0.742398 
0.0353696 9.82568 0.261685 
-0.742398 0.261685 9.89042 
9.75295 0.0656383 -0.810646 
0.0656383 9.86952 0.328148 
-0.810646 0.328148 9.94733 
9.8431 0.0675161 -0.477627 
0.0675161 9.80324 0.703853 
-0.477627 0.703853 9.88527 
9.82001 0.00250372 -0.474813 
0.00250372 9.8188 0.765148 
-0.474813 0.765148 9.8928 
9.82119 0.00323648 -0.483838 
0.00323648 9.81387 0.731342 
-0.483838 0.731342 9.89656 
9.82742 -0.0169901 -0.467363 
-0.0169901 9.81503 0.758024 
-0.467363 0.758024 9.88916 
9.87695 -0.0278586 0.588844 
-0.0278586 9.86261 0.632967 
0.588844 0.632967 9.91903 
9.80287 0.00548862 0.571677 
0.00548862 9.83681 0.670914 
0.571677 0.670914 10.0189 
9.83892 -0.00895037 0.557834 
-0.00895037 9.82737 0.63867 
0.557834 0.63867 9.99229 
9.88032 -0.0494237 0.57846 
-0.0494237 9.87999 0.636712 
0.57846 0.636712 9.89828 
9.81404 -0.0120154 0.719259 
-0.0120154 9.79054 0.490852 
0.719259 0.490852 10.012 
9.67674 -0.102955 0.722911 
-0.102955 9.93193 0.473138 
0.722911 0.473138 10.0079 
9.73303 -0.0752801 0.719813 
-0.0752801 9.93561 0.494211 
0.719813 0.494211 9.94794 
9.86144 -0.0239413 0.78876 
-0.0239413 9.8335 0.563575 
0.78876 0.563575 9.92165 
9.78731 -0.0642666 0.241038 
-0.0642666 9.60849 0.899989 
0.241038 0.899989 9.87498 
9.78878 -0.0626964 0.244058 
-0.0626964 9.62839 0.929299 
0.244058 0.929299 9.85362 
9.77386 -0.074643 0.247277 
-0.074643 9.61601 0.889155 
0.247277 0.889155 9.88092 
9.8053 -0.0828732 0.282271 
-0.0828732 9.64085 0.921314 
0.282271 0.921314 9.82464 
10.0709 0.0937764 -0.0296067 
0.0937764 9.9797 0.084333 
-0.0296067 0.084333 10.1852 
10.0175 -0.0707458 0.0103342 
-0.0707458 10.1632 0.0100858 
0.0103342 0.0100858 10.0551 
9.97126 0.0228192 -0.0510682 
0.0228192 10.1695 -0.0669492 
-0.0510682 -0.0669492 10.0951 
9.97464 0.0126409 -0.0370409 
0.0126409 10.1724 -0.00187323 
-0.0370409 -0.00187323 10.0888 
10.0716 0.0699888 -0.141703 
0.0699888 9.94962 0.915829 
-0.141703 0.915829 9.81447 
9.73919 0.0356374 -0.217749 
0.0356374 9.92899 0.960207 
-0.217749 0.960207 10.1675 
9.94609 0.0520291 -0.217057 
0.0520291 9.92914 0.871494 
-0.217057 0.871494 9.96048 
10.0849 -0.0036924 -0.240813 
-0.0036924 9.95712 0.886843 
-0.240813 0.886843 9.79371 
0.951479 0.173752 0.977186 
0.173752 1.61236 0.763567 
0.977186 0.763567 2.4086 
2.73573 0.0355417 0.312784 
0.0355417 3.84742 0.113473 
0.312784 0.113473 -1.61071 
2.40961 -0.0644596 0.902826 
-0.0644596 2.99386 -0.306119 
0.902826 -0.306119 -0.431034 
2.15158 0.231454 2.2824 
0.231454 2.85124 0.318092 
2.2824 0.318092 -0.0303769 
11.4886 0.675556 -0.490021 
0.675556 12.748 0.229401 
-0.490021 0.229401 17.2097 
13.7672 0.134988 -0.409905 
0.134988 12.5273 1.00352 
-0.409905 1.00352 15.1518 
11.8942 0.605778 -0.321195 
0.605778 10.2635 1.07526 
-0.321195 1.07526 19.2885 
13.6565 0.711828 -0.000128648 
0.711828 12.2434 0.849713 
-0.000128648 0.849713 15.5463 
9.703 -0.0119292 0.805416 
-0.0119292 9.68759 0.0864285 
0.805416 0.0864285 9.78942 
9.62363 0.0132494 0.898488 
0.0132494 9.76614 0.084987 
0.898488 0.084987 9.79025 
9.64329 -0.0347936 0.797405 
-0.0347936 9.81682 0.0183992 
0.797405 0.0183992 9.7199 
9.63275 0.00243546 0.853862 
0.00243546 9.73706 0.0787523 
0.853862 0.0787523 9.8102 
10.1087 0.0311872 -0.0174156 
0.0311872 10.1123 0.0229138 
-0.0174156 0.0229138 10.2361 
10.042 0.0579589 -0.0394304 
0.0579589 10.1688 -0.0768549 
-0.0394304 -0.0768549 10.2464 
10.1514 0.0360246 -0.0476339 
0.0360246 10.0714 -0.0241341 
-0.0476339 -0.0241341 10.2343 
10.1022 0.037611 -0.0556572 
0.037611 10.098 -0.0225869 
-0.0556572 -0.0225869 10.2569 
9.83971 -0.290796 0.0756568 
-0.290796 9.93394 -0.0926806 
0.0756568 -0.0926806 9.80585 
9.6716 0.198165 0.00718179 
0.198165 9.69473 0.0299063 
0.00718179 0.0299063 10.2132 
9.71291 0.205929 0.16683 
0.205929 9.79137 -0.00891111 
0.16683 -0.00891111 10.0752 
9.43827 0.0804459 0.00687021 
0.0804459 10.0384 -0.0513221 
0.00687021 -0.0513221 10.1029 
9.24717 0.142177 0.621653 
0.142177 9.38314 -0.256565 
0.621653 -0.256565 9.64806 
9.32883 0.103699 0.54253 
0.103699 9.32198 -0.332026 
0.54253 -0.332026 9.62755 
9.10423 0.072635 0.655411 
0.072635 9.37815 -0.404432 
0.655411 -0.404432 9.79598 
9.25632 0.075421 0.740139 
0.075421 9.46148 -0.306218 
0.740139 -0.306218 9.56056 
13.1077 1.17543 0.3038 
1.17543 8.4508 0.828662 
0.3038 0.828662 21.6942 
12.8619 2.32785 -0.86217 
2.32785 12.2131 1.43335 
-0.86217 1.43335 18.1778 
10.443 4.65334 -1.42534 
4.65334 11.0073 1.60013 
-1.42534 1.60013 21.8024 
13.0068 2.31715 -0.206026 
2.31715 13.1155 1.46546 
-0.206026 1.46546 17.1304 
9.76979 -0.0543833 -0.784336 
-0.0543833 9.75802 -0.591111 
-0.784336 -0.591111 9.67986 
9.58596 -0.08601 -0.757768 
-0.08601 9.80881 -0.477707 
-0.757768 -0.477707 9.81289 
9.68948 -0.16919 -0.870576 
-0.16919 9.96182 -0.685463 
-0.870576 -0.685463 9.55636 
9.78315 -0.0482112 -0.763711 
-0.0482112 9.70402 -0.608147 
-0.763711 -0.608147 9.72049 
12.8785 -0.476123 0.654011 
-0.476123 12.2784 0.697945 
0.654011 0.697945 14.2045 
12.0583 -0.751506 0.161515 
-0.751506 12.8825 0.507813 
0.161515 0.507813 14.4206 
13.5601 -0.754343 0.455155 
-0.754343 13.4134 0.110984 
0.455155 0.110984 12.3879 
12.5224 -0.382816 0.803834 
-0.382816 13.1055 -0.315116 
0.803834 -0.315116 13.7335 
9.27717 -0.506509 -0.308557 
-0.506509 9.83542 0.196063 
-0.308557 0.196063 9.16987 
9.68007 0.402804 0.0190529 
0.402804 8.97084 0.239235 
0.0190529 0.239235 9.63155 
9.33359 0.187943 -0.146279 
0.187943 9.18036 0.357989 
-0.146279 0.357989 9.7685 
9.06495 0.342419 -0.131724 
0.342419 9.53833 0.475217 
-0.131724 0.475217 9.67918 
9.99078 0.0014729 -0.929993 
0.0014729 9.93572 0.225083 
-0.929993 0.225083 9.84265 
9.80323 0.0253242 -0.905216 
0.0253242 9.88197 0.21466 
-0.905216 0.21466 10.0839 
9.79662 -0.0766462 -0.935417 
-0.0766462 9.98172 0.250274 
-0.935417 0.250274 9.99081 
9.91829 0.0352583 -0.896444 
0.0352583 9.99285 0.266696 
-0.896444 0.266696 9.85801 
11.5759 -0.0686853 -0.111699 
-0.0686853 9.32122 -0.468376 
-0.111699 -0.468376 12.0635 
10.2993 -0.524983 0.43354 
-0.524983 11.0333 0.572494 
0.43354 0.572494 11.6281 
11.1697 0.265743 -0.0537243 
0.265743 9.52104 -0.42686 
-0.0537243 -0.42686 12.2699 
11.5551 0.140319 0.00809703 
0.140319 8.7635 0.332723 
0.00809703 0.332723 12.6421 
9.22042 -0.0793498 -0.764401 
-0.0793498 9.46915 -0.343992 
-0.764401 -0.343992 9.58775 
9.56358 0.0552608 -0.648659 
0.0552608 9.30423 -0.183676 
-0.648659 -0.183676 9.4095 
9.4668 -0.048121 -0.680191 
-0.048121 9.40112 -0.250634 
-0.680191 -0.250634 9.40939 
9.38012 -0.143813 -0.667168 
-0.143813 9.3656 -0.366065 
-0.667168 -0.366065 9.53159 
9.73771 0.0638902 -0.326966 
0.0638902 9.34349 -0.255064 
-0.326966 -0.255064 9.3931 
9.56738 0.156429 -0.391929 
0.156429 9.35103 -0.217956 
-0.391929 -0.217956 9.55588 
8.80083 -0.201937 -0.162573 
-0.201937 9.67289 -0.0512226 
-0.162573 -0.0512226 10.0006 
9.26009 -0.131725 -0.732645 
-0.131725 9.368 -0.0749675 
-0.732645 -0.0749675 9.8462 
9.69843 -0.261259 -0.204293 
-0.261259 9.03158 -0.365709 
-0.204293 -0.365709 9.63497 
9.48447 -0.112252 -0.223432 
-0.112252 9.11959 -0.573534 
-0.223432 -0.573534 9.76091 
9.26642 0.0689627 0.013979 
0.0689627 9.70376 -0.574648 
0.013979 -0.574648 9.3948 
9.53116 0.1854 -0.237427 
0.1854 9.17477 -0.578154 
-0.237427 -0.578154 9.65904 
9.86249 0.104749 0.058616 
0.104749 9.56522 -0.191961 
0.058616 -0.191961 10.1556 
9.87972 -0.0167427 0.084301 
-0.0167427 9.77677 -0.0450059 
0.084301 -0.0450059 9.92686 
9.80205 -0.0285005 0.0275092 
-0.0285005 9.79128 -0.0529345 
0.0275092 -0.0529345 9.99001 
9.86206 -0.0637288 -0.0706416 
-0.0637288 9.64235 -0.033529 
-0.0706416 -0.033529 10.0789 
10.3061 -0.109791 -0.0571726 
-0.109791 10.0693 -0.0879784 
-0.0571726 -0.0879784 11.6609 
10.8269 0.068235 0.134867 
0.068235 10.6243 -0.0762932 
0.134867 -0.0762932 10.5851 
10.9147 0.0912979 0.0303041 
0.0912979 10.5901 -0.0705911 
0.0303041 -0.0705911 10.5315 
10.9123 0.115822 0.0836497 
0.115822 10.6251 -0.415845 
0.0836497 -0.415845 10.4989 
10.077 0.356712 -0.175009 
0.356712 10.4526 0.00481886 
-0.175009 0.00481886 10.5183 
10.4637 0.130179 -0.127536 
0.130179 10.3439 -0.0140381 
-0.127536 -0.0140381 10.2403 
10.0321 -0.0294989 -0.0278221 
-0.0294989 10.4382 0.0355518 
-0.0278221 0.0355518 10.5777 
10.2463 0.127668 -0.066221 
0.127668 10.3291 -0.0351556 
-0.066221 -0.0351556 10.4726 
9.71696 -0.0124634 0.166985 
-0.0124634 9.78018 -0.0167445 
0.166985 -0.0167445 9.98771 
9.67821 0.162381 0.15069 
0.162381 9.79642 -0.114432 
0.15069 -0.114432 10.0102 
9.6382 0.13681 0.105445 
0.13681 9.74505 -0.0630801 
0.105445 -0.0630801 10.1016 
9.75432 0.0290382 0.0955347 
0.0290382 9.70095 -0.0654122 
0.0955347 -0.0654122 10.0296 
9.32969 -0.113253 -0.134848 
-0.113253 9.13713 -0.523708 
-0.134848 -0.523708 9.66158 
9.42051 -0.111421 -0.136722 
-0.111421 9.17857 -0.400446 
-0.136722 -0.400446 9.52932 
9.12728 0.244397 -0.342479 
0.244397 9.76228 -0.452628 
-0.342479 -0.452628 9.23884 
9.23803 -0.204878 -0.148139 
-0.204878 9.34596 -0.47424 
-0.148139 -0.47424 9.54441 
9.89139 -0.00697964 -0.146856 
-0.00697964 8.95807 1.61314 
-0.146856 1.61314 10.8545 
10.1421 -0.594303 -0.391232 
-0.594303 8.75584 0.301758 
-0.391232 0.301758 10.806 
10.0507 -0.387107 0.0536401 
-0.387107 8.57286 0.88955 
0.0536401 0.88955 11.0805 
10.1757 -0.184595 0.880339 
-0.184595 7.65944 0.546013 
0.880339 0.546013 11.8688 
9.82769 -0.0100831 -0.709222 
-0.0100831 9.81562 0.50527 
-0.709222 0.50527 9.87419 
9.79237 0.0413278 -0.71646 
0.0413278 9.84992 0.462698 
-0.71646 0.462698 9.87521 
9.80965 -0.0014398 -0.718703 
-0.0014398 9.82337 0.507571 
-0.718703 0.507571 9.88448 
9.81654 -0.00826647 -0.706352 
-0.00826647 9.81282 0.50147 
-0.706352 0.50147 9.88814 
10.2296 -0.0853428 -0.107405 
-0.0853428 9.6512 -0.0438775 
-0.107405 -0.0438775 9.79366 
9.44231 0.107371 0.0476674 
0.107371 10.0236 -0.0329418 
0.0476674 -0.0329418 10.2086 
9.74655 -0.0131141 -0.0889957 
-0.0131141 9.95099 -0.0401948 
-0.0889957 -0.0401948 9.97692 
9.60982 -0.260828 -0.201877 
-0.260828 9.95641 0.117746 
-0.201877 0.117746 10.1082 
9.5052 0.0747845 0.482748 
0.0747845 9.44056 -0.636572 
0.482748 -0.636572 9.65266 
9.5005 -0.115587 0.496904 
-0.115587 9.58785 -0.699134 
0.496904 -0.699134 9.51007 
9.54986 0.102291 0.426837 
0.102291 9.41951 -0.603427 
0.426837 -0.603427 9.62904 
9.43496 0.0855394 0.45952 
0.0855394 9.50153 -0.665394 
0.45952 -0.665394 9.66192 
9.29334 -0.156453 -0.504768 
-0.156453 9.14177 -0.576192 
-0.504768 -0.576192 9.59684 
9.26436 -0.116979 -0.270267 
-0.116979 9.17772 -0.591007 
-0.270267 -0.591007 9.58986 
9.22381 -0.0899374 -0.460431 
-0.0899374 9.24967 -0.585716 
-0.460431 -0.585716 9.55846 
9.16604 -0.177717 -0.319659 
-0.177717 9.23277 -0.634562 
-0.319659 -0.634562 9.63313 
9.58611 -0.122143 0.367177 
-0.122143 9.3487 0.682364 
0.367177 0.682364 9.49383 
9.45681 0.0228351 0.554921 
0.0228351 9.48827 0.676188 
0.554921 0.676188 9.48357 
9.41716 0.00948769 0.452653 
0.00948769 9.47016 0.693587 
0.452653 0.693587 9.54133 
9.4426 -0.0525835 0.448755 
-0.0525835 9.39474 0.724647 
0.448755 0.724647 9.59131 
9.78508 -0.0198224 -0.761698 
-0.0198224 9.8381 -0.453659 
-0.761698 -0.453659 9.88388 
9.80222 -0.0550374 -0.763091 
-0.0550374 9.79107 -0.414889 
-0.763091 -0.414889 9.91377 
9.86025 -0.0240894 -0.68765 
-0.0240894 9.78745 -0.484441 
-0.68765 -0.484441 9.85936 
9.77104 -0.0210429 -0.742089 
-0.0210429 9.85308 -0.457892 
-0.742089 -0.457892 9.88294 
10.2367 0.174577 0.103131 
0.174577 10.5019 -0.236555 
0.103131 -0.236555 10.4505 
10.4984 -0.495073 0.0754206 
-0.495073 9.81832 -0.503451 
0.0754206 -0.503451 10.8723 
10.3262 -0.103847 0.00593775 
-0.103847 10.0796 -0.0277577 
0.00593775 -0.0277577 10.7832 
10.5636 -0.0811801 -0.0127978 
-0.0811801 9.86634 0.157656 
-0.0127978 0.157656 10.7592 
9.63439 -0.136405 0.288871 
-0.136405 9.21528 1.13278 
0.288871 1.13278 9.33614 
9.67556 -0.180622 0.32687 
-0.180622 9.08707 1.11419 
0.32687 1.11419 9.42316 
9.71343 -0.155595 0.113635 
-0.155595 9.15939 1.30056 
0.113635 1.30056 9.31298 
9.6042 -0.130521 -0.0542844 
-0.130521 9.17214 1.19351 
-0.0542844 1.19351 9.40945 
9.87182 0.00256814 0.0269932 
0.00256814 9.90005 -0.882677 
0.0269932 -0.882677 9.99571 
9.87244 0.0148678 -0.000808654 
0.0148678 9.8944 -0.881718 
-0.000808654 -0.881718 10.0007 
9.91578 -0.0157903 0.0144301 
-0.0157903 9.92153 -0.855933 
0.0144301 -0.855933 9.93027 
9.90593 0.00473612 0.0179987 
0.00473612 9.90778 -0.845505 
0.0179987 -0.845505 9.95387 
9.38341 -0.0156488 0.602371 
-0.0156488 9.54635 0.0626892 
0.602371 0.0626892 9.57464 
9.50758 0.00420716 0.605612 
0.00420716 9.42549 0.0949149 
0.605612 0.0949149 9.57135 
9.09348 -0.0790173 0.758925 
-0.0790173 9.57137 0.0807198 
0.758925 0.0807198 9.83956 
9.36568 0.100959 0.510154 
0.100959 9.45322 -0.0409767 
0.510154 -0.0409767 9.68551 
11.7746 -0.0400565 -0.921503 
-0.0400565 11.1041 -1.11479 
-0.921503 -1.11479 10.6753 
11.1054 0.0529952 -1.28322 
0.0529952 12.1608 -0.980219 
-1.28322 -0.980219 10.2877 
9.70168 -0.495892 1.40487 
-0.495892 8.9602 1.28511 
1.40487 1.28511 14.8921 
9.72873 -2.24728 -0.988413 
-2.24728 10.1193 -1.31979 
-0.988413 -1.31979 13.706 
10.9417 -0.0434897 0.0225267 
-0.0434897 10.9842 0.148833 
0.0225267 0.148833 10.5287 
10.8469 -0.00968039 0.0806863 
-0.00968039 10.9377 0.00589732 
0.0806863 0.00589732 10.67 
10.0866 -0.0141344 -0.0299125 
-0.0141344 10.1926 0.00759145 
-0.0299125 0.00759145 12.1754 
10.8563 -0.0555682 0.593988 
-0.0555682 11.0882 0.0232915 
0.593988 0.0232915 10.5101 
9.63149 -0.173944 -0.213213 
-0.173944 9.70999 -0.0739179 
-0.213213 -0.0739179 10.1236 
9.99448 0.301445 0.0336422 
0.301445 9.75529 0.0230945 
0.0336422 0.0230945 9.71533 
9.48748 -0.248768 -0.0600046 
-0.248768 9.86265 -0.0175037 
-0.0600046 -0.0175037 10.115 
9.82015 -0.171832 -0.016042 
-0.171832 9.57521 -0.0826274 
-0.016042 -0.0826274 10.0697 
9.91746 0.0030217 -0.744898 
0.0030217 9.92861 0.449747 
-0.744898 0.449747 9.92978 
9.90292 -0.00302242 -0.761115 
-0.00302242 9.91272 0.442593 
-0.761115 0.442593 9.96021 
9.90688 0.00360686 -0.743624 
0.00360686 9.90527 0.436837 
-0.743624 0.436837 9.9637 
9.8748 -0.0189897 -0.771909 
-0.0189897 9.90034 0.462119 
-0.771909 0.462119 10.0007 
9.92771 0.0091901 -0.512237 
0.0091901 9.91345 0.70159 
-0.512237 0.70159 9.92215 
9.9042 0.0237632 -0.528265 
0.0237632 9.91361 0.712922 
-0.528265 0.712922 9.94549 
9.91691 0.00588449 -0.512418 
0.00588449 9.90342 0.69888 
-0.512418 0.69888 9.94297 
9.84071 -0.0293083 -0.559228 
-0.0293083 9.89488 0.729763 
-0.559228 0.729763 10.0277 
9.19232 -0.2698 -0.710761 
-0.2698 10.5041 0.08093 
-0.710761 0.08093 10.7219 
9.0619 -0.326647 -0.707139 
-0.326647 10.1799 -0.128839 
-0.707139 -0.128839 11.1765 
8.74446 -0.196358 -0.96603 
-0.196358 10.5554 -0.461902 
-0.96603 -0.461902 11.1184 
8.81875 -0.517627 -0.346646 
-0.517627 9.90164 -0.0850171 
-0.346646 -0.0850171 11.6979 
9.32937 -0.187493 -0.771119 
-0.187493 9.77858 -0.614325 
-0.771119 -0.614325 10.0174 
9.54701 -0.293296 -0.664598 
-0.293296 9.57465 -0.560471 
-0.664598 -0.560471 10.0037 
9.49937 -0.120415 -0.537561 
-0.120415 9.61349 -0.483454 
-0.537561 -0.483454 10.0125 
9.5222 -0.318711 -0.632321 
-0.318711 9.52744 -0.533978 
-0.632321 -0.533978 10.0757 
-2.25026 -1.77932 -0.140785 
-1.77932 1.39654 -6.30816 
-0.140785 -6.30816 21.8686 
10.5198 4.34106 -0.298451 
4.34106 17.0556 9.82292 
-0.298451 9.82292 -6.56055 
11.3119 -1.19387 4.53124 
-1.19387 20.2913 9.74343 
4.53124 9.74343 -10.5882 
12.2101 -2.92989 3.01727 
-2.92989 -7.55929 14.7141 
3.01727 14.7141 16.3641 
9.21246 -0.199357 0.338112 
-0.199357 9.24546 0.311552 
0.338112 0.311552 9.57586 
9.27091 -0.0998616 0.401498 
-0.0998616 9.28417 0.41627 
0.401498 0.41627 9.4787 
9.27837 0.000346999 0.413933 
0.000346999 9.29261 0.388 
0.413933 0.388 9.46281 
9.30924 0.00159366 0.457914 
0.00159366 9.2161 0.411325 
0.457914 0.411325 9.50845 
9.53463 0.0340556 0.185192 
0.0340556 9.42768 -0.373882 
0.185192 -0.373882 9.77117 
9.72724 0.0920668 0.0707139 
0.0920668 9.07395 -0.242875 
0.0707139 -0.242875 9.9323 
9.40636 -0.0706987 0.137755 
-0.0706987 9.82112 -0.332454 
0.137755 -0.332454 9.50601 
9.56171 0.065466 0.0731072 
0.065466 9.36197 -0.587476 
0.0731072 -0.587476 9.80981 
9.91661 -0.00869514 0.728874 
-0.00869514 9.93393 0.492382 
0.728874 0.492382 9.88765 
9.89908 0.00215302 0.708514 
0.00215302 9.91161 0.502079 
0.708514 0.502079 9.9275 
9.87343 -0.0127742 0.691788 
-0.0127742 9.85447 0.524248 
0.691788 0.524248 10.0103 
9.90441 0.0290312 0.721156 
0.0290312 9.86003 0.522962 
0.721156 0.522962 9.97375 
9.46431 0.00751107 0.25235 
0.00751107 9.60224 0.759398 
0.25235 0.759398 9.59789 
9.52947 -0.01054 0.211394 
-0.01054 9.4853 0.770309 
0.211394 0.770309 9.64966 
9.63046 -0.0710212 0.206594 
-0.0710212 9.38771 0.739076 
0.206594 0.739076 9.64625 
9.53553 -0.00919293 0.237075 
-0.00919293 9.49235 0.814362 
0.237075 0.814362 9.63654 
9.47481 0.00209303 -0.191663 
0.00209303 9.94577 0.0268194 
-0.191663 0.0268194 10.0153 
9.70108 -0.00723293 -0.0969556 
-0.00723293 9.7999 -0.0303547 
-0.0969556 -0.0303547 9.93491 
9.74412 -0.0154256 -0.108376 
-0.0154256 9.74346 -0.106253 
-0.108376 -0.106253 9.94831 
9.66853 0.0304813 -0.0051417 
0.0304813 9.74561 0.021754 
-0.0051417 0.021754 10.0217 
5.353 -0.288952 0.317199 
-0.288952 6.93824 0.587692 
0.317199 0.587692 -2.02706 
6.03481 -0.195159 0.177537 
-0.195159 3.20845 1.86397 
0.177537 1.86397 1.02092 
3.51987 -0.372113 -0.307721 
-0.372113 4.67531 1.78372 
-0.307721 1.78372 2.069 
2.90839 -0.666701 -0.882781 
-0.666701 5.03258 2.86448 
-0.882781 2.86448 2.32321 
10.091 0.0685706 -0.00897625 
0.0685706 10.0778 -0.0116311 
-0.00897625 -0.0116311 10.1466 
10.1295 0.0144578 -0.01135 
0.0144578 10.1108 -0.0226237 
-0.01135 -0.0226237 10.0752 
10.1203 -0.0163493 -0.000375303 
-0.0163493 10.1083 0.00454706 
-0.000375303 0.00454706 10.0868 
10.1136 -0.031422 0.0126596 
-0.031422 10.1121 -0.0125882 
0.0126596 -0.0125882 10.0898 
9.8302 -0.0253709 0.180108 
-0.0253709 9.86556 -0.904063 
0.180108 -0.904063 9.97245 
9.90352 0.0345813 0.144623 
0.0345813 9.81399 -0.868003 
0.144623 -0.868003 9.9507 
9.86475 0.0240805 0.116188 
0.0240805 9.86685 -0.771332 
0.116188 -0.771332 9.9366 
9.92988 0.0471999 0.150358 
0.0471999 9.76097 -0.85617 
0.150358 -0.85617 9.97736 
9.80301 -0.0729938 0.389393 
-0.0729938 9.69759 0.778112 
0.389393 0.778112 9.88052 
9.79941 -0.0386579 0.389087 
-0.0386579 9.72507 0.712582 
0.389087 0.712582 9.85663 
9.78361 -0.0212929 0.386398 
-0.0212929 9.76303 0.739454 
0.386398 0.739454 9.83447 
9.80491 -0.0560942 0.382117 
-0.0560942 9.72964 0.725625 
0.382117 0.725625 9.84657 
14.9482 -1.25129 -0.125012 
-1.25129 7.08909 -0.649615 
-0.125012 -0.649615 22.5761 
13.0537 -5.35464 0.206721 
-5.35464 0.945437 -2.75703 
0.206721 -2.75703 30.6142 
15.7328 -1.65335 -1.6615 
-1.65335 1.53287 -1.62286 
-1.6615 -1.62286 27.3477 
13.686 -0.210022 -1.59991 
-0.210022 12.838 -2.31459 
-1.59991 -2.31459 18.0894 
9.8291 0.00334323 0.300687 
0.00334323 9.74569 0.80346 
0.300687 0.80346 9.8191 
9.78578 -0.0256488 0.367054 
-0.0256488 9.74612 0.807333 
0.367054 0.807333 9.862 
9.80943 -0.0290704 0.392129 
-0.0290704 9.70023 0.770772 
0.392129 0.770772 9.88423 
9.78847 -0.0340584 0.361514 
-0.0340584 9.76985 0.793036 
0.361514 0.793036 9.83557 
11.5929 -0.252978 0.0315525 
-0.252978 11.6037 0.360081 
0.0315525 0.360081 9.08262 
9.79366 0.00557272 -0.106161 
0.00557272 9.86529 -0.509964 
-0.106161 -0.509964 12.6203 
10.8267 -0.0686345 0.244438 
-0.0686345 10.3463 0.146815 
0.244438 0.146815 11.1063 
10.4349 -0.597485 1.03063 
-0.597485 10.4031 0.796395 
1.03063 0.796395 11.4412 
9.81118 -0.0129861 0.0395609 
-0.0129861 9.8613 -0.0170173 
0.0395609 -0.0170173 9.98933 
9.80506 -0.00347676 0.0502927 
-0.00347676 9.86277 -0.00999104 
0.0502927 -0.00999104 9.99398 
9.73025 0.0331665 0.00972657 
0.0331665 9.86669 0.00438442 
0.00972657 0.00438442 10.0649 
9.83472 -0.0194748 0.0199368 
-0.0194748 9.82531 0.0116306 
0.0199368 0.0116306 10.0018 
9.64881 -0.0639063 -0.649665 
-0.0639063 9.68039 -0.514694 
-0.649665 -0.514694 9.8304 
9.6622 -0.0886871 -0.674717 
-0.0886871 9.65165 -0.562156 
-0.674717 -0.562156 9.84575 
9.65682 -0.0330391 -0.688543 
-0.0330391 9.65183 -0.580575 
-0.688543 -0.580575 9.85095 
9.64491 -0.0693888 -0.691129 
-0.0693888 9.65807 -0.545178 
-0.691129 -0.545178 9.85662 
9.88111 0.0136383 -0.164499 
0.0136383 9.78319 -0.881056 
-0.164499 -0.881056 9.99622 
9.87242 0.000303315 -0.176267 
0.000303315 9.82749 -0.840022 
-0.176267 -0.840022 9.96061 
9.90632 -0.000954171 -0.139129 
-0.000954171 9.81756 -0.851875 
-0.139129 -0.851875 9.93665 
9.93562 0.00301335 -0.137957 
0.00301335 9.83983 -0.84412 
-0.137957 -0.84412 9.88507 
-2.11297 -5.79116 -5.91937 
-5.79116 14.6628 0.548808 
-5.91937 0.548808 31.2198 
6.32161 -2.24905 -0.0347892 
-2.24905 15.7248 -0.437309 
-0.0347892 -0.437309 21.7233 
-4.90059 -0.868032 -6.28929 
-0.868032 13.7109 -2.63008 
-6.28929 -2.63008 34.9594 
15.4455 0.0262221 -4.12327 
0.0262221 12.5896 0.749307 
-4.12327 0.749307 15.7346 
9.9829 0.00908573 -0.572632 
0.00908573 9.78028 -0.358848 
-0.572632 -0.358848 10.1756 
10.3814 -0.0626525 0.509115 
-0.0626525 9.36284 0.511555 
0.509115 0.511555 10.1946 
10.0752 -0.272596 0.523888 
-0.272596 10.1 -0.192792 
0.523888 -0.192792 9.76366 
9.71016 0.168964 -0.424852 
0.168964 9.75202 0.463097 
-0.424852 0.463097 10.4766 
8.90706 0.170867 -0.316763 
0.170867 9.39527 0.276079 
-0.316763 0.276079 9.57792 
9.00024 0.0161106 -0.644817 
0.0161106 9.22205 0.448251 
-0.644817 0.448251 9.65796 
9.25286 -0.117631 -0.546752 
-0.117631 9.18763 -0.357441 
-0.546752 -0.357441 9.43975 
8.79874 0.196281 -0.733996 
0.196281 9.40503 -0.0270986 
-0.733996 -0.0270986 9.67648 
9.57651 0.00277135 -0.0909082 
0.00277135 9.67797 0.773164 
-0.0909082 0.773164 9.66893 
9.70863 0.0537596 -0.0956769 
0.0537596 9.35397 0.865804 
-0.0956769 0.865804 9.86081 
9.64283 -0.0129271 -0.0900299 
-0.0129271 9.6219 0.789304 
-0.0900299 0.789304 9.65868 
9.62675 -0.106514 0.00482021 
-0.106514 9.51909 0.666432 
0.00482021 0.666432 9.77757 
9.87336 -0.0150373 -0.858305 
-0.0150373 9.86607 0.110404 
-0.858305 0.110404 9.99094 
9.83849 -0.0392997 -0.823367 
-0.0392997 9.86603 0.0807832 
-0.823367 0.0807832 10.0258 
9.90247 0.003084 -0.83668 
0.003084 9.91848 0.105648 
-0.83668 0.105648 9.90942 
9.90066 0.0202779 -0.850612 
0.0202779 9.94348 0.0994023 
-0.850612 0.0994023 9.88623 
10.8375 -0.00593742 0.0186236 
-0.00593742 10.3629 0.0947624 
0.0186236 0.0947624 10.3794 
10.8316 0.156882 0.0332346 
0.156882 10.7151 0.101354 
0.0332346 0.101354 10.033 
10.1096 0.121156 -0.0467624 
0.121156 10.4196 -0.164264 
-0.0467624 -0.164264 11.0505 
10.4723 -0.250603 0.211355 
-0.250603 10.4145 0.124023 
0.211355 0.124023 10.693 
11.608 -0.0670108 0.31287 
-0.0670108 11.3338 0.236805 
0.31287 0.236805 10.5733 
11.2119 0.00920778 0.497019 
0.00920778 11.5296 0.0602464 
0.497019 0.0602464 10.7735 
10.3168 -0.199597 -0.716737 
-0.199597 9.81455 0.0258355 
-0.716737 0.0258355 13.3837 
10.595 -0.798395 1.12108 
-0.798395 11.4193 0.956066 
1.12108 0.956066 11.5007 
9.80852 -0.0162154 -0.610019 
-0.0162154 9.84494 0.651244 
-0.610019 0.651244 9.87307 
9.81981 0.00863831 -0.613138 
0.00863831 9.83402 0.61897 
-0.613138 0.61897 9.87271 
9.82233 0.0498655 -0.586857 
0.0498655 9.83064 0.59051 
-0.586857 0.59051 9.87357 
9.84816 0.00327123 -0.60605 
0.00327123 9.83769 0.65139 
-0.60605 0.65139 9.84069 
9.95706 0.0489912 0.778872 
0.0489912 9.92969 -0.539553 
0.778872 -0.539553 9.87817 
9.83454 0.0322064 0.756124 
0.0322064 9.84241 -0.530597 
0.756124 -0.530597 10.088 
9.90391 0.0384838 0.796979 
0.0384838 9.90912 -0.506147 
0.796979 -0.506147 9.95188 
9.93339 0.0278192 0.849232 
0.0278192 9.93095 -0.517726 
0.849232 -0.517726 9.90058 
9.91261 0.00472898 0.64924 
0.00472898 9.88465 0.588647 
0.64924 0.588647 9.93755 
9.88059 0.0391421 0.671013 
0.0391421 9.87599 0.598905 
0.671013 0.598905 9.97823 
9.91411 -0.0035693 0.640029 
-0.0035693 9.91318 0.605319 
0.640029 0.605319 9.90753 
9.87351 -0.0035713 0.655709 
-0.0035713 9.87669 0.577419 
0.655709 0.577419 9.98461 
10.0674 0.083588 -0.00359153 
0.083588 10.0906 0.00834847 
-0.00359153 0.00834847 10.1299 
10.1126 -0.0241984 -0.0150133 
-0.0241984 10.1121 -0.0208482 
-0.0150133 -0.0208482 10.0631 
10.0921 -0.0281785 -0.0403337 
-0.0281785 10.1478 0.00855694 
-0.0403337 0.00855694 10.048 
10.0964 -0.00423452 -0.0163509 
-0.00423452 10.1231 -0.00246887 
-0.0163509 -0.00246887 10.0683 
9.89381 -0.0580508 -0.840448 
-0.0580508 9.83468 -0.0714414 
-0.840448 -0.0714414 9.82183 
9.79555 0.0479834 -0.858081 
0.0479834 9.85138 0.0412281 
-0.858081 0.0412281 9.90339 
9.80633 -0.0599683 -0.907408 
-0.0599683 9.74463 0.131559 
-0.907408 0.131559 9.99937 
9.79313 0.039966 -0.842743 
0.039966 9.85965 0.0196847 
-0.842743 0.0196847 9.89755 
9.20293 -0.0965092 -0.447598 
-0.0965092 9.30219 -0.335191 
-0.447598 -0.335191 9.76639 
8.99263 -0.136478 -0.480883 
-0.136478 9.34766 -0.49819 
-0.480883 -0.49819 9.93122 
9.19971 -0.187234 -0.467644 
-0.187234 9.41539 -0.276283 
-0.467644 -0.276283 9.65641 
9.19444 -0.0376623 -0.901558 
-0.0376623 9.61531 -0.2048 
-0.901558 -0.2048 9.46176 
9.79457 -0.02079 -0.718826 
-0.02079 9.91893 -0.656829 
-0.718826 -0.656829 10.0059 
9.80251 0.00244756 -0.699248 
0.00244756 9.81708 -0.59671 
-0.699248 -0.59671 10.0998 
9.967 -0.0225419 -0.729264 
-0.0225419 9.93959 -0.581845 
-0.729264 -0.581845 9.81284 
9.96119 -0.0720487 -0.650272 
-0.0720487 9.90861 -0.630353 
-0.650272 -0.630353 9.84962 
9.56586 -0.0473986 -0.184966 
-0.0473986 9.45869 -0.73828 
-0.184966 -0.73828 9.69146 
9.53547 0.0212774 -0.187427 
0.0212774 9.52592 -0.759676 
-0.187427 -0.759676 9.65463 
9.55418 -0.00436334 -0.215027 
-0.00436334 9.49898 -0.76171 
-0.215027 -0.76171 9.66285 
9.55771 0.0107719 -0.217526 
0.0107719 9.47724 -0.777254 
-0.217526 -0.777254 9.68106 
10.4295 -0.00167259 -0.0383857 
-0.00167259 10.6437 0.0815471 
-0.0383857 0.0815471 10.8345 
10.395 -0.114773 -0.0778818 
-0.114773 10.4769 0.0190401 
-0.0778818 0.0190401 11.0358 
10.8358 -0.127205 0.0454495 
-0.127205 10.6624 -0.0748537 
0.0454495 -0.0748537 10.4095 
10.6773 0.0182789 0.18545 
0.0182789 10.5962 0.13878 
0.18545 0.13878 10.6342 
9.31288 0.692098 0.963995 
0.692098 9.16846 -0.678376 
0.963995 -0.678376 10.6449 
9.55097 0.415366 0.421136 
0.415366 9.55153 -0.823739 
0.421136 -0.823739 10.0238 
9.02168 0.737655 0.480998 
0.737655 8.96182 -0.387245 
0.480998 -0.387245 11.1428 
9.34146 0.671308 1.05838 
0.671308 9.0176 -0.880588 
1.05838 -0.880588 10.7672 
9.21969 -0.0280152 0.446631 
-0.0280152 9.22751 0.385465 
0.446631 0.385465 9.46311 
9.19882 -0.224626 0.384483 
-0.224626 9.31586 0.345118 
0.384483 0.345118 9.39562 
9.21755 -0.0597369 0.494048 
-0.0597369 9.29426 0.271694 
0.494048 0.271694 9.3985 
9.23663 -0.0540851 0.501966 
-0.0540851 9.27064 0.393385 
0.501966 0.393385 9.40303 
9.88553 0.0060462 -0.884838 
0.0060462 9.94437 0.00798139 
-0.884838 0.00798139 9.93966 
9.89478 -0.002894 -0.884952 
-0.002894 9.92903 0.0252792 
-0.884952 0.0252792 9.94575 
9.84833 0.0249326 -0.820977 
0.0249326 9.91026 0.0134319 
-0.820977 0.0134319 10.011 
9.86309 0.00370877 -0.899167 
0.00370877 9.96159 0.0124396 
-0.899167 0.0124396 9.94489 
9.91078 -0.0497331 0.679483 
-0.0497331 9.95433 0.508328 
0.679483 0.508328 10.0408 
9.98203 -0.0557498 0.750259 
-0.0557498 9.9933 0.534571 
0.750259 0.534571 9.93056 
10.0067 0.0780162 0.750162 
0.0780162 9.97054 0.55354 
0.750162 0.55354 9.92867 
9.94174 -0.0765542 0.727688 
-0.0765542 9.96516 0.568779 
0.727688 0.568779 9.99899 
9.85904 0.022014 0.171298 
0.022014 9.82877 -0.835927 
0.171298 -0.835927 10.0679 
9.95105 0.0604661 0.199683 
0.0604661 9.79026 -0.890103 
0.199683 -0.890103 10.0144 
9.95746 0.0494843 0.215878 
0.0494843 9.78764 -0.905988 
0.215878 -0.905988 10.0106 
9.91598 0.0532999 0.248559 
0.0532999 9.87467 -0.924724 
0.248559 -0.924724 9.96505 
9.72307 0.0587211 0.303997 
0.0587211 9.73243 0.782047 
0.303997 0.782047 9.7037 
9.73034 -0.0774466 0.350479 
-0.0774466 9.57717 0.87373 
0.350479 0.87373 9.85168 
9.7409 0.0285713 0.377388 
0.0285713 9.77679 0.736617 
0.377388 0.736617 9.64151 
9.70434 0.0190668 0.29644 
0.0190668 9.61265 0.754241 
0.29644 0.754241 9.84221 
9.56745 -0.0153215 -0.70595 
-0.0153215 9.55342 -0.403881 
-0.70595 -0.403881 9.66908 
9.54673 -0.0543688 -0.682002 
-0.0543688 9.55712 -0.413688 
-0.682002 -0.413688 9.6861 
9.55795 -0.0285173 -0.690554 
-0.0285173 9.58439 -0.422932 
-0.690554 -0.422932 9.6476 
9.57228 -0.00290047 -0.698014 
-0.00290047 9.56436 -0.428124 
-0.698014 -0.428124 9.65331 
9.9998 -0.0463887 -0.00503546 
-0.0463887 9.98603 0.00623784 
-0.00503546 0.00623784 9.9959 
9.98242 -0.0473042 -0.0265061 
-0.0473042 9.99492 -0.023267 
-0.0265061 -0.023267 10.0044 
10.018 0.0452061 -0.0107334 
0.0452061 10.0211 -0.00797628 
-0.0107334 -0.00797628 9.94265 
9.97903 -0.0144438 -0.00513523 
-0.0144438 9.99039 0.00381883 
-0.00513523 0.00381883 10.0123 
10.0344 0.0117004 -0.559179 
0.0117004 9.97258 0.750241 
-0.559179 0.750241 9.82852 
9.95324 -0.0403362 -0.476667 
-0.0403362 9.88934 0.761203 
-0.476667 0.761203 9.99296 
9.79349 -0.054784 -0.503235 
-0.054784 9.88071 0.825832 
-0.503235 0.825832 10.1613 
10.0257 0.0600848 -0.457597 
0.0600848 9.96958 0.780675 
-0.457597 0.780675 9.84024 
10.112 -0.00970669 -0.0367933 
-0.00970669 10.0971 -0.00399226 
-0.0367933 -0.00399226 10.1011 
10.1073 -0.0118867 -0.00187261 
-0.0118867 10.0588 -0.0239364 
-0.00187261 -0.0239364 10.144 
10.1137 -0.026252 -0.0319031 
-0.026252 10.0673 -0.0321091 
-0.0319031 -0.0321091 10.1292 
10.1499 -0.0378794 -0.0308776 
-0.0378794 10.0878 -0.0247261 
-0.0308776 -0.0247261 10.0725 
9.81654 -0.0131306 0.170302 
-0.0131306 9.64935 0.94407 
0.170302 0.94407 9.73579 
9.80254 -0.112598 0.230293 
-0.112598 9.62942 1.03727 
0.230293 1.03727 9.76973 
9.93213 -0.0173564 0.225808 
-0.0173564 9.66639 1.02816 
0.225808 1.02816 9.60315 
9.80295 -0.0569138 0.199344 
-0.0569138 9.61684 1.0511 
0.199344 1.0511 9.78189 
9.40217 -0.103091 -0.520973 
-0.103091 9.36556 -0.587688 
-0.520973 -0.587688 9.65976 
9.39587 -0.0933515 -0.533669 
-0.0933515 9.32312 -0.608352 
-0.533669 -0.608352 9.70851 
9.37863 -0.0937194 -0.554793 
-0.0937194 9.39122 -0.617576 
-0.554793 -0.617576 9.65764 
9.46432 -0.101449 -0.530391 
-0.101449 9.38346 -0.543848 
-0.530391 -0.543848 9.57971 
10.0578 -0.0755434 0.00847067 
-0.0755434 10.2129 0.00999138 
0.00847067 0.00999138 10.1598 
10.1695 0.0620484 0.0598953 
0.0620484 10.06 0.0731466 
0.0598953 0.0731466 10.201 
10.1805 -0.0624184 -0.0102312 
-0.0624184 10.0686 -0.0536166 
-0.0102312 -0.0536166 10.1814 
10.1115 -0.0392439 0.0428357 
-0.0392439 10.1421 0.00460779 
0.0428357 0.00460779 10.1769 
9.5885 0.057731 0.205164 
0.057731 9.29924 -0.453954 
0.205164 -0.453954 9.59999 
9.66728 0.393527 0.178538 
0.393527 8.87576 -0.329893 
0.178538 -0.329893 9.94469 
9.2954 -0.178945 0.12377 
-0.178945 9.83314 -0.361104 
0.12377 -0.361104 9.35919 
9.53868 -0.176278 0.350816 
-0.176278 9.23706 -0.755687 
0.350816 -0.755687 9.71199 
9.38931 -0.0313862 -0.284144 
-0.0313862 9.32879 0.428437 
-0.284144 0.428437 9.47352 
9.50949 0.279883 -0.0795305 
0.279883 9.03663 0.381711 
-0.0795305 0.381711 9.6455 
9.33885 -0.0204023 -0.189833 
-0.0204023 9.31051 0.496298 
-0.189833 0.496298 9.54226 
9.28223 0.00875778 -0.229261 
0.00875778 9.34096 0.592633 
-0.229261 0.592633 9.56843 
9.88871 -0.0170829 0.698036 
-0.0170829 9.87465 0.61425 
0.698036 0.61425 10.0427 
9.86497 0.0661185 0.710904 
0.0661185 9.94977 0.650544 
0.710904 0.650544 9.99129 
9.91076 -0.0654634 0.692802 
-0.0654634 9.99257 0.669813 
0.692802 0.669813 9.9027 
9.97342 -0.0266844 0.709202 
-0.0266844 9.94449 0.658933 
0.709202 0.658933 9.88812 
9.93273 0.00675033 -0.0927886 
0.00675033 9.86033 -0.100997 
-0.0927886 -0.100997 10.0767 
9.87124 -0.0194786 -0.0946795 
-0.0194786 9.98504 -0.0774908 
-0.0946795 -0.0774908 10.0134 
9.54654 -0.0942314 -0.0130392 
-0.0942314 10.0649 -0.029118 
-0.0130392 -0.029118 10.2583 
9.90006 0.0360052 -0.217868 
0.0360052 9.8695 -0.0893879 
-0.217868 -0.0893879 10.1002 
3.31881 0.15981 -0.437164 
0.15981 3.38469 0.309147 
-0.437164 0.309147 0.850655 
2.14908 0.67046 -0.630464 
0.67046 4.83366 1.10545 
-0.630464 1.10545 0.571417 
4.4216 0.105459 -0.492033 
0.105459 2.39659 -0.11129 
-0.492033 -0.11129 0.735976 
2.10127 -0.332261 1.76281 
-0.332261 4.52144 -0.342342 
1.76281 -0.342342 0.931448 
10.1636 -0.0286458 -0.130376 
-0.0286458 10.0592 -0.644939 
-0.130376 -0.644939 9.83007 
9.92676 0.0148758 -0.0504769 
0.0148758 9.8372 -0.587023 
-0.0504769 -0.587023 10.2889 
10.1883 0.000759881 -0.117434 
0.000759881 10.0323 -0.606377 
-0.117434 -0.606377 9.83231 
10.1215 0.0107815 -0.255958 
0.0107815 10.1029 -0.590573 
-0.255958 -0.590573 9.82847 
9.82287 -0.0176642 -0.0217694 
-0.0176642 9.84047 -0.0130158 
-0.0217694 -0.0130158 9.89158 
9.72628 0.143403 0.0103635 
0.143403 9.84561 -0.0268233 
0.0103635 -0.0268233 9.98303 
9.81648 0.0281633 -0.016843 
0.0281633 9.86098 0.00178212 
-0.016843 0.00178212 9.87746 
9.79619 -0.014157 -0.100909 
-0.014157 9.86772 0.0288136 
-0.100909 0.0288136 9.89101 
9.87309 -0.055877 -0.737578 
-0.055877 9.91417 -0.459314 
-0.737578 -0.459314 9.94863 
9.97182 -0.0164859 -0.713046 
-0.0164859 9.87609 -0.47006 
-0.713046 -0.47006 9.88798 
9.83484 -0.0465529 -0.790305 
-0.0465529 9.8846 -0.513894 
-0.790305 -0.513894 10.0165 
9.84536 -0.0878062 -0.675059 
-0.0878062 9.93174 -0.4948 
-0.675059 -0.4948 9.95879 
9.12368 0.0656868 -0.327473 
0.0656868 9.43377 -0.0968653 
-0.327473 -0.0968653 9.90046 
8.94647 0.0995365 -0.367643 
0.0995365 9.46048 -0.111714 
-0.367643 -0.111714 10.051 
8.99563 0.0229651 -0.168427 
0.0229651 9.65915 -0.024194 
-0.168427 -0.024194 9.80313 
9.21932 0.0286572 -0.556603 
0.0286572 9.64648 0.292992 
-0.556603 0.292992 9.59212 
9.94364 0.00371733 -0.62555 
0.00371733 9.95469 0.581517 
-0.62555 0.581517 9.96427 
9.94265 0.0115701 -0.630927 
0.0115701 9.95905 0.587874 
-0.630927 0.587874 9.9609 
9.89749 -0.0357795 -0.668007 
-0.0357795 9.94393 0.590308 
-0.668007 0.590308 10.0212 
9.97134 0.00756902 -0.621848 
0.00756902 9.95282 0.586686 
-0.621848 0.586686 9.93844 
9.30102 0.159154 -0.318816 
0.159154 9.27962 0.22744 
-0.318816 0.22744 9.7306 
9.19288 0.40798 -0.210449 
0.40798 9.44388 0.0838207 
-0.210449 0.0838207 9.67449 
9.51524 -0.420256 -0.165014 
-0.420256 9.49733 0.314251 
-0.165014 0.314251 9.29867 
9.6099 0.128341 -0.369018 
0.128341 9.03738 0.219773 
-0.369018 0.219773 9.66397 
9.73977 -0.150366 0.356621 
-0.150366 9.35608 1.0288 
0.356621 1.0288 9.76779 
9.73223 -0.0522062 0.322635 
-0.0522062 9.39971 0.943531 
0.322635 0.943531 9.73169 
9.71065 -0.0734221 0.261408 
-0.0734221 9.32195 0.918325 
0.261408 0.918325 9.83104 
9.74448 -0.0488781 0.318968 
-0.0488781 9.35967 0.956724 
0.318968 0.956724 9.75949 
9.72045 0.0936702 -0.728139 
0.0936702 9.80879 0.319342 
-0.728139 0.319342 9.74105 
9.68146 0.0342969 -0.819994 
0.0342969 9.75643 0.392248 
-0.819994 0.392248 9.8324 
9.73287 0.0233273 -0.752158 
0.0233273 9.70892 0.323091 
-0.752158 0.323091 9.8285 
9.67006 0.038634 -0.798536 
0.038634 9.75118 0.330769 
-0.798536 0.330769 9.84905 
9.51687 -0.0773359 -0.591421 
-0.0773359 9.56046 -0.592653 
-0.591421 -0.592653 9.81153 
9.61986 0.0101874 -0.575356 
0.0101874 9.61112 -0.603897 
-0.575356 -0.603897 9.65788 
9.60919 -0.0540631 -0.620108 
-0.0540631 9.62621 -0.542218 
-0.620108 -0.542218 9.65346 
9.63758 -0.0261687 -0.568192 
-0.0261687 9.56188 -0.585337 
-0.568192 -0.585337 9.6894 
10.054 -0.0620424 -0.0921298 
-0.0620424 9.95652 -0.0347785 
-0.0921298 -0.0347785 10.1107 
10.0365 0.0559631 0.119791 
0.0559631 9.92075 0.152453 
0.119791 0.152453 10.164 
10.0902 -0.0522334 -0.0822033 
-0.0522334 9.90424 -0.045694 
-0.0822033 -0.045694 10.1268 
10.0218 -0.140403 -0.0650488 
-0.140403 9.89047 0.00391622 
-0.0650488 0.00391622 10.209 
9.92951 0.00919518 -0.878697 
0.00919518 10.007 0.417964 
-0.878697 0.417964 9.87694 
9.99862 -0.0567351 -0.845138 
-0.0567351 9.98525 0.376277 
-0.845138 0.376277 9.82955 
9.75012 -0.00978816 -0.852487 
-0.00978816 9.81188 0.388096 
-0.852487 0.388096 10.2514 
9.96388 0.0112718 -0.950091 
0.0112718 10.0153 0.451132 
-0.950091 0.451132 9.83422 
10.1718 -0.0123604 0.00240366 
-0.0123604 10.1753 0.0300222 
0.00240366 0.0300222 10.07 
10.1397 -0.0169517 0.000176807 
-0.0169517 10.1982 -0.020441 
0.000176807 -0.020441 10.079 
10.2165 0.134316 0.0254318 
0.134316 9.96779 0.0148223 
0.0254318 0.0148223 10.2327 
10.1251 -0.0205709 -0.0205209 
-0.0205709 10.2147 0.035793 
-0.0205209 0.035793 10.0772 
1.67552 -1.31813 -0.203879 
-1.31813 4.27102 -1.24491 
-0.203879 -1.24491 0.703023 
5.06616 2.83189 -0.430754 
2.83189 4.14647 -1.5947 
-0.430754 -1.5947 -2.56307 
2.33881 1.05881 -0.545774 
1.05881 0.131455 1.34382 
-0.545774 1.34382 4.1793 
3.41944 1.06831 -2.25685 
1.06831 2.06355 1.07984 
-2.25685 1.07984 1.16657 
9.68348 -0.0116842 -0.863701 
-0.0116842 9.77173 0.0950209 
-0.863701 0.0950209 9.82476 
9.74849 0.0120828 -0.812596 
0.0120828 9.68751 0.0886588 
-0.812596 0.0886588 9.84397 
9.69007 0.0614461 -0.8016 
0.0614461 9.86554 0.0246378 
-0.8016 0.0246378 9.72436 
9.70377 0.00291863 -0.844924 
0.00291863 9.77472 0.0801435 
-0.844924 0.0801435 9.80148 
9.96616 -0.0360646 0.900929 
-0.0360646 9.92418 0.213784 
0.900929 0.213784 9.99227 
10.0229 -0.0544101 0.861632 
-0.0544101 10.0649 0.259306 
0.861632 0.259306 9.79482 
9.88027 0.0437399 0.824593 
0.0437399 9.82482 0.204858 
0.824593 0.204858 10.1775 
9.92584 -0.0441051 0.939906 
-0.0441051 10.091 0.129349 
0.939906 0.129349 9.86572 
9.8156 -0.00428857 0.890851 
-0.00428857 9.82256 -0.0658281 
0.890851 -0.0658281 9.85913 
9.78224 -0.00257237 0.872335 
-0.00257237 9.82085 -0.0476271 
0.872335 -0.0476271 9.89419 
9.81535 0.00729635 0.87455 
0.00729635 9.82413 -0.0655758 
0.87455 -0.0655758 9.85781 
9.81564 -0.00574428 0.892286 
-0.00574428 9.87477 -0.0487856 
0.892286 -0.0487856 9.80688 
9.7109 0.0318492 0.785876 
0.0318492 9.78754 -0.306339 
0.785876 -0.306339 9.8045 
9.70528 0.0219607 0.815781 
0.0219607 9.76625 -0.337348 
0.815781 -0.337348 9.83141 
9.73696 0.0296469 0.749229 
0.0296469 9.81029 -0.312649 
0.749229 -0.312649 9.75569 
9.68592 0.0133273 0.787817 
0.0133273 9.79654 -0.339724 
0.787817 -0.339724 9.82049 
9.83599 0.0122059 0.80603 
0.0122059 9.8145 0.355584 
0.80603 0.355584 9.89268 
9.76573 -0.0312155 0.797942 
-0.0312155 9.89926 0.298394 
0.797942 0.298394 9.87817 
9.81917 0.0150937 0.817993 
0.0150937 9.83391 0.365399 
0.817993 0.365399 9.89009 
9.84982 0.0133891 0.807128 
0.0133891 9.81631 0.353423 
0.807128 0.353423 9.87704 
9.97914 -0.0240726 0.0939785 
-0.0240726 9.96029 0.895476 
0.0939785 0.895476 9.96234 
10.0209 0.0255262 0.105715 
0.0255262 9.97962 0.912272 
0.105715 0.912272 9.90126 
9.974 0.0129386 0.107243 
0.0129386 9.86881 0.802051 
0.107243 0.802051 10.059 
10.0335 -0.00336272 0.118829 
-0.00336272 9.84882 0.898327 
0.118829 0.898327 10.0194 
10.1364 -0.00869966 0.016344 
-0.00869966 10.1123 0.0275967 
0.016344 0.0275967 10.0481 
10.1349 0.0231383 0.0286226 
0.0231383 10.1026 0.0114832 
0.0286226 0.0114832 10.0593 
10.0058 -0.0777903 0.0090714 
-0.0777903 10.1436 -0.000843938 
0.0090714 -0.000843938 10.1475 
10.1447 0.0214374 -0.0115876 
0.0214374 10.0954 -0.0061396 
-0.0115876 -0.0061396 10.0567 
9.42252 0.0419581 -0.416973 
0.0419581 9.42618 0.196823 
-0.416973 0.196823 9.61748 
9.22519 0.222811 -0.528244 
0.222811 9.44311 0.230681 
-0.528244 0.230681 9.79788 
9.37313 0.0423243 -0.407643 
0.0423243 9.41058 0.235808 
-0.407643 0.235808 9.68247 
9.30867 0.00252968 -0.356597 
0.00252968 9.44161 0.0798489 
-0.356597 0.0798489 9.7159 
9.98069 0.0238541 -0.0945701 
0.0238541 9.7963 -0.474196 
-0.0945701 -0.474196 10.2659 
10.1011 0.0983249 -0.169909 
0.0983249 10.137 -0.447868 
-0.169909 -0.447868 9.80477 
10.0964 0.0334206 -0.180702 
0.0334206 10.0827 -0.497551 
-0.180702 -0.497551 9.86378 
10.0921 0.0112265 -0.248036 
0.0112265 10.1313 -0.566141 
-0.248036 -0.566141 9.81948 
9.76577 0.00148615 -0.623294 
0.00148615 9.81152 -0.679431 
-0.623294 -0.679431 9.87092 
9.82559 0.00727453 -0.62119 
0.00727453 9.79204 -0.656654 
-0.62119 -0.656654 9.83059 
9.78943 -0.0702283 -0.586092 
-0.0702283 9.82202 -0.593882 
-0.586092 -0.593882 9.83676 
9.77998 -0.0220987 -0.620958 
-0.0220987 9.80692 -0.615879 
-0.620958 -0.615879 9.86132 
10.2555 -0.00570615 -0.00846627 
-0.00570615 10.1248 -0.00079971 
-0.00846627 -0.00079971 10.2366 
10.206 0.0155077 -0.0358595 
0.0155077 10.1206 0.0430126 
-0.0358595 0.0430126 10.2904 
10.121 0.0356631 0.103431 
0.0356631 10.2539 0.0162736 
0.103431 0.0162736 10.242 
10.4598 -0.0642522 -0.0134861 
-0.0642522 10.0911 -0.0192108 
-0.0134861 -0.0192108 10.0659 
9.91826 -0.00611844 0.80981 
-0.00611844 9.9058 0.310261 
0.80981 0.310261 9.93961 
9.90994 -0.00348398 0.830891 
-0.00348398 9.88375 0.299693 
0.830891 0.299693 9.96998 
9.89292 0.0110297 0.84747 
0.0110297 9.86489 0.320114 
0.84747 0.320114 10.0058 
9.89516 0.0114297 0.818908 
0.0114297 9.91505 0.310481 
0.818908 0.310481 9.95345 
9.5444 -0.00131758 -0.768772 
-0.00131758 9.48845 0.229695 
-0.768772 0.229695 9.63773 
9.49642 0.00848669 -0.774185 
0.00848669 9.51792 0.194553 
-0.774185 0.194553 9.65624 
9.40061 0.0651887 -0.743253 
0.0651887 9.62101 0.186323 
-0.743253 0.186323 9.64895 
9.49304 0.00182761 -0.797387 
0.00182761 9.52458 0.21644 
-0.797387 0.21644 9.65297 
9.92402 -8.58597e-05 -0.816663 
-8.58597e-05 9.93284 0.313241 
-0.816663 0.313241 9.94987 
9.94235 0.0106174 -0.813747 
0.0106174 9.93865 0.311281 
-0.813747 0.311281 9.92574 
9.90842 0.009805 -0.832739 
0.009805 9.94683 0.317416 
-0.832739 0.317416 9.95149 
9.88244 -0.0426814 -0.866107 
-0.0426814 9.89273 0.316194 
-0.866107 0.316194 10.0316 
9.90215 -0.0393935 -0.89605 
-0.0393935 10.0004 -0.336998 
-0.89605 -0.336998 9.91669 
9.93703 -0.0144912 -0.904107 
-0.0144912 9.9911 -0.335735 
-0.904107 -0.335735 9.8911 
9.7976 0.0330874 -0.861845 
0.0330874 9.9015 -0.304274 
-0.861845 -0.304274 10.1201 
9.95031 -0.0213497 -0.904076 
-0.0213497 9.98508 -0.386112 
-0.904076 -0.386112 9.88384 
9.86485 0.00794246 0.0423919 
0.00794246 9.82182 0.874735 
0.0423919 0.874735 9.82589 
9.82129 -0.000755873 0.0493057 
-0.000755873 9.83009 0.869926 
0.0493057 0.869926 9.86119 
9.82432 0.00537489 0.049953 
0.00537489 9.79275 0.862046 
0.049953 0.862046 9.8955 
9.81717 -0.000664303 0.055702 
-0.000664303 9.82344 0.876012 
0.055702 0.876012 9.87196 
10.0567 0.00712423 -0.0231402 
0.00712423 10.1208 -0.0210914 
-0.0231402 -0.0210914 10.0608 
10.0968 0.000120942 -0.0347522 
0.000120942 10.0763 0.00141804 
-0.0347522 0.00141804 10.0652 
10.0814 -0.0160043 0.00358834 
-0.0160043 10.0768 -0.0103484 
0.00358834 -0.0103484 10.0801 
10.091 -0.0508016 0.00354823 
-0.0508016 10.0661 0.0160139 
0.00354823 0.0160139 10.0812 
10.0847 0.172283 -0.338963 
0.172283 8.48126 2.14922 
-0.338963 2.14922 9.48621 
9.46989 0.00559182 -0.0519911 
0.00559182 8.824 1.60103 
-0.0519911 1.60103 9.75829 
10.0192 0.235261 -0.33312 
0.235261 8.70236 2.14919 
-0.33312 2.14919 9.33059 
10.2563 0.0510959 -0.102221 
0.0510959 8.80591 2.17068 
-0.102221 2.17068 8.98993 
9.78805 -0.137861 0.215244 
-0.137861 9.27736 1.06562 
0.215244 1.06562 9.64913 
9.8552 -0.0614143 0.225339 
-0.0614143 9.21553 1.19455 
0.225339 1.19455 9.64382 
9.78348 -0.18517 0.273657 
-0.18517 9.2996 1.05693 
0.273657 1.05693 9.63147 
9.56603 0.0820283 0.198437 
0.0820283 9.56799 0.899805 
0.198437 0.899805 9.58053 
9.84103 -0.029184 0.0247018 
-0.029184 9.7663 -0.0927127 
0.0247018 -0.0927127 9.98044 
9.87032 -0.00300224 0.00258006 
-0.00300224 9.65301 -0.164784 
0.00258006 -0.164784 10.0644 
9.87751 -0.00871004 0.00781028 
-0.00871004 9.75128 -0.0760454 
0.00781028 -0.0760454 9.95898 
9.83965 -0.0151203 -0.0465853 
-0.0151203 9.72716 -0.00543692 
-0.0465853 -0.00543692 10.021 
9.58099 -0.015196 0.185762 
-0.015196 9.55815 -0.766067 
0.185762 -0.766067 9.70136 
9.58882 0.0296634 0.184788 
0.0296634 9.51891 -0.750316 
0.184788 -0.750316 9.73276 
9.60831 0.0136715 0.212479 
0.0136715 9.52973 -0.759034 
0.212479 -0.759034 9.70245 
9.59242 -0.00219965 0.203346 
-0.00219965 9.53311 -0.7755 
0.203346 -0.7755 9.71497 
9.85396 0.071608 -0.862914 
0.071608 9.86287 0.060703 
-0.862914 0.060703 9.79748 
9.75936 0.0721023 -0.893781 
0.0721023 9.76784 -0.0754873 
-0.893781 -0.0754873 9.98711 
9.78011 -0.0313018 -0.86607 
-0.0313018 9.84279 -0.0248256 
-0.86607 -0.0248256 9.8914 
9.77581 -0.0162453 -0.851916 
-0.0162453 9.8595 0.000752461 
-0.851916 0.000752461 9.879 
1.79678 0.175208 -0.186512 
0.175208 2.11628 0.300195 
-0.186512 0.300195 0.107296 
2.40425 0.212211 0.145255 
0.212211 2.07067 0.173253 
0.145255 0.173253 -0.45456 
1.33623 -0.435303 0.599454 
-0.435303 1.09714 0.743632 
0.599454 0.743632 1.58699 
1.76498 0.175732 -0.0400232 
0.175732 1.73031 1.05082 
-0.0400232 1.05082 0.525069 
9.81897 0.00175741 0.718222 
0.00175741 9.82456 -0.51283 
0.718222 -0.51283 9.90127 
9.80182 0.0476888 0.708397 
0.0476888 9.87966 -0.450378 
0.708397 -0.450378 9.86332 
9.82491 -0.0250851 0.734258 
-0.0250851 9.82322 -0.511031 
0.734258 -0.511031 9.89667 
9.85027 -0.00277536 0.725595 
-0.00277536 9.82568 -0.500647 
0.725595 -0.500647 9.86885 
9.84004 -0.285788 0.0212057 
-0.285788 9.78504 0.00984933 
0.0212057 0.00984933 10.0191 
9.79142 -0.0160433 0.116004 
-0.0160433 9.8228 -0.00569124 
0.116004 -0.00569124 10.03 
9.82703 0.121012 -0.00661709 
0.121012 9.81876 0.126308 
-0.00661709 0.126308 9.99842 
9.84281 -0.0276213 0.13517 
-0.0276213 9.8366 0.138329 
0.13517 0.138329 9.9648 
9.86115 0.0440965 -0.322402 
0.0440965 9.78963 0.78223 
-0.322402 0.78223 9.86574 
9.8245 0.00175015 -0.323815 
0.00175015 9.81782 0.821732 
-0.323815 0.821732 9.8742 
9.83993 -0.00895737 -0.320832 
-0.00895737 9.82792 0.832928 
-0.320832 0.832928 9.84867 
9.80421 -0.00735838 -0.320721 
-0.00735838 9.8417 0.831157 
-0.320721 0.831157 9.87062 
10.0928 0.199953 0.0554046 
0.199953 9.8377 0.0382006 
0.0554046 0.0382006 9.79618 
9.6786 -0.0836273 0.0875793 
-0.0836273 9.94131 0.0221022 
0.0875793 0.0221022 10.1067 
9.75009 -0.103389 0.0161464 
-0.103389 9.93923 -0.0194065 
0.0161464 -0.0194065 10.0373 
9.64158 0.0248223 -0.0986825 
0.0248223 9.98499 -0.0263962 
-0.0986825 -0.0263962 10.1001 
9.81595 0.0400836 0.779513 
0.0400836 9.89189 -0.360063 
0.779513 -0.360063 9.89982 
9.83695 0.0135003 0.826069 
0.0135003 9.86455 -0.37739 
0.826069 -0.37739 9.90616 
9.81279 0.0312034 0.764515 
0.0312034 9.83749 -0.365379 
0.764515 -0.365379 9.95738 
9.83429 0.00987759 0.836518 
0.00987759 9.89521 -0.34469 
0.836518 -0.34469 9.87816 
7.73114 0.0641261 -0.355295 
0.0641261 7.85219 0.736685 
-0.355295 0.736685 2.4863 
7.87934 -0.0791063 -0.465038 
-0.0791063 7.92628 0.798169 
-0.465038 0.798169 2.26399 
7.81227 -0.125546 -0.400138 
-0.125546 8.0893 0.87233 
-0.400138 0.87233 2.16805 
8.02188 0.369045 -0.884162 
0.369045 8.12742 1.09327 
-0.884162 1.09327 1.92031 
9.36123 0.285249 -0.195849 
0.285249 9.48435 -0.534225 
-0.195849 -0.534225 9.27916 
9.30137 -0.208149 -0.265578 
-0.208149 9.24417 -0.30153 
-0.265578 -0.30153 9.5792 
9.32671 -0.112637 -0.336352 
-0.112637 9.22199 -0.420853 
-0.336352 -0.420853 9.57604 
9.4719 -0.0229467 -0.359684 
-0.0229467 9.09092 -0.392017 
-0.359684 -0.392017 9.56193 
10.1496 -0.093685 0.0432196 
-0.093685 10.2155 0.0392229 
0.0432196 0.0392229 10.21 
10.1868 6.44043e-05 0.0531518 
6.44043e-05 10.1934 -0.0318579 
0.0531518 -0.0318579 10.1949 
10.2291 0.00317141 -0.0501767 
0.00317141 10.1383 0.086647 
-0.0501767 0.086647 10.2077 
10.1815 -0.159863 0.00423113 
-0.159863 10.3196 0.0454908 
0.00423113 0.0454908 10.0741 
9.92866 0.00338267 0.581472 
0.00338267 9.95063 -0.636355 
0.581472 -0.636355 9.95853 
9.93556 -0.0403464 0.597456 
-0.0403464 9.88341 -0.686533 
0.597456 -0.686533 10.0189 
9.95528 0.0122102 0.596889 
0.0122102 9.93666 -0.641075 
0.596889 -0.641075 9.94588 
9.94387 0.00959861 0.587974 
0.00959861 9.96336 -0.635916 
0.587974 -0.635916 9.93059 
10.1328 -0.0195817 -0.0161887 
-0.0195817 10.1067 -0.0407173 
-0.0161887 -0.0407173 10.1268 
10.0881 -0.0044199 0.0320002 
-0.0044199 10.1028 -0.013875 
0.0320002 -0.013875 10.1753 
10.1148 -0.00447573 -0.00142763 
-0.00447573 10.1279 0.00287746 
-0.00142763 0.00287746 10.1235 
10.1172 0.0153946 -0.0152022 
0.0153946 10.0863 -0.0375616 
-0.0152022 -0.0375616 10.1627 
2.29897 0.140382 -0.215326 
0.140382 2.4976 -0.495512 
-0.215326 -0.495512 -0.112204 
1.74634 0.0196059 -0.23541 
0.0196059 2.555 0.149426 
-0.23541 0.149426 0.383036 
1.96786 0.160505 -0.506336 
0.160505 1.59537 0.342854 
-0.506336 0.342854 1.12114 
1.72086 -0.249465 -0.435783 
-0.249465 2.27351 0.429427 
-0.435783 0.429427 0.690005 
9.43031 -0.123186 -0.552731 
-0.123186 9.35001 0.246994 
-0.552731 0.246994 9.49924 
9.29099 0.0381647 -0.576712 
0.0381647 9.40948 0.29104 
-0.576712 0.29104 9.5791 
9.30803 0.105727 -0.598612 
0.105727 9.39796 0.285686 
-0.598612 0.285686 9.57357 
9.2835 0.0318419 -0.635867 
0.0318419 9.48334 0.278257 
-0.635867 0.278257 9.51273 
10.1411 -0.0159037 0.0179825 
-0.0159037 10.0904 0.0163745 
0.0179825 0.0163745 10.1163 
10.132 -0.00441958 -0.00126537 
-0.00441958 10.1179 0.0140126 
-0.00126537 0.0140126 10.0979 
9.96381 -0.0129846 0.0104432 
-0.0129846 10.1837 0.0116653 
0.0104432 0.0116653 10.2003 
10.1653 0.0178134 -0.00901171 
0.0178134 10.0835 0.000475708 
-0.00901171 0.000475708 10.099 
10.1407 0.00797977 0.0159296 
0.00797977 10.148 -0.0478403 
0.0159296 -0.0478403 10.099 
9.99283 -0.0104065 0.00233743 
-0.0104065 10.2031 -0.00224696 
0.00233743 -0.00224696 10.1917 
10.1997 0.00136607 0.0222231 
0.00136607 10.0676 0.0146416 
0.0222231 0.0146416 10.1203 
10.1685 0.00460691 -0.0160407 
0.00460691 10.1257 0.00825858 
-0.0160407 0.00825858 10.0934 
9.7654 0.0110774 -0.287869 
0.0110774 9.69935 0.749001 
-0.287869 0.749001 9.81098 
9.82743 0.0488357 -0.30119 
0.0488357 9.68415 0.742237 
-0.30119 0.742237 9.76414 
9.79336 0.0203049 -0.339866 
0.0203049 9.67062 0.822633 
-0.339866 0.822633 9.81175 
9.77148 0.0331455 -0.357903 
0.0331455 9.66313 0.79915 
-0.357903 0.79915 9.84112 
14.1901 -1.64354 -1.05619 
-1.64354 10.9155 -1.56716 
-1.05619 -1.56716 17.4827 
14.972 -2.69558 -0.793447 
-2.69558 8.78734 -2.24626 
-0.793447 -2.24626 18.8289 
10.777 -2.43644 -0.906619 
-2.43644 11.598 -0.694597 
-0.906619 -0.694597 20.2132 
14.211 -1.17694 -0.332075 
-1.17694 11.956 0.0159517 
-0.332075 0.0159517 16.4213 
9.76451 -0.0466239 -0.063183 
-0.0466239 9.61611 0.177675 
-0.063183 0.177675 10.0264 
9.80942 -0.0469251 -0.0421345 
-0.0469251 9.66732 0.0981986 
-0.0421345 0.0981986 9.93025 
9.78953 -0.033607 0.032781 
-0.033607 9.70479 0.0867964 
0.032781 0.0867964 9.91269 
9.77099 -0.06659 -0.00907788 
-0.06659 9.67967 0.0561352 
-0.00907788 0.0561352 9.95633 
10.091 0.00327909 0.0139278 
0.00327909 10.1946 0.0435252 
0.0139278 0.0435252 10.0299 
10.2304 0.0215957 -0.0168419 
0.0215957 9.85489 -0.00122073 
-0.0168419 -0.00122073 10.2302 
10.1036 -0.0118041 -0.0134048 
-0.0118041 10.163 -0.0196517 
-0.0134048 -0.0196517 10.0489 
10.0796 0.00315562 0.00261691 
0.00315562 10.2079 -0.0519009 
0.00261691 -0.0519009 10.0279 
10.0709 0.00155326 0.00713124 
0.00155326 10.1784 0.0199937 
0.00713124 0.0199937 10.1147 
10.1138 0.00513457 0.00569184 
0.00513457 10.1628 -0.0144298 
0.00569184 -0.0144298 10.0874 
10.1742 -0.00718444 0.00212564 
-0.00718444 10.0349 0.00600342 
0.00212564 0.00600342 10.1548 
10.1434 0.00250158 -0.0467007 
0.00250158 10.1232 0.0137178 
-0.0467007 0.0137178 10.0974 
9.7961 0.0519683 0.782899 
0.0519683 9.84036 -0.327417 
0.782899 -0.327417 9.84068 
9.81902 0.000518516 0.837034 
0.000518516 9.82602 -0.321896 
0.837034 -0.321896 9.8321 
9.80446 0.0242536 0.813323 
0.0242536 9.8069 -0.33507 
0.813323 -0.33507 9.86579 
9.82609 0.0040642 0.841528 
0.0040642 9.78731 -0.32938 
0.841528 -0.32938 9.86375 
9.7304 -0.0134233 -0.856892 
-0.0134233 9.86175 0.0465984 
-0.856892 0.0465984 9.9335 
9.85677 0.0109811 -0.888887 
0.0109811 9.82553 0.0874531 
-0.888887 0.0874531 9.84335 
9.82421 0.0130262 -0.878647 
0.0130262 9.84201 0.0736757 
-0.878647 0.0736757 9.85943 
9.83163 0.00221753 -0.896612 
0.00221753 9.89397 0.0569384 
-0.896612 0.0569384 9.80005 
1.01044 0.0393333 0.467017 
0.0393333 1.95801 -1.02334 
0.467017 -1.02334 0.465894 
1.53818 -0.0084386 0.556032 
-0.0084386 1.9843 -0.911616 
0.556032 -0.911616 -0.0881426 
1.72564 0.276584 0.419704 
0.276584 2.20081 -0.335302 
0.419704 -0.335302 -0.492105 
1.08188 -0.127157 0.578545 
-0.127157 2.28303 -1.21982 
0.578545 -1.21982 0.0694357 
9.91009 -0.00747119 -0.645537 
-0.00747119 9.92699 -0.595099 
-0.645537 -0.595099 9.95237 
9.90241 0.0404411 -0.65776 
0.0404411 9.89751 -0.593421 
-0.65776 -0.593421 9.98954 
9.93405 -0.00186517 -0.62384 
-0.00186517 9.93798 -0.609898 
-0.62384 -0.609898 9.91743 
9.89325 -0.000755104 -0.638321 
-0.000755104 9.9204 -0.582878 
-0.638321 -0.582878 9.9758 
10.1234 0.00496543 -0.000777878 
0.00496543 10.0413 -0.0089548 
-0.000777878 -0.0089548 10.1139 
10.0722 0.00451373 0.00944273 
0.00451373 10.1239 -0.00448594 
0.00944273 -0.00448594 10.0824 
10.0898 0.0137221 0.02659 
0.0137221 10.1122 -0.0151979 
0.02659 -0.0151979 10.0766 
10.0741 0.00945502 0.00597924 
0.00945502 10.1199 -0.0102592 
0.00597924 -0.0102592 10.0845 
10.1777 -0.00633704 0.0197939 
-0.00633704 10.0876 -0.00425051 
0.0197939 -0.00425051 10.1075 
10.013 0.0028573 0.00619053 
0.0028573 10.1851 0.00492992 
0.00619053 0.00492992 10.1748 
10.1404 -0.012103 0.0171044 
-0.012103 10.1395 0.0376255 
0.0171044 0.0376255 10.093 
10.1669 -0.00775907 -0.0115347 
-0.00775907 10.1165 -0.00368809 
-0.0115347 -0.00368809 10.0895 
10.1236 -0.0166333 0.0356812 
-0.0166333 10.1393 0.0191335 
0.0356812 0.0191335 10.0858 
10.1103 -0.00248055 0.00770945 
-0.00248055 10.1416 -0.00362993 
0.00770945 -0.00362993 10.0968 
10.1758 0.00359486 0.00850894 
0.00359486 10.0091 0.00348738 
0.00850894 0.00348738 10.1638 
10.0757 -0.0051463 -0.00124144 
-0.0051463 10.1581 0.0095784 
-0.00124144 0.0095784 10.1149 
9.45952 -0.0426509 -0.379652 
-0.0426509 9.57219 -0.213507 
-0.379652 -0.213507 9.60869 
9.45582 -0.00886811 -0.390528 
-0.00886811 9.51905 -0.186514 
-0.390528 -0.186514 9.66552 
9.25334 -0.220534 -0.513777 
-0.220534 9.54214 -0.264964 
-0.513777 -0.264964 9.84491 
9.37925 0.014229 -0.332637 
0.014229 9.53146 -0.117111 
-0.332637 -0.117111 9.72968 
9.82359 -0.0423961 0.468047 
-0.0423961 8.76654 1.64677 
0.468047 1.64677 7.94885 
9.33168 -0.0365217 0.0869703 
-0.0365217 8.63884 1.94692 
0.0869703 1.94692 8.56846 
9.84775 -0.22327 0.374338 
-0.22327 8.44517 1.86334 
0.374338 1.86334 8.24606 
9.57936 -0.0826745 0.196524 
-0.0826745 8.90333 2.44119 
0.196524 2.44119 8.05629 
10.1944 0.0575639 0.037385 
0.0575639 10.1035 0.0431828 
0.037385 0.0431828 10.1636 
10.1491 -0.0104529 0.00659915 
-0.0104529 10.0648 -0.0686927 
0.00659915 -0.0686927 10.2476 
10.0775 0.0089469 -0.0289252 
0.0089469 10.2547 0.0847116 
-0.0289252 0.0847116 10.1293 
10.1402 0.036057 -0.0590701 
0.036057 10.1945 0.0298042 
-0.0590701 0.0298042 10.1268 
10.1004 0.0570444 -0.0357339 
0.0570444 10.0492 -0.0159537 
-0.0357339 -0.0159537 10.0201 
10.0889 -0.0010651 -0.00942019 
-0.0010651 10.0713 0.0278054 
-0.00942019 0.0278054 10.0096 
9.9477 -0.0745655 -0.00696834 
-0.0745655 10.1276 -0.00486141 
-0.00696834 -0.00486141 10.0944 
10.0539 -0.0148241 -0.00672731 
-0.0148241 10.1137 -0.010949 
-0.00672731 -0.010949 10.0021 
9.82918 0.0128806 0.611114 
0.0128806 9.8645 -0.586898 
0.611114 -0.586898 9.9951 
9.82136 0.0360039 0.619653 
0.0360039 9.87654 -0.63929 
0.619653 -0.63929 9.99089 
9.87188 0.0454331 0.606148 
0.0454331 9.88993 -0.60271 
0.606148 -0.60271 9.92697 
9.90344 0.0342 0.605344 
0.0342 9.89432 -0.603429 
0.605344 -0.603429 9.89102 
9.31498 0.151698 0.234358 
0.151698 9.64135 0.46571 
0.234358 0.46571 9.4119 
9.44119 -0.255771 0.196347 
-0.255771 9.20808 0.374626 
0.196347 0.374626 9.71897 
9.43167 -0.20475 0.269955 
-0.20475 9.23504 0.550162 
0.269955 0.550162 9.70153 
9.56979 0.136139 0.225471 
0.136139 9.15348 0.494965 
0.225471 0.494965 9.64497 
9.09131 0.0975744 -0.13041 
0.0975744 9.70905 -0.436923 
-0.13041 -0.436923 9.28163 
9.38482 -0.0138995 -0.0401846 
-0.0138995 9.19306 -0.562464 
-0.0401846 -0.562464 9.50411 
9.38811 -0.0962265 -0.0554209 
-0.0962265 9.01865 -0.762969 
-0.0554209 -0.762969 9.67523 
9.35456 0.134576 0.0645282 
0.134576 9.11932 -0.580363 
0.0645282 -0.580363 9.60811 
9.7212 -0.0371076 0.37789 
-0.0371076 9.62292 0.730387 
0.37789 0.730387 9.78919 
9.66895 -0.034603 0.426457 
-0.034603 9.64077 0.775595 
0.426457 0.775595 9.82359 
9.68965 -0.0434796 0.411837 
-0.0434796 9.63173 0.753879 
0.411837 0.753879 9.81193 
9.70752 -0.0483604 0.379637 
-0.0483604 9.63732 0.770331 
0.379637 0.770331 9.78848 
9.76672 0.0369655 -0.705843 
0.0369655 9.77371 -0.4365 
-0.705843 -0.4365 9.70448 
9.80704 0.0393133 -0.663622 
0.0393133 9.75539 -0.489195 
-0.663622 -0.489195 9.68249 
9.65474 -0.0940389 -0.769881 
-0.0940389 9.72382 -0.530045 
-0.769881 -0.530045 9.86635 
9.67288 -0.0133339 -0.674933 
-0.0133339 9.69952 -0.440666 
-0.674933 -0.440666 9.87251 
9.80205 0.090278 0.00584016 
0.090278 9.95143 0.108849 
0.00584016 0.108849 9.77958 
9.79351 -0.342636 -0.018908 
-0.342636 9.61262 -0.012331 
-0.018908 -0.012331 10.1269 
9.83774 -0.0499913 0.0631684 
-0.0499913 9.82566 0.102051 
0.0631684 0.102051 9.86965 
9.92789 0.103796 0.17009 
0.103796 9.64306 0.223629 
0.17009 0.223629 9.9621 
10.1814 -0.0107591 -0.0180809 
-0.0107591 10.0952 0.0449124 
-0.0180809 0.0449124 10.0505 
10.161 -0.0489523 0.0440013 
-0.0489523 10.0926 0.013475 
0.0440013 0.013475 10.0735 
9.96604 0.101819 -0.00773475 
0.101819 10.1607 -0.0250573 
-0.00773475 -0.0250573 10.2003 
10.1409 -0.0161511 0.00211274 
-0.0161511 10.0977 0.0156793 
0.00211274 0.0156793 10.0885 
9.7076 0.0124401 0.106559 
0.0124401 9.57692 -0.795161 
0.106559 -0.795161 9.72038 
9.65643 0.0156752 0.0975966 
0.0156752 9.63961 -0.80436 
0.0975966 -0.80436 9.70886 
9.68809 0.00922467 0.115955 
0.00922467 9.53184 -0.824696 
0.115955 -0.824696 9.78497 
9.64301 -0.0306565 0.0943992 
-0.0306565 9.62944 -0.762746 
0.0943992 -0.762746 9.73245 
10.0454 -0.0512121 0.0698695 
-0.0512121 9.94898 -0.0491057 
0.0698695 -0.0491057 10.1003 
9.98298 -0.00221264 0.0958393 
-0.00221264 10.077 0.0119922 
0.0958393 0.0119922 10.0347 
10.0246 0.028912 -0.107007 
0.028912 10.0514 -0.00650674 
-0.107007 -0.00650674 10.0187 
9.9549 0.00896326 -0.0316736 
0.00896326 9.97349 -0.0027204 
-0.0316736 -0.0027204 10.1663 
9.93783 -0.00271003 0.151536 
-0.00271003 9.94624 -0.835371 
0.151536 -0.835371 9.9488 
9.95325 0.0184771 0.154877 
0.0184771 9.95701 -0.852697 
0.154877 -0.852697 9.9226 
9.92732 -0.00368299 0.138535 
-0.00368299 9.91365 -0.845091 
0.138535 -0.845091 9.99189 
9.90578 -0.0364912 0.146636 
-0.0364912 9.92493 -0.866199 
0.146636 -0.866199 10.0021 
9.89238 -0.0621638 0.349941 
-0.0621638 9.79912 0.844842 
0.349941 0.844842 10.0348 
9.93619 0.00274709 0.347899 
0.00274709 9.8381 0.776859 
0.347899 0.776859 9.95198 
9.89112 -0.0149921 0.332623 
-0.0149921 9.88998 0.76965 
0.332623 0.76965 9.94516 
9.94572 -0.0139482 0.35944 
-0.0139482 9.83256 0.748997 
0.35944 0.748997 9.94799 
10.0953 -0.00663414 -0.0075738 
-0.00663414 10.1073 0.0106091 
-0.0075738 0.0106091 10.1217 
10.1145 -0.00285429 0.0269384 
-0.00285429 10.0974 -0.0129604 
0.0269384 -0.0129604 10.1125 
10.0954 -0.0684353 -0.0334982 
-0.0684353 10.129 0.0161078 
-0.0334982 0.0161078 10.0999 
10.0872 0.0441153 0.0144603 
0.0441153 10.1136 0.00728717 
0.0144603 0.00728717 10.1235 
15.0797 0.0700579 0.327719 
0.0700579 12.7708 -1.50693 
0.327719 -1.50693 12.8391 
13.4606 0.0862084 -0.305718 
0.0862084 11.5845 -0.538765 
-0.305718 -0.538765 15.6445 
13.0047 0.169683 -0.122911 
0.169683 10.9305 -1.33893 
-0.122911 -1.33893 16.7544 
14.0608 0.292338 0.932876 
0.292338 12.0128 -0.397671 
0.932876 -0.397671 14.6159 
10.5241 0.0248145 0.0297198 
0.0248145 10.46 0.124755 
0.0297198 0.124755 10.3513 
10.4912 0.125232 0.0862846 
0.125232 10.8507 0.127238 
0.0862846 0.127238 9.99361 
10.0266 -0.0674901 -0.0520177 
-0.0674901 10.2901 -0.165942 
-0.0520177 -0.165942 11.0187 
10.4231 -0.254848 0.218398 
-0.254848 10.2231 0.319018 
0.218398 0.319018 10.6894 
10.1144 0.00771354 0.00928581 
0.00771354 9.97569 -0.00770689 
0.00928581 -0.00770689 10.1611 
10.1284 -0.0594312 0.0111279 
-0.0594312 9.97785 0.0384272 
0.0111279 0.0384272 10.145 
10.0828 -0.0286177 0.0317284 
-0.0286177 10.0418 -0.0633802 
0.0317284 -0.0633802 10.1267 
10.1278 0.0314515 0.0135449 
0.0314515 9.96225 -0.0319384 
0.0135449 -0.0319384 10.1612 
9.84649 0.0578652 0.594302 
0.0578652 9.83182 -0.600889 
0.594302 -0.600889 9.87948 
9.83122 0.00420194 0.636761 
0.00420194 9.82878 -0.618182 
0.636761 -0.618182 9.89778 
9.83734 -0.0174842 0.654709 
-0.0174842 9.82452 -0.621437 
0.654709 -0.621437 9.89592 
9.83714 0.00323329 0.659598 
0.00323329 9.85426 -0.614733 
0.659598 -0.614733 9.86638 
9.37223 -0.0946674 -0.590288 
-0.0946674 9.46492 -0.364222 
-0.590288 -0.364222 9.62851 
9.57278 0.175347 -0.534657 
0.175347 9.41306 -0.325632 
-0.534657 -0.325632 9.47982 
9.37725 -0.130017 -0.670232 
-0.130017 9.43583 -0.374594 
-0.670232 -0.374594 9.65259 
9.27646 -0.0171576 -0.683899 
-0.0171576 9.57356 -0.317103 
-0.683899 -0.317103 9.61565 
9.56724 0.00647884 0.816537 
0.00647884 9.64606 0.0824913 
0.816537 0.0824913 9.65279 
9.65127 0.00904665 0.8166 
0.00904665 9.57344 0.0804959 
0.8166 0.0804959 9.64137 
9.41524 -0.0409137 0.848963 
-0.0409137 9.65711 0.0893147 
0.848963 0.0893147 9.79374 
9.52654 0.0812322 0.755628 
0.0812322 9.63771 0.0264175 
0.755628 0.0264175 9.70183 
9.9987 0.156914 -0.293826 
0.156914 9.68255 0.0675 
-0.293826 0.0675 11.6673 
10.6126 -0.0914781 0.140007 
-0.0914781 10.5123 -0.0585789 
0.140007 -0.0585789 10.2237 
10.816 -0.00476479 0.0974966 
-0.00476479 10.4361 -0.185069 
0.0974966 -0.185069 10.0965 
10.037 0.231139 0.797146 
0.231139 10.5865 -0.373833 
0.797146 -0.373833 10.725 
9.23245 0.184327 0.405032 
0.184327 9.28433 -0.434357 
0.405032 -0.434357 9.59904 
9.17626 0.271649 0.304929 
0.271649 9.3237 -0.308883 
0.304929 -0.308883 9.61586 
9.38876 -0.226032 0.34362 
-0.226032 9.39251 -0.290169 
0.34362 -0.290169 9.33455 
9.48161 0.0763604 0.349559 
0.0763604 9.06583 -0.408807 
0.349559 -0.408807 9.56839 
9.80324 -0.05923 -0.575287 
-0.05923 9.92953 -0.687645 
-0.575287 -0.687645 9.98973 
9.84495 -0.0665097 -0.613886 
-0.0665097 9.90365 -0.662915 
-0.613886 -0.662915 9.97389 
9.87871 -0.0155213 -0.567069 
-0.0155213 9.80657 -0.680617 
-0.567069 -0.680617 10.0372 
9.87351 -0.043625 -0.609434 
-0.043625 9.88881 -0.667908 
-0.609434 -0.667908 9.96017 
4.03861 0.262381 -0.413359 
0.262381 3.32176 -0.699609 
-0.413359 -0.699609 1.60382 
2.73319 0.991741 0.0173778 
0.991741 3.57166 -0.379938 
0.0173778 -0.379938 2.65934 
5.77793 2.02497 -1.20529 
2.02497 7.70787 0.809359 
-1.20529 0.809359 -4.52161 
1.45359 0.0812916 0.988171 
0.0812916 4.59895 -3.04633 
0.988171 -3.04633 2.91165 
10.0978 0.00928154 -0.00575889 
0.00928154 10.0565 0.0627707 
-0.00575889 0.0627707 10.2316 
10.0514 0.0371754 0.0376709 
0.0371754 10.1863 -0.0378372 
0.0376709 -0.0378372 10.1482 
10.1663 0.0627461 -0.0330598 
0.0627461 10.079 -0.053088 
-0.0330598 -0.053088 10.1406 
10.0742 0.0650021 0.0578366 
0.0650021 10.2497 -0.0206005 
0.0578366 -0.0206005 10.062 
9.91694 -0.0458349 0.758315 
-0.0458349 9.90204 -0.435497 
0.758315 -0.435497 9.9966 
9.92994 0.00835203 0.723452 
0.00835203 9.91514 -0.434056 
0.723452 -0.434056 9.97051 
9.93008 -0.000412138 0.731124 
-0.000412138 9.93356 -0.445818 
0.731124 -0.445818 9.95195 
9.94433 0.00422709 0.728526 
0.00422709 9.9462 -0.463444 
0.728526 -0.463444 9.92506 
9.51772 0.024499 0.733292 
0.024499 9.51531 -0.392591 
0.733292 -0.392591 9.58514 
9.62716 -0.0310688 0.752796 
-0.0310688 9.44172 -0.322106 
0.752796 -0.322106 9.54928 
9.3686 0.114537 0.707869 
0.114537 9.64391 -0.254032 
0.707869 -0.254032 9.60565 
9.44954 0.0564155 0.811905 
0.0564155 9.5074 -0.322559 
0.811905 -0.322559 9.66122 
9.98661 -0.130017 0.590869 
-0.130017 9.97618 0.338048 
0.590869 0.338048 10.1164 
10.0724 -0.0697487 0.693642 
-0.0697487 10.109 0.304561 
0.693642 0.304561 9.89788 
10.0865 -0.0693861 0.701365 
-0.0693861 10.1435 0.332571 
0.701365 0.332571 9.84913 
10.1092 -0.0360986 0.699604 
-0.0360986 10.1359 0.280446 
0.699604 0.280446 9.83405 
9.80948 0.00707542 -0.776854 
0.00707542 9.61974 -0.0431965 
-0.776854 -0.0431965 9.85986 
9.65893 0.00870723 -0.903879 
0.00870723 9.8096 -0.0951382 
-0.903879 -0.0951382 9.82054 
9.70287 -0.0798238 -0.791946 
-0.0798238 9.89827 0.00294043 
-0.791946 0.00294043 9.68793 
9.65821 0.0150495 -0.841459 
0.0150495 9.75862 -0.0587219 
-0.841459 -0.0587219 9.87224 
9.88581 0.644376 0.271453 
0.644376 10.1205 -0.314721 
0.271453 -0.314721 10.8702 
10.1159 0.0838394 0.0252635 
0.0838394 10.0996 -0.0252836 
0.0252635 -0.0252836 10.6611 
10.2976 -0.120547 0.215544 
-0.120547 10.2402 -0.198869 
0.215544 -0.198869 10.3387 
10.0202 0.252094 0.0297115 
0.252094 10.3045 -0.0394844 
0.0297115 -0.0394844 10.5518 
9.79727 -0.0212033 0.922704 
-0.0212033 9.92928 -0.0020893 
0.922704 -0.0020893 9.97687 
9.85067 -0.0281679 0.8751 
-0.0281679 9.95405 -0.037083 
0.8751 -0.037083 9.89871 
9.81966 -0.0144807 0.849598 
-0.0144807 9.88613 0.0149826 
0.849598 0.0149826 9.99763 
9.84067 -0.0426374 0.869426 
-0.0426374 9.96347 -0.0658484 
0.869426 -0.0658484 9.89929 
10.045 -0.0214386 0.0142703 
-0.0214386 10.1478 -0.023126 
0.0142703 -0.023126 10.0723 
10.1072 0.0324096 0.00989767 
0.0324096 10.078 0.0211614 
0.00989767 0.0211614 10.0799 
10.1148 0.0436293 -0.00561712 
0.0436293 10.0419 -0.000865832 
-0.00561712 -0.000865832 10.1085 
10.1083 -0.0076064 0.0440234 
-0.0076064 10.0759 0.0152613 
0.0440234 0.0152613 10.0809 
10.1578 -0.0313413 0.0271824 
-0.0313413 10.1503 0.0279661 
0.0271824 0.0279661 10.1278 
10.0804 -0.0161924 -0.0297654 
-0.0161924 10.2367 -0.00466372 
-0.0297654 -0.00466372 10.1188 
10.1877 -0.0146909 0.0248181 
-0.0146909 10.1349 0.0105012 
0.0248181 0.0105012 10.1133 
10.1461 -0.032952 0.00269933 
-0.032952 10.1982 0.0147067 
0.00269933 0.0147067 10.0916 
10.0527 0.0189349 0.37211 
0.0189349 10.1279 -0.265717 
0.37211 -0.265717 10.133 
10.1634 0.0208807 0.339667 
0.0208807 10.17 -0.308881 
0.339667 -0.308881 9.98013 
10.2442 0.0498164 0.389976 
0.0498164 10.1889 -0.317546 
0.389976 -0.317546 9.88044 
10.1874 -0.014021 0.285435 
-0.014021 10.161 -0.33207 
0.285435 -0.33207 9.96523 
9.89437 0.0674444 0.171215 
0.0674444 9.70346 -0.739158 
0.171215 -0.739158 9.7654 
9.72302 0.010062 0.160932 
0.010062 9.77487 -0.758817 
0.160932 -0.758817 9.86534 
9.80925 0.0310907 0.221059 
0.0310907 9.72516 -0.889519 
0.221059 -0.889519 9.82882 
9.77596 0.0259505 0.156292 
0.0259505 9.67749 -0.854328 
0.156292 -0.854328 9.90979 
9.85983 -0.0161084 -0.0425549 
-0.0161084 9.97827 -0.0776396 
-0.0425549 -0.0776396 10.1289 
9.87386 -0.0600912 -0.0417221 
-0.0600912 9.9699 -0.027174 
-0.0417221 -0.027174 10.1232 
9.79087 -0.0246131 0.00111016 
-0.0246131 9.98635 -0.0466028 
0.00111016 -0.0466028 10.1897 
9.8813 0.0207505 -0.053565 
0.0207505 9.99157 -0.0814891 
-0.053565 -0.0814891 10.0941 
10.1191 0.0113774 0.0791291 
0.0113774 9.3943 -0.0192949 
0.0791291 -0.0192949 10.3094 
9.97999 0.0116789 0.0599243 
0.0116789 9.77904 0.109774 
0.0599243 0.109774 10.0638 
9.57897 0.0274985 0.00124384 
0.0274985 10.3825 -0.0296588 
0.00124384 -0.0296588 9.86127 
9.94001 -0.0038702 0.0165967 
-0.0038702 9.82859 0.357257 
0.0165967 0.357257 10.0542 
9.47336 0.0705005 0.579506 
0.0705005 9.48935 0.530163 
0.579506 0.530163 9.55033 
9.43184 0.0300448 0.544707 
0.0300448 9.50297 0.595589 
0.544707 0.595589 9.57822 
9.44701 -0.240054 0.568205 
-0.240054 9.45595 0.453659 
0.568205 0.453659 9.61007 
9.45503 -0.0170622 0.658623 
-0.0170622 9.42064 0.583415 
0.658623 0.583415 9.63736 
9.92394 0.00943161 0.768017 
0.00943161 9.89628 -0.389316 
0.768017 -0.389316 9.99951 
9.95399 -0.000594525 0.795237 
-0.000594525 9.95226 -0.350911 
0.795237 -0.350911 9.91347 
9.95166 -0.0191524 0.781524 
-0.0191524 9.89692 -0.380848 
0.781524 -0.380848 9.97114 
9.93854 -0.00151975 0.779329 
-0.00151975 9.93149 -0.371927 
0.779329 -0.371927 9.94968 
9.78172 0.00793596 -0.809401 
0.00793596 9.83574 0.334069 
-0.809401 0.334069 9.88936 
9.83974 0.00552388 -0.819352 
0.00552388 9.82453 0.382697 
-0.819352 0.382697 9.84255 
9.78182 0.0392479 -0.771641 
0.0392479 9.85455 0.328593 
-0.771641 0.328593 9.87045 
9.80914 -0.0189034 -0.815884 
-0.0189034 9.82061 0.382053 
-0.815884 0.382053 9.87706 
9.88541 -0.0220841 0.18119 
-0.0220841 9.85664 -0.8933 
0.18119 -0.8933 10.0137 
9.93562 0.00721242 0.201201 
0.00721242 9.84965 -0.890013 
0.201201 -0.890013 9.97049 
9.92518 0.00759154 0.194044 
0.00759154 9.86988 -0.912679 
0.194044 -0.912679 9.96069 
9.93796 0.0103547 0.198812 
0.0103547 9.88291 -0.910337 
0.198812 -0.910337 9.93488 
9.87152 0.0284053 -0.590174 
0.0284053 9.87136 0.678511 
-0.590174 0.678511 10.0806 
9.98886 0.0200631 -0.656673 
0.0200631 9.93208 0.699737 
-0.656673 0.699737 9.9025 
9.96714 -0.00166828 -0.655794 
-0.00166828 9.94722 0.70619 
-0.655794 0.70619 9.90909 
9.94419 0.0472791 -0.714314 
0.0472791 9.97681 0.713862 
-0.714314 0.713862 9.90246 
10.2049 0.000926091 -0.00683338 
0.000926091 10.1266 -0.0333857 
-0.00683338 -0.0333857 10.1485 
10.1898 -0.0742294 0.0138335 
-0.0742294 10.1663 0.0490047 
0.0138335 0.0490047 10.1238 
10.1597 0.0871879 0.00865589 
0.0871879 10.1375 0.105115 
0.00865589 0.105115 10.1828 
10.1709 -0.0390015 0.00503453 
-0.0390015 10.1445 -0.00334221 
0.00503453 -0.00334221 10.1645 
9.89069 0.0340362 -0.150672 
0.0340362 9.9302 -0.867318 
-0.150672 -0.867318 9.99746 
9.925 -0.000352992 -0.152344 
-0.000352992 9.94252 -0.842019 
-0.152344 -0.842019 9.95082 
9.94995 -0.0159573 -0.157991 
-0.0159573 9.95071 -0.860065 
-0.157991 -0.860065 9.91769 
9.92196 0.00964297 -0.143378 
0.00964297 9.90413 -0.850413 
-0.143378 -0.850413 9.99225 
9.80283 0.0358032 0.0534559 
0.0358032 9.87748 0.0990177 
0.0534559 0.0990177 10.0603 
9.69935 -0.0709024 0.130133 
-0.0709024 9.96059 0.0448051 
0.130133 0.0448051 10.0807 
9.87861 0.0500628 0.0629376 
0.0500628 9.89135 0.0496552 
0.0629376 0.0496552 9.97063 
9.72461 0.00710997 -0.0170035 
0.00710997 9.94392 -0.0500472 
-0.0170035 -0.0500472 10.0721 
13.6652 0.382978 -0.692351 
0.382978 13.0698 -0.734495 
-0.692351 -0.734495 14.8359 
13.0399 0.00555069 -0.62224 
0.00555069 13.9681 -0.815411 
-0.62224 -0.815411 14.5629 
9.73482 -0.240044 -0.999312 
-0.240044 11.8153 -1.44462 
-0.999312 -1.44462 20.0208 
13.615 -0.434728 0.117625 
-0.434728 13.6297 -0.125199 
0.117625 -0.125199 14.3262 
9.34253 0.0396429 0.026255 
0.0396429 9.39869 0.513342 
0.026255 0.513342 9.51752 
9.46895 -0.00603894 0.0456485 
-0.00603894 9.21405 0.544496 
0.0456485 0.544496 9.57573 
9.53485 -0.0163594 -1.40823e-05 
-0.0163594 9.06095 0.399759 
-1.40823e-05 0.399759 9.66293 
9.35064 0.00164436 0.0187896 
0.00164436 9.35542 0.559099 
0.0187896 0.559099 9.55267 
10.0829 -0.0188754 0.00486684 
-0.0188754 10.0623 0.0148702 
0.00486684 0.0148702 10.0445 
10.1034 -0.0271644 -0.00367284 
-0.0271644 10.0579 0.000147359 
-0.00367284 0.000147359 10.0284 
10.0156 0.00990586 0.0547512 
0.00990586 10.0751 -0.00909129 
0.0547512 -0.00909129 10.0989 
10.0783 -0.0128507 -1.46456e-05 
-0.0128507 10.046 0.00116088 
-1.46456e-05 0.00116088 10.0654 
9.37106 -0.069083 0.464822 
-0.069083 9.27401 -0.394494 
0.464822 -0.394494 9.3091 
9.29996 0.0130269 0.532198 
0.0130269 9.25244 -0.199358 
0.532198 -0.199358 9.40178 
9.00277 0.148753 0.421102 
0.148753 9.42982 -0.0941373 
0.421102 -0.0941373 9.52159 
9.20631 0.077959 0.66864 
0.077959 9.20898 -0.16867 
0.66864 -0.16867 9.53888 
9.88771 -0.221902 0.0127781 
-0.221902 9.92625 0.0333349 
0.0127781 0.0333349 10.2124 
9.99554 0.0101011 -0.0351162 
0.0101011 10.0007 -0.0290569 
-0.0351162 -0.0290569 10.0301 
9.97336 0.0133044 -0.0530063 
0.0133044 10.0077 -0.0308436 
-0.0530063 -0.0308436 10.0453 
10.0216 0.00783498 -0.142913 
0.00783498 9.93715 -0.0847736 
-0.142913 -0.0847736 10.0676 
9.40458 0.0381368 -0.157053 
0.0381368 9.24693 0.52227 
-0.157053 0.52227 9.63418 
9.49765 0.15452 -0.116678 
0.15452 9.11064 0.363014 
-0.116678 0.363014 9.67739 
9.35999 -0.0159748 -0.0784622 
-0.0159748 9.40241 0.502664 
-0.0784622 0.502664 9.52329 
9.38375 -0.0653199 -0.182218 
-0.0653199 9.3089 0.542025 
-0.182218 0.542025 9.59304 
9.89328 -0.0261928 0.30426 
-0.0261928 9.90975 -0.895911 
0.30426 -0.895911 9.97303 
9.97361 0.00925366 0.304154 
0.00925366 9.94264 -0.874475 
0.304154 -0.874475 9.8598 
9.8595 -0.0274072 0.25799 
-0.0274072 9.80809 -0.83393 
0.25799 -0.83393 10.1085 
9.99024 0.0359804 0.279823 
0.0359804 9.91377 -0.94482 
0.279823 -0.94482 9.87205 
9.77981 0.00508335 0.878874 
0.00508335 9.80602 0.0423064 
0.878874 0.0423064 9.87329 
9.78806 0.0266997 0.918467 
0.0266997 9.82618 0.0651399 
0.918467 0.0651399 9.84488 
9.79513 -0.00634858 0.881392 
-0.00634858 9.82412 0.0668937 
0.881392 0.0668937 9.83986 
9.79944 0.0185214 0.910426 
0.0185214 9.87974 0.0481362 
0.910426 0.0481362 9.77994 
9.89676 -0.0561798 0.448821 
-0.0561798 9.92597 0.734752 
0.448821 0.734752 9.98972 
9.93897 -0.045586 0.474486 
-0.045586 9.873 0.758177 
0.474486 0.758177 10.0005 
9.95229 0.00310821 0.434171 
0.00310821 9.94355 0.717265 
0.434171 0.717265 9.91661 
9.93135 -0.045801 0.435347 
-0.045801 9.92394 0.727041 
0.435347 0.727041 9.95716 
9.81362 0.0116923 0.21155 
0.0116923 9.73599 0.945831 
0.21155 0.945831 9.7612 
9.83574 -0.0792546 0.245974 
-0.0792546 9.64916 0.887637 
0.245974 0.887637 9.82591 
9.86824 -0.0318621 0.234199 
-0.0318621 9.67296 0.985545 
0.234199 0.985545 9.76961 
9.81777 -0.00517989 0.223445 
-0.00517989 9.70825 0.949761 
0.223445 0.949761 9.78478 
10.1341 0.0115013 0.0854271 
0.0115013 10.1712 0.0278195 
0.0854271 0.0278195 10.1402 
10.148 0.0197356 -0.0391201 
0.0197356 10.1154 0.0175201 
-0.0391201 0.0175201 10.1821 
10.1364 -0.0137088 -0.00801881 
-0.0137088 10.1318 -0.0122999 
-0.00801881 -0.0122999 10.1773 
10.1146 0.0162847 -0.014784 
0.0162847 10.1169 0.0282196 
-0.014784 0.0282196 10.214 
9.35999 -0.0238005 0.426616 
-0.0238005 9.38006 -0.214781 
0.426616 -0.214781 9.58885 
9.31203 0.444934 0.178019 
0.444934 9.2135 -0.164935 
0.178019 -0.164935 9.80336 
9.38932 -0.231417 0.317788 
-0.231417 9.57266 -0.22476 
0.317788 -0.22476 9.36691 
9.18119 0.0799323 0.418873 
0.0799323 9.41838 -0.526202 
0.418873 -0.526202 9.72933 
9.39554 0.0371535 -0.34312 
0.0371535 9.48087 0.103991 
-0.34312 0.103991 9.71177 
9.53236 -0.0562209 -0.339638 
-0.0562209 9.44884 0.0245541 
-0.339638 0.0245541 9.60697 
9.25483 0.135809 -0.315785 
0.135809 9.57921 0.00553316 
-0.315785 0.00553316 9.75413 
9.37134 0.0515346 -0.413423 
0.0515346 9.51708 0.0435901 
-0.413423 0.0435901 9.69976 
9.40016 0.0627765 -0.840157 
0.0627765 9.6506 0.104605 
-0.840157 0.104605 9.83754 
9.68851 -0.00941128 -0.822856 
-0.00941128 9.57051 0.0558785 
-0.822856 0.0558785 9.62927 
9.60067 -0.00361809 -0.818209 
-0.00361809 9.66495 0.0839305 
-0.818209 0.0839305 9.62268 
9.54944 -0.0773672 -0.747606 
-0.0773672 9.64395 0.0189892 
-0.747606 0.0189892 9.69491 
10.1545 0.0346811 0.00168411 
0.0346811 10.1321 0.0145176 
0.00168411 0.0145176 10.0773 
10.1544 -0.0299686 0.00161418 
-0.0299686 10.0536 -0.020191 
0.00161418 -0.020191 10.1559 
10.1149 -0.00638716 -0.0289991 
-0.00638716 10.0731 -0.0183725 
-0.0289991 -0.0183725 10.1759 
10.1373 -0.0137365 -0.0326882 
-0.0137365 10.1325 -0.0115485 
-0.0326882 -0.0115485 10.0941 
9.92752 0.0132298 -0.312459 
0.0132298 9.82153 0.836865 
-0.312459 0.836865 9.95757 
9.90387 0.0400407 -0.331187 
0.0400407 9.86888 0.808692 
-0.331187 0.808692 9.93386 
9.85126 0.0397558 -0.372564 
0.0397558 9.83462 0.854528 
-0.372564 0.854528 10.0207 
9.8915 0.0731729 -0.292782 
0.0731729 9.86692 0.800156 
-0.292782 0.800156 9.94818 
9.78096 0.0218737 0.524501 
0.0218737 9.82512 -0.646816 
0.524501 -0.646816 10.0603 
9.93181 0.00257361 0.531395 
0.00257361 9.86921 -0.674186 
0.531395 -0.674186 9.86541 
9.85502 0.00395366 0.541131 
0.00395366 9.85092 -0.715428 
0.541131 -0.715428 9.96048 
9.93416 0.0324717 0.579287 
0.0324717 9.87464 -0.684292 
0.579287 -0.684292 9.85763 
6.53304 1.70227 1.33628 
1.70227 9.88132 -2.83555 
1.33628 -2.83555 -4.99286 
6.86382 0.0284909 -2.98419 
0.0284909 13.0547 -1.1311 
-2.98419 -1.1311 -8.49702 
-2.58581 0.149027 -1.54517 
0.149027 -0.385882 1.03574 
-1.54517 1.03574 14.3932 
7.20239 -0.418502 -1.50602 
-0.418502 4.47827 -10.8209 
-1.50602 -10.8209 -0.259171 
9.90672 -0.0289124 0.209978 
-0.0289124 9.83589 -0.859827 
0.209978 -0.859827 9.99667 
9.95369 0.037885 0.188412 
0.037885 9.7854 -0.89334 
0.188412 -0.89334 10.0002 
9.91107 0.0157127 0.181298 
0.0157127 9.89277 -0.832669 
0.181298 -0.832669 9.93543 
9.95036 -0.0092241 0.19626 
-0.0092241 9.85462 -0.815787 
0.19626 -0.815787 9.93429 
9.94318 0.00501493 0.0393067 
0.00501493 9.85422 -0.0435252 
0.0393067 -0.0435252 9.97657 
9.9664 0.0158505 0.0376846 
0.0158505 9.89116 -0.0248999 
0.0376846 -0.0248999 9.91641 
9.66162 0.0115342 -0.0511101 
0.0115342 10.0013 0.02122 
-0.0511101 0.02122 10.111 
9.87816 0.108341 0.129698 
0.108341 9.8979 0.0639151 
0.129698 0.0639151 9.9979 
10.1333 -0.0378255 -0.032161 
-0.0378255 10.1308 -0.0212903 
-0.032161 -0.0212903 10.1806 
10.0855 -0.0690853 0.0174763 
-0.0690853 10.1656 -0.0150474 
0.0174763 -0.0150474 10.1936 
10.1608 -0.00368961 -0.0347422 
-0.00368961 10.1425 0.148797 
-0.0347422 0.148797 10.1414 
10.1035 -0.0430785 -0.0108858 
-0.0430785 10.1191 0.0401015 
-0.0108858 0.0401015 10.2221 
10.0926 -0.00451344 -0.0462278 
-0.00451344 10.1817 0.00449433 
-0.0462278 0.00449433 10.2024 
10.1663 -0.0675645 0.0181864 
-0.0675645 10.1685 0.0222848 
0.0181864 0.0222848 10.142 
10.1042 -0.00327023 0.0630941 
-0.00327023 10.2416 -0.0539185 
0.0630941 -0.0539185 10.1309 
10.2661 -0.137735 0.00201489 
-0.137735 10.1867 0.0540585 
0.00201489 0.0540585 10.024 
10.1332 -0.0219512 -0.00201469 
-0.0219512 10.1743 -0.0228225 
-0.00201469 -0.0228225 10.1272 
10.0819 -0.0119023 -0.0231684 
-0.0119023 10.1429 -0.0400051 
-0.0231684 -0.0400051 10.2099 
10.1359 -0.0210069 -0.000138612 
-0.0210069 10.1766 -0.0251375 
-0.000138612 -0.0251375 10.1221 
10.1342 -0.0216241 -0.00189174 
-0.0216241 10.1731 -0.027229 
-0.00189174 -0.027229 10.1273 
9.94849 -0.00646449 0.311621 
-0.00646449 9.94611 0.864252 
0.311621 0.864252 9.92595 
9.95628 -0.0651153 0.305698 
-0.0651153 9.86001 0.818084 
0.305698 0.818084 10.0043 
9.93974 -0.00170222 0.292269 
-0.00170222 9.87086 0.848883 
0.292269 0.848883 10.01 
9.97588 -0.00260433 0.329214 
-0.00260433 9.89719 0.877832 
0.329214 0.877832 9.94748 
9.90765 0.0357475 0.876794 
0.0357475 9.90795 0.148667 
0.876794 0.148667 9.98172 
9.92471 0.0046817 0.855368 
0.0046817 9.93198 0.1505 
0.855368 0.1505 9.94062 
9.88385 -0.00811952 0.856313 
-0.00811952 9.90716 0.132724 
0.856313 0.132724 10.0063 
9.93504 -0.0109741 0.874016 
-0.0109741 9.95821 0.165477 
0.874016 0.165477 9.90407 
10.643 -0.189772 0.0556218 
-0.189772 10.4352 -0.0178031 
0.0556218 -0.0178031 10.4217 
10.0046 -0.0343353 -0.0348479 
-0.0343353 10.5136 0.136588 
-0.0348479 0.136588 10.9817 
10.5767 -0.146293 0.0786312 
-0.146293 10.6964 -0.00980527 
0.0786312 -0.00980527 10.2268 
10.5239 0.0929879 0.196956 
0.0929879 10.3159 -0.188033 
0.196956 -0.188033 10.6601 
10.0439 -0.00892182 0.00673622 
-0.00892182 10.0883 0.0113938 
0.00673622 0.0113938 9.9853 
9.95534 -0.00285618 -0.0314769 
-0.00285618 10.0356 0.024153 
-0.0314769 0.024153 10.1265 
10.0029 0.0604838 -0.0010751 
0.0604838 10.0898 0.0245375 
-0.0010751 0.0245375 10.0248 
10.0142 -0.000830802 -0.00356911 
-0.000830802 10.0905 -0.0246675 
-0.00356911 -0.0246675 10.0129 
10.0465 0.0174646 -0.0373213 
0.0174646 10.1139 0.0245825 
-0.0373213 0.0245825 10.0732 
10.0436 -0.0309914 0.0313017 
-0.0309914 10.0679 -0.0318259 
0.0313017 -0.0318259 10.1222 
10.0922 -0.0298557 0.0176916 
-0.0298557 10.0706 0.000836902 
0.0176916 0.000836902 10.0709 
10.0823 -0.0218316 0.0246982 
-0.0218316 10.0536 0.0192921 
0.0246982 0.0192921 10.0978 
9.93074 0.0132915 0.879084 
0.0132915 9.9561 -0.416313 
0.879084 -0.416313 9.86813 
9.79385 0.0165078 0.812364 
0.0165078 9.81643 -0.414887 
0.812364 -0.414887 10.1447 
9.95424 0.0108684 0.880988 
0.0108684 9.90771 -0.415557 
0.880988 -0.415557 9.89302 
9.91759 0.017654 0.938632 
0.017654 9.9848 -0.444103 
0.938632 -0.444103 9.85258 
9.8255 0.0250627 -0.22494 
0.0250627 9.82936 -0.863602 
-0.22494 -0.863602 9.85723 
9.85023 -0.00343926 -0.223018 
-0.00343926 9.84299 -0.870487 
-0.223018 -0.870487 9.81888 
9.82827 0.0037496 -0.1791 
0.0037496 9.81714 -0.845579 
-0.1791 -0.845579 9.86669 
9.86811 -0.0137484 -0.187131 
-0.0137484 9.77797 -0.81755 
-0.187131 -0.81755 9.866 
9.93127 0.0028275 -0.130024 
0.0028275 9.92486 0.853404 
-0.130024 0.853404 9.98144 
9.92034 -0.0348032 -0.137742 
-0.0348032 9.92547 0.873852 
-0.137742 0.873852 9.99177 
9.93916 -0.0086962 -0.137376 
-0.0086962 9.94408 0.85311 
-0.137376 0.85311 9.95434 
9.9579 0.00709464 -0.145313 
0.00709464 9.95201 0.865599 
-0.145313 0.865599 9.92766 
9.65144 -0.0507985 -0.705708 
-0.0507985 9.65905 -0.473691 
-0.705708 -0.473691 9.70302 
9.61719 -0.0786036 -0.681505 
-0.0786036 9.67221 -0.458936 
-0.681505 -0.458936 9.72411 
9.67617 0.0064985 -0.689395 
0.0064985 9.65756 -0.477236 
-0.689395 -0.477236 9.67977 
9.64178 -0.00982777 -0.718078 
-0.00982777 9.6865 -0.47591 
-0.718078 -0.47591 9.68523 
8.67647 3.50514 2.07251 
3.50514 13.7983 -0.301702 
2.07251 -0.301702 21.168 
11.259 2.52565 0.410075 
2.52565 12.7077 -0.235466 
0.410075 -0.235466 19.676 
10.951 3.57158 1.08863 
3.57158 12.8121 -1.46044 
1.08863 -1.46044 19.8795 
12.6623 1.05131 -1.0302 
1.05131 13.8477 0.329933 
-1.0302 0.329933 17.1327 
9.84197 -0.0275338 0.065174 
-0.0275338 9.81644 -0.899232 
0.065174 -0.899232 9.84878 
9.84551 -0.00247936 0.0613634 
-0.00247936 9.81668 -0.868425 
0.0613634 -0.868425 9.84499 
9.8207 -0.0115029 0.0365138 
-0.0115029 9.80001 -0.862131 
0.0365138 -0.862131 9.88648 
9.87943 -0.0192411 0.0516809 
-0.0192411 9.82785 -0.89362 
0.0516809 -0.89362 9.79991 
9.87674 0.0152154 0.295315 
0.0152154 9.87256 0.784045 
0.295315 0.784045 9.96137 
9.92145 -0.0147506 0.271096 
-0.0147506 9.88038 0.80959 
0.271096 0.80959 9.90884 
9.86359 -0.0168358 0.329938 
-0.0168358 9.81937 0.833896 
0.329938 0.833896 10.0277 
9.93634 -0.0264674 0.254295 
-0.0264674 9.88661 0.803371 
0.254295 0.803371 9.88771 
9.43989 -0.0253868 -0.278123 
-0.0253868 9.36622 -0.505061 
-0.278123 -0.505061 9.52285 
9.39327 0.0736535 -0.253326 
0.0736535 9.50572 -0.525079 
-0.253326 -0.525079 9.42997 
9.43254 -0.153123 -0.310525 
-0.153123 9.2378 -0.616198 
-0.310525 -0.616198 9.65862 
9.45846 -0.0387019 -0.181403 
-0.0387019 9.32264 -0.420423 
-0.181403 -0.420423 9.54785 
10.5821 -0.192767 -0.122548 
-0.192767 10.6047 0.126005 
-0.122548 0.126005 10.1685 
10.3671 -0.412001 -0.123022 
-0.412001 10.5946 0.100303 
-0.123022 0.100303 10.3936 
10.0494 0.0599908 0.0655213 
0.0599908 10.4555 -0.154771 
0.0655213 -0.154771 10.8505 
10.4807 -0.149186 -0.00310592 
-0.149186 10.2154 0.157809 
-0.00310592 0.157809 10.6592 
10.5737 -0.140752 0.103192 
-0.140752 10.73 0.193271 
0.103192 0.193271 10.8734 
10.1913 -0.148161 -0.0737901 
-0.148161 10.184 -0.302166 
-0.0737901 -0.302166 11.8019 
10.9485 0.00662551 0.0851188 
0.00662551 11.2306 0.235222 
0.0851188 0.235222 9.99809 
10.8081 -0.171987 0.238085 
-0.171987 10.1854 0.677022 
0.238085 0.677022 11.1837 
9.90501 0.016842 0.150031 
0.016842 9.93892 0.857071 
0.150031 0.857071 10.0021 
9.92052 -0.00514092 0.142348 
-0.00514092 9.95202 0.83408 
0.142348 0.83408 9.97352 
9.95654 -0.00759157 0.155499 
-0.00759157 9.95167 0.840057 
0.155499 0.840057 9.93785 
9.94279 0.029318 0.145207 
0.029318 9.92032 0.841872 
0.145207 0.841872 9.98295 
10.0092 0.0405257 -0.344473 
0.0405257 9.9992 0.86344 
-0.344473 0.86344 9.8635 
9.90123 0.00678612 -0.367742 
0.00678612 9.84766 0.880665 
-0.367742 0.880665 10.123 
9.92669 -0.00319114 -0.342198 
-0.00319114 9.96647 0.826832 
-0.342198 0.826832 9.97875 
10.0083 0.0658554 -0.380323 
0.0658554 9.96723 0.773048 
-0.380323 0.773048 9.89636 
9.77621 0.00047426 -0.870489 
0.00047426 9.82776 -0.0460196 
-0.870489 -0.0460196 9.89889 
9.80949 0.00891591 -0.896512 
0.00891591 9.89754 -0.047133 
-0.896512 -0.047133 9.79583 
9.81631 -0.00977953 -0.889879 
-0.00977953 9.82716 -0.0632356 
-0.889879 -0.0632356 9.8594 
9.84296 -0.0119216 -0.892158 
-0.0119216 9.81336 -0.0785377 
-0.892158 -0.0785377 9.84655 
9.80694 0.00790404 -0.857451 
0.00790404 9.81044 -0.173821 
-0.857451 -0.173821 9.85287 
9.81104 0.000824731 -0.879402 
0.000824731 9.85088 -0.236317 
-0.879402 -0.236317 9.80834 
9.79881 0.0295898 -0.883964 
0.0295898 9.81817 -0.229268 
-0.883964 -0.229268 9.85326 
9.77355 -0.0128048 -0.822855 
-0.0128048 9.83075 -0.19153 
-0.822855 -0.19153 9.86595 
9.9586 0.00834547 0.014403 
0.00834547 9.92543 -0.0694227 
0.014403 -0.0694227 10.1283 
9.87041 0.0194752 0.0740208 
0.0194752 10.1107 -0.0641872 
0.0740208 -0.0641872 10.0312 
10.1509 -0.103703 -0.0103467 
-0.103703 9.69583 0.0255003 
-0.0103467 0.0255003 10.1656 
9.96257 0.164808 -0.0424532 
0.164808 9.90727 -0.148634 
-0.0424532 -0.148634 10.1425 
9.83007 -0.00380833 -0.0830491 
-0.00380833 9.81932 -0.885842 
-0.0830491 -0.885842 9.83613 
9.84106 0.0097404 -0.0716818 
0.0097404 9.79851 -0.901067 
-0.0716818 -0.901067 9.84595 
9.81803 0.00346434 -0.0407679 
0.00346434 9.77739 -0.869499 
-0.0407679 -0.869499 9.89009 
9.90339 0.0153114 -0.057484 
0.0153114 9.80094 -0.901616 
-0.057484 -0.901616 9.78118 
1.79299 0.0641941 -0.235139 
0.0641941 2.44916 0.447481 
-0.235139 0.447481 0.861591 
2.71225 0.0814549 0.839693 
0.0814549 2.64389 0.483436 
0.839693 0.483436 -0.252406 
2.34368 0.0567158 -0.0831406 
0.0567158 2.09548 0.882183 
-0.0831406 0.882183 0.664578 
2.63659 -0.00961503 -0.625994 
-0.00961503 1.64301 0.667809 
-0.625994 0.667809 0.824128 
9.63147 0.0818028 -0.260103 
0.0818028 9.36008 0.680569 
-0.260103 0.680569 9.66663 
9.5053 0.00908066 -0.337019 
0.00908066 9.55407 0.728819 
-0.337019 0.728819 9.59881 
9.50454 -0.0432035 -0.38212 
-0.0432035 9.55446 0.739762 
-0.38212 0.739762 9.59919 
9.47969 0.0567756 -0.306162 
0.0567756 9.47327 0.790655 
-0.306162 0.790655 9.70523 
9.90698 0.0189917 -0.0345902 
0.0189917 9.93925 -0.0231738 
-0.0345902 -0.0231738 10.0335 
9.84671 -0.0461089 0.0526818 
-0.0461089 10.0093 -0.0161179 
0.0526818 -0.0161179 10.0237 
10.2069 0.0423867 -0.0619353 
0.0423867 9.50275 0.0616962 
-0.0619353 0.0616962 10.17 
9.88275 0.152479 -0.0968807 
0.152479 9.92301 -0.185722 
-0.0968807 -0.185722 10.0739 
10.5071 -0.0323731 0.0117282 
-0.0323731 10.2207 -0.0478398 
0.0117282 -0.0478398 10.5231 
10.2383 0.0923475 0.0501428 
0.0923475 10.3294 -0.0514854 
0.0501428 -0.0514854 10.6831 
10.5026 0.231145 0.0367019 
0.231145 10.2902 -0.0907381 
0.0367019 -0.0907381 10.458 
10.447 0.103526 0.100065 
0.103526 10.3573 -0.119697 
0.100065 -0.119697 10.4465 
9.91001 -0.00369453 -0.0119373 
-0.00369453 9.86312 0.0736635 
-0.0119373 0.0736635 10.1127 
9.82597 0.00925602 -0.0687632 
0.00925602 10.0465 0.0695377 
-0.0687632 0.0695377 10.0133 
10.0926 -0.101239 0.0298935 
-0.101239 9.70077 -0.00108057 
0.0298935 -0.00108057 10.0924 
9.92162 0.136394 0.0283423 
0.136394 9.8424 0.13149 
0.0283423 0.13149 10.1218 
8.73765 0.360544 -0.169692 
0.360544 9.43494 0.157093 
-0.169692 0.157093 9.69451 
9.52188 -0.249703 -0.638037 
-0.249703 9.22615 0.248699 
-0.638037 0.248699 9.11906 
9.46891 -0.00863306 -0.668992 
-0.00863306 9.21506 0.0831534 
-0.668992 0.0831534 9.18312 
8.88249 0.136756 -0.736663 
0.136756 9.09829 0.329308 
-0.736663 0.329308 9.88631 
9.69319 -0.0150138 -0.150466 
-0.0150138 9.63311 -0.792408 
-0.150466 -0.792408 9.71009 
9.67135 -0.0140061 -0.179347 
-0.0140061 9.62859 -0.787657 
-0.179347 -0.787657 9.73646 
9.66255 -0.017389 -0.186054 
-0.017389 9.53412 -0.8219 
-0.186054 -0.8219 9.83973 
9.65996 -0.0527244 -0.197057 
-0.0527244 9.63236 -0.742942 
-0.197057 -0.742942 9.74408 
9.81378 -0.00544891 -0.0365468 
-0.00544891 9.8047 0.869474 
-0.0365468 0.869474 9.87808 
9.90588 -0.0255756 -0.041024 
-0.0255756 9.80253 0.892826 
-0.041024 0.892826 9.78815 
9.83805 -0.0172883 -0.0578523 
-0.0172883 9.80553 0.898444 
-0.0578523 0.898444 9.85297 
9.82626 0.00304988 -0.074242 
0.00304988 9.82452 0.877632 
-0.074242 0.877632 9.84578 
10.7892 -0.165185 0.0956701 
-0.165185 10.7336 0.0553772 
0.0956701 0.0553772 9.97605 
10.6273 -0.0564984 0.0662775 
-0.0564984 10.3776 -0.0110031 
0.0662775 -0.0110031 10.494 
9.99811 -0.137611 -0.169023 
-0.137611 10.2096 0.166373 
-0.169023 0.166373 11.2912 
10.3197 0.178796 0.413033 
0.178796 10.4614 -0.303575 
0.413033 -0.303575 10.7179 
9.49639 0.152387 -0.00903528 
0.152387 9.90323 -0.00087538 
-0.00903528 -0.00087538 10.0566 
9.73305 0.0254732 0.112449 
0.0254732 9.8109 -0.0144818 
0.112449 -0.0144818 9.91225 
9.89739 -0.032137 0.0665472 
-0.032137 9.7242 0.000727904 
0.0665472 0.000727904 9.83461 
9.73307 -0.088247 0.111189 
-0.088247 9.80555 0.0138022 
0.111189 0.0138022 9.91758 
9.39383 -0.0996249 0.757514 
-0.0996249 9.56886 0.48835 
0.757514 0.48835 9.87242 
9.66486 0.102161 0.653822 
0.102161 9.59328 0.418232 
0.653822 0.418232 9.57698 
9.63814 -0.0487167 0.706591 
-0.0487167 9.63617 0.387793 
0.706591 0.387793 9.56081 
9.60465 -0.110046 0.598845 
-0.110046 9.52824 0.483896 
0.598845 0.483896 9.70223 
10.1844 0.00705777 0.00168131 
0.00705777 10.2492 0.00683506 
0.00168131 0.00683506 10.2716 
10.1683 0.00830806 -0.0129783 
0.00830806 10.2684 0.0159234 
-0.0129783 0.0159234 10.2684 
10.152 0.0603154 0.00888841 
0.0603154 10.3 0.0497282 
0.00888841 0.0497282 10.2532 
10.1824 0.058566 -0.0344441 
0.058566 10.2846 0.0234567 
-0.0344441 0.0234567 10.2382 
9.85304 0.00746712 -0.811783 
0.00746712 9.90914 0.339676 
-0.811783 0.339676 9.94884 
9.84268 -0.0202893 -0.791932 
-0.0202893 9.91586 0.370856 
-0.791932 0.370856 9.95248 
9.84204 0.00999993 -0.776242 
0.00999993 9.86847 0.308689 
-0.776242 0.308689 10.0005 
9.87954 0.00904876 -0.781754 
0.00904876 9.94203 0.359275 
-0.781754 0.359275 9.88947 
10.0917 0.0352558 0.0203433 
0.0352558 10.2017 0.0159477 
0.0203433 0.0159477 10.1686 
10.1605 0.136191 -0.0299601 
0.136191 10.133 -0.0327401 
-0.0299601 -0.0327401 10.1684 
10.1259 0.01127 -0.060237 
0.01127 10.1671 0.0111044 
-0.060237 0.0111044 10.169 
10.2147 0.133594 -0.00828617 
0.133594 10.1506 0.00702086 
-0.00828617 0.00702086 10.0966 
9.86588 0.000660706 0.865634 
0.000660706 9.92729 0.046373 
0.865634 0.046373 9.8892 
9.83197 0.0133042 0.895239 
0.0133042 9.86585 0.0202219 
0.895239 0.0202219 9.98457 
9.79256 0.00338969 0.820242 
0.00338969 9.85438 0.0144623 
0.820242 0.0144623 10.0354 
9.85133 -0.0108187 0.888132 
-0.0108187 9.944 0.0822235 
0.888132 0.0822235 9.88705 
4.31662 0.115776 0.388854 
0.115776 3.04861 -0.705473 
0.388854 -0.705473 0.407552 
4.05255 -0.872373 0.772999 
-0.872373 3.82215 0.583562 
0.772999 0.583562 -0.101917 
3.59116 0.0421455 0.76443 
0.0421455 3.51086 -1.06083 
0.76443 -1.06083 0.670763 
3.14369 -0.42349 1.09451 
-0.42349 3.41303 0.332557 
1.09451 0.332557 1.21607 
10.1773 -0.00623841 -0.00542468 
-0.00623841 10.1429 0.00911747 
-0.00542468 0.00911747 10.0906 
10.1768 -0.0138539 -0.0139067 
-0.0138539 10.1637 -0.00614462 
-0.0139067 -0.00614462 10.0703 
10.0846 -0.0460705 -0.0234129 
-0.0460705 10.0361 0.0780891 
-0.0234129 0.0780891 10.2902 
10.2225 0.0147684 -0.032244 
0.0147684 10.1011 -0.00151308 
-0.032244 -0.00151308 10.0872 
9.39437 0.0606477 -0.629414 
0.0606477 9.46974 0.116896 
-0.629414 0.116896 9.49477 
9.58086 -0.0563206 -0.57983 
-0.0563206 9.2951 0.102583 
-0.57983 0.102583 9.48292 
9.12025 0.0375857 -0.743821 
0.0375857 9.53485 0.2171 
-0.743821 0.2171 9.70379 
9.35202 0.171658 -0.595216 
0.171658 9.41776 0.264655 
-0.595216 0.264655 9.5891 
9.85414 0.00555449 0.208593 
0.00555449 9.86711 -0.860215 
0.208593 -0.860215 9.83782 
9.85068 -0.00292871 0.179317 
-0.00292871 9.82309 -0.83937 
0.179317 -0.83937 9.88528 
9.88703 0.0152727 0.173315 
0.0152727 9.79035 -0.811953 
0.173315 -0.811953 9.88168 
9.8325 -0.023284 0.211717 
-0.023284 9.85756 -0.842659 
0.211717 -0.842659 9.86899 
9.93704 -0.00446351 -0.855484 
-0.00446351 9.94071 0.129071 
-0.855484 0.129071 9.9594 
9.9382 0.015272 -0.84218 
0.015272 9.93409 0.128762 
-0.84218 0.128762 9.96486 
9.94793 0.000440644 -0.858389 
0.000440644 9.95746 0.14001 
-0.858389 0.14001 9.93176 
9.9483 -0.0429169 -0.876711 
-0.0429169 9.87615 0.123674 
-0.876711 0.123674 10.0127 
9.89603 -0.0230529 0.846538 
-0.0230529 9.91984 -0.1422 
0.846538 -0.1422 10.0022 
9.94776 0.00475981 0.854539 
0.00475981 9.95732 -0.166068 
0.854539 -0.166068 9.91299 
9.93892 0.00534901 0.839123 
0.00534901 9.9217 -0.150682 
0.839123 -0.150682 9.95745 
9.94442 -0.0191578 0.85278 
-0.0191578 9.89248 -0.151238 
0.85278 -0.151238 9.98117 
9.87939 -0.00333359 0.167399 
-0.00333359 9.84936 -0.831335 
0.167399 -0.831335 10.0019 
9.89108 0.011024 0.172129 
0.011024 9.85053 -0.885997 
0.172129 -0.885997 9.98903 
9.9336 0.0079517 0.136644 
0.0079517 9.87138 -0.860293 
0.136644 -0.860293 9.92567 
9.95266 0.00589164 0.12113 
0.00589164 9.86945 -0.868412 
0.12113 -0.868412 9.90853 
9.91837 -0.0221434 0.335338 
-0.0221434 9.8427 0.798556 
0.335338 0.798556 10.087 
9.93677 0.0281924 0.369164 
0.0281924 9.9325 0.850885 
0.369164 0.850885 9.97877 
10.0109 -0.0183798 0.359356 
-0.0183798 9.9646 0.827759 
0.359356 0.827759 9.87257 
9.99801 -0.0368226 0.431198 
-0.0368226 9.93661 0.840133 
0.431198 0.840133 9.91342 
9.44885 0.0306131 -0.425997 
0.0306131 9.45833 -0.530017 
-0.425997 -0.530017 9.49282 
9.41271 -0.110873 -0.51813 
-0.110873 9.37613 -0.577201 
-0.51813 -0.577201 9.61116 
9.44528 -0.00326737 -0.443578 
-0.00326737 9.50548 -0.529028 
-0.443578 -0.529028 9.44924 
9.38704 -0.0347903 -0.462731 
-0.0347903 9.44017 -0.481893 
-0.462731 -0.481893 9.57279 
3.6579 -0.490747 -0.152304 
-0.490747 2.27972 0.0300101 
-0.152304 0.0300101 0.192829 
2.34501 -0.280606 -0.248819 
-0.280606 2.51858 -0.504522 
-0.248819 -0.504522 1.26685 
3.12527 -0.198109 0.407574 
-0.198109 2.4905 -0.506529 
0.407574 -0.506529 0.514682 
2.83164 -0.251116 -0.519889 
-0.251116 1.97663 -0.856226 
-0.519889 -0.856226 1.32217 
9.96189 -0.0125809 -0.86237 
-0.0125809 9.95128 -0.158757 
-0.86237 -0.158757 9.92351 
9.95028 0.00583863 -0.851253 
0.00583863 9.93052 -0.15237 
-0.851253 -0.15237 9.95588 
9.93406 0.0380016 -0.88008 
0.0380016 9.89403 -0.152142 
-0.88008 -0.152142 10.0086 
9.92518 0.0144124 -0.855635 
0.0144124 9.93451 -0.148619 
-0.855635 -0.148619 9.97699 
9.88962 -0.20134 0.0309611 
-0.20134 10.0043 0.00913554 
0.0309611 0.00913554 10.1146 
10.0112 0.0251634 -0.0428638 
0.0251634 9.95648 0.013767 
-0.0428638 0.013767 10.0409 
9.93365 -0.0448763 -0.0458233 
-0.0448763 9.95962 -0.0210653 
-0.0458233 -0.0210653 10.1153 
9.90272 0.0516331 -0.0741961 
0.0516331 10.0144 -0.0541464 
-0.0741961 -0.0541464 10.0914 
9.62687 -0.0136986 0.771249 
-0.0136986 9.59653 -0.325849 
0.771249 -0.325849 9.67212 
9.62584 0.00365268 0.76712 
0.00365268 9.65875 -0.365355 
0.76712 -0.365355 9.61093 
9.46481 0.108952 0.787006 
0.108952 9.55354 -0.373795 
0.787006 -0.373795 9.87717 
9.53475 -0.0260339 0.723792 
-0.0260339 9.66059 -0.26142 
0.723792 -0.26142 9.70018 
10.2363 0.0423442 -0.0112619 
0.0423442 10.1717 -0.0345102 
-0.0112619 -0.0345102 10.0887 
10.1527 -0.0568343 0.00046628 
-0.0568343 10.1314 0.0227537 
0.00046628 0.0227537 10.2127 
10.1445 0.000408783 0.0290563 
0.000408783 10.1324 0.00309891 
0.0290563 0.00309891 10.2198 
10.1577 0.0139076 0.0382972 
0.0139076 10.2168 0.00303237 
0.0382972 0.00303237 10.1222 
10.1833 0.000365221 -0.0172905 
0.000365221 10.1073 0.049238 
-0.0172905 0.049238 10.1402 
10.1706 0.00192736 -0.00795618 
0.00192736 10.1305 -0.00031283 
-0.00795618 -0.00031283 10.1298 
10.0827 -0.0064979 0.0102909 
-0.0064979 10.116 0.0256004 
0.0102909 0.0256004 10.2321 
10.1913 -0.0121358 -0.0394625 
-0.0121358 10.1425 0.00750621 
-0.0394625 0.00750621 10.0971 
9.41846 0.0148947 -0.0165414 
0.0148947 9.22111 0.554371 
-0.0165414 0.554371 9.64728 
9.36025 -0.0371109 -0.0975427 
-0.0371109 9.43575 0.497996 
-0.0975427 0.497996 9.49086 
9.61891 0.0313781 0.00905515 
0.0313781 9.05748 0.401419 
0.00905515 0.401419 9.61047 
9.34359 0.0526779 -0.0247921 
0.0526779 9.38338 0.561317 
-0.0247921 0.561317 9.55989 
9.859 0.0172697 -0.840582 
0.0172697 9.86208 0.324104 
-0.840582 0.324104 9.99961 
9.8153 0.0358559 -0.779999 
0.0358559 9.88596 0.297974 
-0.779999 0.297974 10.0194 
9.87765 -0.000613698 -0.825238 
-0.000613698 9.93911 0.2895 
-0.825238 0.2895 9.90393 
9.86598 0.0181493 -0.845864 
0.0181493 9.94555 0.263008 
-0.845864 0.263008 9.90916 
9.8191 0.0976581 -0.0711761 
0.0976581 9.59884 0.0448917 
-0.0711761 0.0448917 10.0088 
9.77198 0.00293463 0.0414598 
0.00293463 9.75334 0.100995 
0.0414598 0.100995 9.90142 
9.71127 -0.0023683 -0.0446212 
-0.0023683 9.68729 0.136859 
-0.0446212 0.136859 10.0282 
9.77875 -0.0343932 0.0106511 
-0.0343932 9.68281 0.0900666 
0.0106511 0.0900666 9.96518 
10.0914 0.0435601 -0.00538582 
0.0435601 10.0695 -0.011374 
-0.00538582 -0.011374 10.1184 
10.1526 -0.032969 -0.0248205 
-0.032969 10.0897 0.0254749 
-0.0248205 0.0254749 10.0369 
10.0705 0.000308096 0.00829907 
0.000308096 10.0716 -0.00277554 
0.00829907 -0.00277554 10.1371 
10.0862 -0.00842917 0.0187841 
-0.00842917 10.1203 -0.00220725 
0.0187841 -0.00220725 10.0727 
9.60902 0.069084 0.525627 
0.069084 9.55838 -0.680358 
0.525627 -0.680358 9.82545 
9.66436 0.0179036 0.495798 
0.0179036 9.64842 -0.661489 
0.495798 -0.661489 9.68008 
9.65308 0.026855 0.475763 
0.026855 9.62411 -0.662973 
0.475763 -0.662973 9.71566 
9.65683 0.00970443 0.449201 
0.00970443 9.61435 -0.631075 
0.449201 -0.631075 9.72167 
9.49031 0.0534308 0.640636 
0.0534308 9.48719 0.450309 
0.640636 0.450309 9.60148 
9.44521 -0.166543 0.592296 
-0.166543 9.51664 0.449991 
0.592296 0.449991 9.61713 
9.49751 0.00951321 0.694864 
0.00951321 9.4712 0.402823 
0.694864 0.402823 9.61027 
9.43962 -0.0243016 0.690162 
-0.0243016 9.48881 0.50067 
0.690162 0.50067 9.65055 
9.90488 -0.035831 0.767729 
-0.035831 9.94977 0.523702 
0.767729 0.523702 9.99576 
9.94992 -0.000337998 0.757088 
-0.000337998 9.97909 0.553845 
0.757088 0.553845 9.92139 
9.89061 -0.0253034 0.778629 
-0.0253034 9.99577 0.564247 
0.778629 0.564247 9.96403 
9.9442 -0.0342359 0.750606 
-0.0342359 9.99019 0.544987 
0.750606 0.544987 9.91602 
2.30436 -0.116226 -0.214065 
-0.116226 1.59721 0.324635 
-0.214065 0.324635 -0.107425 
1.9618 -0.336681 -0.706793 
-0.336681 1.57172 0.679424 
-0.706793 0.679424 0.260633 
1.62036 -0.155018 -0.960623 
-0.155018 1.45958 0.561438 
-0.960623 0.561438 0.71421 
1.89815 -0.378072 -0.906079 
-0.378072 1.31718 0.841982 
-0.906079 0.841982 0.578829 
9.82219 -0.0116866 -0.194248 
-0.0116866 9.80512 0.873687 
-0.194248 0.873687 9.8685 
9.83178 0.00921741 -0.178512 
0.00921741 9.7913 0.832237 
-0.178512 0.832237 9.87274 
9.81119 -0.00493392 -0.188859 
-0.00493392 9.82553 0.856302 
-0.188859 0.856302 9.8591 
9.86679 -0.00270026 -0.214229 
-0.00270026 9.79471 0.858306 
-0.214229 0.858306 9.83432 
9.70854 0.0158261 0.171683 
0.0158261 9.66185 -0.796024 
0.171683 -0.796024 9.78552 
9.73527 0.0181645 0.154129 
0.0181645 9.63941 -0.787912 
0.154129 -0.787912 9.78123 
9.70353 0.0124352 0.178944 
0.0124352 9.62302 -0.807066 
0.178944 -0.807066 9.82936 
9.69601 0.0254803 0.179305 
0.0254803 9.68032 -0.778698 
0.179305 -0.778698 9.77958 
10.0148 0.10122 -0.0165454 
0.10122 10.1106 -0.00688849 
-0.0165454 -0.00688849 10.1362 
10.1257 -0.00215543 -0.0183247 
-0.00215543 10.1024 0.0374519 
-0.0183247 0.0374519 10.0334 
10.1146 -0.0255882 0.00130757 
-0.0255882 10.1002 0.00167594 
0.00130757 0.00167594 10.0466 
10.1045 -0.0410034 -0.0217964 
-0.0410034 10.0974 0.026952 
-0.0217964 0.026952 10.0596 
9.63667 0.0319572 0.568669 
0.0319572 9.6384 -0.598472 
0.568669 -0.598472 9.71593 
9.65761 0.0385273 0.548008 
0.0385273 9.6448 -0.625063 
0.548008 -0.625063 9.68859 
9.60412 0.0505709 0.579434 
0.0505709 9.58417 -0.63329 
0.579434 -0.63329 9.80271 
9.64036 0.0259603 0.545997 
0.0259603 9.63726 -0.58157 
0.545997 -0.58157 9.71339 
10.0441 0.00289833 -0.0066324 
0.00289833 10.0262 -0.012552 
-0.0066324 -0.012552 10.0179 
10.0429 0.00649555 -0.0298283 
0.00649555 10.0343 0.0172988 
-0.0298283 0.0172988 10.011 
10.0366 0.00693006 0.00746127 
0.00693006 10.0148 -0.0189 
0.00746127 -0.0189 10.0369 
10.0404 -0.0146708 0.000261119 
-0.0146708 10.0416 -0.0359257 
0.000261119 -0.0359257 10.0062 
10.045 0.00953093 0.00968416 
0.00953093 10.0506 -0.0106131 
0.00968416 -0.0106131 10.0385 
10.051 0.011112 0.016178 
0.011112 10.0598 -0.00397573 
0.016178 -0.00397573 10.0234 
10.0471 0.0326531 0.00631803 
0.0326531 10.0314 -0.00386417 
0.00631803 -0.00386417 10.0556 
10.0339 -0.0179925 0.0135844 
-0.0179925 10.0567 -0.0059522 
0.0135844 -0.0059522 10.0434 
11.1828 -0.204169 -0.067014 
-0.204169 10.7303 -0.181839 
-0.067014 -0.181839 10.1137 
10.9069 0.021592 -0.0868551 
0.021592 10.6185 0.00158575 
-0.0868551 0.00158575 10.5014 
10.1416 0.342962 0.314761 
0.342962 10.1373 0.0230293 
0.314761 0.0230293 11.7478 
10.2984 -0.21951 -0.686858 
-0.21951 10.9112 0.0811763 
-0.686858 0.0811763 10.8172 
9.3204 -0.224355 -0.405269 
-0.224355 9.13477 -0.623242 
-0.405269 -0.623242 9.76608 
9.41005 0.0628615 -0.315112 
0.0628615 9.47088 -0.471712 
-0.315112 -0.471712 9.34031 
9.37394 0.0119611 -0.311285 
0.0119611 9.35162 -0.446462 
-0.311285 -0.446462 9.49569 
9.27099 -0.0428426 -0.283049 
-0.0428426 9.33521 -0.261221 
-0.283049 -0.261221 9.61505 
10.3679 -0.00611515 0.0821524 
-0.00611515 10.2953 -0.0382877 
0.0821524 -0.0382877 10.4556 
10.5724 0.0927772 0.0566215 
0.0927772 10.3419 -0.068649 
0.0566215 -0.068649 10.2047 
10.1111 0.0721822 -0.0794248 
0.0721822 10.1006 -0.0367919 
-0.0794248 -0.0367919 10.9073 
10.2213 0.010265 0.33686 
0.010265 10.4262 0.032216 
0.33686 0.032216 10.4715 
9.22837 -0.0856706 0.0354844 
-0.0856706 9.64753 -0.46703 
0.0354844 -0.46703 9.41655 
9.39533 -0.0395904 0.0576191 
-0.0395904 9.32505 -0.563106 
0.0576191 -0.563106 9.57207 
9.61838 0.00878913 0.0102638 
0.00878913 8.94206 -0.397404 
0.0102638 -0.397404 9.73201 
9.43497 -0.0742613 0.0316445 
-0.0742613 9.28314 -0.700781 
0.0316445 -0.700781 9.57434 
10.2119 -0.320991 -0.0440526 
-0.320991 10.2949 -0.0763204 
-0.0440526 -0.0763204 10.3504 
10.298 0.197053 -0.0826755 
0.197053 10.055 -0.0649727 
-0.0826755 -0.0649727 10.5042 
10.4222 -0.27459 -0.0980892 
-0.27459 9.7372 -0.151806 
-0.0980892 -0.151806 10.6978 
10.3461 -0.195148 0.0729673 
-0.195148 10.0418 -0.148342 
0.0729673 -0.148342 10.4694 
9.8852 0.0171776 -0.341301 
0.0171776 9.82463 0.747517 
-0.341301 0.747517 10.0152 
9.92836 0.0180716 -0.370608 
0.0180716 9.90699 0.765831 
-0.370608 0.765831 9.88965 
9.87496 -0.001519 -0.362076 
-0.001519 9.83368 0.804394 
-0.362076 0.804394 10.0164 
9.93413 0.0227543 -0.40116 
0.0227543 9.88053 0.753171 
-0.40116 0.753171 9.91034 
9.83352 0.0168263 0.862679 
0.0168263 9.81073 0.223397 
0.862679 0.223397 9.88254 
9.83455 -0.00271287 0.853661 
-0.00271287 9.80988 0.197551 
0.853661 0.197551 9.88236 
9.84234 -0.0081897 0.868477 
-0.0081897 9.82759 0.219027 
0.868477 0.219027 9.85686 
9.77385 -0.0264578 0.815881 
-0.0264578 9.86619 0.182311 
0.815881 0.182311 9.88675 
10.0415 0.142672 0.102589 
0.142672 10.2115 0.0353705 
0.102589 0.0353705 11.1271 
10.7351 0.0099752 0.0553049 
0.0099752 10.405 -0.0525782 
0.0553049 -0.0525782 10.24 
10.5817 0.0790107 -0.00851388 
0.0790107 10.4131 0.0113549 
-0.00851388 0.0113549 10.3853 
10.539 -0.111731 -0.357587 
-0.111731 10.4557 -0.0920499 
-0.357587 -0.0920499 10.3854 
9.72156 0.00538544 -0.009062 
0.00538544 10.0958 -0.0255109 
-0.009062 -0.0255109 10.0678 
9.8938 -0.00586723 0.0322354 
-0.00586723 9.92949 -0.0274182 
0.0322354 -0.0274182 10.0618 
10.0102 0.0399745 0.0217261 
0.0399745 9.85368 0.0252355 
0.0217261 0.0252355 10.0212 
9.91701 -0.117296 0.0768679 
-0.117296 9.91311 -0.0578714 
0.0768679 -0.0578714 10.055 
10.1727 -0.0282376 0.027203 
-0.0282376 10.1495 0.0176097 
0.027203 0.0176097 10.1294 
10.1995 -0.00743215 0.0347237 
-0.00743215 10.1598 -0.0302214 
0.0347237 -0.0302214 10.0923 
10.1015 0.0120675 0.0217265 
0.0120675 10.0609 0.0439498 
0.0217265 0.0439498 10.2892 
10.1774 -0.00673776 0.00314382 
-0.00673776 10.134 -0.00271223 
0.00314382 -0.00271223 10.1402 
10.1161 -0.0158268 -0.0181984 
-0.0158268 10.0084 -0.0128821 
-0.0181984 -0.0128821 10.1315 
10.0857 -0.0295655 0.0140576 
-0.0295655 10.1472 0.0343139 
0.0140576 0.0343139 10.0232 
10.0706 -0.00062243 0.012294 
-0.00062243 10.0676 -0.0116856 
0.012294 -0.0116856 10.1179 
10.0916 0.0187899 0.0167016 
0.0187899 10.1096 -0.0188265 
0.0167016 -0.0188265 10.0548 
9.94014 -0.0396346 -0.580385 
-0.0396346 9.9147 -0.632162 
-0.580385 -0.632162 9.9436 
9.87463 -0.0423362 -0.641117 
-0.0423362 9.85473 -0.695353 
-0.641117 -0.695353 10.0691 
9.91476 0.0016386 -0.568879 
0.0016386 9.98672 -0.627114 
-0.568879 -0.627114 9.89696 
9.92445 -0.0837707 -0.579224 
-0.0837707 9.88234 -0.588172 
-0.579224 -0.588172 9.99165 
2.02625 -0.376039 1.11123 
-0.376039 1.69603 0.0306447 
1.11123 0.0306447 1.21651 
2.17684 -0.0830062 0.931766 
-0.0830062 2.39128 0.533334 
0.931766 0.533334 0.370683 
2.99425 -0.114887 0.342954 
-0.114887 2.76369 -0.0965445 
0.342954 -0.0965445 -0.819139 
1.97633 -0.175754 1.37527 
-0.175754 1.88017 0.15036 
1.37527 0.15036 1.08231 
10.1168 0.0195018 0.0176669 
0.0195018 10.1126 -0.0098343 
0.0176669 -0.0098343 10.1476 
10.1057 0.0198449 -0.00449736 
0.0198449 10.1395 -0.000513665 
-0.00449736 -0.000513665 10.1318 
10.1305 -0.0120682 -0.00426319 
-0.0120682 10.1541 0.0132676 
-0.00426319 0.0132676 10.0924 
10.0978 0.00971961 0.0108419 
0.00971961 10.1477 0.015972 
0.0108419 0.015972 10.1316 
9.62308 -0.0147829 0.340807 
-0.0147829 9.597 0.768411 
0.340807 0.768411 9.63449 
9.60665 -0.021777 0.340258 
-0.021777 9.55328 0.781639 
0.340258 0.781639 9.69464 
9.66701 -0.0670151 0.295627 
-0.0670151 9.50852 0.751695 
0.295627 0.751695 9.67904 
9.61049 -0.016943 0.335641 
-0.016943 9.58962 0.797096 
0.335641 0.797096 9.65445 
9.82496 -0.0232655 0.485121 
-0.0232655 9.82354 0.727486 
0.485121 0.727486 9.82729 
9.79292 -0.0457005 0.418238 
-0.0457005 9.78693 0.767944 
0.418238 0.767944 9.89595 
9.8174 -0.0278745 0.46974 
-0.0278745 9.78488 0.747564 
0.46974 0.747564 9.87353 
9.8284 -0.0204698 0.444675 
-0.0204698 9.80203 0.759845 
0.444675 0.759845 9.84538 
10.0082 -0.0421544 -0.0269402 
-0.0421544 9.91863 0.0641443 
-0.0269402 0.0641443 10.2674 
10.1169 0.0989636 -0.063693 
0.0989636 10.1419 -0.109171 
-0.063693 -0.109171 9.93538 
10.0435 0.0341636 0.055015 
0.0341636 10.2201 0.0144114 
0.055015 0.0144114 9.93058 
10.0494 0.0282708 0.0229914 
0.0282708 10.0788 -0.00136382 
0.0229914 -0.00136382 10.066 
9.58687 0.0267307 -0.784536 
0.0267307 9.65764 0.277668 
-0.784536 0.277668 9.66492 
9.59004 0.0375323 -0.765877 
0.0375323 9.63077 0.320599 
-0.765877 0.320599 9.68862 
9.52539 0.0262788 -0.780579 
0.0262788 9.60741 0.326565 
-0.780579 0.326565 9.77664 
9.60103 0.0197748 -0.756466 
0.0197748 9.63041 0.310808 
-0.756466 0.310808 9.67798 
9.87671 -0.0328971 -0.788961 
-0.0328971 9.85723 -0.386769 
-0.788961 -0.386769 10.1068 
9.92409 0.0330681 -0.822608 
0.0330681 10.0075 -0.43501 
-0.822608 -0.43501 9.90908 
9.94264 -0.0343223 -0.835719 
-0.0343223 9.98974 -0.438397 
-0.835719 -0.438397 9.9083 
9.95953 -0.0484784 -0.873063 
-0.0484784 9.99648 -0.475199 
-0.873063 -0.475199 9.88468 
9.83325 0.00747716 0.157555 
0.00747716 9.83344 0.844729 
0.157555 0.844729 9.86559 
9.83659 0.0256046 0.216976 
0.0256046 9.83155 0.877393 
0.216976 0.877393 9.86414 
9.86681 0.00255055 0.219394 
0.00255055 9.84026 0.86936 
0.219394 0.86936 9.82521 
9.86915 -0.00982884 0.182649 
-0.00982884 9.79258 0.814913 
0.182649 0.814913 9.87055 
9.16181 0.17825 0.668181 
0.17825 9.34371 -0.364752 
0.668181 -0.364752 9.76112 
9.38763 -0.0227307 0.526843 
-0.0227307 9.38336 -0.264562 
0.526843 -0.264562 9.49565 
9.43039 -0.00641629 0.519292 
-0.00641629 9.4669 -0.289844 
0.519292 -0.289844 9.36935 
9.29936 -0.0150552 0.488055 
-0.0150552 9.39963 -0.149867 
0.488055 -0.149867 9.56766 
10.1424 0.0207811 0.0187665 
0.0207811 10.1767 0.0379772 
0.0187665 0.0379772 10.0845 
10.0919 0.0215179 -0.00940117 
0.0215179 10.1223 0.0515837 
-0.00940117 0.0515837 10.1894 
10.1184 0.020971 -0.0169831 
0.020971 10.1538 0.0212993 
-0.0169831 0.0212993 10.1314 
10.1122 0.0265827 0.00373145 
0.0265827 10.1658 0.0184449 
0.00373145 0.0184449 10.1255 
10.0965 0.0144908 0.0139121 
0.0144908 10.0996 0.00379142 
0.0139121 0.00379142 10.1183 
10.1057 -0.000229807 0.00735163 
-0.000229807 10.0768 0.00400673 
0.00735163 0.00400673 10.1319 
10.0894 -0.00841654 -0.00816169 
-0.00841654 10.1332 -0.000749588 
-0.00816169 -0.000749588 10.0918 
10.1101 0.0125997 0.00585082 
0.0125997 10.1366 -0.0384352 
0.00585082 -0.0384352 10.0676 
9.37499 0.0569275 -0.440876 
0.0569275 9.38235 -0.511093 
-0.440876 -0.511093 9.36096 
9.34097 -0.114691 -0.444967 
-0.114691 9.33938 -0.442924 
-0.444967 -0.442924 9.43796 
9.25298 -0.168211 -0.50296 
-0.168211 9.28749 -0.498102 
-0.50296 -0.498102 9.57783 
9.43032 -0.034651 -0.458349 
-0.034651 9.22767 -0.476705 
-0.458349 -0.476705 9.46032 
1.8799 -0.356717 -0.124513 
-0.356717 2.42327 -0.204428 
-0.124513 -0.204428 -0.168849 
1.81053 -0.0849995 -0.345078 
-0.0849995 1.81698 -0.197006 
-0.345078 -0.197006 0.5068 
1.72434 -0.208781 -0.409699 
-0.208781 1.7329 -0.390565 
-0.409699 -0.390565 0.677076 
1.81564 -0.197568 -0.426398 
-0.197568 1.42794 -0.273916 
-0.426398 -0.273916 0.890737 
10.1629 -0.00357216 0.0187757 
-0.00357216 10.1608 0.0169069 
0.0187757 0.0169069 10.1329 
10.141 -0.00965023 -0.00535979 
-0.00965023 10.1474 -0.00717724 
-0.00535979 -0.00717724 10.1682 
10.1383 -0.0204165 -0.0430572 
-0.0204165 10.1067 -0.00899984 
-0.0430572 -0.00899984 10.2116 
10.1608 0.00876827 0.0285013 
0.00876827 10.1536 -0.0289196 
0.0285013 -0.0289196 10.1422 
2.53605 -0.253709 0.494158 
-0.253709 1.88645 -0.761388 
0.494158 -0.761388 0.230665 
2.25557 -0.142002 0.722969 
-0.142002 1.56441 -0.412718 
0.722969 -0.412718 0.833186 
2.27622 -0.0206988 0.271615 
-0.0206988 1.57105 -0.409702 
0.271615 -0.409702 0.805891 
1.74905 0.10238 0.414334 
0.10238 1.44654 -0.514151 
0.414334 -0.514151 1.45757 
10.3184 0.0185057 0.0390029 
0.0185057 10.2644 -0.0258959 
0.0390029 -0.0258959 10.5783 
10.3777 0.170467 0.0542131 
0.170467 10.3364 -0.0204995 
0.0542131 -0.0204995 10.447 
10.4391 0.00229728 0.0432036 
0.00229728 10.221 -0.0843466 
0.0432036 -0.0843466 10.501 
10.4295 0.0341727 -0.0222208 
0.0341727 10.316 -0.0765015 
-0.0222208 -0.0765015 10.4156 
10.131 0.0485094 0.0504005 
0.0485094 10.1628 0.0267408 
0.0504005 0.0267408 10.038 
10.079 0.00319957 -0.00533207 
0.00319957 10.09 -0.018355 
-0.00533207 -0.018355 10.1628 
10.0918 -0.0521556 -0.0205697 
-0.0521556 10.0819 0.000283544 
-0.0205697 0.000283544 10.1581 
10.1667 0.0165117 0.0106273 
0.0165117 10.0834 -0.0325029 
0.0106273 -0.0325029 10.0817 
9.80717 -0.0050808 -0.571264 
-0.0050808 9.81997 0.743706 
-0.571264 0.743706 10.0391 
9.84082 0.034319 -0.550888 
0.034319 9.86321 0.669296 
-0.550888 0.669296 9.96217 
9.88698 0.042639 -0.556464 
0.042639 9.88595 0.691677 
-0.556464 0.691677 9.89327 
9.92371 0.0452692 -0.575147 
0.0452692 9.86097 0.658448 
-0.575147 0.658448 9.88152 
9.89456 -0.00828643 -0.862727 
-0.00828643 9.91799 -0.244222 
-0.862727 -0.244222 9.97865 
9.87701 -0.00545203 -0.850258 
-0.00545203 9.93005 -0.286114 
-0.850258 -0.286114 9.98414 
9.9093 -0.00231896 -0.877133 
-0.00231896 9.93156 -0.269678 
-0.877133 -0.269678 9.95034 
9.93495 -0.000301313 -0.862953 
-0.000301313 9.94413 -0.264328 
-0.862953 -0.264328 9.91212 
10.122 0.0249562 0.0472974 
0.0249562 10.128 0.00506041 
0.0472974 0.00506041 10.1853 
10.1666 0.00902052 -0.00652342 
0.00902052 10.1476 0.0136019 
-0.00652342 0.0136019 10.1212 
10.1388 0.00293735 0.0469678 
0.00293735 10.1701 0.0452744 
0.0469678 0.0452744 10.1264 
10.1094 0.023773 0.0216354 
0.023773 10.1569 -0.0113159 
0.0216354 -0.0113159 10.1691 
9.8978 0.0168554 0.772813 
0.0168554 9.92638 -0.326419 
0.772813 -0.326419 9.95322 
9.85286 0.0802608 0.841148 
0.0802608 9.89743 -0.367519 
0.841148 -0.367519 10.0271 
9.86413 0.0217867 0.775516 
0.0217867 9.97484 -0.341208 
0.775516 -0.341208 9.93844 
9.84907 0.0356814 0.745563 
0.0356814 9.9775 -0.365751 
0.745563 -0.365751 9.95084 
9.8601 -0.0261536 0.539581 
-0.0261536 9.80073 0.69277 
0.539581 0.69277 9.93409 
9.89725 0.0147109 0.463936 
0.0147109 9.81706 0.731992 
0.463936 0.731992 9.88062 
9.82405 -0.0377287 0.552015 
-0.0377287 9.87299 0.720979 
0.552015 0.720979 9.89788 
9.8304 -0.0400303 0.517258 
-0.0400303 9.85428 0.723629 
0.517258 0.723629 9.91024 
9.91536 -0.0271886 -0.730532 
-0.0271886 9.90287 -0.432993 
-0.730532 -0.432993 9.92165 
9.84728 0.00959904 -0.678484 
0.00959904 9.88183 -0.458289 
-0.678484 -0.458289 10.0108 
9.88217 -0.011967 -0.723907 
-0.011967 9.88781 -0.481794 
-0.723907 -0.481794 9.96989 
9.91386 -0.0278951 -0.740613 
-0.0278951 9.9409 -0.438544 
-0.740613 -0.438544 9.88512 
10.016 -0.00988784 0.6644 
-0.00988784 10.0956 0.229673 
0.6644 0.229673 9.95765 
10.053 -0.0412444 0.645377 
-0.0412444 10.0524 0.195923 
0.645377 0.195923 9.96384 
10.0606 0.0124158 0.622521 
0.0124158 10.042 0.23317 
0.622521 0.23317 9.96668 
10.0658 -0.0134154 0.645746 
-0.0134154 10.089 0.218048 
0.645746 0.218048 9.91454 
10.125 0.0100542 -0.00741931 
0.0100542 10.1059 -0.00306699 
-0.00741931 -0.00306699 10.0887 
10.0993 0.00584741 -0.0108642 
0.00584741 10.0913 -0.00401383 
-0.0108642 -0.00401383 10.129 
10.1185 -0.0367825 0.00433878 
-0.0367825 10.0675 -0.023037 
0.00433878 -0.023037 10.1336 
10.161 0.0289327 0.0231916 
0.0289327 10.083 0.00279843 
0.0231916 0.00279843 10.0756 
9.91356 -0.0103893 0.470675 
-0.0103893 9.92894 0.737719 
0.470675 0.737719 9.95351 
9.9364 -0.0374363 0.50085 
-0.0374363 9.88591 0.721593 
0.50085 0.721593 9.97371 
9.92753 -0.0206125 0.469593 
-0.0206125 9.8966 0.699652 
0.469593 0.699652 9.97188 
9.95508 -0.0213022 0.47583 
-0.0213022 9.91285 0.743492 
0.47583 0.743492 9.92808 
9.33163 0.055467 -0.627164 
0.055467 9.35186 -0.317229 
-0.627164 -0.317229 9.39665 
9.056 -0.188534 -0.371856 
-0.188534 9.37946 -0.350794 
-0.371856 -0.350794 9.64468 
9.57245 0.00927413 -0.674383 
0.00927413 9.39445 -0.296925 
-0.674383 -0.296925 9.11324 
9.18633 -0.0812956 -0.73196 
-0.0812956 9.25677 -0.347188 
-0.73196 -0.347188 9.63704 
9.78423 0.0174189 0.82163 
0.0174189 9.83375 -0.194252 
0.82163 -0.194252 9.85145 
9.77048 -0.00602958 0.849044 
-0.00602958 9.83001 -0.156494 
0.849044 -0.156494 9.86894 
9.82689 0.00724322 0.892585 
0.00724322 9.85369 -0.246305 
0.892585 -0.246305 9.78885 
9.80706 -0.026923 0.889135 
-0.026923 9.8172 -0.239517 
0.889135 -0.239517 9.84516 
9.87749 -0.0529678 0.00470009 
-0.0529678 9.88878 0.962816 
0.00470009 0.962816 10.0125 
10.0001 -0.0122744 0.0183845 
-0.0122744 9.85945 0.950216 
0.0183845 0.950216 9.91926 
9.93145 -0.00540602 0.0427425 
-0.00540602 9.87998 0.9122 
0.0427425 0.9122 9.96737 
9.97353 0.00851828 0.0361296 
0.00851828 9.91607 0.940108 
0.0361296 0.940108 9.8892 
10.1014 0.00487226 -0.026747 
0.00487226 10.0094 0.100563 
-0.026747 0.100563 10.0711 
10.0062 -0.0160163 -0.0446939 
-0.0160163 10.0199 0.00606185 
-0.0446939 0.00606185 10.1558 
10.064 0.0417064 -0.0471204 
0.0417064 10.0532 -0.0806392 
-0.0471204 -0.0806392 10.0647 
10.0221 -0.000911778 -0.0427126 
-0.000911778 9.9749 -0.0106471 
-0.0427126 -0.0106471 10.1848 
10.0765 0.0164679 -0.00132099 
0.0164679 10.074 0.0166036 
-0.00132099 0.0166036 10.0614 
10.0698 -0.046328 -0.0531539 
-0.046328 10.13 -0.00800504 
-0.0531539 -0.00800504 10.0121 
10.0798 0.01766 -0.0156669 
0.01766 10.073 0.0218999 
-0.0156669 0.0218999 10.0592 
10.0706 0.0241734 -0.00147803 
0.0241734 10.0806 0.0138439 
-0.00147803 0.0138439 10.0607 
9.63127 -0.00146147 -0.31445 
-0.00146147 9.59787 0.75862 
-0.31445 0.75862 9.67425 
9.57204 0.0830008 -0.395846 
0.0830008 9.43107 0.795195 
-0.395846 0.795195 9.90028 
9.68424 -0.0014752 -0.369409 
-0.0014752 9.62283 0.753355 
-0.369409 0.753355 9.59631 
9.66573 -0.0282913 -0.26209 
-0.0282913 9.53294 0.699152 
-0.26209 0.699152 9.70471 
10.1399 0.0174596 -0.0322432 
0.0174596 10.14 -0.0010962 
-0.0322432 -0.0010962 10.1945 
10.1324 0.0268562 -0.0138977 
0.0268562 10.1772 0.0027673 
-0.0138977 0.0027673 10.1648 
10.1715 0.00875062 0.0184384 
0.00875062 10.182 -0.02844 
0.0184384 -0.02844 10.1209 
10.1655 -0.00716531 0.000134675 
-0.00716531 10.1844 -0.00805231 
0.000134675 -0.00805231 10.1245 
10.1822 0.0253551 0.0191616 
0.0253551 10.1151 -0.0231091 
0.0191616 -0.0231091 10.2233 
10.1931 -0.00585659 -0.0629974 
-0.00585659 10.1595 -0.0571752 
-0.0629974 -0.0571752 10.168 
10.1803 0.0106002 -0.0111563 
0.0106002 10.1659 -0.00955296 
-0.0111563 -0.00955296 10.1743 
10.1708 -0.00182969 -0.0223669 
-0.00182969 10.2023 0.0209432 
-0.0223669 0.0209432 10.1475 
10.1317 0.0142933 0.0304703 
0.0142933 10.1222 0.0386255 
0.0304703 0.0386255 10.0592 
10.0614 -0.00634116 -0.0107569 
-0.00634116 10.1062 -0.0258841 
-0.0107569 -0.0258841 10.1456 
10.0976 -0.0217517 -0.038009 
-0.0217517 10.0485 -0.0171414 
-0.038009 -0.0171414 10.167 
10.1073 0.0308204 -0.038937 
0.0308204 10.1267 0.0484315 
-0.038937 0.0484315 10.0791 
10.1346 0.0135839 -1.56283 
0.0135839 2.24233 -2.08501 
-1.56283 -2.08501 -3.71786 
9.53036 1.02984 -1.55785 
1.02984 6.11061 1.43631 
-1.55785 1.43631 -6.98187 
0.249727 1.95547 -0.357698 
1.95547 -0.791676 1.33121 
-0.357698 1.33121 9.20105 
4.27196 -0.588986 -8.46934 
-0.588986 5.38004 -3.60794 
-8.46934 -3.60794 -0.992901 
10.1456 0.000209498 0.0419133 
0.000209498 10.1645 -0.0406556 
0.0419133 -0.0406556 10.1489 
10.1889 0.00445157 -0.0102154 
0.00445157 10.1332 -0.00279149 
-0.0102154 -0.00279149 10.1368 
10.1464 -0.0117045 0.0263343 
-0.0117045 10.1438 -0.00560726 
0.0263343 -0.00560726 10.1688 
10.1235 -0.0172034 0.0262662 
-0.0172034 10.1681 -0.00258486 
0.0262662 -0.00258486 10.1674 
10.2382 0.0271831 0.0337939 
0.0271831 10.2292 -0.0155221 
0.0337939 -0.0155221 10.1294 
10.0922 0.030614 -0.0939695 
0.030614 10.1407 -0.0367638 
-0.0939695 -0.0367638 10.3639 
10.1417 0.0140888 -0.0259922 
0.0140888 10.2828 -0.0342519 
-0.0259922 -0.0342519 10.1723 
10.2255 -0.00977166 0.00857658 
-0.00977166 10.2452 0.0301636 
0.00857658 0.0301636 10.1261 
10.4211 -0.132801 -0.016212 
-0.132801 10.4861 -0.0200934 
-0.016212 -0.0200934 10.3855 
10.1232 0.110376 0.0310799 
0.110376 10.3769 0.0771055 
0.0310799 0.0771055 10.7926 
10.5446 -0.0284554 -0.00889335 
-0.0284554 10.7194 0.0247778 
-0.00889335 0.0247778 10.0287 
10.4467 -0.00822999 -0.0189391 
-0.00822999 10.3377 -0.214567 
-0.0189391 -0.214567 10.5082 
10.1424 0.0424306 0.0221938 
0.0424306 10.0458 -0.00726834 
0.0221938 -0.00726834 10.1762 
10.0793 0.0114375 -0.0213955 
0.0114375 10.1332 0.00187049 
-0.0213955 0.00187049 10.1518 
10.1206 0.0311165 -0.0757352 
0.0311165 10.1246 0.00775166 
-0.0757352 0.00775166 10.1191 
10.1193 0.0858482 -0.000408306 
0.0858482 10.1093 0.0107592 
-0.000408306 0.0107592 10.1357 
9.95871 -0.00223889 -0.269747 
-0.00223889 9.95813 -0.857437 
-0.269747 -0.857437 9.92479 
9.95215 -0.00758778 -0.283813 
-0.00758778 9.91197 -0.845022 
-0.283813 -0.845022 9.9775 
9.95207 -0.012785 -0.271582 
-0.012785 9.94295 -0.859665 
-0.271582 -0.859665 9.94661 
9.93485 -0.00799956 -0.243971 
-0.00799956 9.91804 -0.857218 
-0.243971 -0.857218 9.98873 
2.66341 -0.0242868 0.642416 
-0.0242868 2.26617 -0.526179 
0.642416 -0.526179 0.875032 
3.53196 0.145387 1.27295 
0.145387 3.95396 -1.35362 
1.27295 -1.35362 -1.68131 
2.40093 0.360734 1.01439 
0.360734 1.40433 -0.628182 
1.01439 -0.628182 1.99935 
2.1323 -0.225711 0.608688 
-0.225711 1.78671 0.315175 
0.608688 0.315175 1.88559 
10.1312 -0.0113727 -0.0289487 
-0.0113727 10.1791 0.0493726 
-0.0289487 0.0493726 10.065 
10.0623 0.0228667 -0.00821407 
0.0228667 10.0836 -0.0456032 
-0.00821407 -0.0456032 10.2293 
10.1234 -0.037826 0.00578131 
-0.037826 10.1725 0.0101693 
0.00578131 0.0101693 10.0794 
10.1402 -0.0142321 0.00422828 
-0.0142321 10.0895 -0.00980304 
0.00422828 -0.00980304 10.1455 
10.1373 0.00479302 -0.001957 
0.00479302 10.1453 0.0122368 
-0.001957 0.0122368 10.1582 
10.1512 0.07201 -0.045297 
0.07201 10.0947 0.0317675 
-0.045297 0.0317675 10.195 
10.1445 0.00578239 0.0111195 
0.00578239 10.1719 0.0156477 
0.0111195 0.0156477 10.1245 
10.0855 0.00869721 -0.0317075 
0.00869721 10.2403 -0.056869 
-0.0317075 -0.056869 10.1151 
10.1341 -0.00232615 0.00317016 
-0.00232615 10.1274 -0.00414121 
0.00317016 -0.00414121 10.0961 
10.1132 0.0038001 -0.00819139 
0.0038001 10.0998 -0.0092412 
-0.00819139 -0.0092412 10.1447 
10.1004 0.0178417 0.00712634 
0.0178417 10.1073 0.00985361 
0.00712634 0.00985361 10.1499 
10.134 -0.020529 -7.3486e-05 
-0.020529 10.1319 0.0231445 
-7.3486e-05 0.0231445 10.0917 
10.0565 -0.00493957 0.00576994 
-0.00493957 10.0992 0.00357114 
0.00576994 0.00357114 10.0615 
10.0531 0.0305847 0.0116896 
0.0305847 10.0537 0.0082944 
0.0116896 0.0082944 10.1103 
10.0573 0.000750107 -0.00536828 
0.000750107 10.0722 -0.00473756 
-0.00536828 -0.00473756 10.0876 
10.0778 -0.0147147 0.0217546 
-0.0147147 10.0914 -0.00121035 
0.0217546 -0.00121035 10.048 
10.0691 0.0208128 0.0118565 
0.0208128 10.0051 0.0175605 
0.0118565 0.0175605 9.97877 
9.96182 -0.0861729 0.00150784 
-0.0861729 9.99547 -0.00557161 
0.00150784 -0.00557161 10.0957 
10.0273 0.0328827 0.00229486 
0.0328827 10.0388 -0.00138818 
0.00229486 -0.00138818 9.98691 
10.0297 0.0226485 -0.0314912 
0.0226485 10.0208 0.00248028 
-0.0314912 0.00248028 10.0025 
10.1666 0.00605272 -0.0320587 
0.00605272 10.1468 0.000333208 
-0.0320587 0.000333208 10.1196 
10.1652 -0.0119188 -0.0041098 
-0.0119188 10.1305 0.00846698 
-0.0041098 0.00846698 10.1372 
10.1267 -0.00369578 0.00634805 
-0.00369578 10.1237 0.0101243 
0.00634805 0.0101243 10.1826 
10.1211 -0.0241191 0.00375492 
-0.0241191 10.1492 0.00494547 
0.00375492 0.00494547 10.1627 
9.91241 -0.043514 0.0159274 
-0.043514 9.88804 0.0138154 
0.0159274 0.0138154 9.93232 
9.85397 -0.0149071 -0.00163571 
-0.0149071 9.91713 -0.025841 
-0.00163571 -0.025841 9.96168 
9.7818 0.144038 0.0489781 
0.144038 9.93066 -0.0232425 
0.0489781 -0.0232425 10.0203 
9.90132 -0.0182891 -0.0527261 
-0.0182891 9.91779 0.0462306 
-0.0527261 0.0462306 9.91366 
9.62038 0.0215029 0.462114 
0.0215029 9.61215 0.727814 
0.462114 0.727814 9.61342 
9.66029 -0.0541779 0.526861 
-0.0541779 9.61212 0.682441 
0.526861 0.682441 9.57355 
9.51351 -0.0834872 0.545464 
-0.0834872 9.46915 0.673539 
0.545464 0.673539 9.86329 
9.66576 0.0185761 0.482931 
0.0185761 9.51506 0.679954 
0.482931 0.679954 9.66512 
10.1581 0.0115005 0.00882661 
0.0115005 10.15 0.0466639 
0.00882661 0.0466639 10.051 
10.0388 -0.0375643 -0.0632782 
-0.0375643 10.0985 0.0215162 
-0.0632782 0.0215162 10.2219 
10.0524 0.042981 -0.0171733 
0.042981 10.2015 0.0548951 
-0.0171733 0.0548951 10.1052 
10.1161 0.00664894 0.0130295 
0.00664894 10.1655 -0.0230796 
0.0130295 -0.0230796 10.0775 
10.2035 0.00789426 0.00316133 
0.00789426 10.1746 -0.0152462 
0.00316133 -0.0152462 10.1243 
10.1969 -0.0214319 -0.0134797 
-0.0214319 10.15 0.0167905 
-0.0134797 0.0167905 10.1555 
10.1387 -0.0259307 0.000464983 
-0.0259307 10.1431 0.0507693 
0.000464983 0.0507693 10.2206 
10.2027 -0.009262 -0.0373398 
-0.009262 10.1727 -0.0107497 
-0.0373398 -0.0107497 10.1269 
9.84011 -0.00410897 -0.630321 
-0.00410897 9.89671 0.582523 
-0.630321 0.582523 9.95616 
9.81313 0.0351069 -0.647658 
0.0351069 9.84914 0.645676 
-0.647658 0.645676 10.0307 
9.87741 0.0396017 -0.626474 
0.0396017 9.89914 0.591837 
-0.626474 0.591837 9.91643 
9.90226 0.0491016 -0.60734 
0.0491016 9.89462 0.573343 
-0.60734 0.573343 9.8961 
9.90053 -0.0268698 0.672481 
-0.0268698 9.9301 0.581938 
0.672481 0.581938 9.97579 
9.95681 0.00887812 0.696687 
0.00887812 9.95039 0.580872 
0.696687 0.580872 9.89922 
9.93464 -0.0107749 0.690679 
-0.0107749 9.9483 0.56919 
0.690679 0.56919 9.92347 
9.90795 -0.0365096 0.703391 
-0.0365096 9.89945 0.545126 
0.703391 0.545126 9.99901 
10.151 0.00556696 -0.01291 
0.00556696 10.1438 -0.000577385 
-0.01291 -0.000577385 10.0886 
10.1145 0.00201411 -0.00753876 
0.00201411 10.1254 0.0147413 
-0.00753876 0.0147413 10.1435 
10.0825 -0.0451408 0.00517057 
-0.0451408 10.1262 -0.00661242 
0.00517057 -0.00661242 10.1747 
10.1717 0.0215341 0.0259702 
0.0215341 10.1218 0.000335226 
0.0259702 0.000335226 10.0898 
10.1397 -0.018862 0.00169099 
-0.018862 10.1642 -0.0276379 
0.00169099 -0.0276379 10.0843 
10.1401 0.0633087 -0.0183374 
0.0633087 10.1606 -0.0432169 
-0.0183374 -0.0432169 10.0875 
10.1388 -0.0471853 -0.00962444 
-0.0471853 10.0351 0.0331417 
-0.00962444 0.0331417 10.2143 
10.1061 -0.016259 0.0714905 
-0.016259 10.1461 0.000158077 
0.0714905 0.000158077 10.136 
9.94336 -0.0116152 0.42885 
-0.0116152 9.92637 0.799166 
0.42885 0.799166 9.91321 
9.90952 -0.00463985 0.402523 
-0.00463985 9.89016 0.81284 
0.402523 0.81284 9.98327 
9.92671 -0.0142436 0.43871 
-0.0142436 9.89563 0.793188 
0.43871 0.793188 9.96061 
9.92872 -0.00738333 0.43639 
-0.00738333 9.89589 0.82583 
0.43639 0.82583 9.95833 
9.79805 -0.00230586 -0.854747 
-0.00230586 9.83301 0.16357 
-0.854747 0.16357 9.88708 
9.841 0.00844592 -0.885977 
0.00844592 9.84803 0.235119 
-0.885977 0.235119 9.8291 
9.78517 0.018137 -0.828138 
0.018137 9.86024 0.19453 
-0.828138 0.19453 9.87271 
9.83008 -0.0144536 -0.879432 
-0.0144536 9.81995 0.229709 
-0.879432 0.229709 9.8681 
10.3062 -0.00989436 -0.231187 
-0.00989436 9.77077 -0.121687 
-0.231187 -0.121687 11.5287 
10.8336 0.133087 0.000270558 
0.133087 10.7801 0.057201 
0.000270558 0.057201 9.99194 
10.4982 0.173272 0.12557 
0.173272 10.8467 -0.0580715 
0.12557 -0.0580715 10.2607 
10.2914 -0.212475 0.515056 
-0.212475 10.6678 0.309932 
0.515056 0.309932 10.6465 
10.0786 -0.0881515 0.013032 
-0.0881515 10.1374 -0.00865401 
0.013032 -0.00865401 10.1874 
10.1522 -0.00707731 0.0245045 
-0.00707731 10.158 -0.00692568 
0.0245045 -0.00692568 10.0933 
10.1682 0.0221002 -0.0122585 
0.0221002 10.136 0.0088719 
-0.0122585 0.0088719 10.0992 
10.1857 0.0365071 0.0280445 
0.0365071 10.1172 0.0302825 
0.0280445 0.0302825 10.1005 
9.91669 0.0314966 -0.547206 
0.0314966 9.91725 0.699082 
-0.547206 0.699082 9.98634 
9.95656 0.00186965 -0.565404 
0.00186965 9.94537 0.693618 
-0.565404 0.693618 9.91834 
9.92518 0.00724581 -0.579685 
0.00724581 9.91724 0.671813 
-0.579685 0.671813 9.97785 
9.94867 0.00940252 -0.571085 
0.00940252 9.92377 0.69941 
-0.571085 0.69941 9.94783 
10.2776 -0.0588342 0.0766098 
-0.0588342 10.2067 0.0249666 
0.0766098 0.0249666 10.8022 
10.7304 0.0854291 0.0175488 
0.0854291 10.4819 -0.0369373 
0.0175488 -0.0369373 10.0741 
10.3643 -0.0411091 -0.0252106 
-0.0411091 10.3829 -0.0400608 
-0.0252106 -0.0400608 10.5392 
10.3398 -0.12012 -0.2486 
-0.12012 10.3592 -0.055106 
-0.2486 -0.055106 10.5875 
10.1249 -0.00711578 0.0042912 
-0.00711578 10.0306 -0.00510106 
0.0042912 -0.00510106 10.09 
10.0817 -0.00520504 0.0233637 
-0.00520504 10.0128 -0.0351506 
0.0233637 -0.0351506 10.151 
10.1165 0.0591217 0.0234451 
0.0591217 10.0308 -0.0281674 
0.0234451 -0.0281674 10.0981 
10.1303 -0.0237456 0.0218549 
-0.0237456 10.1087 0.0208473 
0.0218549 0.0208473 10.0064 
9.74196 -0.0502717 0.507719 
-0.0502717 9.70867 0.754383 
0.507719 0.754383 9.84441 
9.75379 0.00269288 0.503865 
0.00269288 9.7764 0.707496 
0.503865 0.707496 9.76484 
9.77285 0.00623445 0.456998 
0.00623445 9.77973 0.737401 
0.456998 0.737401 9.74245 
9.71729 -0.0145115 0.496405 
-0.0145115 9.76526 0.706876 
0.496405 0.706876 9.81248 
16.3963 -0.716285 -0.605408 
-0.716285 12.7791 -2.05259 
-0.605408 -2.05259 16.8085 
13.3087 0.360536 0.370457 
0.360536 9.74388 -0.0121628 
0.370457 -0.0121628 22.9313 
15.7861 -1.80719 -0.999334 
-1.80719 11.5946 -2.56289 
-0.999334 -2.56289 18.6032 
14.5596 -0.331708 0.846629 
-0.331708 14.2425 0.710228 
0.846629 0.710228 17.1817 
2.55549 -0.188015 -0.835589 
-0.188015 1.91732 -0.48431 
-0.835589 -0.48431 0.599416 
2.19587 -0.235687 -0.234144 
-0.235687 1.73194 -0.290034 
-0.234144 -0.290034 1.14441 
2.30712 -0.070806 -0.497307 
-0.070806 1.8481 0.0346894 
-0.497307 0.0346894 0.917008 
1.83217 -0.0662546 -0.476388 
-0.0662546 1.38814 0.015778 
-0.476388 0.015778 1.85192 
9.90771 -0.00740973 0.884258 
-0.00740973 9.93185 0.278137 
0.884258 0.278137 9.96334 
9.89383 -0.011777 0.855093 
-0.011777 9.93664 0.286884 
0.855093 0.286884 9.97243 
9.93327 -0.0102275 0.86097 
-0.0102275 9.94736 0.274205 
0.86097 0.274205 9.92227 
9.90718 -0.00502878 0.865551 
-0.00502878 9.92075 0.251881 
0.865551 0.251881 9.97497 
10.2731 0.0755769 -0.00940303 
0.0755769 9.90341 0.000756938 
-0.00940303 0.000756938 10.2448 
10.1195 -0.0387995 0.0256191 
-0.0387995 10.2274 -0.0310798 
0.0256191 -0.0310798 10.0744 
10.156 -0.00141865 -0.0245671 
-0.00141865 10.2122 0.0437857 
-0.0245671 0.0437857 10.0531 
10.1449 -0.0531648 0.00185531 
-0.0531648 10.2102 0.0604731 
0.00185531 0.0604731 10.0663 
9.72596 0.134992 -0.00243202 
0.134992 10.3687 -0.00998147 
-0.00243202 -0.00998147 10.3191 
10.2718 -0.00341 0.0739338 
-0.00341 10.1488 -0.0399796 
0.0739338 -0.0399796 9.99305 
10.2826 -0.0664343 -0.0632608 
-0.0664343 10.109 0.0302812 
-0.0632608 0.0302812 10.0222 
10.2455 -0.0771948 0.090053 
-0.0771948 10.1585 -0.00115245 
0.090053 -0.00115245 10.0097 
10.1415 -0.0438152 -0.00300884 
-0.0438152 9.98727 -0.00470473 
-0.00300884 -0.00470473 10.1286 
10.07 0.0167055 -0.00186445 
0.0167055 10.1462 0.0259073 
-0.00186445 0.0259073 10.0412 
10.088 0.00659558 -0.0114352 
0.00659558 10.1188 -0.0208739 
-0.0114352 -0.0208739 10.0506 
10.0965 -0.0158388 -0.0418694 
-0.0158388 10.1446 -0.0386419 
-0.0418694 -0.0386419 10.0162 
10.153 -0.00933448 -0.000819074 
-0.00933448 10.1356 -0.0146191 
-0.000819074 -0.0146191 10.1051 
10.1918 -0.0251068 0.0188745 
-0.0251068 10.1131 -0.0305015 
0.0188745 -0.0305015 10.0888 
10.0728 0.0971275 0.00758362 
0.0971275 10.1373 0.0149707 
0.00758362 0.0149707 10.1836 
10.1622 -0.0221356 -0.0238854 
-0.0221356 10.1326 -0.00410391 
-0.0238854 -0.00410391 10.0989 
10.0673 -0.00730841 -0.0019584 
-0.00730841 10.066 -0.013613 
-0.0019584 -0.013613 10.0789 
10.0557 0.0257155 -0.00726484 
0.0257155 10.0744 -0.00156382 
-0.00726484 -0.00156382 10.082 
10.0674 -0.00416451 -0.0127899 
-0.00416451 10.0675 0.00761839 
-0.0127899 0.00761839 10.0772 
10.081 -0.0139453 -0.00061005 
-0.0139453 10.0648 0.00615215 
-0.00061005 0.00615215 10.0663 
9.91618 0.0176465 -0.239134 
0.0176465 9.87476 0.86959 
-0.239134 0.86959 10.0048 
9.9462 -0.00209639 -0.274222 
-0.00209639 9.93907 0.868283 
-0.274222 0.868283 9.91045 
9.93797 0.0032458 -0.276532 
0.0032458 9.90362 0.857098 
-0.276532 0.857098 9.95413 
9.94527 -0.0067462 -0.265981 
-0.0067462 9.90728 0.877367 
-0.265981 0.877367 9.94318 
9.91535 -0.0079758 -0.79058 
-0.0079758 9.9181 0.402327 
-0.79058 0.402327 9.98412 
9.8954 0.0284958 -0.773547 
0.0284958 9.94486 0.435038 
-0.773547 0.435038 9.9773 
9.94939 0.0150596 -0.775008 
0.0150596 9.94476 0.433224 
-0.775008 0.433224 9.92341 
9.93443 0.0184855 -0.797087 
0.0184855 9.9199 0.438617 
-0.797087 0.438617 9.96324 
9.82341 -0.00117303 -0.893659 
-0.00117303 9.87862 0.00826144 
-0.893659 0.00826144 10.056 
9.89353 -0.00296944 -0.843332 
-0.00296944 9.9542 0.00227122 
-0.843332 0.00227122 9.91028 
9.89543 -0.0164551 -0.83832 
-0.0164551 9.90616 -0.0165234 
-0.83832 -0.0165234 9.95643 
9.88691 0.00693267 -0.805256 
0.00693267 9.97425 0.00629403 
-0.805256 0.00629403 9.89685 
9.07861 0.14786 -0.653458 
0.14786 9.4072 0.203588 
-0.653458 0.203588 9.56121 
9.32743 -0.000964684 -0.572864 
-0.000964684 9.31227 0.196037 
-0.572864 0.196037 9.40732 
9.24937 0.0666429 -0.561917 
0.0666429 9.37697 0.168133 
-0.561917 0.168133 9.42068 
9.3087 0.0168712 -0.541032 
0.0168712 9.30517 0.163198 
-0.541032 0.163198 9.43316 
10.1414 0.0860804 -0.00419801 
0.0860804 10.1807 0.0626883 
-0.00419801 0.0626883 9.98126 
10.1072 -0.00450473 0.0267787 
-0.00450473 10.0981 0.010343 
0.0267787 0.010343 10.0981 
10.1665 -0.0418974 0.035784 
-0.0418974 10.0734 0.0106117 
0.035784 0.0106117 10.0635 
10.1434 -0.0246731 0.0436147 
-0.0246731 10.0905 0.044549 
0.0436147 0.044549 10.0695 
9.9317 -0.017876 -0.431015 
-0.017876 9.92602 -0.809968 
-0.431015 -0.809968 9.94345 
9.95692 -0.00803426 -0.411528 
-0.00803426 9.94164 -0.801891 
-0.411528 -0.801891 9.90261 
9.90887 -0.0153593 -0.451447 
-0.0153593 9.88483 -0.775829 
-0.451447 -0.775829 10.0075 
9.93285 -0.0193226 -0.405835 
-0.0193226 9.91588 -0.799032 
-0.405835 -0.799032 9.95245 
10.1808 -0.00750297 0.00901099 
-0.00750297 10.1507 -0.00683992 
0.00901099 -0.00683992 10.1186 
10.1605 0.00292256 -0.0057903 
0.00292256 10.1405 -0.00164939 
-0.0057903 -0.00164939 10.1491 
10.127 0.0107029 0.0156728 
0.0107029 10.1261 0.00571751 
0.0156728 0.00571751 10.197 
10.1532 -0.0202551 -0.0386868 
-0.0202551 10.1871 0.00272199 
-0.0386868 0.00272199 10.1098 
10.0774 -0.00968089 -0.00623753 
-0.00968089 10.0876 0.00682357 
-0.00623753 0.00682357 10.0602 
10.0552 -0.00483343 -0.000993089 
-0.00483343 10.0732 -4.7299e-05 
-0.000993089 -4.7299e-05 10.0968 
10.0921 -0.0229052 -0.00524356 
-0.0229052 10.0618 0.00134351 
-0.00524356 0.00134351 10.0713 
10.0691 -0.00599496 -0.0287765 
-0.00599496 10.0972 0.00617761 
-0.0287765 0.00617761 10.0589 
10.1178 -0.0164964 -0.00543559 
-0.0164964 10.2194 0.00800595 
-0.00543559 0.00800595 10.1276 
10.1121 0.0280126 0.00636143 
0.0280126 10.1214 0.0154229 
0.00636143 0.0154229 10.2313 
10.1953 -0.0129083 -0.00194388 
-0.0129083 10.1606 -0.00265019 
-0.00194388 -0.00265019 10.1088 
10.1923 -0.014236 -0.0138447 
-0.014236 10.16 -0.0608388 
-0.0138447 -0.0608388 10.1126 
9.1339 -0.127403 -0.689073 
-0.127403 9.33235 -0.294376 
-0.689073 -0.294376 9.5783 
9.28175 -0.0617474 -0.62791 
-0.0617474 9.31172 -0.247897 
-0.62791 -0.247897 9.45108 
9.33387 0.0171109 -0.626322 
0.0171109 9.27177 -0.286262 
-0.626322 -0.286262 9.43891 
9.29007 0.0202953 -0.548994 
0.0202953 9.25867 -0.236183 
-0.548994 -0.236183 9.4958 
9.47334 -0.00578473 -0.393517 
-0.00578473 9.21671 0.061325 
-0.393517 0.061325 9.36469 
9.13696 0.0638844 -0.540601 
0.0638844 9.36468 0.0736152 
-0.540601 0.0736152 9.55311 
9.03248 0.0292975 -0.403181 
0.0292975 9.46758 0.0490163 
-0.403181 0.0490163 9.55468 
9.27187 0.190027 -0.467013 
0.190027 9.26529 0.0991901 
-0.467013 0.0991901 9.51758 
10.1073 -0.0047741 -0.0235626 
-0.0047741 10.0688 -0.0054933 
-0.0235626 -0.0054933 10.049 
10.0963 -0.00860834 -0.000985122 
-0.00860834 10.0824 -0.0035601 
-0.000985122 -0.0035601 10.0464 
10.0248 0.0192934 -0.00747268 
0.0192934 10.1173 0.0137762 
-0.00747268 0.0137762 10.083 
10.0908 -0.00735565 -0.023597 
-0.00735565 10.0955 -0.00550503 
-0.023597 -0.00550503 10.0388 
9.89753 -0.0379363 -0.66949 
-0.0379363 9.9273 -0.588052 
-0.66949 -0.588052 10.0106 
9.96933 0.010709 -0.715203 
0.010709 9.96438 -0.560245 
-0.715203 -0.560245 9.90173 
9.97724 -0.0200213 -0.672638 
-0.0200213 9.95116 -0.554507 
-0.672638 -0.554507 9.90704 
9.94578 -0.0188882 -0.694466 
-0.0188882 9.94549 -0.554722 
-0.694466 -0.554722 9.94418 
2.15661 -0.114575 1.05459 
-0.114575 2.3541 1.07669 
1.05459 1.07669 -0.468126 
2.06065 -0.00416271 -0.14637 
-0.00416271 2.41637 0.274378 
-0.14637 0.274378 -0.434434 
1.23691 -0.172635 0.634984 
-0.172635 1.43014 0.473977 
0.634984 0.473977 1.37553 
1.41793 0.0144585 1.05843 
0.0144585 1.30545 0.0712616 
1.05843 0.0712616 1.3192 
9.98824 -0.00126494 0.911253 
-0.00126494 9.96496 -0.137173 
0.911253 -0.137173 9.88571 
9.87914 0.00745508 0.897976 
0.00745508 9.9152 -0.0653336 
0.897976 -0.0653336 10.0446 
9.91231 -0.00534237 0.893276 
-0.00534237 9.99181 -0.0929558 
0.893276 -0.0929558 9.93479 
9.9492 -0.0146279 0.873329 
-0.0146279 9.98169 -0.086839 
0.873329 -0.086839 9.90802 
10.1509 -0.0117512 -0.0122874 
-0.0117512 10.1285 -0.0017415 
-0.0122874 -0.0017415 10.1076 
10.1492 -0.00235277 -0.0113849 
-0.00235277 10.112 -0.0260285 
-0.0113849 -0.0260285 10.1258 
10.0849 0.00129728 0.0141222 
0.00129728 10.114 -0.0225779 
0.0141222 -0.0225779 10.1881 
10.1643 0.017454 -0.0288539 
0.017454 10.1162 -0.0118436 
-0.0288539 -0.0118436 10.1064 
10.1989 -0.056379 0.0202721 
-0.056379 9.98399 0.000256342 
0.0202721 0.000256342 10.1786 
10.1385 0.0147985 -0.00149503 
0.0147985 10.1609 0.0354412 
-0.00149503 0.0354412 10.0621 
10.1058 -0.00324383 0.0156706 
-0.00324383 10.1938 0.0397588 
0.0156706 0.0397588 10.0619 
10.0973 0.020676 -0.0117109 
0.020676 10.1949 -0.0304474 
-0.0117109 -0.0304474 10.0693 
10.0886 0.00403643 0.00529245 
0.00403643 10.0939 0.00481239 
0.00529245 0.00481239 10.0731 
10.0787 0.00897776 -0.000376568 
0.00897776 10.0755 0.000148164 
-0.000376568 0.000148164 10.1015 
10.098 0.00675736 0.000253286 
0.00675736 10.0994 -0.000950954 
0.000253286 -0.000950954 10.0583 
10.1056 -0.00268736 0.00489705 
-0.00268736 10.0821 0.0309986 
0.00489705 0.0309986 10.068 
9.93821 -0.0245691 0.12238 
-0.0245691 9.88444 0.957454 
0.12238 0.957454 9.98624 
9.94013 -0.0270263 0.155548 
-0.0270263 9.90826 0.91768 
0.155548 0.91768 9.9605 
9.93009 -0.00945518 0.115306 
-0.00945518 9.92865 0.923779 
0.115306 0.923779 9.95014 
9.97916 -0.013612 0.13698 
-0.013612 9.92083 0.919956 
0.13698 0.919956 9.9089 
9.94375 -0.0280633 -0.555257 
-0.0280633 9.92381 -0.689434 
-0.555257 -0.689434 9.93671 
9.91411 -0.00602501 -0.580646 
-0.00602501 9.92117 -0.692041 
-0.580646 -0.692041 9.96899 
9.91771 -0.0147471 -0.5881 
-0.0147471 9.88825 -0.731566 
-0.5881 -0.731566 9.99832 
9.92628 -0.014276 -0.555928 
-0.014276 9.90982 -0.712463 
-0.555928 -0.712463 9.96818 
9.59627 -0.0631046 -0.356497 
-0.0631046 9.45018 -0.00340508 
-0.356497 -0.00340508 9.48881 
9.48694 0.0285108 -0.420191 
0.0285108 9.45664 -0.112413 
-0.420191 -0.112413 9.59168 
9.11969 0.163727 -0.252768 
0.163727 9.67968 0.0372138 
-0.252768 0.0372138 9.7359 
9.36011 -0.0115759 -0.493428 
-0.0115759 9.49108 0.0871933 
-0.493428 0.0871933 9.68407 
10.1314 -0.0295927 -0.00388869 
-0.0295927 10.0708 0.00145894 
-0.00388869 0.00145894 10.0806 
10.0705 0.0060018 0.00531555 
0.0060018 10.0992 -0.00144123 
0.00531555 -0.00144123 10.1131 
10.0831 -0.0046288 0.0257866 
-0.0046288 10.1148 -0.00719896 
0.0257866 -0.00719896 10.0848 
10.0993 -0.00513599 0.00249338 
-0.00513599 10.1117 -0.014116 
0.00249338 -0.014116 10.0718 
10.1163 -0.0112204 0.00422314 
-0.0112204 10.1589 0.000907787 
0.00422314 0.000907787 10.0827 
10.1084 0.0317807 0.00807106 
0.0317807 10.0674 0.00665306 
0.00807106 0.00665306 10.182 
10.1355 -0.0394532 0.00264282 
-0.0394532 10.1215 -0.0125015 
0.00264282 -0.0125015 10.1008 
10.1126 -0.0120006 -0.0276724 
-0.0120006 10.1403 0.00224269 
-0.0276724 0.00224269 10.105 
10.1416 -0.0218446 -0.0238384 
-0.0218446 10.1273 -0.0178474 
-0.0238384 -0.0178474 10.0971 
10.111 -0.0123082 -8.83059e-05 
-0.0123082 10.1128 0.000394769 
-8.83059e-05 0.000394769 10.1423 
10.0835 0.0287611 -0.00599423 
0.0287611 10.141 -0.00933708 
-0.00599423 -0.00933708 10.1416 
10.1275 -0.0158086 0.00794726 
-0.0158086 10.1443 -0.0104406 
0.00794726 -0.0104406 10.0942 
10.0521 0.0297111 0.0120005 
0.0297111 10.0686 0.00980909 
0.0120005 0.00980909 10.0108 
10.0471 0.0117739 0.00252617 
0.0117739 10.021 -0.00506007 
0.00252617 -0.00506007 10.0634 
10.0024 -0.047834 -0.000345846 
-0.047834 10.0698 -0.00157403 
-0.000345846 -0.00157403 10.0595 
10.0715 0.0219312 -0.025613 
0.0219312 10.0433 0.0159052 
-0.025613 0.0159052 10.0168 
10.0855 -0.0116638 -0.00356112 
-0.0116638 10.1145 -0.0131076 
-0.00356112 -0.0131076 10.0817 
10.0875 0.00909929 -0.00646485 
0.00909929 10.0803 -0.00403018 
-0.00646485 -0.00403018 10.114 
10.0751 -0.00532593 0.0067477 
-0.00532593 10.0896 0.00322636 
0.0067477 0.00322636 10.1171 
10.1055 -0.022025 -0.00465947 
-0.022025 10.1045 0.0117253 
-0.00465947 0.0117253 10.0718 
10.1775 0.0193561 0.000529969 
0.0193561 10.217 -0.010188 
0.000529969 -0.010188 10.1919 
10.1737 0.0549017 -0.00739203 
0.0549017 10.2241 -0.0303421 
-0.00739203 -0.0303421 10.1886 
10.1066 0.00218187 0.0435348 
0.00218187 10.1832 -0.0344533 
0.0435348 -0.0344533 10.2966 
10.2216 0.00367567 -0.0245487 
0.00367567 10.2238 -0.0303583 
-0.0245487 -0.0303583 10.141 
9.44402 -0.0514431 -0.0520978 
-0.0514431 9.14595 -0.567296 
-0.0520978 -0.567296 9.59322 
9.54329 -0.0526858 -0.0101523 
-0.0526858 9.06295 -0.38668 
-0.0101523 -0.38668 9.57695 
9.29246 0.0476812 -0.0984014 
0.0476812 9.47849 -0.500769 
-0.0984014 -0.500769 9.41224 
9.29448 -0.101645 -0.0315454 
-0.101645 9.3609 -0.5537 
-0.0315454 -0.5537 9.5278 
9.87325 0.00016169 -0.611126 
0.00016169 9.89287 -0.632895 
-0.611126 -0.632895 9.96873 
9.87611 -0.00635413 -0.573816 
-0.00635413 9.86582 -0.600097 
-0.573816 -0.600097 9.99293 
9.8897 -0.0233267 -0.561594 
-0.0233267 9.90337 -0.657211 
-0.561594 -0.657211 9.94178 
9.91824 -0.029877 -0.581872 
-0.029877 9.92298 -0.658368 
-0.581872 -0.658368 9.89363 
9.8714 0.20011 -0.0387937 
0.20011 10.5166 -0.277308 
-0.0387937 -0.277308 9.99793 
9.8084 -0.145195 0.227712 
-0.145195 10.0034 -0.0644517 
0.227712 -0.0644517 10.5742 
10.2504 0.0340066 -0.198489 
0.0340066 10.3481 0.298644 
-0.198489 0.298644 9.78741 
10.2174 0.0306358 -0.0635706 
0.0306358 10.2674 -0.13522 
-0.0635706 -0.13522 9.90107 
9.85986 0.0252896 0.81124 
0.0252896 9.92901 -0.319752 
0.81124 -0.319752 9.98715 
9.8566 -0.0340921 0.749714 
-0.0340921 9.86751 -0.323477 
0.749714 -0.323477 10.0519 
9.91806 0.0443229 0.797696 
0.0443229 9.96307 -0.29538 
0.797696 -0.29538 9.89489 
9.87523 0.0254735 0.837497 
0.0254735 9.98705 -0.266035 
0.837497 -0.266035 9.91374 
10.0867 0.0719719 0.00245483 
0.0719719 10.0882 0.00263506 
0.00245483 0.00263506 10.0489 
10.0528 -0.020635 0.00284529 
-0.020635 10.0588 0.00302785 
0.00284529 0.00302785 10.1122 
10.0405 -0.00974122 -0.0128756 
-0.00974122 10.1296 -0.0261521 
-0.0128756 -0.0261521 10.0537 
10.0595 -0.0243045 -0.0643491 
-0.0243045 10.1126 -0.0444295 
-0.0643491 -0.0444295 10.0517 
9.93391 0.00683239 0.865289 
0.00683239 9.94756 -0.270813 
0.865289 -0.270813 9.92375 
9.89053 0.0136351 0.875489 
0.0136351 9.91331 -0.240385 
0.875489 -0.240385 10.0014 
9.91546 0.00479904 0.862747 
0.00479904 9.92719 -0.279444 
0.862747 -0.279444 9.96259 
9.90109 -0.0105359 0.889413 
-0.0105359 9.93756 -0.266772 
0.889413 -0.266772 9.96659 
10.0654 0.00687687 0.0199409 
0.00687687 10.0858 -0.0107527 
0.0199409 -0.0107527 10.0516 
10.0911 -0.0573476 -0.0135686 
-0.0573476 10.0774 0.0112672 
-0.0135686 0.0112672 10.0343 
10.0786 0.00916332 0.00762835 
0.00916332 10.0803 -0.00702833 
0.00762835 -0.00702833 10.044 
10.0788 -0.0109223 -0.000382372 
-0.0109223 10.0709 -0.00425536 
-0.000382372 -0.00425536 10.0531 
10.1092 0.0159515 0.00270481 
0.0159515 10.0492 1.23197e-05 
0.00270481 1.23197e-05 10.0994 
10.0682 0.00105788 -0.0141571 
0.00105788 10.0734 -0.00495166 
-0.0141571 -0.00495166 10.1163 
10.091 -0.000426531 -0.00485881 
-0.000426531 10.1072 0.00991469 
-0.00485881 0.00991469 10.0596 
10.0824 -0.016805 0.0271786 
-0.016805 10.1163 -0.00337573 
0.0271786 -0.00337573 10.059 
10.1285 0.00728942 0.0074588 
0.00728942 10.1356 0.0155518 
0.0074588 0.0155518 10.079 
10.078 -0.00372997 0.00170031 
-0.00372997 10.1219 -0.00874447 
0.00170031 -0.00874447 10.1433 
10.0932 -0.00842874 -0.00843185 
-0.00842874 10.1019 0.02489 
-0.00843185 0.02489 10.1482 
10.1543 0.0308376 -0.0111532 
0.0308376 10.1172 -0.0273749 
-0.0111532 -0.0273749 10.0716 
9.98159 0.00736456 0.0967302 
0.00736456 9.95553 0.881099 
0.0967302 0.881099 9.9222 
9.97515 -0.00287095 0.136525 
-0.00287095 9.98472 0.904151 
0.136525 0.904151 9.89945 
10.0005 0.0101152 0.0948667 
0.0101152 9.92186 0.889316 
0.0948667 0.889316 9.93698 
9.92108 -0.0015113 0.0655276 
-0.0015113 9.89673 0.89417 
0.0655276 0.89417 10.0415 
10.2977 -0.139468 -0.114965 
-0.139468 10.4286 0.0253643 
-0.114965 0.0253643 11.1544 
10.5895 -0.0718362 0.0334937 
-0.0718362 10.4479 -0.0393791 
0.0334937 -0.0393791 10.8432 
10.679 0.0326966 -0.027521 
0.0326966 10.8103 -0.108787 
-0.027521 -0.108787 10.3914 
10.4783 0.0978134 0.230798 
0.0978134 10.7554 0.0549608 
0.230798 0.0549608 10.647 
9.9701 -0.00541142 -0.128114 
-0.00541142 9.96692 -0.903839 
-0.128114 -0.903839 9.90271 
9.98143 0.00502452 -0.0914329 
0.00502452 9.91848 -0.894377 
-0.0914329 -0.894377 9.93983 
9.96472 0.00986813 -0.0922926 
0.00986813 9.93724 -0.897146 
-0.0922926 -0.897146 9.93777 
9.90949 0.000344853 -0.0665027 
0.000344853 9.8941 -0.89836 
-0.0665027 -0.89836 10.0361 
10.5708 0.171396 -0.00461275 
0.171396 10.6505 -0.011251 
-0.00461275 -0.011251 10.3723 
10.6532 -0.0559601 0.0936764 
-0.0559601 10.6819 -0.0552322 
0.0936764 -0.0552322 10.2585 
10.1863 -0.0525993 -0.00540232 
-0.0525993 10.2013 -0.169653 
-0.00540232 -0.169653 11.2059 
10.6341 -0.129002 0.189897 
-0.129002 10.483 0.317067 
0.189897 0.317067 10.4764 
9.96088 0.0419076 -0.0597655 
0.0419076 9.77945 0.0768884 
-0.0597655 0.0768884 10.0714 
9.8281 -0.0592249 -0.0291162 
-0.0592249 10.0094 0.0780007 
-0.0291162 0.0780007 9.97426 
10.017 0.0419191 -0.00318279 
0.0419191 9.67593 -0.0133871 
-0.00318279 -0.0133871 10.1189 
9.78689 0.14347 0.0306519 
0.14347 9.93398 0.0489004 
0.0306519 0.0489004 10.0909 
9.90223 -0.00642717 -0.891667 
-0.00642717 9.99578 0.0959422 
-0.891667 0.0959422 9.95114 
9.97585 0.0125415 -0.902817 
0.0125415 9.96286 0.132464 
-0.902817 0.132464 9.91045 
9.92143 -0.00587163 -0.895282 
-0.00587163 9.90026 0.0680207 
-0.895282 0.0680207 10.0275 
9.95568 0.023822 -0.888955 
0.023822 9.96327 0.105802 
-0.888955 0.105802 9.9302 
10.1015 0.00754066 -0.00316337 
0.00754066 10.1331 -0.00740688 
-0.00316337 -0.00740688 10.1465 
10.1593 -0.0143118 -0.00289371 
-0.0143118 10.1268 -0.00309664 
-0.00289371 -0.00309664 10.095 
10.1469 -0.00347086 0.00970955 
-0.00347086 10.121 0.0106414 
0.00970955 0.0106414 10.1133 
10.1447 0.0219687 -0.0066088 
0.0219687 10.123 -0.00350817 
-0.0066088 -0.00350817 10.1135 
10.0971 0.0209503 0.00136987 
0.0209503 10.0966 0.00893954 
0.00136987 0.00893954 10.0777 
10.0843 -0.0230402 0.00309203 
-0.0230402 10.0616 -0.00305288 
0.00309203 -0.00305288 10.1254 
10.0895 0.00589178 0.00109801 
0.00589178 10.1059 -2.58015e-05 
0.00109801 -2.58015e-05 10.0759 
10.0868 -0.000867182 -0.0293108 
-0.000867182 10.097 0.00907495 
-0.0293108 0.00907495 10.0875 
10.0735 -0.00287293 -0.00217052 
-0.00287293 10.0925 -0.0136988 
-0.00217052 -0.0136988 10.1307 
10.1035 -0.00672717 -0.000430477 
-0.00672717 10.1046 -0.00677382 
-0.000430477 -0.00677382 10.0886 
10.1103 -0.0117215 0.00823867 
-0.0117215 10.1023 -0.00423678 
0.00823867 -0.00423678 10.084 
10.1215 -0.00588425 -0.0101838 
-0.00588425 10.0916 -0.00574713 
-0.0101838 -0.00574713 10.0836 
9.94515 0.0164421 0.70772 
0.0164421 9.96011 -0.576364 
0.70772 -0.576364 9.93039 
9.91819 0.0133165 0.73049 
0.0133165 9.94479 -0.593351 
0.73049 -0.593351 9.97267 
9.9234 0.0194769 0.72176 
0.0194769 9.933 -0.56416 
0.72176 -0.56416 9.97925 
9.92858 0.0107414 0.696282 
0.0107414 9.93287 -0.594846 
0.696282 -0.594846 9.97421 
10.1466 0.0072095 -0.00338312 
0.0072095 10.1339 -0.00404443 
-0.00338312 -0.00404443 10.1312 
10.1417 -0.00712409 -0.00603414 
-0.00712409 10.1301 -0.00725588 
-0.00603414 -0.00725588 10.14 
10.1447 0.00255759 -0.00774746 
0.00255759 10.1253 -0.00440151 
-0.00774746 -0.00440151 10.1418 
10.1473 -0.00110585 -0.00967541 
-0.00110585 10.1331 -0.00273304 
-0.00967541 -0.00273304 10.1314 
10.0419 -0.0854013 -0.00312424 
-0.0854013 9.99422 -0.000991351 
-0.00312424 -0.000991351 10.1111 
10.0482 0.0220864 0.0110862 
0.0220864 10.0397 -0.0089909 
0.0110862 -0.0089909 10.0593 
10.0567 0.0182273 0.00228935 
0.0182273 10.0577 -0.0155525 
0.00228935 -0.0155525 10.0328 
10.0373 0.0233216 0.0138032 
0.0233216 10.093 0.0132572 
0.0138032 0.0132572 10.0168 
10.0777 -0.00380575 -0.0224392 
-0.00380575 10.0988 -0.00659317 
-0.0224392 -0.00659317 10.0665 
10.095 -0.00124026 -0.0092926 
-0.00124026 10.0909 -0.0117834 
-0.0092926 -0.0117834 10.0571 
10.1328 0.0258725 0.0178402 
0.0258725 10.0009 -0.000710307 
0.0178402 -0.000710307 10.1093 
10.0703 -0.0299867 -0.00890056 
-0.0299867 10.1167 -0.0322408 
-0.00890056 -0.0322408 10.056 
10.1736 0.0198833 0.0205549 
0.0198833 10.0906 0.0253326 
0.0205549 0.0253326 10.0807 
9.9479 -0.0475796 8.17078e-05 
-0.0475796 10.1998 0.00772852 
8.17078e-05 0.00772852 10.1971 
10.1792 0.0529417 -0.0333626 
0.0529417 10.0754 -0.00745532 
-0.0333626 -0.00745532 10.0902 
10.1395 -0.00817517 -0.0227855 
-0.00817517 10.1674 -0.0269261 
-0.0227855 -0.0269261 10.038 
9.9817 -0.000874847 -0.697899 
-0.000874847 9.98627 0.567322 
-0.697899 0.567322 9.92682 
9.99465 0.0181332 -0.675422 
0.0181332 9.96709 0.564175 
-0.675422 0.564175 9.93306 
9.96124 0.0174103 -0.693061 
0.0174103 9.96615 0.553351 
-0.693061 0.553351 9.96741 
9.93863 0.0311543 -0.670477 
0.0311543 9.96507 0.582279 
-0.670477 0.582279 9.9911 
9.90007 0.0061711 0.395882 
0.0061711 9.87919 -0.815583 
0.395882 -0.815583 10.0146 
9.93529 0.0130435 0.444272 
0.0130435 9.90602 -0.788517 
0.444272 -0.788517 9.95257 
9.93722 0.00637874 0.437319 
0.00637874 9.90197 -0.816124 
0.437319 -0.816124 9.9547 
9.95109 0.0155584 0.437119 
0.0155584 9.93688 -0.790008 
0.437119 -0.790008 9.90592 
9.98509 0.0183906 0.743567 
0.0183906 9.98572 -0.4228 
0.743567 -0.4228 9.91078 
9.93615 0.0284685 0.780866 
0.0284685 9.94322 -0.403997 
0.780866 -0.403997 10.0022 
10.0049 -0.00775517 0.771895 
-0.00775517 9.96765 -0.462164 
0.771895 -0.462164 9.90904 
9.93284 0.0304834 0.76021 
0.0304834 9.98453 -0.441043 
0.76021 -0.441043 9.96422 
9.96787 0.0108818 0.28549 
0.0108818 9.95027 -0.83436 
0.28549 -0.83436 9.96169 
9.95911 0.013991 0.250581 
0.013991 9.93084 -0.845748 
0.250581 -0.845748 9.98987 
9.97885 0.0074599 0.280473 
0.0074599 9.969 -0.842851 
0.280473 -0.842851 9.93197 
9.97839 0.012765 0.275936 
0.012765 9.95511 -0.844236 
0.275936 -0.844236 9.94632 
10.1163 -0.00531624 -2.86243e-05 
-0.00531624 10.1343 -0.00714089 
-2.86243e-05 -0.00714089 10.109 
10.102 -0.00498717 -0.0127903 
-0.00498717 10.1003 -0.00196166 
-0.0127903 -0.00196166 10.1574 
10.1253 -0.00663256 -0.00837341 
-0.00663256 10.126 -0.000587024 
-0.00837341 -0.000587024 10.1083 
10.1195 -0.0127952 -0.0035504 
-0.0127952 10.1311 0.00711884 
-0.0035504 0.00711884 10.1089 
10.1551 0.00274497 -0.000527038 
0.00274497 10.1205 0.00881959 
-0.000527038 0.00881959 10.1281 
10.1001 0.000893724 -0.00133321 
0.000893724 10.1461 0.00632216 
-0.00133321 0.00632216 10.1575 
10.1428 -0.000629849 0.0113459 
-0.000629849 10.1409 0.00282291 
0.0113459 0.00282291 10.1201 
10.1327 0.00933356 0.00353015 
0.00933356 10.1319 0.00303462 
0.00353015 0.00303462 10.1391 
10.1291 -0.00417822 -0.00679682 
-0.00417822 10.1649 0.0108282 
-0.00679682 0.0108282 10.1259 
10.1683 0.010232 -0.00836473 
0.010232 10.1217 0.000902601 
-0.00836473 0.000902601 10.13 
10.0883 0.00896314 -0.0111988 
0.00896314 10.1833 0.000618495 
-0.0111988 0.000618495 10.1484 
10.1561 -0.0188772 0.00681333 
-0.0188772 10.1376 -0.003299 
0.00681333 -0.003299 10.1262 
9.93317 -0.0180529 0.506075 
-0.0180529 9.93485 0.682572 
0.506075 0.682572 9.91882 
9.89487 -0.00705008 0.464723 
-0.00705008 9.89635 0.68286 
0.464723 0.68286 9.99561 
9.90324 0.0035164 0.4978 
0.0035164 9.8822 0.725188 
0.4978 0.725188 10.0014 
9.94633 -0.0239707 0.512616 
-0.0239707 9.92838 0.67068 
0.512616 0.67068 9.91214 
10.1116 -0.024406 -0.00769451 
-0.024406 10.0914 0.00112377 
-0.00769451 0.00112377 10.0877 
10.0552 0.00646942 0.00595904 
0.00646942 10.1419 7.92271e-05 
0.00595904 7.92271e-05 10.0935 
10.1185 0.00774045 0.00671129 
0.00774045 10.0813 -0.000766063 
0.00671129 -0.000766063 10.0908 
10.0926 -0.00652943 -0.00233962 
-0.00652943 10.1098 -0.00558529 
-0.00233962 -0.00558529 10.0882 
10.1897 -0.010851 0.007405 
-0.010851 10.1645 0.0244718 
0.007405 0.0244718 10.161 
10.155 -0.0249113 0.00246154 
-0.0249113 10.1939 0.0241458 
0.00246154 0.0241458 10.1663 
10.1938 -0.0160082 0.00201356 
-0.0160082 10.1486 0.0237128 
0.00201356 0.0237128 10.1729 
10.1738 0.0131577 -0.0123089 
0.0131577 10.1984 0.00911047 
-0.0123089 0.00911047 10.1431 
10.1648 -0.00238424 0.00579619 
-0.00238424 10.1648 -0.0145295 
0.00579619 -0.0145295 10.1279 
10.1563 -0.0111758 0.0157359 
-0.0111758 10.1613 0.00122894 
0.0157359 0.00122894 10.1399 
10.158 -0.00402557 0.0126849 
-0.00402557 10.1289 0.00180464 
0.0126849 0.00180464 10.1706 
10.1518 -0.00795682 0.000973771 
-0.00795682 10.1645 0.00554906 
0.000973771 0.00554906 10.1412 
9.98547 -0.00774086 0.0942961 
-0.00774086 9.93526 -0.885471 
0.0942961 -0.885471 9.94431 
9.92124 0.00134499 0.0625251 
0.00134499 9.90302 -0.890499 
0.0625251 -0.890499 10.0408 
9.97673 0.00634322 0.130389 
0.00634322 9.97754 -0.895046 
0.130389 -0.895046 9.91077 
9.97283 -0.0125872 0.0920972 
-0.0125872 9.95094 -0.88759 
0.0920972 -0.88759 9.94127 
5.17347 0.0406053 -1.7214 
0.0406053 2.28286 -0.410996 
-1.7214 -0.410996 1.28506 
7.51484 -0.317892 -0.34698 
-0.317892 3.33889 1.20584 
-0.34698 1.20584 -2.11234 
2.66851 0.415325 -1.24214 
0.415325 4.78374 0.865323 
-1.24214 0.865323 1.28915 
5.17602 0.520593 -2.80531 
0.520593 0.926801 -1.07922 
-2.80531 -1.07922 2.63857 
9.9082 0.00780415 0.905131 
0.00780415 9.99201 0.100592 
0.905131 0.100592 9.93535 
9.9385 0.000341618 0.911666 
0.000341618 9.96289 0.105762 
0.911666 0.105762 9.93418 
9.89172 0.000866509 0.910048 
0.000866509 9.89953 0.0682452 
0.910048 0.0682452 10.0443 
9.96775 -0.013045 0.915429 
-0.013045 9.97293 0.143553 
0.915429 0.143553 9.89488 
10.1676 0.00864183 -0.0103272 
0.00864183 10.1613 -0.00412741 
-0.0103272 -0.00412741 10.1398 
10.1681 0.00658555 0.000900974 
0.00658555 10.1613 -0.0136667 
0.000900974 -0.0136667 10.1393 
10.1333 0.00276937 0.00162095 
0.00276937 10.159 -0.0100756 
0.00162095 -0.0100756 10.1765 
10.168 0.00415848 0.00714072 
0.00415848 10.1587 0.009464 
0.00714072 0.009464 10.1421 
1.79721 -0.248314 -0.752139 
-0.248314 2.18581 0.573317 
-0.752139 0.573317 -0.178446 
1.46437 0.0614756 -0.225044 
0.0614756 1.63317 0.219455 
-0.225044 0.219455 0.707028 
1.54891 -0.173234 -0.0292273 
-0.173234 1.4837 0.474546 
-0.0292273 0.474546 0.771963 
1.35551 -0.200536 -0.00412889 
-0.200536 1.32113 0.30046 
-0.00412889 0.30046 1.12793 
10.1677 0.00734924 0.00219196 
0.00734924 10.1453 0.00189224 
0.00219196 0.00189224 10.1529 
10.1651 0.025355 -0.00905454 
0.025355 10.165 0.00953878 
-0.00905454 0.00953878 10.1357 
10.1326 -0.048061 -0.00601354 
-0.048061 10.1386 0.0102749 
-0.00601354 0.0102749 10.1947 
10.1828 0.0119677 -0.0120128 
0.0119677 10.1386 0.00183993 
-0.0120128 0.00183993 10.1445 
10.1331 -0.00299952 0.00187269 
-0.00299952 10.1347 -0.0051259 
0.00187269 -0.0051259 10.1514 
10.1425 0.00169199 0.00105516 
0.00169199 10.1529 -0.00457148 
0.00105516 -0.00457148 10.1237 
10.1559 0.0120109 -0.00150357 
0.0120109 10.1381 0.0186228 
-0.00150357 0.0186228 10.1252 
10.131 0.00890104 -0.00472336 
0.00890104 10.1639 -0.00785245 
-0.00472336 -0.00785245 10.1243 
10.0349 -0.0364899 -0.00322541 
-0.0364899 10.2284 0.0185222 
-0.00322541 0.0185222 10.2095 
10.2059 0.0388066 0.0387804 
0.0388066 10.1561 -0.010723 
0.0387804 -0.010723 10.1109 
10.2062 0.0145655 -0.014981 
0.0145655 10.1411 -0.0278507 
-0.014981 -0.0278507 10.1256 
10.187 0.00819441 0.0135174 
0.00819441 10.1583 -0.00831322 
0.0135174 -0.00831322 10.1276 
9.97307 -0.00916999 -0.0959251 
-0.00916999 9.94374 0.894524 
-0.0959251 0.894524 9.93466 
9.91299 0.00259956 -0.0619673 
0.00259956 9.8872 0.896435 
-0.0619673 0.896435 10.0513 
9.98786 -0.00561642 -0.0942277 
-0.00561642 9.9303 0.891045 
-0.0942277 0.891045 9.93331 
9.97896 0.00665508 -0.13714 
0.00665508 9.97474 0.900999 
-0.13714 0.900999 9.89777 
9.96814 -0.000272568 0.261869 
-0.000272568 9.94603 0.86275 
0.261869 0.86275 9.93726 
9.93623 -0.00152861 0.275376 
-0.00152861 9.94775 0.856628 
0.275376 0.856628 9.96745 
9.97097 0.0231914 0.254465 
0.0231914 9.91245 0.882341 
0.254465 0.882341 9.96801 
9.94999 -0.022869 0.239115 
-0.022869 9.90738 0.86882 
0.239115 0.86882 9.99406 
9.94893 0.00578726 -0.876019 
0.00578726 9.9704 0.25854 
-0.876019 0.25854 9.92641 
9.92987 0.0152724 -0.875081 
0.0152724 9.95552 0.252681 
-0.875081 0.252681 9.96035 
9.91333 0.009573 -0.862239 
0.009573 9.93343 0.297792 
-0.862239 0.297792 9.99898 
9.93729 0.0164168 -0.888196 
0.0164168 9.94834 0.275384 
-0.888196 0.275384 9.96011 
9.98134 0.0776509 -0.0354495 
0.0776509 10.1805 0.015262 
-0.0354495 0.015262 10.0156 
10.2066 -0.248774 0.0236876 
-0.248774 9.83224 -0.00410041 
0.0236876 -0.00410041 10.1386 
10.0767 0.0422973 0.0329476 
0.0422973 10.0471 0.00225117 
0.0329476 0.00225117 10.0537 
10.1378 0.172723 -0.0802656 
0.172723 10.0359 -0.00576724 
-0.0802656 -0.00576724 10.0038 
9.96539 -0.00781856 -0.915175 
-0.00781856 9.96951 -0.128268 
-0.915175 -0.128268 9.90336 
9.9403 0.000869717 -0.90996 
0.000869717 9.96422 -0.0986389 
-0.90996 -0.0986389 9.93374 
9.9161 0.00544804 -0.905294 
0.00544804 9.98389 -0.0971326 
-0.905294 -0.0971326 9.93828 
9.89704 0.000462842 -0.90989 
0.000462842 9.90933 -0.066302 
-0.90989 -0.066302 10.0319 
9.97226 0.00907778 -0.444641 
0.00907778 9.97223 0.791615 
-0.444641 0.791615 9.94195 
9.98532 0.011678 -0.453553 
0.011678 9.97122 0.794182 
-0.453553 0.794182 9.9299 
10.0008 -0.000991499 -0.434826 
-0.000991499 9.93523 0.81117 
-0.434826 0.81117 9.95044 
9.95524 0.0322777 -0.408943 
0.0322777 9.92458 0.81318 
-0.408943 0.81318 10.0066 
9.92284 -0.00275937 -0.822183 
-0.00275937 9.97352 -0.429303 
-0.822183 -0.429303 9.96503 
9.9441 -0.0100035 -0.795568 
-0.0100035 9.95306 -0.438882 
-0.795568 -0.438882 9.96423 
9.95528 -0.0132512 -0.799235 
-0.0132512 9.97108 -0.433548 
-0.799235 -0.433548 9.93503 
9.92686 -0.011667 -0.814469 
-0.011667 9.94868 -0.404777 
-0.814469 -0.404777 9.98586 
10.8766 -0.0656824 -0.0158968 
-0.0656824 10.5734 0.0156973 
-0.0158968 0.0156973 10.5582 
11.1404 0.0143653 0.136212 
0.0143653 10.6383 0.163528 
0.136212 0.163528 10.2295 
9.94644 -0.287731 0.214448 
-0.287731 10.3333 -0.0979477 
0.214448 -0.0979477 11.7284 
10.7894 0.161898 -0.354071 
0.161898 10.6312 0.197997 
-0.354071 0.197997 10.5876 
9.96393 0.0211169 0.548542 
0.0211169 9.96411 -0.700514 
0.548542 -0.700514 9.98272 
9.98458 0.0148791 0.563051 
0.0148791 9.97923 -0.689031 
0.563051 -0.689031 9.94695 
9.98727 0.00228885 0.571853 
0.00228885 9.98745 -0.693569 
0.571853 -0.693569 9.93604 
9.97287 0.020048 0.576193 
0.020048 9.95781 -0.677737 
0.576193 -0.677737 9.98008 
9.97556 -0.00678423 0.791481 
-0.00678423 9.98033 0.439883 
0.791481 0.439883 9.96632 
9.97348 -0.0105983 0.796302 
-0.0105983 9.99705 0.435268 
0.796302 0.435268 9.95168 
9.96099 -0.0109394 0.806785 
-0.0109394 9.99376 0.435201 
0.806785 0.435201 9.96746 
9.95392 -0.0160288 0.804985 
-0.0160288 9.98229 0.41625 
0.804985 0.41625 9.986 
9.97132 -0.0153708 0.594195 
-0.0153708 9.94403 0.740383 
0.594195 0.740383 9.97222 
9.95938 -0.0246503 0.576431 
-0.0246503 9.96032 0.730688 
0.576431 0.730688 9.96787 
9.97916 -0.0164518 0.578441 
-0.0164518 9.96595 0.728334 
0.578441 0.728334 9.94247 
9.94485 -0.0090489 0.605648 
-0.0090489 9.95737 0.706931 
0.605648 0.706931 9.98535 
9.86707 0.0615461 0.369937 
0.0615461 9.93752 -0.794634 
0.369937 -0.794634 10.0105 
9.9307 0.0453837 0.265583 
0.0453837 9.803 -0.758195 
0.265583 -0.758195 10.0814 
9.91651 0.0132325 0.320986 
0.0132325 9.89913 -0.796248 
0.320986 -0.796248 9.99943 
9.98785 0.0439893 0.41156 
0.0439893 10.0284 -0.779192 
0.41156 -0.779192 9.7988 
9.75435 0.0748429 0.363144 
0.0748429 9.65254 -0.844562 
0.363144 -0.844562 9.84698 
9.7368 0.0215026 0.369363 
0.0215026 9.6748 -0.832055 
0.369363 -0.832055 9.84228 
9.72932 0.0998787 0.372045 
0.0998787 9.57549 -0.776883 
0.372045 -0.776883 9.94905 
9.76704 0.0953023 0.396243 
0.0953023 9.61902 -0.895147 
0.396243 -0.895147 9.86781 
5.89366 0.555192 -1.2849 
0.555192 6.29913 1.7023 
-1.2849 1.7023 2.62796 
5.60243 0.576234 -0.999111 
0.576234 6.45726 1.708 
-0.999111 1.708 2.76105 
6.45169 0.126302 -2.72054 
0.126302 6.14286 1.98161 
-2.72054 1.98161 2.22619 
6.50942 -0.72042 -0.579075 
-0.72042 5.1291 0.991467 
-0.579075 0.991467 3.18222 
4.66907 0.274784 -1.34725 
0.274784 5.56004 0.682251 
-1.34725 0.682251 0.602336 
6.30676 0.399176 -1.93442 
0.399176 4.22577 0.89237 
-1.93442 0.89237 0.298907 
4.64133 2.18083 -0.131498 
2.18083 5.08565 1.44937 
-0.131498 1.44937 1.10446 
3.99849 -0.849264 -1.56329 
-0.849264 5.47775 0.781954 
-1.56329 0.781954 1.35519 
9.89469 0.0713889 -0.746505 
0.0713889 9.85187 0.225834 
-0.746505 0.225834 9.29658 
9.82513 0.00742797 -0.695592 
0.00742797 9.90319 0.262786 
-0.695592 0.262786 9.31481 
9.80121 -0.00321694 -0.665607 
-0.00321694 10.0025 0.243742 
-0.665607 0.243742 9.23945 
9.57077 -0.0718397 -0.713689 
-0.0718397 9.97983 0.301276 
-0.713689 0.301276 9.49254 
9.5256 -0.0221094 -1.01494 
-0.0221094 9.72341 0.110216 
-1.01494 0.110216 8.92736 
9.52967 -0.00705514 -0.994717 
-0.00705514 9.64946 0.101982 
-0.994717 0.101982 8.99724 
9.49167 -0.00662951 -0.931329 
-0.00662951 9.70088 0.20205 
-0.931329 0.20205 8.98381 
9.4991 0.0121378 -0.967709 
0.0121378 9.72997 0.153942 
-0.967709 0.153942 8.94729 
3.5033 0.206503 -0.541496 
0.206503 3.4819 0.763231 
-0.541496 0.763231 2.43039 
3.16538 0.643381 -2.0808 
0.643381 3.8579 1.04943 
-2.0808 1.04943 2.39231 
4.44456 0.10128 -1.43861 
0.10128 3.97911 0.645312 
-1.43861 0.645312 0.991924 
6.66623 -0.119364 -1.95427 
-0.119364 5.04087 0.564227 
-1.95427 0.564227 -2.29151 
4.78035 -0.555871 -1.71379 
-0.555871 5.39687 0.0917575 
-1.71379 0.0917575 0.798259 
6.16627 1.22769 -2.19529 
1.22769 4.75491 1.70737 
-2.19529 1.70737 0.0542876 
5.61722 0.335386 -0.385164 
0.335386 3.87052 1.10677 
-0.385164 1.10677 1.48773 
3.24851 -1.17884 -3.28068 
-1.17884 5.65128 0.06257 
-3.28068 0.06257 2.07568 
9.51089 -0.260469 -0.115076 
-0.260469 9.08611 0.312917 
-0.115076 0.312917 9.90643 
9.22771 -0.22634 0.0291968 
-0.22634 9.32457 0.575938 
0.0291968 0.575938 9.95116 
9.47375 -0.332685 0.464282 
-0.332685 9.13774 0.420677 
0.464282 0.420677 9.89195 
9.34783 0.0222682 0.546853 
0.0222682 9.37979 0.158103 
0.546853 0.158103 9.77582 
9.45669 -0.378785 0.128698 
-0.378785 8.90267 0.273925 
0.128698 0.273925 10.2495 
9.18742 -0.150007 0.457812 
-0.150007 9.48628 0.71182 
0.457812 0.71182 9.9352 
9.7897 -0.13172 -0.00328554 
-0.13172 8.91498 0.0757253 
-0.00328554 0.0757253 9.90422 
9.40665 -0.799155 -0.140436 
-0.799155 8.37373 0.248105 
-0.140436 0.248105 10.8285 
9.0983 -0.222631 -1.15394 
-0.222631 9.09357 -1.05002 
-1.15394 -1.05002 9.82254 
9.36704 -0.489589 -0.385455 
-0.489589 8.98745 -1.0182 
-0.385455 -1.0182 9.65992 
9.09229 -0.659905 -1.07885 
-0.659905 8.65046 -0.785447 
-1.07885 -0.785447 10.2717 
9.62353 -1.022 -1.13667 
-1.022 9.47028 -1.79521 
-1.13667 -1.79521 8.9206 
9.192 -0.326276 -0.992164 
-0.326276 9.5497 -1.03741 
-0.992164 -1.03741 9.87049 
9.26511 -0.643212 -0.755819 
-0.643212 9.31685 -0.862667 
-0.755819 -0.862667 10.0302 
9.31335 -0.444616 -0.827994 
-0.444616 9.41063 -0.846047 
-0.827994 -0.846047 9.8882 
9.50203 -0.15655 -0.568295 
-0.15655 9.34519 -0.682515 
-0.568295 -0.682515 9.76497 
9.92535 0.00237661 0.346464 
0.00237661 9.91235 -0.763818 
0.346464 -0.763818 9.93283 
9.91058 0.016498 0.369713 
0.016498 9.88666 -0.800689 
0.369713 -0.800689 9.9733 
9.92517 2.046e-05 0.329596 
2.046e-05 9.92649 -0.789096 
0.329596 -0.789096 9.91888 
9.81561 0.00772325 0.382063 
0.00772325 9.909 -0.813253 
0.382063 -0.813253 10.0459 
9.83161 0.0294463 0.341818 
0.0294463 9.81872 -0.785599 
0.341818 -0.785599 9.89821 
9.82271 0.00304835 0.309651 
0.00304835 9.84437 -0.828281 
0.309651 -0.828281 9.88146 
9.83325 -0.0233558 0.314306 
-0.0233558 9.84388 -0.82575 
0.314306 -0.82575 9.8714 
9.87423 0.0591942 0.319595 
0.0591942 9.79202 -0.766613 
0.319595 -0.766613 9.88229 
9.3404 -0.577735 -0.166771 
-0.577735 13.9218 -0.76565 
-0.166771 -0.76565 16.4193 
9.95672 1.56864 0.386526 
1.56864 11.0132 0.233495 
0.386526 0.233495 18.7116 
10.9378 -0.972979 -1.62998 
-0.972979 13.7211 0.492523 
-1.62998 0.492523 15.0226 
5.7298 0.0852219 1.01241 
0.0852219 10.5478 0.816477 
1.01241 0.816477 23.4039 
7.91321 -0.39323 1.61544 
-0.39323 11.477 0.080846 
1.61544 0.080846 12.3756 
8.21638 -0.113962 0.686326 
-0.113962 11.1658 -0.105825 
0.686326 -0.105825 12.3836 
8.17924 -0.499779 0.604365 
-0.499779 11.1443 -0.0450355 
0.604365 -0.0450355 12.4422 
11.9797 0.620286 1.11879 
0.620286 9.49799 -0.307109 
1.11879 -0.307109 10.2881 
9.43478 -0.0715806 0.961478 
-0.0715806 9.8841 0.246181 
0.961478 0.246181 9.81849 
9.56032 -0.0395491 0.864864 
-0.0395491 9.8284 0.142528 
0.864864 0.142528 9.74866 
9.5982 -0.0145299 0.860049 
-0.0145299 9.75404 0.11182 
0.860049 0.11182 9.78514 
9.73554 0.0801284 0.840089 
0.0801284 9.7404 0.21196 
0.840089 0.21196 9.66143 
9.56308 -0.238117 1.01619 
-0.238117 9.75894 0.243677 
1.01619 0.243677 9.83087 
9.58593 -0.0892203 1.06008 
-0.0892203 9.73453 0.155135 
1.06008 0.155135 9.83242 
9.48699 0.071962 0.736187 
0.071962 9.72447 0.11682 
0.736187 0.11682 9.94142 
9.72302 0.0695675 1.09197 
0.0695675 10.2097 0.425671 
1.09197 0.425671 9.2202 
9.58537 0.0858174 0.301473 
0.0858174 9.80001 0.0359623 
0.301473 0.0359623 10.1744 
9.69883 -0.0717981 0.160665 
-0.0717981 10.0157 -0.0930207 
0.160665 -0.0930207 9.8453 
9.27939 -0.0360078 0.112551 
-0.0360078 9.64454 0.00969833 
0.112551 0.00969833 10.6359 
9.40144 -0.0459337 0.377404 
-0.0459337 10.1743 -0.0964297 
0.377404 -0.0964297 9.98407 
9.47224 0.269451 0.220668 
0.269451 9.83642 0.00827865 
0.220668 0.00827865 9.93517 
9.23557 -0.0786202 0.110729 
-0.0786202 9.86962 -0.0492005 
0.110729 -0.0492005 10.1387 
9.47981 0.0212329 0.220079 
0.0212329 9.82235 -0.020898 
0.220079 -0.020898 9.94167 
10.5189 0.151104 -0.00198743 
0.151104 9.27383 0.0155132 
-0.00198743 0.0155132 9.45113 
4.46694 0.244787 0.589005 
0.244787 5.56553 -0.249616 
0.589005 -0.249616 0.806282 
4.52826 -0.0324126 0.242888 
-0.0324126 4.50201 -0.868136 
0.242888 -0.868136 1.80849 
5.81555 0.1427 0.680486 
0.1427 4.66532 -0.0447896 
0.680486 -0.0447896 0.357892 
5.86488 -0.0394479 0.807168 
-0.0394479 5.19276 0.505665 
0.807168 0.505665 -0.218891 
6.50212 0.0145814 1.16272 
0.0145814 6.96473 0.113202 
1.16272 0.113202 2.24042 
6.52643 -0.0837141 1.13907 
-0.0837141 7.15937 0.316204 
1.13907 0.316204 2.02147 
6.69836 0.089777 1.16245 
0.089777 6.85955 0.0581008 
1.16245 0.0581008 2.14935 
6.64694 0.101872 1.03848 
0.101872 6.84742 0.121575 
1.03848 0.121575 2.21292 
9.29746 0.124042 0.497817 
0.124042 9.31698 -0.462139 
0.497817 -0.462139 9.70651 
9.30505 0.127194 0.473195 
0.127194 9.17346 -0.295962 
0.473195 -0.295962 9.84244 
9.26 0.139284 0.485404 
0.139284 9.35669 -0.375249 
0.485404 -0.375249 9.70427 
9.25565 0.196108 0.432831 
0.196108 9.42684 -0.38685 
0.432831 -0.38685 9.63847 
9.01347 0.0707038 0.382672 
0.0707038 9.42002 -0.285099 
0.382672 -0.285099 9.52278 
9.16764 0.12875 0.42679 
0.12875 9.23639 -0.286989 
0.42679 -0.286989 9.55223 
9.12051 0.116973 0.37594 
0.116973 9.19984 -0.196729 
0.37594 -0.196729 9.6359 
9.29278 -0.331308 0.505242 
-0.331308 9.40059 -0.268087 
0.505242 -0.268087 9.26289 
9.83639 0.0457791 0.769166 
0.0457791 9.82191 -0.473146 
0.769166 -0.473146 9.91964 
9.77801 -0.0537882 0.683122 
-0.0537882 9.82871 -0.408287 
0.683122 -0.408287 9.97122 
9.77873 0.0861855 0.762418 
0.0861855 9.86758 -0.463711 
0.762418 -0.463711 9.93163 
9.80731 -0.0241814 0.759848 
-0.0241814 9.79135 -0.437249 
0.759848 -0.437249 9.97928 
9.75031 0.0393992 0.722533 
0.0393992 9.68619 -0.383709 
0.722533 -0.383709 9.89335 
9.76609 -0.0741452 0.679331 
-0.0741452 9.7399 -0.342103 
0.679331 -0.342103 9.82386 
9.73219 0.0580114 0.743037 
0.0580114 9.68523 -0.602912 
0.743037 -0.602912 9.91244 
9.81721 0.0835078 0.538189 
0.0835078 9.85758 -0.377936 
0.538189 -0.377936 9.65507 
10.0871 -0.466343 -0.0432558 
-0.466343 9.64763 0.05157 
-0.0432558 0.05157 10.1126 
9.62533 -0.175039 -0.108907 
-0.175039 9.5238 -0.241712 
-0.108907 -0.241712 10.6982 
9.33767 -0.0710363 -0.0608695 
-0.0710363 9.95613 0.0558993 
-0.0608695 0.0558993 10.5535 
10.0296 -0.160661 -0.127246 
-0.160661 9.8915 -0.0676758 
-0.127246 -0.0676758 9.92625 
9.32216 -0.988891 -0.346236 
-0.988891 8.67842 -0.537447 
-0.346236 -0.537447 10.6175 
9.01009 -0.426026 -0.380236 
-0.426026 9.42914 -0.230279 
-0.380236 -0.230279 10.1789 
9.5271 -0.446014 -0.0420188 
-0.446014 8.77536 -0.21483 
-0.0420188 -0.21483 10.3157 
8.93194 -0.130895 -0.65471 
-0.130895 9.86701 -0.339817 
-0.65471 -0.339817 9.81918 
9.64809 0.0674583 0.264664 
0.0674583 9.58725 -0.774753 
0.264664 -0.774753 9.79059 
9.71584 0.0216299 0.290228 
0.0216299 9.56551 -0.778206 
0.290228 -0.778206 9.74458 
9.66124 0.0222852 0.303864 
0.0222852 9.58133 -0.716673 
0.303864 -0.716673 9.78337 
9.65196 -0.10836 0.274042 
-0.10836 9.68923 -0.733585 
0.274042 -0.733585 9.68475 
9.63419 0.144368 0.133582 
0.144368 9.48743 -0.694157 
0.133582 -0.694157 9.82491 
9.69436 -0.0388688 0.233104 
-0.0388688 9.45728 -0.856939 
0.233104 -0.856939 9.7949 
9.61696 0.0617787 0.288708 
0.0617787 9.52076 -0.652834 
0.288708 -0.652834 9.80881 
9.73448 0.16141 0.50512 
0.16141 9.40018 -0.680648 
0.50512 -0.680648 9.81188 
3.75536 1.02808 -0.530045 
1.02808 2.81627 1.47724 
-0.530045 1.47724 -0.0774511 
3.96642 0.490457 -0.635001 
0.490457 2.9914 -0.0754114 
-0.635001 -0.0754114 -0.46364 
5.57982 -0.797031 -1.73167 
-0.797031 2.0669 0.163173 
-1.73167 0.163173 -1.15254 
1.52528 0.84798 0.732816 
0.84798 0.317292 2.05146 
0.732816 2.05146 4.6516 
4.64509 -0.523088 -2.13618 
-0.523088 5.29627 -0.181568 
-2.13618 -0.181568 2.3588 
3.91927 0.333203 -1.03709 
0.333203 5.91243 -0.314288 
-1.03709 -0.314288 2.46846 
10.6394 0.0725849 -2.82054 
0.0725849 3.21951 0.252967 
-2.82054 0.252967 -1.55878 
4.80931 -0.0465427 -2.41666 
-0.0465427 4.44588 0.0370405 
-2.41666 0.0370405 3.04498 
9.24711 0.212966 -0.529311 
0.212966 9.17089 0.594924 
-0.529311 0.594924 10.0074 
9.09978 0.14773 -0.154493 
0.14773 8.93014 0.322548 
-0.154493 0.322548 10.3954 
9.47986 0.235654 -0.31924 
0.235654 9.13438 0.673809 
-0.31924 0.673809 9.81113 
9.75503 0.139965 -0.335414 
0.139965 9.41387 0.3426 
-0.335414 0.3426 9.25647 
9.43582 0.262912 -0.331958 
0.262912 8.96584 0.582733 
-0.331958 0.582733 9.85317 
9.1518 0.325657 -0.282166 
0.325657 9.15628 0.52065 
-0.282166 0.52065 9.94676 
9.31191 0.279534 -0.0200693 
0.279534 8.88656 0.194375 
-0.0200693 0.194375 10.0564 
9.31223 0.898186 -0.464972 
0.898186 8.37345 0.382924 
-0.464972 0.382924 10.5692 
9.54559 0.0441388 0.709604 
0.0441388 9.80661 -0.0427783 
0.709604 -0.0427783 9.9142 
9.60119 0.0774789 1.0489 
0.0774789 9.86873 -0.169914 
1.0489 -0.169914 9.79648 
9.50082 0.0596558 0.821146 
0.0596558 9.90168 -0.206677 
0.821146 -0.206677 9.8639 
9.52066 0.193529 1.06173 
0.193529 9.76187 -0.286784 
1.06173 -0.286784 9.98387 
9.69469 0.092284 0.859607 
0.092284 9.82685 -0.114811 
0.859607 -0.114811 9.81024 
9.57807 -0.0217393 0.742047 
-0.0217393 9.79539 -0.104469 
0.742047 -0.104469 9.95832 
9.68068 0.177743 0.936139 
0.177743 9.77511 -0.138848 
0.936139 -0.138848 9.87599 
9.70708 -0.0492234 0.779924 
-0.0492234 9.73074 -0.156362 
0.779924 -0.156362 9.89396 
8.86964 0.243764 -0.447396 
0.243764 10.0782 0.103556 
-0.447396 0.103556 10.7995 
9.0143 0.288163 -0.425181 
0.288163 10.0419 0.276383 
-0.425181 0.276383 10.6912 
8.81215 0.188388 -0.228845 
0.188388 9.93811 0.0547368 
-0.228845 0.0547368 10.9971 
8.78055 0.346895 -0.497843 
0.346895 10.113 -0.0359516 
-0.497843 -0.0359516 10.8538 
8.74336 0.316338 -0.270715 
0.316338 9.55781 -0.0144315 
-0.270715 -0.0144315 10.2693 
9.38231 0.0885002 -0.541444 
0.0885002 9.35878 0.202193 
-0.541444 0.202193 9.82935 
9.00293 0.19675 -0.239782 
0.19675 9.49223 0.0804241 
-0.239782 0.0804241 10.0753 
8.95013 0.00924481 -0.119807 
0.00924481 9.59845 -0.0996841 
-0.119807 -0.0996841 10.0218 
10.0589 0.105385 0.00282536 
0.105385 10.0207 0.0348222 
0.00282536 0.0348222 10.321 
10.0692 0.0754104 0.0863538 
0.0754104 10.0714 -0.00594389 
0.0863538 -0.00594389 10.26 
10.1729 -0.00420468 -0.102969 
-0.00420468 9.98801 0.0670003 
-0.102969 0.0670003 10.2397 
10.1352 0.0190645 0.144085 
0.0190645 9.9778 -0.0577766 
0.144085 -0.0577766 10.2877 
9.88615 0.311378 -0.0283588 
0.311378 9.66796 -0.0297017 
-0.0283588 -0.0297017 10.5236 
10.2568 0.266315 -0.194747 
0.266315 9.71507 0.263631 
-0.194747 0.263631 10.1058 
9.8588 0.0244697 0.105223 
0.0244697 9.88028 -0.299505 
0.105223 -0.299505 10.3386 
9.751 0.198886 0.0407079 
0.198886 9.57894 0.0215701 
0.0407079 0.0215701 10.7477 
9.48213 -0.0866279 -0.621341 
-0.0866279 9.50366 -0.518125 
-0.621341 -0.518125 9.69556 
9.44092 -0.128396 -0.620949 
-0.128396 9.46109 -0.490204 
-0.620949 -0.490204 9.77933 
9.4369 -0.068795 -0.645955 
-0.068795 9.40421 -0.500567 
-0.645955 -0.500567 9.84023 
9.40809 -0.151353 -0.634011 
-0.151353 9.46718 -0.503313 
-0.634011 -0.503313 9.80606 
9.41329 -0.184864 -0.589059 
-0.184864 9.37541 -0.466928 
-0.589059 -0.466928 9.61874 
9.39382 -0.131373 -0.594283 
-0.131373 9.39027 -0.472816 
-0.594283 -0.472816 9.62335 
9.35713 -0.185519 -0.571219 
-0.185519 9.45274 -0.48226 
-0.571219 -0.48226 9.59757 
9.39861 -0.081259 -0.500408 
-0.081259 9.3843 -0.401869 
-0.500408 -0.401869 9.62453 
9.53469 -0.055286 -0.63187 
-0.055286 9.62561 -0.485031 
-0.63187 -0.485031 9.7463 
9.56431 -0.0522887 -0.59179 
-0.0522887 9.58169 -0.462897 
-0.59179 -0.462897 9.7606 
9.57746 -0.0912701 -0.598399 
-0.0912701 9.55409 -0.426082 
-0.598399 -0.426082 9.77505 
9.53491 -0.0469822 -0.673511 
-0.0469822 9.5813 -0.513702 
-0.673511 -0.513702 9.79039 
9.57169 0.01369 -0.609476 
0.01369 9.50086 -0.515628 
-0.609476 -0.515628 9.63658 
9.50425 -0.0269049 -0.626246 
-0.0269049 9.52373 -0.455371 
-0.626246 -0.455371 9.68114 
9.53333 -0.0306456 -0.615335 
-0.0306456 9.52275 -0.492967 
-0.615335 -0.492967 9.65305 
9.50612 -0.0733568 -0.610271 
-0.0733568 9.56544 -0.500676 
-0.610271 -0.500676 9.63756 
9.07647 0.098018 -0.86274 
0.098018 9.59027 0.174061 
-0.86274 0.174061 9.82446 
9.21882 0.0223853 -0.840821 
0.0223853 9.53029 0.154196 
-0.840821 0.154196 9.7421 
9.26956 0.208652 -0.858139 
0.208652 9.4582 0.177356 
-0.858139 0.177356 9.76343 
9.28521 0.223938 -0.769728 
0.223938 9.45635 0.172876 
-0.769728 0.172876 9.74964 
9.31832 0.0461436 -0.822959 
0.0461436 9.78969 0.0580459 
-0.822959 0.0580459 9.85088 
9.47816 0.107379 -0.964888 
0.107379 9.70109 0.214711 
-0.964888 0.214711 9.77963 
9.41689 0.0277494 -0.773861 
0.0277494 9.7102 0.125833 
-0.773861 0.125833 9.8318 
9.44149 -0.00708791 -0.867142 
-0.00708791 9.6375 0.195876 
-0.867142 0.195876 9.87989 
8.67346 -0.222032 0.701294 
-0.222032 8.04567 2.00169 
0.701294 2.00169 3.8469 
8.05731 -0.108634 1.12031 
-0.108634 8.86218 2.66984 
1.12031 2.66984 3.64653 
8.43019 -0.0753202 0.980081 
-0.0753202 9.23979 1.83257 
0.980081 1.83257 2.89604 
9.42891 0.121664 1.73322 
0.121664 9.32568 1.35954 
1.73322 1.35954 1.81143 
9.29439 -0.138383 1.01893 
-0.138383 8.4544 1.90095 
1.01893 1.90095 5.09106 
8.90632 -0.74058 1.49619 
-0.74058 9.23427 1.90131 
1.49619 1.90131 4.69924 
9.29125 0.0544352 0.72999 
0.0544352 8.21823 2.58714 
0.72999 2.58714 5.33036 
8.16942 -0.810745 1.27544 
-0.810745 8.71028 1.51179 
1.27544 1.51179 5.96014 
9.49468 0.000620579 -0.305237 
0.000620579 9.47188 -0.915439 
-0.305237 -0.915439 9.33199 
9.6209 -0.109637 -0.465364 
-0.109637 9.46088 -0.873562 
-0.465364 -0.873562 9.21677 
9.79523 -0.0343775 -0.418066 
-0.0343775 9.44899 -1.01689 
-0.418066 -1.01689 9.05433 
9.63117 -0.0502784 -0.392065 
-0.0502784 9.46293 -0.930741 
-0.392065 -0.930741 9.20445 
9.91714 -0.0809024 -0.487781 
-0.0809024 9.69071 -0.640914 
-0.487781 -0.640914 9.33203 
9.86772 -0.0922389 -0.40129 
-0.0922389 9.70638 -0.668058 
-0.40129 -0.668058 9.36578 
9.73684 -0.0440615 -0.387709 
-0.0440615 9.8315 -0.774353 
-0.387709 -0.774353 9.37154 
9.96516 -0.131478 -0.333913 
-0.131478 9.38294 -0.697308 
-0.333913 -0.697308 9.59178 
9.84125 -0.0757298 -0.512204 
-0.0757298 9.87175 -0.688522 
-0.512204 -0.688522 9.70338 
9.69051 -0.074112 -0.69943 
-0.074112 10.0168 -0.835785 
-0.69943 -0.835785 9.70907 
9.6551 -0.0383575 -0.699775 
-0.0383575 9.96784 -0.865663 
-0.699775 -0.865663 9.79343 
9.85072 -0.110394 -0.48699 
-0.110394 9.8922 -0.71084 
-0.48699 -0.71084 9.67345 
9.89311 0.0386684 -0.573554 
0.0386684 9.79256 -0.595625 
-0.573554 -0.595625 10.2471 
10.1045 -0.0954243 -0.575571 
-0.0954243 10.0584 -0.710233 
-0.575571 -0.710233 9.76988 
9.99178 -0.0616372 -0.702373 
-0.0616372 10.1158 -0.562615 
-0.702373 -0.562615 9.82519 
10.0065 -0.033258 -0.624164 
-0.033258 9.99085 -0.63564 
-0.624164 -0.63564 9.93542 
9.07398 0.198858 0.717398 
0.198858 9.34746 -0.148042 
0.717398 -0.148042 9.85425 
9.12193 0.0651368 0.638563 
0.0651368 9.48352 -0.22798 
0.638563 -0.22798 9.67024 
9.21329 0.129185 0.785083 
0.129185 9.46789 -0.204917 
0.785083 -0.204917 9.59451 
9.34913 -0.0220441 0.507208 
-0.0220441 9.18928 -0.0980424 
0.507208 -0.0980424 9.73728 
9.30987 0.22239 0.772247 
0.22239 9.39251 -0.199081 
0.772247 -0.199081 9.69182 
9.23794 0.195868 0.883148 
0.195868 9.3675 -0.242587 
0.883148 -0.242587 9.78877 
9.24964 -0.0513556 0.809288 
-0.0513556 9.41609 -0.181168 
0.809288 -0.181168 9.72847 
8.90233 0.0329555 0.814935 
0.0329555 9.59355 -0.250028 
0.814935 -0.250028 9.89832 
5.33805 -3.50534 5.13695 
-3.50534 5.69498 6.56171 
5.13695 6.56171 6.71292 
6.28714 1.95899 -1.68564 
1.95899 -0.0338394 0.394478 
-1.68564 0.394478 11.4927 
6.20817 3.62084 4.85837 
3.62084 14.4094 5.02078 
4.85837 5.02078 -2.87166 
15.513 3.5809 4.85256 
3.5809 15.0222 6.89468 
4.85256 6.89468 -12.7893 
7.82659 -0.710577 1.55694 
-0.710577 7.24361 4.41349 
1.55694 4.41349 5.21124 
6.8185 -0.153029 2.47145 
-0.153029 9.09812 3.41864 
2.47145 3.41864 4.36482 
9.19314 0.0826898 2.07387 
0.0826898 5.02198 3.40439 
2.07387 3.40439 6.06633 
4.63123 -0.608737 1.73912 
-0.608737 8.78235 2.77653 
1.73912 2.77653 6.86786 
10.4626 0.467701 -1.56879 
0.467701 8.03141 -1.3927 
-1.56879 -1.3927 10.201 
10.5607 1.23714 0.349232 
1.23714 6.48721 -1.87239 
0.349232 -1.87239 11.6471 
10.6099 -2.07633 0.496749 
-2.07633 5.79841 -2.85215 
0.496749 -2.85215 12.2867 
10.7341 0.435702 -0.493928 
0.435702 7.60127 -2.20884 
-0.493928 -2.20884 10.3596 
10.6701 -0.399426 -2.27926 
-0.399426 10.2647 0.447209 
-2.27926 0.447209 11.9171 
11.8481 -0.0389409 1.91371 
-0.0389409 7.07597 -2.49242 
1.91371 -2.49242 13.9279 
10.7553 1.46672 3.08353 
1.46672 9.10955 -0.873721 
3.08353 -0.873721 12.987 
10.2316 -2.30169 -1.9348 
-2.30169 8.61579 1.04018 
-1.9348 1.04018 14.0045 
9.98496 -0.264024 0.674444 
-0.264024 9.75409 0.879421 
0.674444 0.879421 9.37832 
9.89474 -0.0192337 0.457498 
-0.0192337 9.68041 0.86052 
0.457498 0.86052 9.54223 
9.90755 -0.0503085 0.49429 
-0.0503085 9.66703 0.833403 
0.49429 0.833403 9.5428 
9.8625 -0.190826 0.684685 
-0.190826 9.64969 0.760031 
0.684685 0.760031 9.60519 
9.89451 -0.0424869 0.41208 
-0.0424869 9.73245 0.916291 
0.41208 0.916291 9.21322 
9.67747 0.124853 0.568028 
0.124853 9.88162 0.958092 
0.568028 0.958092 9.28107 
9.84936 -0.0436696 0.440134 
-0.0436696 9.70818 0.693043 
0.440134 0.693043 9.28264 
9.70948 -0.0429623 0.453228 
-0.0429623 9.72779 1.01612 
0.453228 1.01612 9.4029 
10.0527 0.112756 0.295734 
0.112756 9.78676 0.839135 
0.295734 0.839135 9.87121 
10.0034 -0.0025893 0.379465 
-0.0025893 9.89258 0.780509 
0.379465 0.780509 9.81468 
9.98005 0.00539226 0.373343 
0.00539226 9.91491 0.798143 
0.373343 0.798143 9.81566 
9.70072 0.0335552 0.324593 
0.0335552 9.98289 0.828103 
0.324593 0.828103 10.027 
9.83186 0.124368 0.206454 
0.124368 9.49631 0.896515 
0.206454 0.896515 10.1299 
9.93212 -0.0504662 0.46874 
-0.0504662 9.8012 0.925047 
0.46874 0.925047 9.72477 
9.95864 -0.110015 0.427788 
-0.110015 9.83417 0.838993 
0.427788 0.838993 9.66527 
10.106 0.116183 0.300245 
0.116183 9.89307 0.899916 
0.300245 0.899916 9.45898 
8.67386 0.44756 -0.371176 
0.44756 11.0098 -0.262718 
-0.371176 -0.262718 12.4613 
9.35402 0.295559 0.075748 
0.295559 10.7196 -0.0644432 
0.075748 -0.0644432 12.0714 
9.11839 0.196731 0.505832 
0.196731 11.3547 -0.046155 
0.505832 -0.046155 11.6719 
11.1411 -0.876439 -1.33167 
-0.876439 9.74372 -0.00875777 
-1.33167 -0.00875777 11.2602 
11.4411 0.851292 0.850757 
0.851292 13.4621 -0.451054 
0.850757 -0.451054 14.5499 
11.4142 0.538497 0.687419 
0.538497 13.835 -0.177485 
0.687419 -0.177485 14.2039 
11.243 0.378286 0.548992 
0.378286 13.175 0.352358 
0.548992 0.352358 15.0351 
10.3717 0.562175 1.1071 
0.562175 12.7307 0.415014 
1.1071 0.415014 16.3507 
9.53587 -0.109757 -0.490212 
-0.109757 9.62598 -0.603857 
-0.490212 -0.603857 9.6459 
9.61468 -0.0459738 -0.374851 
-0.0459738 9.57717 -0.699386 
-0.374851 -0.699386 9.6159 
9.56959 -0.0911046 -0.494816 
-0.0911046 9.36246 -0.646637 
-0.494816 -0.646637 9.87569 
9.51861 0.146167 -0.481386 
0.146167 9.75768 -0.684219 
-0.481386 -0.684219 9.53146 
9.49112 -0.111149 -0.497244 
-0.111149 9.61559 -0.666679 
-0.497244 -0.666679 9.79584 
9.58969 -0.0630394 -0.440069 
-0.0630394 9.50301 -0.657224 
-0.440069 -0.657224 9.80986 
9.60074 -0.0831883 -0.43607 
-0.0831883 9.52506 -0.657684 
-0.43607 -0.657684 9.77676 
9.68698 -0.177181 -0.324617 
-0.177181 9.47714 -0.720588 
-0.324617 -0.720588 9.73844 
9.72035 -0.00585928 -0.843382 
-0.00585928 9.74391 0.15954 
-0.843382 0.15954 9.85124 
9.7273 0.0202385 -0.82972 
0.0202385 9.71674 0.226717 
-0.82972 0.226717 9.87146 
9.66361 0.023365 -0.854291 
0.023365 9.76011 0.226257 
-0.854291 0.226257 9.89179 
9.66775 0.0753116 -0.863428 
0.0753116 9.8748 0.149424 
-0.863428 0.149424 9.77296 
9.88031 0.00918625 -0.847034 
0.00918625 9.905 0.164963 
-0.847034 0.164963 9.91976 
9.84903 0.0203376 -0.851667 
0.0203376 9.88966 0.135897 
-0.851667 0.135897 9.96638 
9.81416 0.022168 -0.827706 
0.022168 9.9274 0.143558 
-0.827706 0.143558 9.96351 
9.86858 0.0130554 -0.834182 
0.0130554 9.86968 0.146573 
-0.834182 0.146573 9.96682 
9.07655 0.196244 -0.223466 
0.196244 9.32498 0.197593 
-0.223466 0.197593 9.71567 
9.09312 0.0623582 -0.396995 
0.0623582 9.22639 0.20824 
-0.396995 0.20824 9.79769 
9.054 0.175748 -0.408799 
0.175748 9.36205 0.189456 
-0.408799 0.189456 9.70116 
9.01641 0.175424 -0.327441 
0.175424 9.26558 0.173186 
-0.327441 0.173186 9.83522 
9.36423 0.171514 -0.0176613 
0.171514 9.57826 0.0472826 
-0.0176613 0.0472826 9.90938 
9.33002 0.148567 -0.223834 
0.148567 9.70185 0.104164 
-0.223834 0.104164 9.82 
9.45396 0.160648 -0.164464 
0.160648 9.59987 0.120913 
-0.164464 0.120913 9.79804 
9.88853 -0.300044 0.0834824 
-0.300044 9.48326 -0.0340885 
0.0834824 -0.0340885 9.48008 
8.85462 -0.526602 1.10172 
-0.526602 9.02638 -1.37124 
1.10172 -1.37124 3.10201 
8.58914 0.118196 0.153123 
0.118196 8.60346 -0.896209 
0.153123 -0.896209 3.7904 
8.87383 -0.0180689 0.172419 
-0.0180689 8.78673 -0.97347 
0.172419 -0.97347 3.32245 
8.93449 -0.00892916 0.13233 
-0.00892916 8.69529 -0.934545 
0.13233 -0.934545 3.35323 
9.17878 -0.188909 1.29171 
-0.188909 8.61401 -1.26418 
1.29171 -1.26418 2.47422 
8.67421 -0.0843816 0.464168 
-0.0843816 8.52189 -0.217732 
0.464168 -0.217732 3.07091 
8.34906 -0.0315751 0.360375 
-0.0315751 8.29123 -0.450169 
0.360375 -0.450169 3.62673 
8.38548 -0.260968 0.492091 
-0.260968 8.73282 0.233184 
0.492091 0.233184 3.14872 
-7.08784 3.89628 0.434501 
3.89628 5.52426 -6.04233 
0.434501 -6.04233 22.9384 
7.84039 -10.21 13.5083 
-10.21 0.609968 8.56564 
13.5083 8.56564 12.9244 
18.686 4.1346 3.69103 
4.1346 6.49766 6.77478 
3.69103 6.77478 -3.80882 
18.1018 2.2596 4.98434 
2.2596 18.4705 7.16792 
4.98434 7.16792 -15.1976 
8.24166 -0.136994 4.10286 
-0.136994 9.00595 2.10999 
4.10286 2.10999 5.1178 
7.07101 -0.225739 4.82747 
-0.225739 8.89532 2.54262 
4.82747 2.54262 6.39909 
5.40537 -0.189063 4.26906 
-0.189063 8.89601 3.88932 
4.26906 3.88932 8.06402 
8.88487 -0.135579 5.99557 
-0.135579 5.17644 2.0907 
5.99557 2.0907 8.3041 
9.32011 0.32595 -0.395766 
0.32595 9.03237 0.7317 
-0.395766 0.7317 9.89092 
9.57878 0.0274313 -0.0224711 
0.0274313 8.91223 0.542071 
-0.0224711 0.542071 9.7524 
9.50198 0.0709629 -0.26245 
0.0709629 9.27885 0.468129 
-0.26245 0.468129 9.46258 
9.32258 -0.390306 -0.222959 
-0.390306 9.66988 0.351269 
-0.222959 0.351269 9.25093 
9.3752 0.149475 -0.323613 
0.149475 9.09596 0.578321 
-0.323613 0.578321 9.72166 
9.33381 0.212463 -0.282239 
0.212463 9.2123 0.624187 
-0.282239 0.624187 9.64669 
9.33377 0.169551 -0.30523 
0.169551 9.19808 0.616747 
-0.30523 0.616747 9.66096 
9.34825 0.153085 -0.317594 
0.153085 9.18075 0.670981 
-0.317594 0.670981 9.66381 
10.0075 0.137386 -0.419356 
0.137386 9.71432 -0.429625 
-0.419356 -0.429625 9.51388 
9.82828 0.028674 -0.408813 
0.028674 9.87162 -0.184698 
-0.408813 -0.184698 9.53583 
9.98203 0.0391514 -0.470371 
0.0391514 9.78539 -0.185012 
-0.470371 -0.185012 9.46831 
9.71821 -0.255273 -0.520599 
-0.255273 10.3829 -0.319115 
-0.520599 -0.319115 9.13461 
10.1294 -0.0291091 -0.370131 
-0.0291091 10.0852 -0.520517 
-0.370131 -0.520517 9.62779 
9.94083 0.0343693 -0.351745 
0.0343693 10.1432 -0.375975 
-0.351745 -0.375975 9.75829 
10.0768 0.00825261 -0.458492 
0.00825261 10.1141 -0.357311 
-0.458492 -0.357311 9.65151 
9.65622 0.0634651 -0.197025 
0.0634651 9.70675 -0.381991 
-0.197025 -0.381991 10.4794 
9.76487 -0.00395013 -0.433124 
-0.00395013 9.76159 -0.601317 
-0.433124 -0.601317 9.98626 
9.81884 -0.102032 -0.396001 
-0.102032 9.76584 -0.706256 
-0.396001 -0.706256 9.92804 
9.80825 -0.058381 -0.552104 
-0.058381 9.84356 -0.781062 
-0.552104 -0.781062 9.86091 
9.7741 0.0130804 -0.521358 
0.0130804 9.81086 -0.810628 
-0.521358 -0.810628 9.92776 
9.71092 -0.027566 -0.492314 
-0.027566 9.68077 -0.680603 
-0.492314 -0.680603 9.8423 
9.72755 -0.0778974 -0.488956 
-0.0778974 9.7221 -0.705035 
-0.488956 -0.705035 9.78435 
9.75166 -0.0520033 -0.491201 
-0.0520033 9.65515 -0.682395 
-0.491201 -0.682395 9.82718 
9.70262 0.00582508 -0.471863 
0.00582508 9.71758 -0.661409 
-0.471863 -0.661409 9.81379 
11.3818 0.0283577 -0.310504 
0.0283577 10.8565 0.156546 
-0.310504 0.156546 10.9572 
11.2893 0.279633 -0.765149 
0.279633 11.2021 0.796024 
-0.765149 0.796024 10.704 
11.7424 -0.0582968 -0.066765 
-0.0582968 11.3866 -0.116764 
-0.066765 -0.116764 10.0664 
10.2875 0.244042 0.384593 
0.244042 10.3629 0.146123 
0.384593 0.146123 12.5451 
11.643 0.340158 -0.0422173 
0.340158 9.13593 0.506782 
-0.0422173 0.506782 12.2143 
10.4312 0.168649 0.512629 
0.168649 11.5257 -1.11953 
0.512629 -1.11953 11.0364 
11.0207 0.426303 0.314231 
0.426303 9.58374 -0.0312957 
0.314231 -0.0312957 12.3888 
11.5647 0.651676 -0.119239 
0.651676 8.94519 -0.388292 
-0.119239 -0.388292 12.4834 
9.83851 -0.00998805 0.516055 
-0.00998805 9.84322 -0.718282 
0.516055 -0.718282 9.86847 
9.85539 -0.00714308 0.523405 
-0.00714308 9.81644 -0.727902 
0.523405 -0.727902 9.87837 
9.84188 -0.00425516 0.488253 
-0.00425516 9.8276 -0.720487 
0.488253 -0.720487 9.88071 
9.87085 0.0525652 0.464496 
0.0525652 9.79728 -0.702278 
0.464496 -0.702278 9.88207 
9.92393 0.000648475 0.450892 
0.000648475 9.91193 -0.727001 
0.450892 -0.727001 9.94609 
9.92207 0.000573503 0.466144 
0.000573503 9.92726 -0.728397 
0.466144 -0.728397 9.93262 
9.91438 0.00914253 0.460898 
0.00914253 9.88832 -0.766023 
0.460898 -0.766023 9.97925 
9.90037 -0.0414081 0.47117 
-0.0414081 9.85407 -0.765335 
0.47117 -0.765335 10.0275 
9.77116 -0.229072 0.069213 
-0.229072 10.127 0.00751813 
0.069213 0.00751813 10.4526 
10.0181 0.00917849 0.209133 
0.00917849 10.046 0.25869 
0.209133 0.25869 10.2867 
10.1091 -0.258354 -0.112001 
-0.258354 10.063 -0.131037 
-0.112001 -0.131037 10.1787 
9.76719 -0.0801183 0.0453589 
-0.0801183 9.85789 0.0572467 
0.0453589 0.0572467 10.7257 
10.3395 -0.00471623 0.0388274 
-0.00471623 10.1298 -0.0153287 
0.0388274 -0.0153287 10.1812 
10.1483 -0.0069296 0.0326307 
-0.0069296 10.2599 0.0183413 
0.0326307 0.0183413 10.2423 
10.1856 -0.0416068 0.00753785 
-0.0416068 10.2163 -0.0377971 
0.00753785 -0.0377971 10.2486 
10.2885 0.00758276 0.03885 
0.00758276 10.0394 0.00151371 
0.03885 0.00151371 10.3226 
10.4761 0.0421953 0.0404223 
0.0421953 10.2906 0.196704 
0.0404223 0.196704 10.7012 
10.5385 0.0843159 0.0116474 
0.0843159 10.2038 0.185356 
0.0116474 0.185356 10.7257 
10.6841 0.180343 0.0597908 
0.180343 9.98057 0.317565 
0.0597908 0.317565 10.8033 
10.3627 0.0447369 0.0176261 
0.0447369 10.339 0.0716954 
0.0176261 0.0716954 10.7663 
10.2218 0.222595 -0.210104 
0.222595 10.5096 0.186939 
-0.210104 0.186939 10.7618 
10.5093 -0.0605601 -0.0849468 
-0.0605601 10.566 0.0230117 
-0.0849468 0.0230117 10.4178 
10.4072 0.0282607 0.249556 
0.0282607 10.0386 -0.0433604 
0.249556 -0.0433604 11.0473 
11.0146 -0.202643 -0.185936 
-0.202643 10.593 0.0661994 
-0.185936 0.0661994 9.88545 
9.7479 -0.138937 0.684876 
-0.138937 9.60488 0.692413 
0.684876 0.692413 9.72545 
9.75883 -0.109633 0.609531 
-0.109633 9.58667 0.677922 
0.609531 0.677922 9.73272 
9.73849 -0.240166 0.462236 
-0.240166 9.54886 0.663775 
0.462236 0.663775 9.79088 
9.76564 0.0456247 0.555786 
0.0456247 9.61099 0.682185 
0.555786 0.682185 9.70159 
9.60179 -0.131642 0.675555 
-0.131642 9.60317 0.626183 
0.675555 0.626183 9.80968 
9.54165 -0.0992602 0.62725 
-0.0992602 9.70014 0.584763 
0.62725 0.584763 9.77284 
9.73624 -0.108678 0.64998 
-0.108678 9.5614 0.854153 
0.64998 0.854153 9.717 
9.58977 -0.222579 0.677158 
-0.222579 9.5419 0.574631 
0.677158 0.574631 9.88297 
9.83511 0.0773299 0.653999 
0.0773299 9.84477 0.517546 
0.653999 0.517546 10.1124 
10.0775 -0.121389 0.638068 
-0.121389 9.84589 0.609342 
0.638068 0.609342 9.8689 
9.87716 -0.078233 0.700306 
-0.078233 9.99402 0.572053 
0.700306 0.572053 9.9211 
9.88651 -0.0583613 0.663851 
-0.0583613 9.96977 0.610114 
0.663851 0.610114 9.93601 
9.75921 0.0234928 0.628793 
0.0234928 9.8287 0.534967 
0.628793 0.534967 10.0213 
9.79947 0.0367903 0.734001 
0.0367903 9.85033 0.664787 
0.734001 0.664787 9.95936 
9.84234 -0.11806 0.597041 
-0.11806 9.80443 0.567555 
0.597041 0.567555 9.96239 
9.81027 -0.190916 0.60233 
-0.190916 9.74874 0.52466 
0.60233 0.52466 10.0501 
9.77827 -0.0487944 -0.680045 
-0.0487944 9.80263 -0.539042 
-0.680045 -0.539042 9.89791 
9.81135 -0.0230583 -0.670216 
-0.0230583 9.80394 -0.528741 
-0.670216 -0.528741 9.86351 
9.76629 -0.0430033 -0.730774 
-0.0430033 9.8036 -0.479019 
-0.730774 -0.479019 9.90892 
9.78618 -0.0183285 -0.713749 
-0.0183285 9.8346 -0.466331 
-0.713749 -0.466331 9.85802 
9.89236 -0.0385534 -0.741156 
-0.0385534 9.89293 -0.485504 
-0.741156 -0.485504 9.95412 
9.90655 -0.0423766 -0.719293 
-0.0423766 9.90301 -0.5253 
-0.719293 -0.5253 9.92985 
9.87118 -0.0285838 -0.690748 
-0.0285838 9.8802 -0.460633 
-0.690748 -0.460633 9.98804 
9.89081 0.000370398 -0.726069 
0.000370398 9.92559 -0.500298 
-0.726069 -0.500298 9.92301 
METADATA
COMPONENT_NAMES
XX
XY
XZ
YX
YY
YZ
ZX
ZY
ZZ

