# vtk DataFile Version 3.0
vtk output
ASCII
DATASET UNSTRUCTURED_GRID
POINTS 17020 float
-0.18052	1.3078	0.334608	
-0.134745	1.19543	0.248773	
-0.0964049	1.37384	0.276475	
-0.0330822	1.21734	0.266884	
-0.00167925	1.31098	0.319981	
0.109201	1.35772	0.375246	
0.0814864	1.49332	0.347681	
-0.0552231	1.38907	0.38538	
0.164574	0.7464	0.211103	
0.121965	0.82524	0.342904	
0.206682	0.777113	0.400851	
0.215953	0.839226	0.238202	
-0.134745	1.19543	0.248773	
-0.156284	1.06551	0.149142	
-0.136328	1.19004	0.119282	
-0.0611059	1.11559	0.264866	
-0.0977967	0.509657	0.258774	
0.0452903	0.623513	0.25784	
-0.136534	0.645188	0.231761	
-0.039093	0.610067	0.388942	
0.0814864	1.49332	0.347681	
0.109201	1.35772	0.375246	
-0.00167925	1.31098	0.319981	
0.0196341	1.38361	0.225797	
-0.119993	1.24669	0	
-0.136328	1.19004	0.119282	
-0.0697093	1.32708	0.167311	
-0.153777	1.36779	0.103264	
-0.23296	0.961598	0.249877	
-0.193842	1.09373	0.257323	
-0.156284	1.06551	0.149142	
-0.256772	1.06769	0.100506	
0	1.25	0.5	
0.0902907	1.23506	0.376077	
-0.00173102	1.15684	0.347507	
-0.0850696	1.27829	0.394238	
-0.274228	1.15934	0.161857	
-0.279096	1.24359	0.272562	
-0.434698	1.24706	0.250499	
-0.364752	1.11394	0.23148	
-0.136534	0.645188	0.231761	
0.0452903	0.623513	0.25784	
0.00505532	0.706778	0.339312	
-0.039093	0.610067	0.388942	
-0.134745	1.19543	0.248773	
-0.0964049	1.37384	0.276475	
-0.0697093	1.32708	0.167311	
-0.193559	1.35773	0.245031	
-0.18052	1.3078	0.334608	
-0.0850696	1.27829	0.394238	
-0.134745	1.19543	0.248773	
-0.0330822	1.21734	0.266884	
0.209063	1.27717	0.342511	
0.109201	1.35772	0.375246	
0.25658	1.42915	0.33124	
0.212182	1.31459	0.219285	
-0.0697093	1.32708	0.167311	
-0.136328	1.19004	0.119282	
-0.119993	1.24669	0	
0.00439522	1.27731	0.103072	
-0.437078	1.24282	0.152991	
-0.434698	1.24706	0.250499	
-0.274228	1.15934	0.161857	
-0.279096	1.24359	0.272562	
-0.0697093	1.32708	0.167311	
-0.0964049	1.37384	0.276475	
-0.134745	1.19543	0.248773	
-0.0330822	1.21734	0.266884	
-0.138674	1.3238	0	
-0.119993	1.24669	0	
-0.0697093	1.32708	0.167311	
-0.153777	1.36779	0.103264	
0.164574	0.7464	0.211103	
0.121965	0.82524	0.342904	
0.151014	0.679593	0.343049	
0.206682	0.777113	0.400851	
0.388274	1.31503	0.420807	
0.281092	1.28109	0.5	
0.209063	1.27717	0.342511	
0.347642	1.19453	0.384775	
-0.23296	0.961598	0.249877	
-0.193842	1.09373	0.257323	
-0.256772	1.06769	0.100506	
-0.318838	1.02278	0.259668	
-0.18644	1.1823	0	
-0.136328	1.19004	0.119282	
-0.274228	1.15934	0.161857	
-0.256772	1.06769	0.100506	
-0.156284	1.06551	0.149142	
-0.0543483	1.10288	0.107179	
-0.136328	1.19004	0.119282	
-0.0611059	1.11559	0.264866	
-0.0555676	1.32557	0	
-0.138674	1.3238	0	
-0.119993	1.24669	0	
-0.0697093	1.32708	0.167311	
-0.00425413	1.131	0	
0.113965	1.18028	0.121768	
-0.00674902	1.18961	0.168493	
0.0593465	1.06716	0.10856	
-0.0697093	1.32708	0.167311	
-0.00674902	1.18961	0.168493	
-0.134745	1.19543	0.248773	
-0.136328	1.19004	0.119282	
0.226544	0.947552	0.250202	
0.325159	1.05851	0.165819	
0.208793	1.06331	0.266812	
0.378383	1.07129	0.271427	
-0.18052	1.3078	0.334608	
-0.0964049	1.37384	0.276475	
-0.0850696	1.27829	0.394238	
-0.0330822	1.21734	0.266884	
-0.26105	1.2034	0	
-0.257956	1.11632	0	
-0.18644	1.1823	0	
-0.274228	1.15934	0.161857	
-0.138674	1.3238	0	
-0.0697093	1.32708	0.167311	
-0.0555676	1.32557	0	
-0.153777	1.36779	0.103264	
-0.134745	1.19543	0.248773	
-0.136328	1.19004	0.119282	
-0.00674902	1.18961	0.168493	
-0.0611059	1.11559	0.264866	
-0.134745	1.19543	0.248773	
-0.0697093	1.32708	0.167311	
-0.210789	1.29041	0.168489	
-0.193559	1.35773	0.245031	
-0.5	1	0.3	
-0.382289	1.08918	0.382504	
-0.363598	0.972427	0.365583	
-0.318838	1.02278	0.259668	
-0.134745	1.19543	0.248773	
-0.18052	1.3078	0.334608	
-0.0964049	1.37384	0.276475	
-0.193559	1.35773	0.245031	
-0.00425413	1.131	0	
0.0651412	1.2001	0	
-0.00674902	1.18961	0.168493	
0.113965	1.18028	0.121768	
0.0461078	0.941573	0	
0.0712814	0.846848	0	
0.0937412	0.930011	0.154317	
-0.00436862	0.872297	0.154061	
-0.437078	1.24282	0.152991	
-0.274228	1.15934	0.161857	
-0.386792	1.31685	0.198616	
-0.279096	1.24359	0.272562	
-0.00425413	1.131	0	
0.0593465	1.06716	0.10856	
-0.00674902	1.18961	0.168493	
-0.0543483	1.10288	0.107179	
-0.0977967	0.509657	0.258774	
-0.136534	0.645188	0.231761	
-0.0297704	0.68077	0.178611	
-0.0982069	0.610875	0.136018	
-0.00173102	1.15684	0.347507	
0.125116	1.11613	0.369411	
0.0868435	1.13736	0.5	
-0.00748686	1.04315	0.386084	
-0.171353	0.530279	0.338334	
-0.0810399	0.506611	0.35285	
-0.136534	0.645188	0.231761	
-0.039093	0.610067	0.388942	
0.174678	1.4685	0.317109	
0.25658	1.42915	0.33124	
0.109201	1.35772	0.375246	
0.212182	1.31459	0.219285	
0.374193	1.33163	0.334643	
0.388274	1.31503	0.420807	
0.209063	1.27717	0.342511	
0.347642	1.19453	0.384775	
-0.5	1	0.2	
-0.5	1	0.3	
-0.37095	0.93253	0.240862	
-0.318838	1.02278	0.259668	
0.245477	0.808349	0	
0.296805	0.825729	0.165597	
0.232997	0.88938	0	
0.177224	0.838965	0.12521	
0.325159	1.05851	0.165819	
0.226544	0.947552	0.250202	
0.361351	0.935933	0.2197	
0.378383	1.07129	0.271427	
-0.18052	1.3078	0.334608	
-0.125823	1.17124	0.373805	
-0.134745	1.19543	0.248773	
-0.0850696	1.27829	0.394238	
-0.26105	1.2034	0	
-0.274228	1.15934	0.161857	
-0.18644	1.1823	0	
-0.277342	1.24516	0.0975038	
-0.134745	1.19543	0.248773	
-0.274228	1.15934	0.161857	
-0.136328	1.19004	0.119282	
-0.193842	1.09373	0.257323	
0.226544	0.947552	0.250202	
0.347602	0.985936	0.348343	
0.285177	0.816119	0.328962	
0.361351	0.935933	0.2197	
-0.136328	1.19004	0.119282	
-0.0543483	1.10288	0.107179	
-0.00674902	1.18961	0.168493	
-0.0611059	1.11559	0.264866	
0	1.25	0.5	
0.028723	1.17517	0.5	
-0.00173102	1.15684	0.347507	
0.0902907	1.23506	0.376077	
-0.156284	1.06551	0.149142	
-0.227254	0.962083	0.121579	
-0.23296	0.961598	0.249877	
-0.256772	1.06769	0.100506	
0	1.25	0.5	
-0.00167925	1.31098	0.319981	
0.0902907	1.23506	0.376077	
-0.0850696	1.27829	0.394238	
-0.00643767	0.847524	0.25115	
-0.00643767	0.847524	0.3797	
-0.144063	0.852748	0.341365	
-0.081357	0.751661	0.265055	
-0.0297704	0.68077	0.178611	
-0.136534	0.645188	0.231761	
-0.0977967	0.509657	0.258774	
0.0452903	0.623513	0.25784	
-0.274228	1.15934	0.161857	
-0.256772	1.06769	0.100506	
-0.193842	1.09373	0.257323	
-0.318838	1.02278	0.259668	
0.0712814	0.846848	0	
0.0541326	0.793785	0.132666	
0.0937412	0.930011	0.154317	
-0.00436862	0.872297	0.154061	
-0.0297704	0.68077	0.178611	
0.00505532	0.706778	0.339312	
-0.081357	0.751661	0.265055	
-0.136534	0.645188	0.231761	
0.0461078	0.941573	0	
0.0937412	0.930011	0.154317	
-0.0105385	0.962638	0.111113	
-0.00436862	0.872297	0.154061	
-0.274228	1.15934	0.161857	
-0.386792	1.31685	0.198616	
-0.279096	1.24359	0.272562	
-0.277342	1.24516	0.0975038	
0.285177	0.816119	0.328962	
0.347602	0.985936	0.348343	
0.226544	0.947552	0.250202	
0.211575	0.889225	0.384788	
0.109201	1.35772	0.375246	
0.0196341	1.38361	0.225797	
0.0854243	1.49265	0.251403	
0.105734	1.2948	0.276786	
0.285177	0.816119	0.328962	
0.361351	0.935933	0.2197	
0.347602	0.985936	0.348343	
0.358257	0.834187	0.252847	
-0.437078	1.24282	0.152991	
-0.274228	1.15934	0.161857	
-0.434698	1.24706	0.250499	
-0.364752	1.11394	0.23148	
0.0937412	0.930011	0.154317	
0.0541326	0.793785	0.132666	
0.0712814	0.846848	0	
0.177224	0.838965	0.12521	
-0.0977967	0.509657	0.258774	
-0.136534	0.645188	0.231761	
-0.0810399	0.506611	0.35285	
-0.039093	0.610067	0.388942	
-0.144063	0.852748	0.341365	
-0.23296	0.961598	0.249877	
-0.203766	0.963562	0.377533	
-0.140073	0.942584	0.309826	
0.164574	0.7464	0.211103	
0.278655	0.736565	0.241439	
0.215953	0.839226	0.238202	
0.260241	0.698507	0.343916	
0.226544	0.947552	0.250202	
0.208793	1.06331	0.266812	
0.347602	0.985936	0.348343	
0.378383	1.07129	0.271427	
-0.5	1	0.3	
-0.492649	1.08542	0.251403	
-0.382289	1.08918	0.382504	
-0.318838	1.02278	0.259668	
-0.144063	0.852748	0.341365	
-0.296327	0.833736	0.292179	
-0.189227	0.766031	0.208899	
-0.259603	0.71434	0.292274	
0.119419	1.18151	0.251425	
0.113965	1.18028	0.121768	
0.098462	1.32087	0.159093	
0.189162	1.24479	0.0938772	
-0.437078	1.24282	0.152991	
-0.386792	1.31685	0.198616	
-0.434698	1.24706	0.250499	
-0.279096	1.24359	0.272562	
-0.214341	1.27376	0	
-0.136328	1.19004	0.119282	
-0.119993	1.24669	0	
-0.153777	1.36779	0.103264	
-0.210789	1.29041	0.168489	
-0.136328	1.19004	0.119282	
-0.214341	1.27376	0	
-0.153777	1.36779	0.103264	
-0.115695	1.05029	0.334241	
-0.193842	1.09373	0.257323	
-0.203766	0.963562	0.377533	
-0.179827	1.088	0.408491	
-0.134745	1.19543	0.248773	
-0.00674902	1.18961	0.168493	
-0.0697093	1.32708	0.167311	
-0.0330822	1.21734	0.266884	
0.00505532	0.706778	0.339312	
-0.136534	0.645188	0.231761	
-0.0297704	0.68077	0.178611	
0.0452903	0.623513	0.25784	
-0.134745	1.19543	0.248773	
-0.0850696	1.27829	0.394238	
-0.125823	1.17124	0.373805	
-0.0330822	1.21734	0.266884	
0.119419	1.18151	0.251425	
0.22536	1.15058	0.40335	
0.125116	1.11613	0.369411	
0.219623	1.16199	0.240766	
-0.257956	1.11632	0	
-0.18644	1.1823	0	
-0.274228	1.15934	0.161857	
-0.256772	1.06769	0.100506	
-0.323938	0.619127	0.347739	
-0.317197	0.613495	0.431175	
-0.153774	0.693588	0.346551	
-0.289723	0.75771	0.393302	
-0.144063	0.852748	0.341365	
-0.296327	0.833736	0.292179	
-0.259603	0.71434	0.292274	
-0.289723	0.75771	0.393302	
0.109201	1.35772	0.375246	
0.212182	1.31459	0.219285	
0.209063	1.27717	0.342511	
0.105734	1.2948	0.276786	
-0.144063	0.852748	0.341365	
-0.239777	0.86007	0.398057	
-0.296327	0.833736	0.292179	
-0.289723	0.75771	0.393302	
0.164574	0.7464	0.211103	
0.215953	0.839226	0.238202	
0.206682	0.777113	0.400851	
0.260241	0.698507	0.343916	
0.245477	0.808349	0	
0.313791	0.845535	0	
0.232997	0.88938	0	
0.296805	0.825729	0.165597	
-0.0697093	1.32708	0.167311	
-0.134745	1.19543	0.248773	
-0.210789	1.29041	0.168489	
-0.136328	1.19004	0.119282	
0	1.25	0.5	
-0.00173102	1.15684	0.347507	
-0.0392044	1.16291	0.5	
-0.0850696	1.27829	0.394238	
-0.134745	1.19543	0.248773	
-0.193842	1.09373	0.257323	
-0.125823	1.17124	0.373805	
-0.234257	1.21312	0.375398	
-0.00425413	1.131	0	
0.0651412	1.2001	0	
-0.0295403	1.22514	0	
-0.00674902	1.18961	0.168493	
-0.274228	1.15934	0.161857	
-0.136328	1.19004	0.119282	
-0.18644	1.1823	0	
-0.277342	1.24516	0.0975038	
0.226544	0.947552	0.250202	
0.361351	0.935933	0.2197	
0.285177	0.816119	0.328962	
0.358257	0.834187	0.252847	
-0.0295403	1.22514	0	
-0.00674902	1.18961	0.168493	
-0.136328	1.19004	0.119282	
-0.0543483	1.10288	0.107179	
-0.0977967	0.509657	0.258774	
-0.0297704	0.68077	0.178611	
0	0.5	0.2	
-0.0982069	0.610875	0.136018	
-0.16685	1.08834	0	
-0.136328	1.19004	0.119282	
-0.18644	1.1823	0	
-0.256772	1.06769	0.100506	
-0.144063	0.852748	0.341365	
-0.259603	0.71434	0.292274	
-0.153774	0.693588	0.346551	
-0.289723	0.75771	0.393302	
-0.5	1	0.1	
-0.426463	1.04414	0	
-0.3474	1.01863	0.155865	
-0.390863	0.914451	0.0980906	
-0.5	1	0.2	
-0.492649	1.08542	0.251403	
-0.5	1	0.3	
-0.318838	1.02278	0.259668	
0.0854243	1.49265	0.251403	
0.0196341	1.38361	0.225797	
0.168734	1.47067	0.201781	
0.105734	1.2948	0.276786	
-0.426463	1.04414	0	
-0.495012	1.07045	0.0718447	
-0.5	1	0.1	
-0.3474	1.01863	0.155865	
-0.00173102	1.15684	0.347507	
-0.0392044	1.16291	0.5	
-0.0850696	1.27829	0.394238	
-0.0571477	1.11947	0.416349	
0.174678	1.4685	0.317109	
0.212182	1.31459	0.219285	
0.109201	1.35772	0.375246	
0.105734	1.2948	0.276786	
0.209063	1.27717	0.342511	
0.347642	1.19453	0.384775	
0.281092	1.28109	0.5	
0.22536	1.15058	0.40335	
0.325159	1.05851	0.165819	
0.168914	1.06767	0.155545	
0.226544	0.947552	0.250202	
0.208793	1.06331	0.266812	
-0.119993	1.24669	0	
-0.0555676	1.32557	0	
-0.0697093	1.32708	0.167311	
0.00439522	1.27731	0.103072	
0.14072	0.916025	0	
0.0937412	0.930011	0.154317	
0.0712814	0.846848	0	
0.177224	0.838965	0.12521	
-0.3474	1.01863	0.155865	
-0.23296	0.961598	0.249877	
-0.227254	0.962083	0.121579	
-0.256772	1.06769	0.100506	
0.168734	1.47067	0.201781	
0.0196341	1.38361	0.225797	
0.098462	1.32087	0.159093	
0.105734	1.2948	0.276786	
0.209063	1.27717	0.342511	
0.125116	1.11613	0.369411	
0.119419	1.18151	0.251425	
0.22536	1.15058	0.40335	
-0.144063	0.852748	0.341365	
-0.189227	0.766031	0.208899	
-0.153774	0.693588	0.346551	
-0.259603	0.71434	0.292274	
-0.134745	1.19543	0.248773	
-0.279096	1.24359	0.272562	
-0.274228	1.15934	0.161857	
-0.193842	1.09373	0.257323	
-0.156284	1.06551	0.149142	
-0.136328	1.19004	0.119282	
-0.274228	1.15934	0.161857	
-0.193842	1.09373	0.257323	
0.209063	1.27717	0.342511	
0.22536	1.15058	0.40335	
0.119419	1.18151	0.251425	
0.219623	1.16199	0.240766	
0.281092	1.28109	0.5	
0.3168	1.38683	0.395903	
0.388274	1.31503	0.420807	
0.209063	1.27717	0.342511	
-0.144063	0.852748	0.341365	
-0.296327	0.833736	0.292179	
-0.23296	0.961598	0.249877	
-0.170219	0.871655	0.235589	
-0.0977967	0.509657	0.258774	
-0.171353	0.530279	0.338334	
-0.0810399	0.506611	0.35285	
-0.136534	0.645188	0.231761	
0.347602	0.985936	0.348343	
0.361351	0.935933	0.2197	
0.226544	0.947552	0.250202	
0.378383	1.07129	0.271427	
-0.134745	1.19543	0.248773	
-0.210789	1.29041	0.168489	
-0.18052	1.3078	0.334608	
-0.193559	1.35773	0.245031	
-0.5	1	0.2	
-0.3474	1.01863	0.155865	
-0.364752	1.11394	0.23148	
-0.318838	1.02278	0.259668	
-0.134745	1.19543	0.248773	
-0.136328	1.19004	0.119282	
-0.156284	1.06551	0.149142	
-0.193842	1.09373	0.257323	
0.25658	0.570854	0.16876	
0.247079	0.718599	0.118367	
0.0999617	0.645199	0.138238	
0.15722	0.635104	0.236843	
-0.138674	1.3238	0	
-0.214341	1.27376	0	
-0.119993	1.24669	0	
-0.153777	1.36779	0.103264	
0.194604	0.628812	0	
0.0999617	0.645199	0.138238	
0.228991	0.555519	0.0919014	
0.247079	0.718599	0.118367	
-0.0392044	1.16291	0.5	
0	1.25	0.5	
0.028723	1.17517	0.5	
-0.00173102	1.15684	0.347507	
-0.23296	0.961598	0.249877	
-0.256772	1.06769	0.100506	
-0.3474	1.01863	0.155865	
-0.318838	1.02278	0.259668	
-0.00643767	0.847524	0.25115	
-0.144063	0.852748	0.341365	
-0.00643767	0.847524	0.3797	
-0.0821557	0.901585	0.243527	
0.174678	1.4685	0.317109	
0.109201	1.35772	0.375246	
0.0854243	1.49265	0.251403	
0.105734	1.2948	0.276786	
-0.176777	0.823223	0.5	
-0.144063	0.852748	0.341365	
-0.0862712	0.770823	0.389289	
-0.239777	0.86007	0.398057	
0.113965	1.18028	0.121768	
0.0593465	1.06716	0.10856	
0.0919908	1.06424	0.248206	
0.0323895	1.13978	0.258564	
-0.495012	1.07045	0.0718447	
-0.3474	1.01863	0.155865	
-0.426463	1.04414	0	
-0.357904	1.11593	0.101286	
-0.5	1	0.2	
-0.37095	0.93253	0.240862	
-0.3474	1.01863	0.155865	
-0.318838	1.02278	0.259668	
-0.23296	0.961598	0.249877	
-0.144063	0.852748	0.341365	
-0.203766	0.963562	0.377533	
-0.239777	0.86007	0.398057	
-0.156284	1.06551	0.149142	
-0.136328	1.19004	0.119282	
-0.16685	1.08834	0	
-0.256772	1.06769	0.100506	
0.121965	0.82524	0.342904	
0.164574	0.7464	0.211103	
0.151014	0.679593	0.343049	
0.0468326	0.745128	0.237913	
-0.144063	0.852748	0.341365	
-0.170219	0.871655	0.235589	
-0.23296	0.961598	0.249877	
-0.140073	0.942584	0.309826	
-0.134745	1.19543	0.248773	
-0.274228	1.15934	0.161857	
-0.210789	1.29041	0.168489	
-0.136328	1.19004	0.119282	
0.296805	0.825729	0.165597	
0.265828	0.94766	0.123486	
0.232997	0.88938	0	
0.177224	0.838965	0.12521	
-0.00643767	0.847524	0.25115	
-0.00643767	0.847524	0.3797	
-0.045108	0.948191	0.315425	
-0.0821557	0.901585	0.243527	
-0.134745	1.19543	0.248773	
-0.18052	1.3078	0.334608	
-0.210789	1.29041	0.168489	
-0.279096	1.24359	0.272562	
-0.189227	0.766031	0.208899	
-0.296327	0.833736	0.292179	
-0.144063	0.852748	0.341365	
-0.170219	0.871655	0.235589	
0.119419	1.18151	0.251425	
0.098462	1.32087	0.159093	
0.212182	1.31459	0.219285	
0.189162	1.24479	0.0938772	
-0.153774	0.693588	0.346551	
-0.136534	0.645188	0.231761	
0.00505532	0.706778	0.339312	
-0.039093	0.610067	0.388942	
-0.144063	0.852748	0.341365	
-0.045108	0.948191	0.315425	
-0.00643767	0.847524	0.3797	
-0.0821557	0.901585	0.243527	
0.232997	0.88938	0	
0.296805	0.825729	0.165597	
0.313791	0.845535	0	
0.355602	0.87751	0.0966392	
0	0.5	0.2	
-0.0297704	0.68077	0.178611	
-0.0977967	0.509657	0.258774	
0.0452903	0.623513	0.25784	
-0.232161	0.652547	0.5	
-0.153774	0.693588	0.346551	
-0.317197	0.613495	0.431175	
-0.289723	0.75771	0.393302	
0	1.25	0.5	
0.064316	1.32334	0.5	
-0.00167925	1.31098	0.319981	
-0.0850696	1.27829	0.394238	
-0.386792	1.31685	0.198616	
-0.274228	1.15934	0.161857	
-0.437078	1.24282	0.152991	
-0.277342	1.24516	0.0975038	
-0.189227	0.766031	0.208899	
-0.31578	0.863109	0.155248	
-0.296327	0.833736	0.292179	
-0.170219	0.871655	0.235589	
0.0728232	1.49467	0.426459	
0.109201	1.35772	0.375246	
8.18872e-17	1.39822	0.5	
-0.0552231	1.38907	0.38538	
0.151014	0.679593	0.343049	
0.164574	0.7464	0.211103	
0.206682	0.777113	0.400851	
0.260241	0.698507	0.343916	
0.119419	1.18151	0.251425	
0.212182	1.31459	0.219285	
0.260232	1.21075	0.160089	
0.189162	1.24479	0.0938772	
0	0.5	0.3	
0.0452903	0.623513	0.25784	
-0.0977967	0.509657	0.258774	
-0.039093	0.610067	0.388942	
0.347453	0.767839	0.5	
0.285177	0.816119	0.328962	
0.386505	0.682803	0.431175	
0.260241	0.698507	0.343916	
0.0461078	0.941573	0	
-0.0232782	0.872416	0	
0.0712814	0.846848	0	
-0.00436862	0.872297	0.154061	
-0.0295403	1.22514	0	
-0.00674902	1.18961	0.168493	
0.0651412	1.2001	0	
0.00439522	1.27731	0.103072	
-0.5	1	0.3	
-0.492649	1.08542	0.251403	
-0.493315	1.08149	0.347681	
-0.382289	1.08918	0.382504	
-0.134745	1.19543	0.248773	
-0.279096	1.24359	0.272562	
-0.193842	1.09373	0.257323	
-0.234257	1.21312	0.375398	
-0.183156	0.725887	0.5	
-0.0862712	0.770823	0.389289	
-0.153774	0.693588	0.346551	
-0.289723	0.75771	0.393302	
0.226544	0.947552	0.250202	
0.168914	1.06767	0.155545	
0.325159	1.05851	0.165819	
0.265828	0.94766	0.123486	
0.174678	1.4685	0.317109	
0.168734	1.47067	0.201781	
0.212182	1.31459	0.219285	
0.105734	1.2948	0.276786	
-0.117671	0.89803	0	
-0.227254	0.962083	0.121579	
-0.110633	0.921519	0.156892	
-0.10307	0.999921	0.0930669	
-0.00173102	1.15684	0.347507	
0.0902907	1.23506	0.376077	
-0.00167925	1.31098	0.319981	
-0.0850696	1.27829	0.394238	
-0.00167925	1.31098	0.319981	
-0.0850696	1.27829	0.394238	
-0.0964049	1.37384	0.276475	
-0.0330822	1.21734	0.266884	
-0.23296	0.961598	0.249877	
-0.296327	0.833736	0.292179	
-0.144063	0.852748	0.341365	
-0.239777	0.86007	0.398057	
0.361351	0.935933	0.2197	
0.387337	0.975471	0.113668	
0.325159	1.05851	0.165819	
0.378383	1.07129	0.271427	
0.25658	0.570854	0.16876	
0.228991	0.555519	0.0919014	
0.0999617	0.645199	0.138238	
0.247079	0.718599	0.118367	
-0.00167925	1.31098	0.319981	
-0.0850696	1.27829	0.394238	
0.064316	1.32334	0.5	
-0.0552231	1.38907	0.38538	
0.323338	0.935684	0.5	
0.25	1	0.5	
0.203143	1.00597	0.37146	
0.211575	0.889225	0.384788	
0.247057	1.4347	0.250499	
0.25658	1.42915	0.33124	
0.174678	1.4685	0.317109	
0.212182	1.31459	0.219285	
0.174678	1.4685	0.317109	
0.0854243	1.49265	0.251403	
0.168734	1.47067	0.201781	
0.105734	1.2948	0.276786	
0.119419	1.18151	0.251425	
0.260232	1.21075	0.160089	
0.113965	1.18028	0.121768	
0.189162	1.24479	0.0938772	
-0.00643767	0.847524	0.3797	
-0.144063	0.852748	0.341365	
-0.081357	0.751661	0.265055	
-0.0862712	0.770823	0.389289	
0.3168	1.38683	0.395903	
0.374193	1.33163	0.334643	
0.388274	1.31503	0.420807	
0.209063	1.27717	0.342511	
0.0999617	0.645199	0.138238	
0.247079	0.718599	0.118367	
0.194604	0.628812	0	
0.142608	0.739294	0.106454	
0.232997	0.88938	0	
0.265828	0.94766	0.123486	
0.296805	0.825729	0.165597	
0.355602	0.87751	0.0966392	
-0.134745	1.19543	0.248773	
-0.210789	1.29041	0.168489	
-0.274228	1.15934	0.161857	
-0.279096	1.24359	0.272562	
0.0919908	1.06424	0.248206	
0.0244505	0.94868	0.233905	
-0.0151696	1.04156	0.198031	
0.134932	0.977505	0.230093	
-0.0297704	0.68077	0.178611	
-0.189227	0.766031	0.208899	
-0.0726386	0.798943	0.15243	
-0.111014	0.733523	0.0849706	
0.0937412	0.930011	0.154317	
-0.0151696	1.04156	0.198031	
0.0244505	0.94868	0.233905	
0.134932	0.977505	0.230093	
-0.171353	0.530279	0.338334	
-0.136534	0.645188	0.231761	
-0.153774	0.693588	0.346551	
-0.039093	0.610067	0.388942	
0.0937412	0.930011	0.154317	
0.265828	0.94766	0.123486	
0.226544	0.947552	0.250202	
0.177224	0.838965	0.12521	
0.168734	1.47067	0.201781	
0.098462	1.32087	0.159093	
0.212182	1.31459	0.219285	
0.105734	1.2948	0.276786	
-0.364752	1.11394	0.23148	
-0.382289	1.08918	0.382504	
-0.492649	1.08542	0.251403	
-0.318838	1.02278	0.259668	
-0.0295403	1.22514	0	
-0.136328	1.19004	0.119282	
-0.00674902	1.18961	0.168493	
0.00439522	1.27731	0.103072	
-0.189227	0.766031	0.208899	
-0.0297704	0.68077	0.178611	
-0.0726386	0.798943	0.15243	
-0.081357	0.751661	0.265055	
0.0461078	0.941573	0	
-0.0105385	0.962638	0.111113	
-0.0232782	0.872416	0	
-0.00436862	0.872297	0.154061	
-0.153774	0.693588	0.346551	
-0.081357	0.751661	0.265055	
0.00505532	0.706778	0.339312	
-0.136534	0.645188	0.231761	
0.285177	0.816119	0.328962	
0.215953	0.839226	0.238202	
0.278655	0.736565	0.241439	
0.260241	0.698507	0.343916	
-0.189227	0.766031	0.208899	
-0.144063	0.852748	0.341365	
-0.153774	0.693588	0.346551	
-0.081357	0.751661	0.265055	
0.000305103	1.09462	0.5	
-0.00173102	1.15684	0.347507	
0.0868435	1.13736	0.5	
-0.00748686	1.04315	0.386084	
0.490343	0.902203	0.258774	
0.493389	0.91896	0.35285	
0.347602	0.985936	0.348343	
0.368617	0.876452	0.385763	
-0.0297704	0.68077	0.178611	
-0.136534	0.645188	0.231761	
-0.189227	0.766031	0.208899	
-0.111014	0.733523	0.0849706	
0.119419	1.18151	0.251425	
0.125116	1.11613	0.369411	
0.209063	1.27717	0.342511	
0.0902907	1.23506	0.376077	
0.4284	1.25782	0.295024	
0.470916	1.16804	0.300126	
0.347642	1.19453	0.384775	
0.334194	1.15432	0.215771	
0.103403	0.84471	0.5	
0.176777	0.823223	0.5	
0.0956709	0.76903	0.5	
0.0581157	0.769455	0.403061	
0.113965	1.18028	0.121768	
-0.00674902	1.18961	0.168493	
0.0593465	1.06716	0.10856	
0.0323895	1.13978	0.258564	
-0.243391	0.563238	0.403062	
-0.323938	0.619127	0.347739	
-0.317197	0.613495	0.431175	
-0.153774	0.693588	0.346551	
-0.117671	0.89803	0	
-0.110633	0.921519	0.156892	
-0.227254	0.962083	0.121579	
-0.196211	0.8458	0.119009	
-0.0295403	1.22514	0	
-0.00425413	1.131	0	
-0.00674902	1.18961	0.168493	
-0.0543483	1.10288	0.107179	
-0.323938	0.619127	0.347739	
-0.153774	0.693588	0.346551	
-0.259603	0.71434	0.292274	
-0.289723	0.75771	0.393302	
-0.273315	1.33496	0	
-0.214341	1.27376	0	
-0.153777	1.36779	0.103264	
-0.277342	1.24516	0.0975038	
0.386505	0.682803	0.431175	
0.285177	0.816119	0.328962	
0.380873	0.676062	0.347739	
0.260241	0.698507	0.343916	
0.317206	0.613502	0.200322	
0.278655	0.736565	0.241439	
0.247079	0.718599	0.118367	
0.15722	0.635104	0.236843	
0	1.25	0.5	
-0.00167925	1.31098	0.319981	
0.064316	1.32334	0.5	
0.0902907	1.23506	0.376077	
0.121965	0.82524	0.342904	
0.0468326	0.745128	0.237913	
0.151014	0.679593	0.343049	
0.0347483	0.794732	0.315425	
0.285177	0.816119	0.328962	
0.347602	0.985936	0.348343	
0.368617	0.876452	0.385763	
0.358257	0.834187	0.252847	
-0.0297704	0.68077	0.178611	
-0.081357	0.751661	0.265055	
-0.189227	0.766031	0.208899	
-0.136534	0.645188	0.231761	
-0.3474	1.01863	0.155865	
-0.256772	1.06769	0.100506	
-0.274228	1.15934	0.161857	
-0.318838	1.02278	0.259668	
-0.203766	0.963562	0.377533	
-0.179827	1.088	0.408491	
-0.193842	1.09373	0.257323	
-0.275403	1.0393	0.403336	
0.325159	1.05851	0.165819	
0.265828	0.94766	0.123486	
0.346509	1.02379	0	
0.387337	0.975471	0.113668	
0.184962	1.07993	0	
0.113965	1.18028	0.121768	
0.168914	1.06767	0.155545	
0.253711	1.11341	0.104023	
0.288623	1.13754	0.312711	
0.347642	1.19453	0.384775	
0.470916	1.16804	0.300126	
0.334194	1.15432	0.215771	
0.323338	0.935684	0.5	
0.203143	1.00597	0.37146	
0.347602	0.985936	0.348343	
0.211575	0.889225	0.384788	
-0.23296	0.961598	0.249877	
-0.296327	0.833736	0.292179	
-0.31578	0.863109	0.155248	
-0.170219	0.871655	0.235589	
-0.00674902	1.18961	0.168493	
0.113965	1.18028	0.121768	
0.0651412	1.2001	0	
0.00439522	1.27731	0.103072	
0.450285	0.782644	0.144698	
0.296805	0.825729	0.165597	
0.358257	0.834187	0.252847	
0.355602	0.87751	0.0966392	
0.317206	0.613502	0.200322	
0.247079	0.718599	0.118367	
0.25658	0.570854	0.16876	
0.15722	0.635104	0.236843	
0.386505	0.682803	0.431175	
0.347453	0.767839	0.5	
0.436762	0.756609	0.403062	
0.285177	0.816119	0.328962	
-0.0684459	1.49529	0.0685965	
-0.153777	1.36779	0.103264	
-0.0372406	1.41779	0	
0.0105232	1.38676	0.111861	
0.028723	1.17517	0.5	
0.0868435	1.13736	0.5	
0.000305103	1.09462	0.5	
-0.00173102	1.15684	0.347507	
-0.389036	1.20743	0	
-0.440961	1.2357	0.068569	
-0.357904	1.11593	0.101286	
-0.277342	1.24516	0.0975038	
-0.5	1	0.2	
-0.364752	1.11394	0.23148	
-0.492649	1.08542	0.251403	
-0.318838	1.02278	0.259668	
0.5	1	0.4	
0.495293	0.931554	0.431403	
0.398221	1	0.5	
0.347602	0.985936	0.348343	
0.0593465	1.06716	0.10856	
-0.0105385	0.962638	0.111113	
0.0461078	0.941573	0	
0.159132	0.984216	0.0920948	
0.285177	0.816119	0.328962	
0.206682	0.777113	0.400851	
0.215953	0.839226	0.238202	
0.260241	0.698507	0.343916	
0.226544	0.947552	0.250202	
0.265828	0.94766	0.123486	
0.0937412	0.930011	0.154317	
0.134932	0.977505	0.230093	
0.0461078	0.941573	0	
0.0712814	0.846848	0	
0.14072	0.916025	0	
0.0937412	0.930011	0.154317	
-0.144862	0.521445	0.421652	
-0.153774	0.693588	0.346551	
-0.152126	0.632735	0.5	
-0.039093	0.610067	0.388942	
0.0902907	1.23506	0.376077	
-0.0330822	1.21734	0.266884	
0.119419	1.18151	0.251425	
0.0323895	1.13978	0.258564	
0.374193	1.33163	0.334643	
0.347642	1.19453	0.384775	
0.209063	1.27717	0.342511	
0.295334	1.24597	0.26697	
-0.115695	1.05029	0.334241	
-0.193842	1.09373	0.257323	
-0.125823	1.17124	0.373805	
-0.0611059	1.11559	0.264866	
0.386505	0.682803	0.431175	
0.436762	0.756609	0.403062	
0.380873	0.676062	0.347739	
0.285177	0.816119	0.328962	
-0.210789	1.29041	0.168489	
-0.279096	1.24359	0.272562	
-0.386792	1.31685	0.198616	
-0.277342	1.24516	0.0975038	
0.0937412	0.930011	0.154317	
0.106858	0.844305	0.230248	
0.215953	0.839226	0.238202	
0.134932	0.977505	0.230093	
0.0728232	1.49467	0.426459	
8.18872e-17	1.39822	0.5	
0	1.5	0.4	
-0.0552231	1.38907	0.38538	
-0.0697093	1.32708	0.167311	
-0.136328	1.19004	0.119282	
-0.210789	1.29041	0.168489	
-0.153777	1.36779	0.103264	
0.0854243	1.49265	0.251403	
0.109201	1.35772	0.375246	
0.0814864	1.49332	0.347681	
0.0196341	1.38361	0.225797	
0.0937412	0.930011	0.154317	
0.177224	0.838965	0.12521	
0.226544	0.947552	0.250202	
0.215953	0.839226	0.238202	
-0.00643767	0.847524	0.25115	
-0.00643767	0.847524	0.3797	
-0.081357	0.751661	0.265055	
0.0347483	0.794732	0.315425	
-0.31578	0.863109	0.155248	
-0.3474	1.01863	0.155865	
-0.23296	0.961598	0.249877	
-0.227254	0.962083	0.121579	
0.347602	0.985936	0.348343	
0.211575	0.889225	0.384788	
0.285177	0.816119	0.328962	
0.368617	0.876452	0.385763	
-0.134745	1.19543	0.248773	
-0.125823	1.17124	0.373805	
-0.18052	1.3078	0.334608	
-0.234257	1.21312	0.375398	
0.276476	1.05355	0	
0.346509	1.02379	0	
0.325159	1.05851	0.165819	
0.265828	0.94766	0.123486	
-0.134745	1.19543	0.248773	
-0.193842	1.09373	0.257323	
-0.156284	1.06551	0.149142	
-0.0611059	1.11559	0.264866	
0.260232	1.21075	0.160089	
0.212182	1.31459	0.219285	
0.119419	1.18151	0.251425	
0.219623	1.16199	0.240766	
-0.00425413	1.131	0	
0.0651412	1.2001	0	
0.113965	1.18028	0.121768	
0.0593465	1.06716	0.10856	
-0.5	1	0.3	
-0.363598	0.972427	0.365583	
-0.37095	0.93253	0.240862	
-0.318838	1.02278	0.259668	
-0.0684459	1.49529	0.0685965	
-0.118932	1.39861	0	
-0.0372406	1.41779	0	
-0.153777	1.36779	0.103264	
0.347602	0.985936	0.348343	
0.203143	1.00597	0.37146	
0.226544	0.947552	0.250202	
0.211575	0.889225	0.384788	
-0.134745	1.19543	0.248773	
-0.125823	1.17124	0.373805	
-0.193842	1.09373	0.257323	
-0.0611059	1.11559	0.264866	
-0.285945	1.12176	0.325452	
-0.193842	1.09373	0.257323	
-0.125823	1.17124	0.373805	
-0.179827	1.088	0.408491	
-0.00173102	1.15684	0.347507	
-0.0330822	1.21734	0.266884	
0.0902907	1.23506	0.376077	
0.0323895	1.13978	0.258564	
0.260232	1.21075	0.160089	
0.119419	1.18151	0.251425	
0.113965	1.18028	0.121768	
0.219623	1.16199	0.240766	
-0.117671	0.89803	0	
-0.211369	0.923885	0	
-0.227254	0.962083	0.121579	
-0.10307	0.999921	0.0930669	
-0.243391	0.563238	0.403062	
-0.317197	0.613495	0.431175	
-0.232161	0.652547	0.5	
-0.153774	0.693588	0.346551	
-0.189227	0.766031	0.208899	
-0.296327	0.833736	0.292179	
-0.31578	0.863109	0.155248	
-0.332607	0.773484	0.222023	
-0.00173102	1.15684	0.347507	
0.125116	1.11613	0.369411	
0.00363562	1.02785	0.291568	
0.0323895	1.13978	0.258564	
0.265828	0.94766	0.123486	
0.159132	0.984216	0.0920948	
0.0937412	0.930011	0.154317	
0.134932	0.977505	0.230093	
0.0712814	0.846848	0	
-0.0232782	0.872416	0	
0.0541326	0.793785	0.132666	
-0.00436862	0.872297	0.154061	
0.0937412	0.930011	0.154317	
0.106858	0.844305	0.230248	
0.177224	0.838965	0.12521	
0.215953	0.839226	0.238202	
0.296805	0.825729	0.165597	
0.177224	0.838965	0.12521	
0.245477	0.808349	0	
0.247079	0.718599	0.118367	
-0.210789	1.29041	0.168489	
-0.279096	1.24359	0.272562	
-0.18052	1.3078	0.334608	
-0.193559	1.35773	0.245031	
-0.193842	1.09373	0.257323	
-0.10768	0.996359	0.238131	
-0.115695	1.05029	0.334241	
-0.140073	0.942584	0.309826	
0.5	1	0.2	
0.325159	1.05851	0.165819	
0.387337	0.975471	0.113668	
0.378383	1.07129	0.271427	
0.103403	0.84471	0.5	
0.101939	0.907787	0.403472	
0.121965	0.82524	0.342904	
0.0581157	0.769455	0.403061	
0.0937412	0.930011	0.154317	
0.215953	0.839226	0.238202	
0.226544	0.947552	0.250202	
0.134932	0.977505	0.230093	
-0.189227	0.766031	0.208899	
-0.136534	0.645188	0.231761	
-0.183989	0.672241	0.119932	
-0.111014	0.733523	0.0849706	
-0.0295403	1.22514	0	
-0.136328	1.19004	0.119282	
-0.0983601	1.15643	0	
-0.0543483	1.10288	0.107179	
-0.0810399	1.49339	0.14715	
-0.153777	1.36779	0.103264	
-0.0684459	1.49529	0.0685965	
0.0105232	1.38676	0.111861	
-0.00425413	1.131	0	
0.0903521	1.10545	0	
0.0651412	1.2001	0	
0.0593465	1.06716	0.10856	
0.0461078	0.941573	0	
0.115537	1.01075	0	
0.0593465	1.06716	0.10856	
0.159132	0.984216	0.0920948	
0.5	1	0.2	
0.387337	0.975471	0.113668	
0.325159	1.05851	0.165819	
0.40353	1.07301	0.105949	
0.119419	1.18151	0.251425	
0.113965	1.18028	0.121768	
0.0919908	1.06424	0.248206	
0.0323895	1.13978	0.258564	
-0.117671	0.89803	0	
-0.227254	0.962083	0.121579	
-0.211369	0.923885	0	
-0.196211	0.8458	0.119009	
-0.296327	0.833736	0.292179	
-0.363598	0.972427	0.365583	
-0.23296	0.961598	0.249877	
-0.37095	0.93253	0.240862	
0.450285	0.782644	0.144698	
0.358257	0.834187	0.252847	
0.470916	0.831957	0.199874	
0.355602	0.87751	0.0966392	
0.158056	1.17188	0	
0.113965	1.18028	0.121768	
0.184962	1.07993	0	
0.253711	1.11341	0.104023	
-0.16685	1.08834	0	
-0.136328	1.19004	0.119282	
-0.156284	1.06551	0.149142	
-0.0543483	1.10288	0.107179	
-0.00173102	1.15684	0.347507	
-0.0850696	1.27829	0.394238	
-0.125823	1.17124	0.373805	
-0.0571477	1.11947	0.416349	
-0.278713	0.85696	0	
-0.227254	0.962083	0.121579	
-0.31578	0.863109	0.155248	
-0.196211	0.8458	0.119009	
-0.285945	1.12176	0.325452	
-0.179827	1.088	0.408491	
-0.234257	1.21312	0.375398	
-0.275403	1.0393	0.403336	
0.0937412	0.930011	0.154317	
0.0461078	0.941573	0	
-0.0105385	0.962638	0.111113	
0.159132	0.984216	0.0920948	
-0.23296	0.961598	0.249877	
-0.31578	0.863109	0.155248	
-0.227254	0.962083	0.121579	
-0.170219	0.871655	0.235589	
0.0902907	1.23506	0.376077	
0.105734	1.2948	0.276786	
0.119419	1.18151	0.251425	
-0.0330822	1.21734	0.266884	
0.347642	1.19453	0.384775	
0.295334	1.24597	0.26697	
0.4284	1.25782	0.295024	
0.334194	1.15432	0.215771	
-0.444481	0.771009	0.0919014	
-0.356684	0.80649	0	
-0.31578	0.863109	0.155248	
-0.283151	0.746042	0.130367	
-0.0328721	0.629311	0	
-0.0982069	0.610875	0.136018	
0.00284042	0.609614	0.1018	
-0.00982582	0.726304	0.0884564	
-0.285945	1.12176	0.325452	
-0.193842	1.09373	0.257323	
-0.275403	1.0393	0.403336	
-0.318838	1.02278	0.259668	
-0.214341	1.27376	0	
-0.136328	1.19004	0.119282	
-0.210789	1.29041	0.168489	
-0.277342	1.24516	0.0975038	
-0.0151696	1.04156	0.198031	
0.0593465	1.06716	0.10856	
-0.00674902	1.18961	0.168493	
0.0323895	1.13978	0.258564	
-0.437078	1.24282	0.152991	
-0.274228	1.15934	0.161857	
-0.357904	1.11593	0.101286	
-0.277342	1.24516	0.0975038	
0.470916	1.16804	0.300126	
0.378383	1.07129	0.271427	
0.288623	1.13754	0.312711	
0.334194	1.15432	0.215771	
0.209063	1.27717	0.342511	
0.0902907	1.23506	0.376077	
0.125116	1.11613	0.369411	
0.22536	1.15058	0.40335	
0.0903521	1.10545	0	
0.113965	1.18028	0.121768	
0.0651412	1.2001	0	
0.0593465	1.06716	0.10856	
0.174678	1.4685	0.317109	
0.168734	1.47067	0.201781	
0.247057	1.4347	0.250499	
0.212182	1.31459	0.219285	
-0.0956709	1.23097	0.5	
-0.107214	1.16612	0.5	
-0.125823	1.17124	0.373805	
-0.0571477	1.11947	0.416349	
-0.16685	1.08834	0	
-0.156284	1.06551	0.149142	
-0.256772	1.06769	0.100506	
-0.10307	0.999921	0.0930669	
0.168914	1.06767	0.155545	
0.325159	1.05851	0.165819	
0.253711	1.11341	0.104023	
0.219623	1.16199	0.240766	
-0.0977967	1.49034	0.241226	
-0.0697093	1.32708	0.167311	
-0.0810399	1.49339	0.14715	
0.0196341	1.38361	0.225797	
-0.201912	1.36999	0	
-0.273315	1.33496	0	
-0.214341	1.27376	0	
-0.153777	1.36779	0.103264	
0.296805	0.825729	0.165597	
0.247079	0.718599	0.118367	
0.245477	0.808349	0	
0.341118	0.774271	0.0916023	
-0.00173102	1.15684	0.347507	
0.125116	1.11613	0.369411	
-0.00748686	1.04315	0.386084	
0.00363562	1.02785	0.291568	
-0.23296	0.961598	0.249877	
-0.227254	0.962083	0.121579	
-0.156284	1.06551	0.149142	
-0.10768	0.996359	0.238131	
0.168914	1.06767	0.155545	
0.0919908	1.06424	0.248206	
0.113965	1.18028	0.121768	
0.0593465	1.06716	0.10856	
0.325159	1.05851	0.165819	
0.378383	1.07129	0.271427	
0.5	1	0.2	
0.40353	1.07301	0.105949	
-0.0151696	1.04156	0.198031	
-0.0543483	1.10288	0.107179	
-0.156284	1.06551	0.149142	
-0.0611059	1.11559	0.264866	
0.064316	1.32334	0.5	
0.109201	1.35772	0.375246	
-0.00167925	1.31098	0.319981	
-0.0552231	1.38907	0.38538	
-0.278713	0.85696	0	
-0.302044	0.949354	0	
-0.31578	0.863109	0.155248	
-0.227254	0.962083	0.121579	
-0.5	1	0.4	
-0.397525	1	0.5	
-0.495012	0.929552	0.428155	
-0.363598	0.972427	0.365583	
0.0344957	0.828097	0.5	
0.101939	0.907787	0.403472	
0.103403	0.84471	0.5	
0.0581157	0.769455	0.403061	
0.347453	0.767839	0.5	
0.206682	0.777113	0.400851	
0.285177	0.816119	0.328962	
0.260241	0.698507	0.343916	
-0.23296	0.961598	0.249877	
-0.3474	1.01863	0.155865	
-0.31578	0.863109	0.155248	
-0.37095	0.93253	0.240862	
-0.0297704	0.68077	0.178611	
0.00284042	0.609614	0.1018	
0	0.5	0.2	
-0.0982069	0.610875	0.136018	
-0.0555676	1.32557	0	
-0.0372406	1.41779	0	
-0.118932	1.39861	0	
-0.153777	1.36779	0.103264	
-0.434698	1.24706	0.250499	
-0.364752	1.11394	0.23148	
-0.279096	1.24359	0.272562	
-0.343626	1.20201	0.373624	
0.168914	1.06767	0.155545	
0.208793	1.06331	0.266812	
0.325159	1.05851	0.165819	
0.219623	1.16199	0.240766	
0.0541326	0.793785	0.132666	
-0.00436862	0.872297	0.154061	
-0.0232782	0.872416	0	
-0.0724446	0.868744	0.084223	
-0.125823	1.17124	0.373805	
-0.193842	1.09373	0.257323	
-0.285945	1.12176	0.325452	
-0.234257	1.21312	0.375398	
0.5	1	0.2	
0.387337	0.975471	0.113668	
0.361351	0.935933	0.2197	
0.378383	1.07129	0.271427	
-0.0810399	1.49339	0.14715	
-0.0697093	1.32708	0.167311	
-0.153777	1.36779	0.103264	
0.0105232	1.38676	0.111861	
0.245477	0.808349	0	
0.313791	0.845535	0	
0.296805	0.825729	0.165597	
0.341118	0.774271	0.0916023	
-0.0151696	1.04156	0.198031	
-0.10768	0.996359	0.238131	
-0.110633	0.921519	0.156892	
0.0244505	0.94868	0.233905	
-0.401548	0.957663	0	
-0.3474	1.01863	0.155865	
-0.426463	1.04414	0	
-0.390863	0.914451	0.0980906	
0.470916	1.16804	0.300126	
0.347642	1.19453	0.384775	
0.288623	1.13754	0.312711	
0.378383	1.07129	0.271427	
0.265828	0.94766	0.123486	
0.177224	0.838965	0.12521	
0.0937412	0.930011	0.154317	
0.159132	0.984216	0.0920948	
-0.302044	0.949354	0	
-0.344127	0.887773	0	
-0.278713	0.85696	0	
-0.31578	0.863109	0.155248	
-0.274228	1.15934	0.161857	
-0.136328	1.19004	0.119282	
-0.156284	1.06551	0.149142	
-0.256772	1.06769	0.100506	
-0.0295403	1.22514	0	
-0.119993	1.24669	0	
-0.136328	1.19004	0.119282	
0.00439522	1.27731	0.103072	
-0.0810399	1.49339	0.14715	
0.0196341	1.38361	0.225797	
-0.0697093	1.32708	0.167311	
0.0105232	1.38676	0.111861	
-0.171353	1.46972	0.161666	
-0.0697093	1.32708	0.167311	
-0.0964049	1.37384	0.276475	
-0.193559	1.35773	0.245031	
0.208793	1.06331	0.266812	
0.378383	1.07129	0.271427	
0.288623	1.13754	0.312711	
0.284123	1.06741	0.387999	
-0.278713	0.85696	0	
-0.31578	0.863109	0.155248	
-0.356684	0.80649	0	
-0.283151	0.746042	0.130367	
-0.125823	1.17124	0.373805	
-0.0850696	1.27829	0.394238	
-0.00173102	1.15684	0.347507	
-0.0330822	1.21734	0.266884	
0.226544	0.947552	0.250202	
0.203143	1.00597	0.37146	
0.347602	0.985936	0.348343	
0.208793	1.06331	0.266812	
0.0937412	0.930011	0.154317	
-0.0105385	0.962638	0.111113	
0.0593465	1.06716	0.10856	
0.159132	0.984216	0.0920948	
-0.152126	0.632735	0.5	
-0.144862	0.521445	0.421652	
-0.243391	0.563238	0.403062	
-0.153774	0.693588	0.346551	
0.0919908	1.06424	0.248206	
0.00363562	1.02785	0.291568	
0.125116	1.11613	0.369411	
0.0323895	1.13978	0.258564	
-0.00674902	1.18961	0.168493	
-0.136328	1.19004	0.119282	
-0.0697093	1.32708	0.167311	
0.00439522	1.27731	0.103072	
-0.0956709	1.23097	0.5	
-0.125823	1.17124	0.373805	
-0.0850696	1.27829	0.394238	
-0.0571477	1.11947	0.416349	
0.23097	0.904329	0.5	
0.185939	0.963014	0.5	
0.25	1	0.5	
0.211575	0.889225	0.384788	
-0.0369856	0.814061	0.5	
-0.0862712	0.770823	0.389289	
-0.00643767	0.847524	0.3797	
0.0581157	0.769455	0.403061	
-0.144063	0.852748	0.341365	
-0.00643767	0.847524	0.25115	
-0.081357	0.751661	0.265055	
-0.0821557	0.901585	0.243527	
0.347602	0.985936	0.348343	
0.378383	1.07129	0.271427	
0.208793	1.06331	0.266812	
0.284123	1.06741	0.387999	
0.185939	0.963014	0.5	
0.203143	1.00597	0.37146	
0.25	1	0.5	
0.211575	0.889225	0.384788	
-0.168688	0.718299	0	
-0.283151	0.746042	0.130367	
-0.183989	0.672241	0.119932	
-0.111014	0.733523	0.0849706	
-0.0555676	1.32557	0	
-0.0372406	1.41779	0	
-0.153777	1.36779	0.103264	
0.0105232	1.38676	0.111861	
-0.0810399	1.49339	0.14715	
-0.0977967	1.49034	0.241226	
-0.171353	1.46972	0.161666	
-0.0697093	1.32708	0.167311	
-0.23296	0.961598	0.249877	
-0.110633	0.921519	0.156892	
-0.227254	0.962083	0.121579	
-0.10768	0.996359	0.238131	
-0.328716	1.37676	0.246468	
-0.386792	1.31685	0.198616	
-0.210789	1.29041	0.168489	
-0.279096	1.24359	0.272562	
0.00183684	0.777669	0	
0.0541326	0.793785	0.132666	
-0.0232782	0.872416	0	
-0.0724446	0.868744	0.084223	
0.028723	1.17517	0.5	
-0.00173102	1.15684	0.347507	
0.000305103	1.09462	0.5	
-0.0571477	1.11947	0.416349	
-0.168688	0.718299	0	
-0.196211	0.8458	0.119009	
-0.283151	0.746042	0.130367	
-0.111014	0.733523	0.0849706	
0.164574	0.7464	0.211103	
0.121965	0.82524	0.342904	
0.106858	0.844305	0.230248	
0.0468326	0.745128	0.237913	
-0.328307	1.16356	0	
-0.257956	1.11632	0	
-0.26105	1.2034	0	
-0.274228	1.15934	0.161857	
-0.171353	1.46972	0.161666	
-0.153777	1.36779	0.103264	
-0.0697093	1.32708	0.167311	
-0.193559	1.35773	0.245031	
-0.437078	1.24282	0.152991	
-0.274228	1.15934	0.161857	
-0.364752	1.11394	0.23148	
-0.357904	1.11593	0.101286	
-0.156284	1.06551	0.149142	
-0.227254	0.962083	0.121579	
-0.110633	0.921519	0.156892	
-0.10768	0.996359	0.238131	
0.203143	1.00597	0.37146	
0.211575	0.889225	0.384788	
0.185939	0.963014	0.5	
0.101939	0.907787	0.403472	
0.278087	0.721913	0.5	
0.347453	0.767839	0.5	
0.386505	0.682803	0.431175	
0.260241	0.698507	0.343916	
-0.493437	1.08075	0.154224	
-0.5	1	0.2	
-0.3474	1.01863	0.155865	
-0.364752	1.11394	0.23148	
-0.493315	0.918514	0.152319	
-0.5	1	0.1	
-0.5	1	0.2	
-0.3474	1.01863	0.155865	
-0.31578	0.863109	0.155248	
-0.196211	0.8458	0.119009	
-0.227254	0.962083	0.121579	
-0.170219	0.871655	0.235589	
0.5	1	0.4	
0.493389	0.91896	0.35285	
0.495293	0.931554	0.431403	
0.347602	0.985936	0.348343	
-0.31578	0.863109	0.155248	
-0.283151	0.746042	0.130367	
-0.278713	0.85696	0	
-0.196211	0.8458	0.119009	
0.168914	1.06767	0.155545	
0.113965	1.18028	0.121768	
0.260232	1.21075	0.160089	
0.253711	1.11341	0.104023	
0.164797	0.822415	0	
0.0712814	0.846848	0	
0.0541326	0.793785	0.132666	
0.177224	0.838965	0.12521	
0.347453	0.767839	0.5	
0.278087	0.721913	0.5	
0.206682	0.777113	0.400851	
0.260241	0.698507	0.343916	
-0.470668	0.831266	0.298219	
-0.37095	0.93253	0.240862	
-0.296327	0.833736	0.292179	
-0.332607	0.773484	0.222023	
0.288623	1.13754	0.312711	
0.295334	1.24597	0.26697	
0.347642	1.19453	0.384775	
0.334194	1.15432	0.215771	
-0.285945	1.12176	0.325452	
-0.193842	1.09373	0.257323	
-0.279096	1.24359	0.272562	
-0.234257	1.21312	0.375398	
-0.189227	0.766031	0.208899	
-0.196211	0.8458	0.119009	
-0.31578	0.863109	0.155248	
-0.170219	0.871655	0.235589	
-0.0151696	1.04156	0.198031	
-0.156284	1.06551	0.149142	
-0.10768	0.996359	0.238131	
-0.0611059	1.11559	0.264866	
-0.0151696	1.04156	0.198031	
-0.110633	0.921519	0.156892	
-0.0105385	0.962638	0.111113	
0.0244505	0.94868	0.233905	
-0.00167925	1.31098	0.319981	
0.109201	1.35772	0.375246	
0.064316	1.32334	0.5	
0.0902907	1.23506	0.376077	
0.4284	0.742176	0.204976	
0.450285	0.782644	0.144698	
0.415735	0.722215	0.134138	
0.341118	0.774271	0.0916023	
-0.493315	0.918514	0.152319	
-0.3474	1.01863	0.155865	
-0.5	1	0.2	
-0.37095	0.93253	0.240862	
0.276476	1.05355	0	
0.325159	1.05851	0.165819	
0.346509	1.02379	0	
0.40353	1.07301	0.105949	
0	0.5	0.3	
-0.0977967	0.509657	0.258774	
-0.0810399	0.506611	0.35285	
-0.039093	0.610067	0.388942	
-0.5	1	0.1	
-0.401548	0.957663	0	
-0.426463	1.04414	0	
-0.390863	0.914451	0.0980906	
-0.437078	1.24282	0.152991	
-0.357904	1.11593	0.101286	
-0.440961	1.2357	0.068569	
-0.277342	1.24516	0.0975038	
-0.493437	0.919252	0.345776	
-0.37095	0.93253	0.240862	
-0.363598	0.972427	0.365583	
-0.351645	0.874975	0.390413	
-0.0151696	1.04156	0.198031	
0.0919908	1.06424	0.248206	
0.0593465	1.06716	0.10856	
0.0323895	1.13978	0.258564	
0.436762	0.756609	0.403062	
0.285177	0.816119	0.328962	
0.347453	0.767839	0.5	
0.368617	0.876452	0.385763	
0.450285	1.21736	0.355302	
0.4284	1.25782	0.295024	
0.470916	1.16804	0.300126	
0.347642	1.19453	0.384775	
-0.31578	0.863109	0.155248	
-0.296327	0.833736	0.292179	
-0.23296	0.961598	0.249877	
-0.37095	0.93253	0.240862	
-0.302044	0.949354	0	
-0.3474	1.01863	0.155865	
-0.227254	0.962083	0.121579	
-0.256772	1.06769	0.100506	
-0.382289	1.08918	0.382504	
-0.275403	1.0393	0.403336	
-0.285945	1.12176	0.325452	
-0.343626	1.20201	0.373624	
0.325159	1.05851	0.165819	
0.276476	1.05355	0	
0.265828	0.94766	0.123486	
0.253711	1.11341	0.104023	
0.125116	1.11613	0.369411	
0.0761103	0.977349	0.33014	
-0.00748686	1.04315	0.386084	
0.00363562	1.02785	0.291568	
0.316847	1.38679	0.198616	
0.295334	1.24597	0.26697	
0.212182	1.31459	0.219285	
0.28898	1.28652	0.0949489	
0.260232	1.21075	0.160089	
0.113965	1.18028	0.121768	
0.168914	1.06767	0.155545	
0.219623	1.16199	0.240766	
-0.0638367	0.704239	0	
-0.0982069	0.610875	0.136018	
-0.0328721	0.629311	0	
-0.00982582	0.726304	0.0884564	
0.247079	0.718599	0.118367	
0.278655	0.736565	0.241439	
0.164574	0.7464	0.211103	
0.15722	0.635104	0.236843	
-0.134745	1.19543	0.248773	
-0.18052	1.3078	0.334608	
-0.279096	1.24359	0.272562	
-0.234257	1.21312	0.375398	
-0.257956	1.11632	0	
-0.16685	1.08834	0	
-0.18644	1.1823	0	
-0.256772	1.06769	0.100506	
-0.00643767	0.847524	0.3797	
-0.045108	0.948191	0.315425	
-0.144063	0.852748	0.341365	
-0.087284	0.884388	0.408402	
0.168914	1.06767	0.155545	
0.0593465	1.06716	0.10856	
0.184962	1.07993	0	
0.159132	0.984216	0.0920948	
-0.26105	1.2034	0	
-0.328307	1.16356	0	
-0.274228	1.15934	0.161857	
-0.277342	1.24516	0.0975038	
-0.23296	0.961598	0.249877	
-0.10768	0.996359	0.238131	
-0.193842	1.09373	0.257323	
-0.140073	0.942584	0.309826	
-0.243391	1.43676	0.0969381	
-0.273315	1.33496	0	
-0.201912	1.36999	0	
-0.153777	1.36779	0.103264	
0.125116	1.11613	0.369411	
0.0919908	1.06424	0.248206	
0.0761103	0.977349	0.33014	
0.00363562	1.02785	0.291568	
0.0344957	0.828097	0.5	
-0.00643767	0.847524	0.3797	
0.101939	0.907787	0.403472	
0.0581157	0.769455	0.403061	
-0.0392044	1.16291	0.5	
-0.00173102	1.15684	0.347507	
0.028723	1.17517	0.5	
-0.0571477	1.11947	0.416349	
0.228991	1.44448	0.408099	
0.209063	1.27717	0.342511	
0.232161	1.34745	0.5	
0.109201	1.35772	0.375246	
0.428195	1.25817	0.201755	
0.260232	1.21075	0.160089	
0.353151	1.15839	0.109095	
0.334194	1.15432	0.215771	
-0.227254	0.962083	0.121579	
-0.256772	1.06769	0.100506	
-0.156284	1.06551	0.149142	
-0.10307	0.999921	0.0930669	
-0.261345	0.769964	0	
-0.283151	0.746042	0.130367	
-0.168688	0.718299	0	
-0.196211	0.8458	0.119009	
-0.0977967	1.49034	0.241226	
-0.0964049	1.37384	0.276475	
-0.0697093	1.32708	0.167311	
0.0196341	1.38361	0.225797	
0.158056	1.17188	0	
0.0903521	1.10545	0	
0.184962	1.07993	0	
0.113965	1.18028	0.121768	
0.133074	1.2641	0	
0.113965	1.18028	0.121768	
0.098462	1.32087	0.159093	
0.00439522	1.27731	0.103072	
-0.110633	0.921519	0.156892	
0.0244505	0.94868	0.233905	
-0.10768	0.996359	0.238131	
-0.0821557	0.901585	0.243527	
0.247868	1.14631	0	
0.253711	1.11341	0.104023	
0.300884	1.19872	0	
0.189162	1.24479	0.0938772	
0.0814864	0.506685	0.152319	
0.0452903	0.623513	0.25784	
0.0999617	0.645199	0.138238	
0.00284042	0.609614	0.1018	
-0.176777	0.823223	0.5	
-0.0862712	0.770823	0.389289	
-0.144063	0.852748	0.341365	
-0.087284	0.884388	0.408402	
0.278655	0.736565	0.241439	
0.15722	0.635104	0.236843	
0.247057	0.565302	0.249501	
0.260241	0.698507	0.343916	
-0.00643767	0.847524	0.3797	
-0.0862712	0.770823	0.389289	
-0.081357	0.751661	0.265055	
0.0347483	0.794732	0.315425	
0.212182	1.31459	0.219285	
0.295334	1.24597	0.26697	
0.260232	1.21075	0.160089	
0.28898	1.28652	0.0949489	
0.119419	1.18151	0.251425	
0.113965	1.18028	0.121768	
0.168914	1.06767	0.155545	
0.0919908	1.06424	0.248206	
0.0712814	0.846848	0	
-0.0232782	0.872416	0	
0.00183684	0.777669	0	
0.0541326	0.793785	0.132666	
-0.117671	0.89803	0	
-0.110633	0.921519	0.156892	
-0.196211	0.8458	0.119009	
-0.0724446	0.868744	0.084223	
-0.16685	1.08834	0	
-0.0983601	1.15643	0	
-0.136328	1.19004	0.119282	
-0.0543483	1.10288	0.107179	
0.0344957	0.828097	0.5	
-0.00643767	0.847524	0.3797	
0.0634445	0.898618	0.5	
0.101939	0.907787	0.403472	
-0.0151696	1.04156	0.198031	
0.0593465	1.06716	0.10856	
0.0937412	0.930011	0.154317	
-0.0105385	0.962638	0.111113	
-0.274228	1.15934	0.161857	
-0.279096	1.24359	0.272562	
-0.285945	1.12176	0.325452	
-0.193842	1.09373	0.257323	
-0.125823	1.17124	0.373805	
-0.234257	1.21312	0.375398	
-0.285945	1.12176	0.325452	
-0.179827	1.088	0.408491	
0.228991	1.44448	0.408099	
0.25658	1.42915	0.33124	
0.209063	1.27717	0.342511	
0.109201	1.35772	0.375246	
-0.125823	1.17124	0.373805	
-0.193842	1.09373	0.257323	
-0.115695	1.05029	0.334241	
-0.179827	1.088	0.408491	
0.125116	1.11613	0.369411	
0.22536	1.15058	0.40335	
0.208793	1.06331	0.266812	
0.219623	1.16199	0.240766	
0.495293	0.931554	0.431403	
0.347602	0.985936	0.348343	
0.493389	0.91896	0.35285	
0.368617	0.876452	0.385763	
0.265828	0.94766	0.123486	
0.253711	1.11341	0.104023	
0.276476	1.05355	0	
0.159132	0.984216	0.0920948	
0	0.5	0.2	
-0.0297704	0.68077	0.178611	
0.0452903	0.623513	0.25784	
0.00284042	0.609614	0.1018	
0.235698	0.559039	0.431431	
0.153328	0.52409	0.40763	
0.152126	0.632735	0.5	
0.151014	0.679593	0.343049	
-0.317197	1.38651	0.0688254	
-0.273315	1.33496	0	
-0.243391	1.43676	0.0969381	
-0.153777	1.36779	0.103264	
-0.00173102	1.15684	0.347507	
-0.00748686	1.04315	0.386084	
0.000305103	1.09462	0.5	
-0.0571477	1.11947	0.416349	
-0.302044	0.949354	0	
-0.227254	0.962083	0.121579	
-0.3474	1.01863	0.155865	
-0.390863	0.914451	0.0980906	
-0.237047	1.02014	0	
-0.256772	1.06769	0.100506	
-0.227254	0.962083	0.121579	
-0.10307	0.999921	0.0930669	
-0.171353	1.46972	0.161666	
-0.0697093	1.32708	0.167311	
-0.0977967	1.49034	0.241226	
-0.0964049	1.37384	0.276475	
0.323338	0.935684	0.5	
0.211575	0.889225	0.384788	
0.347602	0.985936	0.348343	
0.368617	0.876452	0.385763	
-0.217356	1.45028	0.355302	
-0.277785	1.41573	0.365862	
-0.257824	1.4284	0.295024	
-0.18052	1.3078	0.334608	
0.317206	0.613502	0.200322	
0.247057	0.565302	0.249501	
0.278655	0.736565	0.241439	
0.15722	0.635104	0.236843	
-0.444481	0.771009	0.0919014	
-0.31578	0.863109	0.155248	
-0.429146	0.74342	0.16876	
-0.283151	0.746042	0.130367	
0.260232	1.21075	0.160089	
0.168914	1.06767	0.155545	
0.253711	1.11341	0.104023	
0.219623	1.16199	0.240766	
0.288623	1.13754	0.312711	
0.325159	1.05851	0.165819	
0.208793	1.06331	0.266812	
0.334194	1.15432	0.215771	
-0.193842	1.09373	0.257323	
-0.364752	1.11394	0.23148	
-0.274228	1.15934	0.161857	
-0.318838	1.02278	0.259668	
0.347602	0.985936	0.348343	
0.208793	1.06331	0.266812	
0.203143	1.00597	0.37146	
0.284123	1.06741	0.387999	
-0.171353	1.46972	0.161666	
-0.0810399	1.49339	0.14715	
-0.0697093	1.32708	0.167311	
-0.153777	1.36779	0.103264	
0.098462	1.32087	0.159093	
0.113965	1.18028	0.121768	
0.119419	1.18151	0.251425	
0.0143983	1.28276	0.204525	
0.168914	1.06767	0.155545	
0.159132	0.984216	0.0920948	
0.265828	0.94766	0.123486	
0.134932	0.977505	0.230093	
-0.117671	0.89803	0	
-0.142648	0.992859	0	
-0.211369	0.923885	0	
-0.10307	0.999921	0.0930669	
-0.144862	0.521445	0.421652	
-0.171353	0.530279	0.338334	
-0.153774	0.693588	0.346551	
-0.039093	0.610067	0.388942	
0.183156	1.27411	0.5	
0.176777	1.17678	0.5	
0.0902907	1.23506	0.376077	
0.22536	1.15058	0.40335	
0.164797	0.822415	0	
0.177224	0.838965	0.12521	
0.0541326	0.793785	0.132666	
0.142608	0.739294	0.106454	
-0.495012	1.07045	0.0718447	
-0.493437	1.08075	0.154224	
-0.5	1	0.1	
-0.3474	1.01863	0.155865	
-0.495012	1.07045	0.0718447	
-0.493437	1.08075	0.154224	
-0.3474	1.01863	0.155865	
-0.357904	1.11593	0.101286	
0.0712814	0.846848	0	
0.164797	0.822415	0	
0.0541326	0.793785	0.132666	
0.142608	0.739294	0.106454	
-0.00674902	1.18961	0.168493	
0.119419	1.18151	0.251425	
0.113965	1.18028	0.121768	
0.0143983	1.28276	0.204525	
0.0937412	0.930011	0.154317	
0.168914	1.06767	0.155545	
0.0593465	1.06716	0.10856	
0.134932	0.977505	0.230093	
-0.0555676	1.32557	0	
-0.153777	1.36779	0.103264	
-0.0697093	1.32708	0.167311	
0.0105232	1.38676	0.111861	
-0.356684	0.80649	0	
-0.386831	0.6832	0.104097	
-0.331361	0.727047	0	
-0.283151	0.746042	0.130367	
0.380873	1.32394	0.152261	
0.428195	1.25817	0.201755	
0.260232	1.21075	0.160089	
0.353151	1.15839	0.109095	
0.300884	1.19872	0	
0.253711	1.11341	0.104023	
0.260232	1.21075	0.160089	
0.189162	1.24479	0.0938772	
0.0919908	1.06424	0.248206	
0.208793	1.06331	0.266812	
0.0761103	0.977349	0.33014	
0.134932	0.977505	0.230093	
0.133074	1.2641	0	
0.098462	1.32087	0.159093	
0.113965	1.18028	0.121768	
0.189162	1.24479	0.0938772	
0.226544	0.947552	0.250202	
0.168914	1.06767	0.155545	
0.265828	0.94766	0.123486	
0.134932	0.977505	0.230093	
-0.142648	0.992859	0	
-0.237047	1.02014	0	
-0.227254	0.962083	0.121579	
-0.10307	0.999921	0.0930669	
-0.0964049	1.37384	0.276475	
-0.0330822	1.21734	0.266884	
-0.0697093	1.32708	0.167311	
0.0143983	1.28276	0.204525	
0.346509	1.02379	0	
0.325159	1.05851	0.165819	
0.387337	0.975471	0.113668	
0.40353	1.07301	0.105949	
-0.493315	0.918514	0.152319	
-0.5	1	0.1	
-0.3474	1.01863	0.155865	
-0.390863	0.914451	0.0980906	
-0.317197	1.38651	0.0688254	
-0.243391	1.43676	0.0969381	
-0.210789	1.29041	0.168489	
-0.153777	1.36779	0.103264	
0.361351	0.935933	0.2197	
0.215953	0.839226	0.238202	
0.296805	0.825729	0.165597	
0.358257	0.834187	0.252847	
0.450285	0.782644	0.144698	
0.296805	0.825729	0.165597	
0.4284	0.742176	0.204976	
0.358257	0.834187	0.252847	
-0.5	1	0.4	
-0.397525	1	0.5	
-0.363598	0.972427	0.365583	
-0.382289	1.08918	0.382504	
-0.356684	0.80649	0	
-0.444481	0.771009	0.0919014	
-0.31578	0.863109	0.155248	
-0.390863	0.914451	0.0980906	
0.316847	1.38679	0.198616	
0.380873	1.32394	0.152261	
0.295334	1.24597	0.26697	
0.28898	1.28652	0.0949489	
0.0868435	1.13736	0.5	
0.176777	1.17678	0.5	
0.125116	1.11613	0.369411	
0.0902907	1.23506	0.376077	
-0.156284	1.06551	0.149142	
-0.193842	1.09373	0.257323	
-0.274228	1.15934	0.161857	
-0.256772	1.06769	0.100506	
-0.278713	0.85696	0	
-0.344127	0.887773	0	
-0.356684	0.80649	0	
-0.31578	0.863109	0.155248	
0.325159	1.05851	0.165819	
0.288623	1.13754	0.312711	
0.208793	1.06331	0.266812	
0.378383	1.07129	0.271427	
-0.279096	1.24359	0.272562	
-0.193559	1.35773	0.245031	
-0.328716	1.37676	0.246468	
-0.263985	1.32297	0.375811	
0.0761103	0.977349	0.33014	
0.208793	1.06331	0.266812	
0.203143	1.00597	0.37146	
0.134932	0.977505	0.230093	
-0.470668	0.831266	0.298219	
-0.296327	0.833736	0.292179	
-0.37095	0.93253	0.240862	
-0.351645	0.874975	0.390413	
0.119419	1.18151	0.251425	
0.212182	1.31459	0.219285	
0.098462	1.32087	0.159093	
0.105734	1.2948	0.276786	
0.276476	1.05355	0	
0.253711	1.11341	0.104023	
0.325159	1.05851	0.165819	
0.40353	1.07301	0.105949	
0.0999617	0.645199	0.138238	
0.247079	0.718599	0.118367	
0.164574	0.7464	0.211103	
0.15722	0.635104	0.236843	
0.114055	1.37411	0	
0.098462	1.32087	0.159093	
0.153328	1.47591	0.0923699	
0.0105232	1.38676	0.111861	
0.0999617	0.645199	0.138238	
0.142608	0.739294	0.106454	
0.0248177	0.686626	0	
-0.00982582	0.726304	0.0884564	
0.325159	1.05851	0.165819	
0.265828	0.94766	0.123486	
0.168914	1.06767	0.155545	
0.253711	1.11341	0.104023	
0.490343	0.902203	0.258774	
0.493389	0.91896	0.35285	
0.5	1	0.3	
0.347602	0.985936	0.348343	
-0.363598	0.972427	0.365583	
-0.203766	0.963562	0.377533	
-0.23296	0.961598	0.249877	
-0.318838	1.02278	0.259668	
0	1.5	0.3	
0.0814864	1.49332	0.347681	
0	1.5	0.4	
-0.0552231	1.38907	0.38538	
0.296805	0.825729	0.165597	
0.341118	0.774271	0.0916023	
0.313791	0.845535	0	
0.355602	0.87751	0.0966392	
-0.23296	0.961598	0.249877	
-0.156284	1.06551	0.149142	
-0.193842	1.09373	0.257323	
-0.10768	0.996359	0.238131	
0.176777	1.17678	0.5	
0.125116	1.11613	0.369411	
0.0902907	1.23506	0.376077	
0.22536	1.15058	0.40335	
0.325159	1.05851	0.165819	
0.334194	1.15432	0.215771	
0.378383	1.07129	0.271427	
0.40353	1.07301	0.105949	
0.00183684	0.777669	0	
-0.00982582	0.726304	0.0884564	
0.0541326	0.793785	0.132666	
-0.0724446	0.868744	0.084223	
0.4284	0.742176	0.204976	
0.296805	0.825729	0.165597	
0.450285	0.782644	0.144698	
0.341118	0.774271	0.0916023	
-0.193842	1.09373	0.257323	
-0.10768	0.996359	0.238131	
-0.156284	1.06551	0.149142	
-0.0611059	1.11559	0.264866	
0.274113	1.18316	0.5	
0.281092	1.28109	0.5	
0.347642	1.19453	0.384775	
0.22536	1.15058	0.40335	
0.121965	0.82524	0.342904	
0.151014	0.679593	0.343049	
0.0581157	0.769455	0.403061	
0.0347483	0.794732	0.315425	
0.226544	0.947552	0.250202	
0.285177	0.816119	0.328962	
0.215953	0.839226	0.238202	
0.358257	0.834187	0.252847	
0.0815241	1.40985	0.5	
8.18872e-17	1.39822	0.5	
0.0728232	1.49467	0.426459	
0.109201	1.35772	0.375246	
0.428195	1.25817	0.201755	
0.295334	1.24597	0.26697	
0.260232	1.21075	0.160089	
0.334194	1.15432	0.215771	
0.208793	1.06331	0.266812	
0.22536	1.15058	0.40335	
0.288623	1.13754	0.312711	
0.219623	1.16199	0.240766	
0.0209546	1.03628	0	
0.0461078	0.941573	0	
0.0593465	1.06716	0.10856	
-0.0105385	0.962638	0.111113	
-0.493315	0.918514	0.152319	
-0.3474	1.01863	0.155865	
-0.37095	0.93253	0.240862	
-0.390863	0.914451	0.0980906	
-0.189227	0.766031	0.208899	
-0.144063	0.852748	0.341365	
-0.081357	0.751661	0.265055	
-0.170219	0.871655	0.235589	
0.226544	0.947552	0.250202	
0.296805	0.825729	0.165597	
0.361351	0.935933	0.2197	
0.215953	0.839226	0.238202	
0.0919908	1.06424	0.248206	
0.0593465	1.06716	0.10856	
0.168914	1.06767	0.155545	
0.134932	0.977505	0.230093	
0.5	1	0.4	
0.347602	0.985936	0.348343	
0.398221	1	0.5	
0.385098	1.08722	0.383771	
0.153328	1.47591	0.0923699	
0.098462	1.32087	0.159093	
0.0807477	1.49344	0.154224	
0.0105232	1.38676	0.111861	
0.152126	0.632735	0.5	
0.151014	0.679593	0.343049	
0.153328	0.52409	0.40763	
0.0738912	0.610829	0.388761	
0.268393	0.665699	0	
0.194604	0.628812	0	
0.228991	0.555519	0.0919014	
0.247079	0.718599	0.118367	
-0.211369	0.923885	0	
-0.227254	0.962083	0.121579	
-0.278713	0.85696	0	
-0.196211	0.8458	0.119009	
0.232161	0.652547	0.5	
0.235698	0.559039	0.431431	
0.151014	0.679593	0.343049	
0.260241	0.698507	0.343916	
0.0209546	1.03628	0	
-0.0105385	0.962638	0.111113	
-0.0543483	1.10288	0.107179	
-0.10307	0.999921	0.0930669	
-0.315029	0.611726	0.0791933	
-0.277785	0.584265	0.134138	
-0.183989	0.672241	0.119932	
-0.247852	0.673084	0.199607	
-0.323338	0.935684	0.5	
-0.363598	0.972427	0.365583	
-0.203766	0.963562	0.377533	
-0.351645	0.874975	0.390413	
-0.493437	0.919252	0.345776	
-0.470668	0.831266	0.298219	
-0.37095	0.93253	0.240862	
-0.351645	0.874975	0.390413	
-0.3474	1.01863	0.155865	
-0.274228	1.15934	0.161857	
-0.364752	1.11394	0.23148	
-0.318838	1.02278	0.259668	
0.14072	0.916025	0	
0.0937412	0.930011	0.154317	
0.177224	0.838965	0.12521	
0.159132	0.984216	0.0920948	
0.235698	0.559039	0.431431	
0.152126	0.632735	0.5	
0.232161	0.652547	0.5	
0.151014	0.679593	0.343049	
0.203143	1.00597	0.37146	
0.101939	0.907787	0.403472	
0.185939	0.963014	0.5	
0.113162	1.01769	0.414132	
-0.115695	1.05029	0.334241	
-0.0611059	1.11559	0.264866	
-0.125823	1.17124	0.373805	
-0.0571477	1.11947	0.416349	
-0.302044	0.949354	0	
-0.31578	0.863109	0.155248	
-0.227254	0.962083	0.121579	
-0.390863	0.914451	0.0980906	
0.5	1	0.3	
0.490343	0.902203	0.258774	
0.347602	0.985936	0.348343	
0.361351	0.935933	0.2197	
-0.389036	1.20743	0	
-0.357904	1.11593	0.101286	
-0.328307	1.16356	0	
-0.277342	1.24516	0.0975038	
0.316847	0.613208	0.301384	
0.278655	0.736565	0.241439	
0.247057	0.565302	0.249501	
0.260241	0.698507	0.343916	
0.115537	1.01075	0	
0.184962	1.07993	0	
0.0593465	1.06716	0.10856	
0.159132	0.984216	0.0920948	
0	0.75	0.5	
-0.0862712	0.770823	0.389289	
-0.0369856	0.814061	0.5	
0.0581157	0.769455	0.403061	
0.470916	0.831957	0.199874	
0.358257	0.834187	0.252847	
0.361351	0.935933	0.2197	
0.355602	0.87751	0.0966392	
0.0868435	1.13736	0.5	
0.0956709	1.23097	0.5	
0.176777	1.17678	0.5	
0.0902907	1.23506	0.376077	
-0.302044	0.949354	0	
-0.344127	0.887773	0	
-0.31578	0.863109	0.155248	
-0.390863	0.914451	0.0980906	
8.18872e-17	1.39822	0.5	
0.109201	1.35772	0.375246	
0.064316	1.32334	0.5	
-0.0552231	1.38907	0.38538	
0.380873	1.32394	0.152261	
0.260232	1.21075	0.160089	
0.295334	1.24597	0.26697	
0.28898	1.28652	0.0949489	
-0.142648	0.992859	0	
-0.227254	0.962083	0.121579	
-0.211369	0.923885	0	
-0.10307	0.999921	0.0930669	
-0.0297704	0.68077	0.178611	
0.0999617	0.645199	0.138238	
0.0541326	0.793785	0.132666	
0.0468326	0.745128	0.237913	
-0.0297704	0.68077	0.178611	
-0.183989	0.672241	0.119932	
-0.136534	0.645188	0.231761	
-0.111014	0.733523	0.0849706	
-0.00167925	1.31098	0.319981	
0.105734	1.2948	0.276786	
0.0902907	1.23506	0.376077	
-0.0330822	1.21734	0.266884	
0.323338	0.935684	0.5	
0.23097	0.904329	0.5	
0.25	1	0.5	
0.211575	0.889225	0.384788	
-0.274113	1.18316	0.5	
-0.363339	1.1505	0.5	
-0.382289	1.08918	0.382504	
-0.275403	1.0393	0.403336	
-0.274113	1.18316	0.5	
-0.275403	1.0393	0.403336	
-0.382289	1.08918	0.382504	
-0.343626	1.20201	0.373624	
0.0651412	1.2001	0	
0.113965	1.18028	0.121768	
0.133074	1.2641	0	
0.00439522	1.27731	0.103072	
-0.426463	1.04414	0	
-0.3474	1.01863	0.155865	
-0.337562	1.05476	0	
-0.357904	1.11593	0.101286	
0.168914	1.06767	0.155545	
0.253711	1.11341	0.104023	
0.265828	0.94766	0.123486	
0.159132	0.984216	0.0920948	
0.164574	0.7464	0.211103	
0.15722	0.635104	0.236843	
0.278655	0.736565	0.241439	
0.260241	0.698507	0.343916	
0.23097	1.09567	0.5	
0.203143	1.00597	0.37146	
0.157632	1.10533	0.5	
0.22536	1.15058	0.40335	
0.125573	0.58604	0	
0.0404524	0.58928	0	
0.0728232	0.505332	0.0735406	
0.0999617	0.645199	0.138238	
0.0634445	0.898618	0.5	
0.0344957	0.828097	0.5	
-0.0218546	0.89013	0.5	
-0.00643767	0.847524	0.3797	
-0.064316	1.32334	0.5	
0.064316	1.32334	0.5	
-0.0850696	1.27829	0.394238	
-0.0552231	1.38907	0.38538	
0	1.25	0.5	
-0.064316	1.32334	0.5	
0.064316	1.32334	0.5	
-0.0850696	1.27829	0.394238	
0.0209546	1.03628	0	
0.0461078	0.941573	0	
0.115537	1.01075	0	
0.0593465	1.06716	0.10856	
0.114055	1.37411	0	
0.153328	1.47591	0.0923699	
0.098462	1.32087	0.159093	
0.190875	1.34709	0.10503	
0.115537	1.01075	0	
0.184962	1.07993	0	
0.0903521	1.10545	0	
0.0593465	1.06716	0.10856	
0.380873	1.32394	0.152261	
0.353151	1.15839	0.109095	
0.260232	1.21075	0.160089	
0.28898	1.28652	0.0949489	
0.23097	1.09567	0.5	
0.163502	1.02984	0.5	
0.157632	1.10533	0.5	
0.203143	1.00597	0.37146	
-0.323338	0.935684	0.5	
-0.203766	0.963562	0.377533	
-0.239777	0.86007	0.398057	
-0.351645	0.874975	0.390413	
0.0854243	1.49265	0.251403	
0.174678	1.4685	0.317109	
0.0814864	1.49332	0.347681	
0.109201	1.35772	0.375246	
0.203143	1.00597	0.37146	
0.125116	1.11613	0.369411	
0.157632	1.10533	0.5	
0.22536	1.15058	0.40335	
-0.274113	1.18316	0.5	
-0.382289	1.08918	0.382504	
-0.363339	1.1505	0.5	
-0.343626	1.20201	0.373624	
-0.217356	1.45028	0.355302	
-0.277785	1.41573	0.365862	
-0.18052	1.3078	0.334608	
-0.166036	1.37976	0.398541	
-0.5	1	0.3	
-0.363598	0.972427	0.365583	
-0.493437	0.919252	0.345776	
-0.37095	0.93253	0.240862	
0.183156	1.27411	0.5	
0.0902907	1.23506	0.376077	
0.209063	1.27717	0.342511	
0.22536	1.15058	0.40335	
-0.00167925	1.31098	0.319981	
0.0196341	1.38361	0.225797	
-0.0964049	1.37384	0.276475	
-0.0552231	1.38907	0.38538	
0.0344957	0.828097	0.5	
0.0634445	0.898618	0.5	
0.103403	0.84471	0.5	
0.101939	0.907787	0.403472	
-0.00167925	1.31098	0.319981	
-0.0330822	1.21734	0.266884	
-0.0964049	1.37384	0.276475	
0.0143983	1.28276	0.204525	
0.325159	1.05851	0.165819	
0.288623	1.13754	0.312711	
0.378383	1.07129	0.271427	
0.334194	1.15432	0.215771	
-0.386792	1.31685	0.198616	
-0.323938	1.38087	0.152261	
-0.328716	1.37676	0.246468	
-0.210789	1.29041	0.168489	
0.183156	1.27411	0.5	
0.209063	1.27717	0.342511	
0.281092	1.28109	0.5	
0.22536	1.15058	0.40335	
-0.210789	1.29041	0.168489	
-0.153777	1.36779	0.103264	
-0.214341	1.27376	0	
-0.277342	1.24516	0.0975038	
-0.0956709	1.23097	0.5	
-0.0850696	1.27829	0.394238	
-0.0392044	1.16291	0.5	
-0.0571477	1.11947	0.416349	
-0.323938	0.619127	0.347739	
-0.153774	0.693588	0.346551	
-0.258165	0.571805	0.298245	
-0.259603	0.71434	0.292274	
-0.278713	0.85696	0	
-0.283151	0.746042	0.130367	
-0.261345	0.769964	0	
-0.196211	0.8458	0.119009	
0.288623	1.13754	0.312711	
0.22536	1.15058	0.40335	
0.209063	1.27717	0.342511	
0.219623	1.16199	0.240766	
0.5	1	0.3	
0.361351	0.935933	0.2197	
0.347602	0.985936	0.348343	
0.378383	1.07129	0.271427	
0	1.5	0.3	
-0.0964049	1.37384	0.276475	
0.0196341	1.38361	0.225797	
-0.0552231	1.38907	0.38538	
0.112799	0.66644	0	
0.125573	0.58604	0	
0.194604	0.628812	0	
0.0999617	0.645199	0.138238	
-0.193842	1.09373	0.257323	
-0.179827	1.088	0.408491	
-0.285945	1.12176	0.325452	
-0.275403	1.0393	0.403336	
0.226544	0.947552	0.250202	
0.215953	0.839226	0.238202	
0.361351	0.935933	0.2197	
0.358257	0.834187	0.252847	
0.325159	1.05851	0.165819	
0.361351	0.935933	0.2197	
0.226544	0.947552	0.250202	
0.265828	0.94766	0.123486	
0.0209546	1.03628	0	
-0.0543483	1.10288	0.107179	
-0.0734441	1.06169	0	
-0.10307	0.999921	0.0930669	
0.0807477	1.49344	0.154224	
0.098462	1.32087	0.159093	
0.168734	1.47067	0.201781	
0.0196341	1.38361	0.225797	
-0.214341	1.27376	0	
-0.18644	1.1823	0	
-0.136328	1.19004	0.119282	
-0.277342	1.24516	0.0975038	
-0.274228	1.15934	0.161857	
-0.279096	1.24359	0.272562	
-0.210789	1.29041	0.168489	
-0.277342	1.24516	0.0975038	
-0.0151696	1.04156	0.198031	
-0.0105385	0.962638	0.111113	
0.0937412	0.930011	0.154317	
0.0244505	0.94868	0.233905	
-0.0833019	0.506988	0.155211	
-0.0977967	0.509657	0.258774	
0	0.5	0.2	
-0.0982069	0.610875	0.136018	
0.164574	0.7464	0.211103	
0.247079	0.718599	0.118367	
0.0999617	0.645199	0.138238	
0.142608	0.739294	0.106454	
-0.493437	0.919252	0.345776	
-0.363598	0.972427	0.365583	
-0.495012	0.929552	0.428155	
-0.351645	0.874975	0.390413	
-0.401548	0.957663	0	
-0.337562	1.05476	0	
-0.426463	1.04414	0	
-0.3474	1.01863	0.155865	
-0.323338	0.935684	0.5	
-0.203766	0.963562	0.377533	
-0.363598	0.972427	0.365583	
-0.275403	1.0393	0.403336	
-0.00167925	1.31098	0.319981	
-0.00173102	1.15684	0.347507	
-0.0850696	1.27829	0.394238	
-0.0330822	1.21734	0.266884	
0.14072	0.916025	0	
0.177224	0.838965	0.12521	
0.232997	0.88938	0	
0.159132	0.984216	0.0920948	
0.119419	1.18151	0.251425	
0.212182	1.31459	0.219285	
0.209063	1.27717	0.342511	
0.219623	1.16199	0.240766	
0.450285	0.782644	0.144698	
0.341118	0.774271	0.0916023	
0.296805	0.825729	0.165597	
0.355602	0.87751	0.0966392	
-0.386792	1.31685	0.198616	
-0.323938	1.38087	0.152261	
-0.210789	1.29041	0.168489	
-0.277342	1.24516	0.0975038	
0.380873	1.32394	0.152261	
0.260232	1.21075	0.160089	
0.428195	1.25817	0.201755	
0.295334	1.24597	0.26697	
-0.125823	1.17124	0.373805	
-0.0611059	1.11559	0.264866	
-0.134745	1.19543	0.248773	
-0.0330822	1.21734	0.266884	
0.0541326	0.793785	0.132666	
0.0999617	0.645199	0.138238	
-0.0297704	0.68077	0.178611	
-0.00982582	0.726304	0.0884564	
0.0461078	0.941573	0	
0.0937412	0.930011	0.154317	
0.14072	0.916025	0	
0.159132	0.984216	0.0920948	
-0.257956	1.11632	0	
-0.256772	1.06769	0.100506	
-0.274228	1.15934	0.161857	
-0.357904	1.11593	0.101286	
-0.363598	0.972427	0.365583	
-0.275403	1.0393	0.403336	
-0.203766	0.963562	0.377533	
-0.318838	1.02278	0.259668	
-0.493437	1.08075	0.154224	
-0.492649	1.08542	0.251403	
-0.5	1	0.2	
-0.364752	1.11394	0.23148	
0.276476	1.05355	0	
0.346509	1.02379	0	
0.337634	1.11556	0	
0.40353	1.07301	0.105949	
0.226544	0.947552	0.250202	
0.177224	0.838965	0.12521	
0.265828	0.94766	0.123486	
0.215953	0.839226	0.238202	
-0.274113	1.18316	0.5	
-0.285945	1.12176	0.325452	
-0.275403	1.0393	0.403336	
-0.343626	1.20201	0.373624	
-0.16685	1.08834	0	
-0.0543483	1.10288	0.107179	
-0.156284	1.06551	0.149142	
-0.10307	0.999921	0.0930669	
-0.468495	0.825322	0.182891	
-0.37095	0.93253	0.240862	
-0.470668	0.831266	0.298219	
-0.332607	0.773484	0.222023	
-0.0726386	0.798943	0.15243	
-0.170219	0.871655	0.235589	
-0.081357	0.751661	0.265055	
-0.0821557	0.901585	0.243527	
0.4284	1.25782	0.295024	
0.460548	1.19467	0.23433	
0.470916	1.16804	0.300126	
0.334194	1.15432	0.215771	
0.112799	0.66644	0	
0.0999617	0.645199	0.138238	
0.194604	0.628812	0	
0.142608	0.739294	0.106454	
0.0814864	0.506685	0.152319	
0	0.5	0.2	
0.0452903	0.623513	0.25784	
0.00284042	0.609614	0.1018	
0.274113	0.816844	0.5	
0.211575	0.889225	0.384788	
0.23097	0.904329	0.5	
0.368617	0.876452	0.385763	
0	0.75	0.5	
0.00505532	0.706778	0.339312	
-0.0862712	0.770823	0.389289	
0.0581157	0.769455	0.403061	
0.0209546	1.03628	0	
-0.0105385	0.962638	0.111113	
0.0593465	1.06716	0.10856	
-0.0543483	1.10288	0.107179	
0.176777	0.823223	0.5	
0.103403	0.84471	0.5	
0.141405	0.904892	0.5	
0.101939	0.907787	0.403472	
-0.183156	1.27411	0.5	
-0.0850696	1.27829	0.394238	
-0.125823	1.17124	0.373805	
-0.234257	1.21312	0.375398	
-0.331632	1.37419	0.334643	
-0.328716	1.37676	0.246468	
-0.257824	1.4284	0.295024	
-0.193559	1.35773	0.245031	
-0.171353	0.530279	0.338334	
-0.243391	0.563238	0.403062	
-0.144862	0.521445	0.421652	
-0.153774	0.693588	0.346551	
0.415735	1.27779	0.365862	
0.347642	1.19453	0.384775	
0.374193	1.33163	0.334643	
0.295334	1.24597	0.26697	
0.470916	0.831957	0.199874	
0.361351	0.935933	0.2197	
0.493012	0.916698	0.155211	
0.355602	0.87751	0.0966392	
0.490343	0.902203	0.258774	
0.469721	0.828647	0.338334	
0.368617	0.876452	0.385763	
0.358257	0.834187	0.252847	
0.285177	0.816119	0.328962	
0.368617	0.876452	0.385763	
0.428195	0.741835	0.298245	
0.358257	0.834187	0.252847	
-0.495012	0.929552	0.428155	
-0.397525	1	0.5	
-0.409849	0.918476	0.5	
-0.363598	0.972427	0.365583	
0.317206	1.3865	0.299678	
0.209063	1.27717	0.342511	
0.25658	1.42915	0.33124	
0.212182	1.31459	0.219285	
-0.261345	0.769964	0	
-0.278713	0.85696	0	
-0.356684	0.80649	0	
-0.283151	0.746042	0.130367	
-0.331632	1.37419	0.334643	
-0.328716	1.37676	0.246468	
-0.193559	1.35773	0.245031	
-0.263985	1.32297	0.375811	
-0.328716	1.37676	0.246468	
-0.279096	1.24359	0.272562	
-0.210789	1.29041	0.168489	
-0.193559	1.35773	0.245031	
0.184962	1.07993	0	
0.276476	1.05355	0	
0.253711	1.11341	0.104023	
0.159132	0.984216	0.0920948	
-0.125823	1.17124	0.373805	
-0.0850696	1.27829	0.394238	
-0.18052	1.3078	0.334608	
-0.234257	1.21312	0.375398	
-0.429146	0.74342	0.16876	
-0.283151	0.746042	0.130367	
-0.31578	0.863109	0.155248	
-0.332607	0.773484	0.222023	
0.296805	0.825729	0.165597	
0.278655	0.736565	0.241439	
0.4284	0.742176	0.204976	
0.358257	0.834187	0.252847	
0.0248177	0.686626	0	
0.0999617	0.645199	0.138238	
0.112799	0.66644	0	
0.142608	0.739294	0.106454	
0.141405	0.904892	0.5	
0.185939	0.963014	0.5	
0.211575	0.889225	0.384788	
0.101939	0.907787	0.403472	
-0.00674902	1.18961	0.168493	
-0.0543483	1.10288	0.107179	
-0.0151696	1.04156	0.198031	
-0.0611059	1.11559	0.264866	
0.164574	0.7464	0.211103	
0.151014	0.679593	0.343049	
0.15722	0.635104	0.236843	
0.260241	0.698507	0.343916	
-0.157632	0.894674	0.5	
-0.239777	0.86007	0.398057	
-0.203766	0.963562	0.377533	
-0.087284	0.884388	0.408402	
-0.00674902	1.18961	0.168493	
0.0593465	1.06716	0.10856	
-0.0151696	1.04156	0.198031	
-0.0543483	1.10288	0.107179	
-0.0151696	1.04156	0.198031	
-0.110633	0.921519	0.156892	
-0.10768	0.996359	0.238131	
-0.10307	0.999921	0.0930669	
-0.144063	0.852748	0.341365	
-0.081357	0.751661	0.265055	
-0.170219	0.871655	0.235589	
-0.0821557	0.901585	0.243527	
0.203143	1.00597	0.37146	
0.208793	1.06331	0.266812	
0.125116	1.11613	0.369411	
0.22536	1.15058	0.40335	
-0.257956	1.11632	0	
-0.274228	1.15934	0.161857	
-0.328307	1.16356	0	
-0.357904	1.11593	0.101286	
0.125573	0.58604	0	
0.0728232	0.505332	0.0735406	
0.146853	0.522052	0.0840084	
0.0999617	0.645199	0.138238	
0.347642	1.19453	0.384775	
0.378383	1.07129	0.271427	
0.470916	1.16804	0.300126	
0.385098	1.08722	0.383771	
0.380873	0.676062	0.347739	
0.285177	0.816119	0.328962	
0.428195	0.741835	0.298245	
0.278655	0.736565	0.241439	
-0.176777	0.823223	0.5	
-0.144063	0.852748	0.341365	
-0.239777	0.86007	0.398057	
-0.087284	0.884388	0.408402	
0.288623	1.13754	0.312711	
0.347642	1.19453	0.384775	
0.209063	1.27717	0.342511	
0.22536	1.15058	0.40335	
-0.331632	1.37419	0.334643	
-0.193559	1.35773	0.245031	
-0.257824	1.4284	0.295024	
-0.263985	1.32297	0.375811	
0.300884	1.19872	0	
0.353151	1.15839	0.109095	
0.260232	1.21075	0.160089	
0.253711	1.11341	0.104023	
0.323338	0.935684	0.5	
0.23097	0.904329	0.5	
0.211575	0.889225	0.384788	
0.368617	0.876452	0.385763	
0.164574	0.7464	0.211103	
0.106858	0.844305	0.230248	
0.121965	0.82524	0.342904	
0.215953	0.839226	0.238202	
-0.0956709	1.23097	0.5	
-0.107214	1.16612	0.5	
-0.176777	1.17678	0.5	
-0.125823	1.17124	0.373805	
-0.110633	0.921519	0.156892	
-0.117671	0.89803	0	
-0.10307	0.999921	0.0930669	
-0.0724446	0.868744	0.084223	
0.0344957	0.828097	0.5	
-0.0369856	0.814061	0.5	
-0.00643767	0.847524	0.3797	
0.0581157	0.769455	0.403061	
0.428195	0.741835	0.298245	
0.285177	0.816119	0.328962	
0.436762	0.756609	0.403062	
0.368617	0.876452	0.385763	
0.4284	1.25782	0.295024	
0.347642	1.19453	0.384775	
0.415735	1.27779	0.365862	
0.295334	1.24597	0.26697	
0.152393	1.36791	0.5	
0.228991	1.44448	0.408099	
0.232161	1.34745	0.5	
0.109201	1.35772	0.375246	
-0.00173102	1.15684	0.347507	
-0.0611059	1.11559	0.264866	
-0.125823	1.17124	0.373805	
-0.0330822	1.21734	0.266884	
-0.3474	1.01863	0.155865	
-0.227254	0.962083	0.121579	
-0.31578	0.863109	0.155248	
-0.390863	0.914451	0.0980906	
0.232997	0.88938	0	
0.177224	0.838965	0.12521	
0.265828	0.94766	0.123486	
0.159132	0.984216	0.0920948	
-0.183156	1.27411	0.5	
-0.0956709	1.23097	0.5	
-0.125823	1.17124	0.373805	
-0.0850696	1.27829	0.394238	
0.0452903	0.623513	0.25784	
0.15722	0.635104	0.236843	
0.151014	0.679593	0.343049	
0.0738912	0.610829	0.388761	
0.203143	1.00597	0.37146	
0.125116	1.11613	0.369411	
0.0761103	0.977349	0.33014	
0.113162	1.01769	0.414132	
-0.258165	0.571805	0.298245	
-0.153774	0.693588	0.346551	
-0.194667	0.539452	0.26567	
-0.136534	0.645188	0.231761	
0.151014	0.679593	0.343049	
0.0468326	0.745128	0.237913	
0.00505532	0.706778	0.339312	
0.0347483	0.794732	0.315425	
-0.0422582	0.562527	0	
0.00284042	0.609614	0.1018	
-0.0328721	0.629311	0	
-0.0982069	0.610875	0.136018	
-0.18052	1.3078	0.334608	
-0.193559	1.35773	0.245031	
-0.217356	1.45028	0.355302	
-0.166036	1.37976	0.398541	
-0.285945	1.12176	0.325452	
-0.234257	1.21312	0.375398	
-0.274113	1.18316	0.5	
-0.275403	1.0393	0.403336	
0.276476	1.05355	0	
0.337634	1.11556	0	
0.253711	1.11341	0.104023	
0.40353	1.07301	0.105949	
0.158056	1.17188	0	
0.113965	1.18028	0.121768	
0.253711	1.11341	0.104023	
0.189162	1.24479	0.0938772	
0.296805	0.825729	0.165597	
0.226544	0.947552	0.250202	
0.361351	0.935933	0.2197	
0.265828	0.94766	0.123486	
-0.114443	1.01484	0.5	
-0.105137	0.975975	0.404942	
-0.117202	1.0938	0.5	
-0.0571477	1.11947	0.416349	
-0.323938	0.619127	0.347739	
-0.243391	0.563238	0.403062	
-0.258165	0.571805	0.298245	
-0.153774	0.693588	0.346551	
-0.115695	1.05029	0.334241	
-0.179827	1.088	0.408491	
-0.105137	0.975975	0.404942	
-0.0571477	1.11947	0.416349	
-0.0956709	1.23097	0.5	
0	1.25	0.5	
-0.0392044	1.16291	0.5	
-0.0850696	1.27829	0.394238	
0.247868	1.14631	0	
0.300884	1.19872	0	
0.231243	1.24169	0	
0.189162	1.24479	0.0938772	
0.490343	1.0978	0.241226	
0.469721	1.17135	0.161666	
0.493389	1.08104	0.14715	
0.40353	1.07301	0.105949	
-0.344127	0.887773	0	
-0.356684	0.80649	0	
-0.31578	0.863109	0.155248	
-0.390863	0.914451	0.0980906	
-0.468495	1.17468	0.317109	
-0.364752	1.11394	0.23148	
-0.434698	1.24706	0.250499	
-0.343626	1.20201	0.373624	
-0.493437	0.919252	0.345776	
-0.5	1	0.4	
-0.495012	0.929552	0.428155	
-0.363598	0.972427	0.365583	
-0.00674902	1.18961	0.168493	
-0.0697093	1.32708	0.167311	
-0.0330822	1.21734	0.266884	
0.0143983	1.28276	0.204525	
-0.31578	0.863109	0.155248	
-0.37095	0.93253	0.240862	
-0.468495	0.825322	0.182891	
-0.332607	0.773484	0.222023	
0.164574	0.7464	0.211103	
0.151014	0.679593	0.343049	
0.0468326	0.745128	0.237913	
0.15722	0.635104	0.236843	
0.119419	1.18151	0.251425	
-0.0330822	1.21734	0.266884	
0.105734	1.2948	0.276786	
0.0143983	1.28276	0.204525	
0.228991	1.44448	0.408099	
0.25658	1.42915	0.33124	
0.3168	1.38683	0.395903	
0.209063	1.27717	0.342511	
-0.285945	1.12176	0.325452	
-0.274228	1.15934	0.161857	
-0.193842	1.09373	0.257323	
-0.364752	1.11394	0.23148	
-0.0218546	0.89013	0.5	
0.0634445	0.898618	0.5	
-0.00643767	0.847524	0.3797	
0.00844098	0.944821	0.400532	
-0.302044	0.949354	0	
-0.337562	1.05476	0	
-0.3474	1.01863	0.155865	
-0.256772	1.06769	0.100506	
0.247079	0.718599	0.118367	
0.278655	0.736565	0.241439	
0.374193	0.668368	0.165357	
0.341118	0.774271	0.0916023	
0.490343	0.902203	0.258774	
0.469721	0.828647	0.338334	
0.493389	0.91896	0.35285	
0.368617	0.876452	0.385763	
0.325159	1.05851	0.165819	
0.208793	1.06331	0.266812	
0.334194	1.15432	0.215771	
0.219623	1.16199	0.240766	
-0.153774	0.693588	0.346551	
-0.136534	0.645188	0.231761	
-0.258165	0.571805	0.298245	
-0.259603	0.71434	0.292274	
0.157632	1.10533	0.5	
0.125116	1.11613	0.369411	
0.203143	1.00597	0.37146	
0.113162	1.01769	0.414132	
0.374193	1.33163	0.334643	
0.209063	1.27717	0.342511	
0.317206	1.3865	0.299678	
0.295334	1.24597	0.26697	
-0.5	1	0.2	
-0.5	1	0.1	
-0.493437	1.08075	0.154224	
-0.3474	1.01863	0.155865	
-0.00167925	1.31098	0.319981	
0.0196341	1.38361	0.225797	
0.109201	1.35772	0.375246	
0.105734	1.2948	0.276786	
0.0814864	0.506685	0.152319	
0.0999617	0.645199	0.138238	
0.0854243	0.507351	0.248597	
0.15722	0.635104	0.236843	
0.0937412	0.930011	0.154317	
0.0593465	1.06716	0.10856	
0.168914	1.06767	0.155545	
0.159132	0.984216	0.0920948	
0.164797	0.822415	0	
0.14072	0.916025	0	
0.0712814	0.846848	0	
0.177224	0.838965	0.12521	
0.380873	0.676062	0.347739	
0.436762	0.756609	0.403062	
0.428195	0.741835	0.298245	
0.285177	0.816119	0.328962	
-0.429146	1.25658	0.33124	
-0.434698	1.24706	0.250499	
-0.279096	1.24359	0.272562	
-0.343626	1.20201	0.373624	
0.121965	0.82524	0.342904	
0.211575	0.889225	0.384788	
0.215953	0.839226	0.238202	
0.148799	0.913537	0.303647	
-0.00167925	1.31098	0.319981	
0.0902907	1.23506	0.376077	
-0.00173102	1.15684	0.347507	
-0.0330822	1.21734	0.266884	
-0.0232782	0.872416	0	
-0.00436862	0.872297	0.154061	
-0.0105385	0.962638	0.111113	
-0.0724446	0.868744	0.084223	
-0.125823	1.17124	0.373805	
-0.0611059	1.11559	0.264866	
-0.00173102	1.15684	0.347507	
-0.0571477	1.11947	0.416349	
0.098462	1.32087	0.159093	
0.0105232	1.38676	0.111861	
0.0401436	1.2912	0	
0.00439522	1.27731	0.103072	
0.168914	1.06767	0.155545	
0.113965	1.18028	0.121768	
0.119419	1.18151	0.251425	
0.219623	1.16199	0.240766	
-0.302044	0.949354	0	
-0.3474	1.01863	0.155865	
-0.401548	0.957663	0	
-0.390863	0.914451	0.0980906	
0.316847	0.613208	0.301384	
0.317206	0.613502	0.200322	
0.247057	0.565302	0.249501	
0.278655	0.736565	0.241439	
0.119419	1.18151	0.251425	
0.209063	1.27717	0.342511	
0.212182	1.31459	0.219285	
0.105734	1.2948	0.276786	
0.428195	0.741835	0.298245	
0.278655	0.736565	0.241439	
0.285177	0.816119	0.328962	
0.358257	0.834187	0.252847	
-0.434698	0.752943	0.249501	
-0.468495	0.825322	0.182891	
-0.470668	0.831266	0.298219	
-0.332607	0.773484	0.222023	
0.157632	1.10533	0.5	
0.203143	1.00597	0.37146	
0.163502	1.02984	0.5	
0.113162	1.01769	0.414132	
0.325159	1.05851	0.165819	
0.334194	1.15432	0.215771	
0.253711	1.11341	0.104023	
0.219623	1.16199	0.240766	
0.210156	0.985203	0	
0.265828	0.94766	0.123486	
0.276476	1.05355	0	
0.159132	0.984216	0.0920948	
0.232161	1.34745	0.5	
0.3168	1.38683	0.395903	
0.281092	1.28109	0.5	
0.209063	1.27717	0.342511	
0.232161	1.34745	0.5	
0.228991	1.44448	0.408099	
0.3168	1.38683	0.395903	
0.209063	1.27717	0.342511	
-0.0151696	1.04156	0.198031	
-0.10768	0.996359	0.238131	
-0.156284	1.06551	0.149142	
-0.10307	0.999921	0.0930669	
-0.389036	1.20743	0	
-0.318983	1.26174	0	
-0.440961	1.2357	0.068569	
-0.277342	1.24516	0.0975038	
0.245477	0.808349	0	
0.247079	0.718599	0.118367	
0.177224	0.838965	0.12521	
0.142608	0.739294	0.106454	
0.176777	0.823223	0.5	
0.206682	0.777113	0.400851	
0.0956709	0.76903	0.5	
0.0581157	0.769455	0.403061	
0.0420691	1.42713	0	
0.114055	1.37411	0	
0.0704482	1.49501	0.0718447	
0.0105232	1.38676	0.111861	
0.0634445	0.898618	0.5	
0.101939	0.907787	0.403472	
-0.00643767	0.847524	0.3797	
0.00844098	0.944821	0.400532	
-0.495012	0.929552	0.428155	
-0.363598	0.972427	0.365583	
-0.409849	0.918476	0.5	
-0.351645	0.874975	0.390413	
-0.18052	1.3078	0.334608	
-0.193559	1.35773	0.245031	
-0.279096	1.24359	0.272562	
-0.263985	1.32297	0.375811	
0.260232	1.21075	0.160089	
0.28898	1.28652	0.0949489	
0.300884	1.19872	0	
0.189162	1.24479	0.0938772	
-0.110633	0.921519	0.156892	
-0.0151696	1.04156	0.198031	
-0.0105385	0.962638	0.111113	
-0.10307	0.999921	0.0930669	
0.4284	1.25782	0.295024	
0.415735	1.27779	0.365862	
0.374193	1.33163	0.334643	
0.295334	1.24597	0.26697	
0.0691997	1.04586	0.5	
0.000305103	1.09462	0.5	
0.0868435	1.13736	0.5	
-0.00748686	1.04315	0.386084	
0.25658	0.570854	0.16876	
0.0999617	0.645199	0.138238	
0.174678	0.531505	0.182891	
0.15722	0.635104	0.236843	
-0.176777	0.823223	0.5	
-0.239777	0.86007	0.398057	
-0.157632	0.894674	0.5	
-0.087284	0.884388	0.408402	
-0.331632	1.37419	0.334643	
-0.279096	1.24359	0.272562	
-0.328716	1.37676	0.246468	
-0.263985	1.32297	0.375811	
0.374193	1.33163	0.334643	
0.415735	1.27779	0.365862	
0.388274	1.31503	0.420807	
0.347642	1.19453	0.384775	
-0.064316	0.676662	0.5	
0	0.75	0.5	
0.00505532	0.706778	0.339312	
-0.0862712	0.770823	0.389289	
-0.00643767	0.847524	0.25115	
-0.0726386	0.798943	0.15243	
0.0541326	0.793785	0.132666	
0.0468326	0.745128	0.237913	
0.209063	1.27717	0.342511	
0.347642	1.19453	0.384775	
0.288623	1.13754	0.312711	
0.295334	1.24597	0.26697	
0.064316	0.676662	0.5	
0.00505532	0.706778	0.339312	
0	0.75	0.5	
0.0581157	0.769455	0.403061	
-0.0297704	0.68077	0.178611	
-0.136534	0.645188	0.231761	
-0.183989	0.672241	0.119932	
-0.0982069	0.610875	0.136018	
-0.258165	0.571805	0.298245	
-0.259603	0.71434	0.292274	
-0.136534	0.645188	0.231761	
-0.247852	0.673084	0.199607	
-0.110633	0.921519	0.156892	
-0.00436862	0.872297	0.154061	
0.0244505	0.94868	0.233905	
-0.0821557	0.901585	0.243527	
0.0761103	0.977349	0.33014	
0.203143	1.00597	0.37146	
0.148799	0.913537	0.303647	
0.134932	0.977505	0.230093	
0.0807477	1.49344	0.154224	
0.098462	1.32087	0.159093	
0.0196341	1.38361	0.225797	
0.0105232	1.38676	0.111861	
0.106858	0.844305	0.230248	
0.0468326	0.745128	0.237913	
0.121965	0.82524	0.342904	
0.0347483	0.794732	0.315425	
-0.0105385	0.962638	0.111113	
0.0244505	0.94868	0.233905	
-0.110633	0.921519	0.156892	
-0.00436862	0.872297	0.154061	
-0.152126	0.632735	0.5	
-0.243391	0.563238	0.403062	
-0.232161	0.652547	0.5	
-0.153774	0.693588	0.346551	
-0.168043	1.47092	0.300126	
-0.217356	1.45028	0.355302	
-0.193559	1.35773	0.245031	
-0.166036	1.37976	0.398541	
-0.23296	0.961598	0.249877	
-0.227254	0.962083	0.121579	
-0.110633	0.921519	0.156892	
-0.170219	0.871655	0.235589	
-0.171353	0.530279	0.338334	
-0.194667	0.539452	0.26567	
-0.153774	0.693588	0.346551	
-0.136534	0.645188	0.231761	
-0.114443	1.01484	0.5	
-0.117202	1.0938	0.5	
-0.105137	0.975975	0.404942	
-0.179827	1.088	0.408491	
0.153328	1.47591	0.0923699	
0.168734	1.47067	0.201781	
0.0807477	1.49344	0.154224	
0.098462	1.32087	0.159093	
0.235698	0.559039	0.431431	
0.242822	0.562922	0.347009	
0.151014	0.679593	0.343049	
0.260241	0.698507	0.343916	
0.0712814	0.846848	0	
0.0541326	0.793785	0.132666	
0.0943468	0.754666	0	
0.142608	0.739294	0.106454	
-0.315029	0.611726	0.0791933	
-0.331632	0.625807	0.165357	
-0.277785	0.584265	0.134138	
-0.247852	0.673084	0.199607	
0.0541326	0.793785	0.132666	
0.0468326	0.745128	0.237913	
0.0999617	0.645199	0.138238	
0.142608	0.739294	0.106454	
0.203143	1.00597	0.37146	
0.208793	1.06331	0.266812	
0.22536	1.15058	0.40335	
0.284123	1.06741	0.387999	
0.0814864	0.506685	0.152319	
0.0854243	0.507351	0.248597	
0.0999617	0.645199	0.138238	
0.0452903	0.623513	0.25784	
-0.317197	1.38651	0.0688254	
-0.210789	1.29041	0.168489	
-0.323938	1.38087	0.152261	
-0.277342	1.24516	0.0975038	
0.0728232	0.505332	0.0735406	
0.0999617	0.645199	0.138238	
0.0404524	0.58928	0	
0.00284042	0.609614	0.1018	
-0.386792	0.683153	0.301384	
-0.259603	0.71434	0.292274	
-0.296327	0.833736	0.292179	
-0.289723	0.75771	0.393302	
-0.107214	1.16612	0.5	
-0.179827	1.088	0.408491	
-0.125823	1.17124	0.373805	
-0.0571477	1.11947	0.416349	
0.168734	0.529332	0.298219	
0.151014	0.679593	0.343049	
0.15722	0.635104	0.236843	
0.0738912	0.610829	0.388761	
-0.0810399	1.49339	0.14715	
0	1.5	0.2	
0.0196341	1.38361	0.225797	
0.0105232	1.38676	0.111861	
0.296805	0.825729	0.165597	
0.265828	0.94766	0.123486	
0.177224	0.838965	0.12521	
0.215953	0.839226	0.238202	
0.119419	1.18151	0.251425	
0.0919908	1.06424	0.248206	
0.168914	1.06767	0.155545	
0.219623	1.16199	0.240766	
-0.0982069	0.610875	0.136018	
-0.00982582	0.726304	0.0884564	
-0.0638367	0.704239	0	
-0.111014	0.733523	0.0849706	
-0.323338	1.06432	0.5	
-0.382289	1.08918	0.382504	
-0.363339	1.1505	0.5	
-0.275403	1.0393	0.403336	
-0.16685	1.08834	0	
-0.0734441	1.06169	0	
-0.0543483	1.10288	0.107179	
-0.10307	0.999921	0.0930669	
-0.0956709	1.23097	0.5	
-0.0392044	1.16291	0.5	
-0.107214	1.16612	0.5	
-0.0571477	1.11947	0.416349	
-0.278713	0.85696	0	
-0.211369	0.923885	0	
-0.302044	0.949354	0	
-0.227254	0.962083	0.121579	
0.119419	1.18151	0.251425	
-0.00674902	1.18961	0.168493	
0.113965	1.18028	0.121768	
0.0323895	1.13978	0.258564	
0.125116	1.11613	0.369411	
-0.00748686	1.04315	0.386084	
0.0761103	0.977349	0.33014	
0.113162	1.01769	0.414132	
-0.386792	0.683153	0.301384	
-0.296327	0.833736	0.292179	
-0.437078	0.757178	0.347009	
-0.289723	0.75771	0.393302	
-0.468495	1.17468	0.317109	
-0.434698	1.24706	0.250499	
-0.429146	1.25658	0.33124	
-0.343626	1.20201	0.373624	
-0.279096	1.24359	0.272562	
-0.364752	1.11394	0.23148	
-0.285945	1.12176	0.325452	
-0.343626	1.20201	0.373624	
0.184962	1.07993	0	
0.253711	1.11341	0.104023	
0.168914	1.06767	0.155545	
0.159132	0.984216	0.0920948	
0.296805	0.825729	0.165597	
0.278655	0.736565	0.241439	
0.247079	0.718599	0.118367	
0.341118	0.774271	0.0916023	
0.119419	1.18151	0.251425	
-0.0330822	1.21734	0.266884	
0.0143983	1.28276	0.204525	
0.0323895	1.13978	0.258564	
-0.189227	0.766031	0.208899	
-0.081357	0.751661	0.265055	
-0.0726386	0.798943	0.15243	
-0.170219	0.871655	0.235589	
0.164574	0.7464	0.211103	
0.177224	0.838965	0.12521	
0.296805	0.825729	0.165597	
0.247079	0.718599	0.118367	
0.0541326	0.793785	0.132666	
-0.00982582	0.726304	0.0884564	
-0.0726386	0.798943	0.15243	
-0.0724446	0.868744	0.084223	
-0.183156	1.27411	0.5	
-0.0956709	1.23097	0.5	
-0.176777	1.17678	0.5	
-0.125823	1.17124	0.373805	
0.285177	0.816119	0.328962	
0.278655	0.736565	0.241439	
0.380873	0.676062	0.347739	
0.260241	0.698507	0.343916	
-0.328307	1.16356	0	
-0.357904	1.11593	0.101286	
-0.274228	1.15934	0.161857	
-0.277342	1.24516	0.0975038	
0.174678	0.531505	0.182891	
0.25658	0.570854	0.16876	
0.228991	0.555519	0.0919014	
0.0999617	0.645199	0.138238	
0.296805	0.825729	0.165597	
0.177224	0.838965	0.12521	
0.164574	0.7464	0.211103	
0.215953	0.839226	0.238202	
-0.0555676	1.32557	0	
0.0105232	1.38676	0.111861	
-0.0697093	1.32708	0.167311	
0.00439522	1.27731	0.103072	
0.0854243	0.507351	0.248597	
0.0999617	0.645199	0.138238	
0.0452903	0.623513	0.25784	
0.15722	0.635104	0.236843	
0.0919908	1.06424	0.248206	
0.208793	1.06331	0.266812	
0.168914	1.06767	0.155545	
0.219623	1.16199	0.240766	
-0.5	1	0.3	
-0.5	1	0.4	
-0.493437	0.919252	0.345776	
-0.363598	0.972427	0.365583	
-0.171353	0.530279	0.338334	
-0.194667	0.539452	0.26567	
-0.258165	0.571805	0.298245	
-0.153774	0.693588	0.346551	
-0.152694	0.523886	0.0975404	
-0.203173	0.626976	0	
-0.238488	0.560542	0.0756919	
-0.183989	0.672241	0.119932	
0.168734	0.529332	0.298219	
0.15722	0.635104	0.236843	
0.0452903	0.623513	0.25784	
0.0738912	0.610829	0.388761	
-0.493437	1.08075	0.154224	
-0.364752	1.11394	0.23148	
-0.3474	1.01863	0.155865	
-0.357904	1.11593	0.101286	
0.0704482	1.49501	0.0718447	
0.114055	1.37411	0	
0.153328	1.47591	0.0923699	
0.0105232	1.38676	0.111861	
-0.0726386	0.798943	0.15243	
-0.081357	0.751661	0.265055	
-0.00643767	0.847524	0.25115	
-0.0821557	0.901585	0.243527	
0.288623	1.13754	0.312711	
0.378383	1.07129	0.271427	
0.347642	1.19453	0.384775	
0.385098	1.08722	0.383771	
-0.110633	0.921519	0.156892	
-0.10768	0.996359	0.238131	
-0.23296	0.961598	0.249877	
-0.170219	0.871655	0.235589	
0.285177	0.816119	0.328962	
0.211575	0.889225	0.384788	
0.274113	0.816844	0.5	
0.368617	0.876452	0.385763	
-0.157632	0.894674	0.5	
-0.203766	0.963562	0.377533	
-0.105137	0.975975	0.404942	
-0.087284	0.884388	0.408402	
-0.285945	1.12176	0.325452	
-0.279096	1.24359	0.272562	
-0.274228	1.15934	0.161857	
-0.364752	1.11394	0.23148	
0.151014	0.679593	0.343049	
0.00505532	0.706778	0.339312	
0.0581157	0.769455	0.403061	
0.0347483	0.794732	0.315425	
-0.210789	1.29041	0.168489	
-0.136328	1.19004	0.119282	
-0.274228	1.15934	0.161857	
-0.277342	1.24516	0.0975038	
0.064316	0.676662	0.5	
0.0581157	0.769455	0.403061	
0.151014	0.679593	0.343049	
0.0738912	0.610829	0.388761	
-0.203766	0.963562	0.377533	
-0.239777	0.86007	0.398057	
-0.144063	0.852748	0.341365	
-0.087284	0.884388	0.408402	
0.168734	1.47067	0.201781	
0.212182	1.31459	0.219285	
0.098462	1.32087	0.159093	
0.190875	1.34709	0.10503	
-0.183156	1.27411	0.5	
-0.18052	1.3078	0.334608	
-0.0850696	1.27829	0.394238	
-0.234257	1.21312	0.375398	
0.0999617	0.645199	0.138238	
0.0468326	0.745128	0.237913	
0.164574	0.7464	0.211103	
0.142608	0.739294	0.106454	
0.245477	0.808349	0	
0.177224	0.838965	0.12521	
0.164797	0.822415	0	
0.142608	0.739294	0.106454	
-0.0297704	0.68077	0.178611	
-0.0982069	0.610875	0.136018	
-0.183989	0.672241	0.119932	
-0.111014	0.733523	0.0849706	
-0.315029	0.611726	0.0791933	
-0.263582	0.680587	0	
-0.331361	0.727047	0	
-0.283151	0.746042	0.130367	
-0.00643767	0.847524	0.25115	
-0.081357	0.751661	0.265055	
-0.0726386	0.798943	0.15243	
0.0468326	0.745128	0.237913	
0.0248177	0.686626	0	
0.00284042	0.609614	0.1018	
0.0999617	0.645199	0.138238	
-0.00982582	0.726304	0.0884564	
0.373926	1.19893	0	
0.353151	1.15839	0.109095	
0.436762	1.24339	0.0969381	
0.28898	1.28652	0.0949489	
-0.217356	0.549715	0.144698	
-0.136534	0.645188	0.231761	
-0.183989	0.672241	0.119932	
-0.247852	0.673084	0.199607	
-0.0295403	1.22514	0	
-0.0983601	1.15643	0	
-0.00425413	1.131	0	
-0.0543483	1.10288	0.107179	
0.0943468	0.754666	0	
0.0248177	0.686626	0	
0.142608	0.739294	0.106454	
-0.00982582	0.726304	0.0884564	
0.176777	0.823223	0.5	
0.141405	0.904892	0.5	
0.211575	0.889225	0.384788	
0.101939	0.907787	0.403472	
0.260232	1.21075	0.160089	
0.353151	1.15839	0.109095	
0.300884	1.19872	0	
0.28898	1.28652	0.0949489	
-0.189227	0.766031	0.208899	
-0.31578	0.863109	0.155248	
-0.283151	0.746042	0.130367	
-0.332607	0.773484	0.222023	
-0.0810399	1.49339	0.14715	
-0.144862	1.47856	0.0783483	
-0.0684459	1.49529	0.0685965	
-0.153777	1.36779	0.103264	
-0.257824	1.4284	0.295024	
-0.217356	1.45028	0.355302	
-0.18052	1.3078	0.334608	
-0.193559	1.35773	0.245031	
0.285177	0.816119	0.328962	
0.211575	0.889225	0.384788	
0.226544	0.947552	0.250202	
0.215953	0.839226	0.238202	
-0.0977967	1.49034	0.241226	
-0.0810399	1.49339	0.14715	
0	1.5	0.2	
0.0196341	1.38361	0.225797	
0.3168	1.38683	0.395903	
0.317206	1.3865	0.299678	
0.374193	1.33163	0.334643	
0.209063	1.27717	0.342511	
-0.317197	1.38651	0.0688254	
-0.243391	1.43676	0.0969381	
-0.323938	1.38087	0.152261	
-0.210789	1.29041	0.168489	
0.0814864	0.506685	0.152319	
0.174678	0.531505	0.182891	
0.0999617	0.645199	0.138238	
0.15722	0.635104	0.236843	
0.5	1	0.3	
0.5	1	0.2	
0.361351	0.935933	0.2197	
0.378383	1.07129	0.271427	
0.0401436	1.2912	0	
0.133074	1.2641	0	
0.098462	1.32087	0.159093	
0.00439522	1.27731	0.103072	
0.0401436	1.2912	0	
0.098462	1.32087	0.159093	
0.114055	1.37411	0	
0.0105232	1.38676	0.111861	
0.316847	1.38679	0.198616	
0.380873	1.32394	0.152261	
0.376757	1.32872	0.246468	
0.295334	1.24597	0.26697	
0.317206	0.613502	0.200322	
0.25658	0.570854	0.16876	
0.247057	0.565302	0.249501	
0.15722	0.635104	0.236843	
0.0868435	1.13736	0.5	
0.028723	1.17517	0.5	
0.0956709	1.23097	0.5	
0.0902907	1.23506	0.376077	
-0.114443	1.01484	0.5	
-0.0427935	1.02817	0.5	
-0.105137	0.975975	0.404942	
-0.0571477	1.11947	0.416349	
0.184962	1.07993	0	
0.210156	0.985203	0	
0.276476	1.05355	0	
0.159132	0.984216	0.0920948	
0.113965	1.18028	0.121768	
0.00439522	1.27731	0.103072	
-0.00674902	1.18961	0.168493	
0.0143983	1.28276	0.204525	
-0.048473	0.967143	0	
-0.0105385	0.962638	0.111113	
0.0209546	1.03628	0	
-0.10307	0.999921	0.0930669	
0.151014	0.679593	0.343049	
0.0452903	0.623513	0.25784	
0.0468326	0.745128	0.237913	
0.15722	0.635104	0.236843	
0.23097	1.09567	0.5	
0.203143	1.00597	0.37146	
0.22536	1.15058	0.40335	
0.284123	1.06741	0.387999	
0.373926	1.19893	0	
0.436762	1.24339	0.0969381	
0.328092	1.27024	0	
0.28898	1.28652	0.0949489	
-0.257824	1.4284	0.295024	
-0.18052	1.3078	0.334608	
-0.277785	1.41573	0.365862	
-0.263985	1.32297	0.375811	
0.119419	1.18151	0.251425	
0.105734	1.2948	0.276786	
0.098462	1.32087	0.159093	
0.0143983	1.28276	0.204525	
0.232161	0.652547	0.5	
0.151014	0.679593	0.343049	
0.206682	0.777113	0.400851	
0.260241	0.698507	0.343916	
-0.152126	0.632735	0.5	
-0.153774	0.693588	0.346551	
-0.064316	0.676662	0.5	
-0.039093	0.610067	0.388942	
0.183156	0.725887	0.5	
0.206682	0.777113	0.400851	
0.151014	0.679593	0.343049	
0.0581157	0.769455	0.403061	
-0.189227	0.766031	0.208899	
-0.283151	0.746042	0.130367	
-0.31578	0.863109	0.155248	
-0.196211	0.8458	0.119009	
-0.285945	1.12176	0.325452	
-0.364752	1.11394	0.23148	
-0.193842	1.09373	0.257323	
-0.318838	1.02278	0.259668	
0	0.5	0.2	
-0.0977967	0.509657	0.258774	
0	0.5	0.3	
0.0452903	0.623513	0.25784	
-0.444481	0.771009	0.0919014	
-0.386831	0.6832	0.104097	
-0.356684	0.80649	0	
-0.283151	0.746042	0.130367	
-0.323338	0.935684	0.5	
-0.203766	0.963562	0.377533	
-0.23097	0.904329	0.5	
-0.239777	0.86007	0.398057	
-0.134745	1.19543	0.248773	
-0.0611059	1.11559	0.264866	
-0.00674902	1.18961	0.168493	
-0.0330822	1.21734	0.266884	
0.296805	0.825729	0.165597	
0.226544	0.947552	0.250202	
0.265828	0.94766	0.123486	
0.215953	0.839226	0.238202	
-0.176777	1.17678	0.5	
-0.183156	1.27411	0.5	
-0.125823	1.17124	0.373805	
-0.234257	1.21312	0.375398	
0.153328	1.47591	0.0923699	
0.168734	1.47067	0.201781	
0.098462	1.32087	0.159093	
0.190875	1.34709	0.10503	
-0.214341	1.27376	0	
-0.18644	1.1823	0	
-0.119993	1.24669	0	
-0.136328	1.19004	0.119282	
0.268393	0.665699	0	
0.228991	0.555519	0.0919014	
0.3168	0.613169	0.104097	
0.247079	0.718599	0.118367	
-0.401548	0.957663	0	
-0.302044	0.949354	0	
-0.337562	1.05476	0	
-0.3474	1.01863	0.155865	
-0.194667	1.46055	0.23433	
-0.171353	1.46972	0.161666	
-0.0964049	1.37384	0.276475	
-0.193559	1.35773	0.245031	
-0.356684	0.80649	0	
-0.41072	0.87541	0	
-0.444481	0.771009	0.0919014	
-0.390863	0.914451	0.0980906	
0.164574	0.7464	0.211103	
0.0468326	0.745128	0.237913	
0.0999617	0.645199	0.138238	
0.15722	0.635104	0.236843	
0.183156	0.725887	0.5	
0.151014	0.679593	0.343049	
0.064316	0.676662	0.5	
0.0581157	0.769455	0.403061	
-0.064316	0.676662	0.5	
-0.039093	0.610067	0.388942	
-0.153774	0.693588	0.346551	
-0.0862712	0.770823	0.389289	
-0.176777	0.823223	0.5	
-0.0892911	0.866366	0.5	
-0.0862712	0.770823	0.389289	
-0.087284	0.884388	0.408402	
-0.315029	0.611726	0.0791933	
-0.183989	0.672241	0.119932	
-0.263582	0.680587	0	
-0.283151	0.746042	0.130367	
-0.437078	0.757178	0.347009	
-0.296327	0.833736	0.292179	
-0.386792	0.683153	0.301384	
-0.332607	0.773484	0.222023	
0.247057	1.4347	0.250499	
0.317206	1.3865	0.299678	
0.25658	1.42915	0.33124	
0.212182	1.31459	0.219285	
0.0712814	0.846848	0	
0.0943468	0.754666	0	
0.164797	0.822415	0	
0.142608	0.739294	0.106454	
0.00505532	0.706778	0.339312	
0.0468326	0.745128	0.237913	
0.151014	0.679593	0.343049	
0.0452903	0.623513	0.25784	
0.183156	1.27411	0.5	
0.109201	1.35772	0.375246	
0.209063	1.27717	0.342511	
0.0902907	1.23506	0.376077	
-0.386792	0.683153	0.301384	
-0.296327	0.833736	0.292179	
-0.259603	0.71434	0.292274	
-0.332607	0.773484	0.222023	
0	1.25	0.5	
0.0956709	1.23097	0.5	
0.028723	1.17517	0.5	
0.0902907	1.23506	0.376077	
-0.23296	0.961598	0.249877	
-0.3474	1.01863	0.155865	
-0.37095	0.93253	0.240862	
-0.318838	1.02278	0.259668	
-0.177191	1.03636	0.5	
-0.105137	0.975975	0.404942	
-0.203766	0.963562	0.377533	
-0.179827	1.088	0.408491	
-0.363598	0.972427	0.365583	
-0.37095	0.93253	0.240862	
-0.296327	0.833736	0.292179	
-0.351645	0.874975	0.390413	
0.0452903	0.623513	0.25784	
-0.039093	0.610067	0.388942	
0	0.5	0.3	
0.0738912	0.610829	0.388761	
-0.444481	0.771009	0.0919014	
-0.468495	0.825322	0.182891	
-0.429146	0.74342	0.16876	
-0.31578	0.863109	0.155248	
-0.186407	0.830549	0	
-0.261345	0.769964	0	
-0.168688	0.718299	0	
-0.196211	0.8458	0.119009	
-0.0638367	0.704239	0	
-0.114467	0.613668	0	
-0.0328721	0.629311	0	
-0.0982069	0.610875	0.136018	
-0.115695	1.05029	0.334241	
-0.10768	0.996359	0.238131	
-0.193842	1.09373	0.257323	
-0.0611059	1.11559	0.264866	
0.361351	0.935933	0.2197	
0.387337	0.975471	0.113668	
0.493012	0.916698	0.155211	
0.355602	0.87751	0.0966392	
-0.183989	0.672241	0.119932	
-0.136534	0.645188	0.231761	
-0.217356	0.549715	0.144698	
-0.0982069	0.610875	0.136018	
-0.048473	0.967143	0	
0.0209546	1.03628	0	
-0.0734441	1.06169	0	
-0.10307	0.999921	0.0930669	
0.119419	1.18151	0.251425	
0.0143983	1.28276	0.204525	
-0.00674902	1.18961	0.168493	
0.0323895	1.13978	0.258564	
-0.257824	0.5716	0.204976	
-0.136534	0.645188	0.231761	
-0.217356	0.549715	0.144698	
-0.247852	0.673084	0.199607	
-0.437078	0.757178	0.347009	
-0.296327	0.833736	0.292179	
-0.470668	0.831266	0.298219	
-0.351645	0.874975	0.390413	
0.347453	0.767839	0.5	
0.274113	0.816844	0.5	
0.285177	0.816119	0.328962	
0.206682	0.777113	0.400851	
-0.274113	1.18316	0.5	
-0.234257	1.21312	0.375398	
-0.285945	1.12176	0.325452	
-0.343626	1.20201	0.373624	
0.353151	1.15839	0.109095	
0.253711	1.11341	0.104023	
0.337634	1.11556	0	
0.40353	1.07301	0.105949	
0.231243	1.24169	0	
0.300884	1.19872	0	
0.28898	1.28652	0.0949489	
0.189162	1.24479	0.0938772	
-0.00643767	0.847524	0.25115	
0.0541326	0.793785	0.132666	
-0.0726386	0.798943	0.15243	
-0.00436862	0.872297	0.154061	
0.5	1	0.3	
0.347602	0.985936	0.348343	
0.5	1	0.4	
0.385098	1.08722	0.383771	
-0.25	1	0.5	
-0.23097	0.904329	0.5	
-0.323338	0.935684	0.5	
-0.203766	0.963562	0.377533	
0.121965	0.82524	0.342904	
0.101939	0.907787	0.403472	
-0.00643767	0.847524	0.3797	
0.0581157	0.769455	0.403061	
0.0541326	0.793785	0.132666	
-0.0726386	0.798943	0.15243	
-0.0297704	0.68077	0.178611	
0.0468326	0.745128	0.237913	
-0.363598	0.972427	0.365583	
-0.382289	1.08918	0.382504	
-0.397525	1	0.5	
-0.275403	1.0393	0.403336	
-0.0297704	0.68077	0.178611	
-0.081357	0.751661	0.265055	
0.00505532	0.706778	0.339312	
0.0468326	0.745128	0.237913	
-0.468495	1.17468	0.317109	
-0.382289	1.08918	0.382504	
-0.364752	1.11394	0.23148	
-0.343626	1.20201	0.373624	
0.064316	0.676662	0.5	
0.151014	0.679593	0.343049	
0.152126	0.632735	0.5	
0.0738912	0.610829	0.388761	
-0.064316	0.676662	0.5	
0.00505532	0.706778	0.339312	
-0.039093	0.610067	0.388942	
-0.0862712	0.770823	0.389289	
0.0541326	0.793785	0.132666	
0.164574	0.7464	0.211103	
0.0468326	0.745128	0.237913	
0.142608	0.739294	0.106454	
-0.0684459	1.49529	0.0685965	
-0.144862	1.47856	0.0783483	
-0.118932	1.39861	0	
-0.153777	1.36779	0.103264	
-0.0151696	1.04156	0.198031	
-0.00674902	1.18961	0.168493	
-0.0611059	1.11559	0.264866	
0.0323895	1.13978	0.258564	
0.158056	1.17188	0	
0.253711	1.11341	0.104023	
0.247868	1.14631	0	
0.189162	1.24479	0.0938772	
-0.183156	0.725887	0.5	
-0.153774	0.693588	0.346551	
-0.232161	0.652547	0.5	
-0.289723	0.75771	0.393302	
0.260232	1.21075	0.160089	
0.253711	1.11341	0.104023	
0.113965	1.18028	0.121768	
0.189162	1.24479	0.0938772	
-0.0295403	1.22514	0	
-0.119993	1.24669	0	
-0.0983601	1.15643	0	
-0.136328	1.19004	0.119282	
0.428195	0.741835	0.298245	
0.368617	0.876452	0.385763	
0.469721	0.828647	0.338334	
0.358257	0.834187	0.252847	
-0.5	1	0.4	
-0.494668	1.07282	0.426459	
-0.397525	1	0.5	
-0.382289	1.08918	0.382504	
0.347453	0.767839	0.5	
0.285177	0.816119	0.328962	
0.274113	0.816844	0.5	
0.368617	0.876452	0.385763	
-0.176777	1.17678	0.5	
-0.125823	1.17124	0.373805	
-0.107214	1.16612	0.5	
-0.179827	1.088	0.408491	
-0.153774	0.693588	0.346551	
-0.081357	0.751661	0.265055	
-0.144063	0.852748	0.341365	
-0.0862712	0.770823	0.389289	
0.183156	1.27411	0.5	
0.152393	1.36791	0.5	
0.232161	1.34745	0.5	
0.109201	1.35772	0.375246	
0.0814864	1.49332	0.347681	
0	1.5	0.3	
0.0854243	1.49265	0.251403	
0.0196341	1.38361	0.225797	
-0.16685	1.08834	0	
-0.0983601	1.15643	0	
-0.18644	1.1823	0	
-0.136328	1.19004	0.119282	
0.5	1	0.4	
0.5	1	0.3	
0.493389	0.91896	0.35285	
0.347602	0.985936	0.348343	
-0.064316	0.676662	0.5	
0	0.75	0.5	
0.064316	0.676662	0.5	
0.00505532	0.706778	0.339312	
0.164574	0.7464	0.211103	
0.247079	0.718599	0.118367	
0.296805	0.825729	0.165597	
0.278655	0.736565	0.241439	
0.361351	0.935933	0.2197	
0.358257	0.834187	0.252847	
0.296805	0.825729	0.165597	
0.355602	0.87751	0.0966392	
-0.114443	1.01484	0.5	
-0.105137	0.975975	0.404942	
-0.177191	1.03636	0.5	
-0.179827	1.088	0.408491	
-0.277785	1.41573	0.365862	
-0.263985	1.32297	0.375811	
-0.18052	1.3078	0.334608	
-0.166036	1.37976	0.398541	
0.4284	0.742176	0.204976	
0.278655	0.736565	0.241439	
0.376757	0.671284	0.253532	
0.358257	0.834187	0.252847	
0.317206	1.3865	0.299678	
0.209063	1.27717	0.342511	
0.212182	1.31459	0.219285	
0.295334	1.24597	0.26697	
0.314271	0.949812	0	
0.346509	1.02379	0	
0.265828	0.94766	0.123486	
0.387337	0.975471	0.113668	
-0.0964049	1.37384	0.276475	
-0.193559	1.35773	0.245031	
-0.18052	1.3078	0.334608	
-0.166036	1.37976	0.398541	
-0.258165	1.42819	0.201755	
-0.328716	1.37676	0.246468	
-0.210789	1.29041	0.168489	
-0.193559	1.35773	0.245031	
0.242822	0.562922	0.347009	
0.247057	0.565302	0.249501	
0.15722	0.635104	0.236843	
0.260241	0.698507	0.343916	
0.380873	0.676062	0.347739	
0.428195	0.741835	0.298245	
0.376757	0.671284	0.253532	
0.278655	0.736565	0.241439	
-0.153774	0.693588	0.346551	
-0.039093	0.610067	0.388942	
0.00505532	0.706778	0.339312	
-0.0862712	0.770823	0.389289	
-0.0151696	1.04156	0.198031	
-0.156284	1.06551	0.149142	
-0.0543483	1.10288	0.107179	
-0.10307	0.999921	0.0930669	
0.0704482	1.49501	0.0718447	
0.153328	1.47591	0.0923699	
0.0807477	1.49344	0.154224	
0.0105232	1.38676	0.111861	
0.163502	1.02984	0.5	
0.23097	1.09567	0.5	
0.25	1	0.5	
0.203143	1.00597	0.37146	
-0.00643767	0.847524	0.3797	
-0.0862712	0.770823	0.389289	
-0.0369856	0.814061	0.5	
-0.087284	0.884388	0.408402	
-0.23296	0.961598	0.249877	
-0.37095	0.93253	0.240862	
-0.363598	0.972427	0.365583	
-0.318838	1.02278	0.259668	
0.112799	0.66644	0	
0.0404524	0.58928	0	
0.125573	0.58604	0	
0.0999617	0.645199	0.138238	
-0.386498	1.31721	0.299678	
-0.343626	1.20201	0.373624	
-0.279096	1.24359	0.272562	
-0.263985	1.32297	0.375811	
-0.437078	0.757178	0.347009	
-0.289723	0.75771	0.393302	
-0.296327	0.833736	0.292179	
-0.351645	0.874975	0.390413	
0.226544	0.947552	0.250202	
0.215953	0.839226	0.238202	
0.211575	0.889225	0.384788	
0.148799	0.913537	0.303647	
0.347642	1.19453	0.384775	
0.385098	1.08722	0.383771	
0.369516	1.15306	0.5	
0.284123	1.06741	0.387999	
-0.25	1	0.5	
-0.203766	0.963562	0.377533	
-0.323338	0.935684	0.5	
-0.275403	1.0393	0.403336	
0.296805	0.825729	0.165597	
0.164574	0.7464	0.211103	
0.278655	0.736565	0.241439	
0.215953	0.839226	0.238202	
0.112799	0.66644	0	
0.0999617	0.645199	0.138238	
0.0248177	0.686626	0	
0.00284042	0.609614	0.1018	
0.168914	1.06767	0.155545	
0.226544	0.947552	0.250202	
0.208793	1.06331	0.266812	
0.134932	0.977505	0.230093	
0.098462	1.32087	0.159093	
0.00439522	1.27731	0.103072	
0.113965	1.18028	0.121768	
0.0143983	1.28276	0.204525	
0.064316	0.676662	0.5	
-0.039093	0.610067	0.388942	
0.00505532	0.706778	0.339312	
0.0738912	0.610829	0.388761	
-0.0726386	0.798943	0.15243	
-0.00436862	0.872297	0.154061	
0.0541326	0.793785	0.132666	
-0.0724446	0.868744	0.084223	
-0.0956709	0.76903	0.5	
-0.176777	0.823223	0.5	
-0.0892911	0.866366	0.5	
-0.0862712	0.770823	0.389289	
0.0244505	0.94868	0.233905	
0.0531758	0.885699	0.315425	
0.106858	0.844305	0.230248	
0.148799	0.913537	0.303647	
0.0541326	0.793785	0.132666	
0.177224	0.838965	0.12521	
0.0937412	0.930011	0.154317	
0.106858	0.844305	0.230248	
-0.110633	0.921519	0.156892	
-0.227254	0.962083	0.121579	
-0.156284	1.06551	0.149142	
-0.10307	0.999921	0.0930669	
-0.0218546	0.89013	0.5	
0.0344957	0.828097	0.5	
-0.0369856	0.814061	0.5	
-0.00643767	0.847524	0.3797	
-0.00643767	0.847524	0.25115	
-0.045108	0.948191	0.315425	
-0.00643767	0.847524	0.3797	
0.0531758	0.885699	0.315425	
-0.280403	1.2804	0.5	
-0.234257	1.21312	0.375398	
-0.343626	1.20201	0.373624	
-0.263985	1.32297	0.375811	
0.242822	0.562922	0.347009	
0.15722	0.635104	0.236843	
0.151014	0.679593	0.343049	
0.260241	0.698507	0.343916	
0.0401436	1.2912	0	
0.133074	1.2641	0	
0.114055	1.37411	0	
0.098462	1.32087	0.159093	
0.0401436	1.2912	0	
0.0651412	1.2001	0	
0.133074	1.2641	0	
0.00439522	1.27731	0.103072	
0.493012	1.0833	0.344789	
0.5	1	0.3	
0.5	1	0.4	
0.385098	1.08722	0.383771	
-0.280403	1.2804	0.5	
-0.343626	1.20201	0.373624	
-0.386831	1.3168	0.395903	
-0.263985	1.32297	0.375811	
-0.429146	1.25658	0.33124	
-0.434698	1.24706	0.250499	
-0.386498	1.31721	0.299678	
-0.279096	1.24359	0.272562	
-0.444481	0.771009	0.0919014	
-0.468495	0.825322	0.182891	
-0.31578	0.863109	0.155248	
-0.390863	0.914451	0.0980906	
0.183156	1.27411	0.5	
0.232161	1.34745	0.5	
0.209063	1.27717	0.342511	
0.109201	1.35772	0.375246	
-0.186407	0.830549	0	
-0.196211	0.8458	0.119009	
-0.168688	0.718299	0	
-0.111014	0.733523	0.0849706	
0.0956709	0.76903	0.5	
0.183156	0.725887	0.5	
0.064316	0.676662	0.5	
0.0581157	0.769455	0.403061	
0.164574	0.7464	0.211103	
0.177224	0.838965	0.12521	
0.0541326	0.793785	0.132666	
0.106858	0.844305	0.230248	
0.114055	1.37411	0	
0.098462	1.32087	0.159093	
0.133074	1.2641	0	
0.190875	1.34709	0.10503	
-0.364752	1.11394	0.23148	
-0.382289	1.08918	0.382504	
-0.285945	1.12176	0.325452	
-0.343626	1.20201	0.373624	
-0.468495	0.825322	0.182891	
-0.37095	0.93253	0.240862	
-0.31578	0.863109	0.155248	
-0.390863	0.914451	0.0980906	
-0.444481	0.771009	0.0919014	
-0.41072	0.87541	0	
-0.477948	0.853147	0.0840084	
-0.390863	0.914451	0.0980906	
-0.115695	1.05029	0.334241	
-0.0611059	1.11559	0.264866	
-0.00748686	1.04315	0.386084	
0.00363562	1.02785	0.291568	
0.0943468	0.754666	0	
0.0248177	0.686626	0	
0.112799	0.66644	0	
0.142608	0.739294	0.106454	
0.106675	0.966314	0.5	
0.185939	0.963014	0.5	
0.141405	0.904892	0.5	
0.101939	0.907787	0.403472	
0.450285	1.21736	0.355302	
0.347642	1.19453	0.384775	
0.470916	1.16804	0.300126	
0.385098	1.08722	0.383771	
-0.238488	0.560542	0.0756919	
-0.203173	0.626976	0	
-0.315029	0.611726	0.0791933	
-0.183989	0.672241	0.119932	
0.386505	0.682803	0.431175	
0.317233	0.613524	0.409527	
0.278087	0.721913	0.5	
0.260241	0.698507	0.343916	
0.5	1	0.4	
0.398221	1	0.5	
0.495101	1.06982	0.427621	
0.385098	1.08722	0.383771	
0.380873	1.32394	0.152261	
0.436762	1.24339	0.0969381	
0.428195	1.25817	0.201755	
0.353151	1.15839	0.109095	
-0.238488	0.560542	0.0756919	
-0.315029	0.611726	0.0791933	
-0.277785	0.584265	0.134138	
-0.183989	0.672241	0.119932	
-0.0850696	1.27829	0.394238	
-0.0964049	1.37384	0.276475	
-0.18052	1.3078	0.334608	
-0.0552231	1.38907	0.38538	
-0.440961	0.764302	0.431431	
-0.289723	0.75771	0.393302	
-0.437078	0.757178	0.347009	
-0.351645	0.874975	0.390413	
0.235698	0.559039	0.431431	
0.242822	0.562922	0.347009	
0.153328	0.52409	0.40763	
0.151014	0.679593	0.343049	
-0.183156	1.27411	0.5	
-0.0850696	1.27829	0.394238	
-0.18052	1.3078	0.334608	
-0.166036	1.37976	0.398541	
0.469721	1.17135	0.161666	
0.334194	1.15432	0.215771	
0.353151	1.15839	0.109095	
0.40353	1.07301	0.105949	
0.288623	1.13754	0.312711	
0.22536	1.15058	0.40335	
0.208793	1.06331	0.266812	
0.284123	1.06741	0.387999	
0.288623	1.13754	0.312711	
0.209063	1.27717	0.342511	
0.295334	1.24597	0.26697	
0.219623	1.16199	0.240766	
-0.437078	1.24282	0.152991	
-0.440961	1.2357	0.068569	
-0.386476	1.31723	0.0904728	
-0.277342	1.24516	0.0975038	
0.133074	1.2641	0	
0.190875	1.34709	0.10503	
0.098462	1.32087	0.159093	
0.189162	1.24479	0.0938772	
0.151014	0.679593	0.343049	
0.206682	0.777113	0.400851	
0.121965	0.82524	0.342904	
0.0581157	0.769455	0.403061	
-0.0297704	0.68077	0.178611	
-0.0726386	0.798943	0.15243	
-0.081357	0.751661	0.265055	
0.0468326	0.745128	0.237913	
-0.281585	0.718415	0.5	
-0.232161	0.652547	0.5	
-0.317197	0.613495	0.431175	
-0.289723	0.75771	0.393302	
-0.258165	0.571805	0.298245	
-0.243391	0.563238	0.403062	
-0.171353	0.530279	0.338334	
-0.153774	0.693588	0.346551	
0.119419	1.18151	0.251425	
0.0902907	1.23506	0.376077	
0.209063	1.27717	0.342511	
0.105734	1.2948	0.276786	
0.106675	0.966314	0.5	
0.185939	0.963014	0.5	
0.101939	0.907787	0.403472	
0.113162	1.01769	0.414132	
-0.176777	1.17678	0.5	
-0.234257	1.21312	0.375398	
-0.125823	1.17124	0.373805	
-0.179827	1.088	0.408491	
0.436762	1.24339	0.0969381	
0.353151	1.15839	0.109095	
0.380873	1.32394	0.152261	
0.28898	1.28652	0.0949489	
-0.177191	1.03636	0.5	
-0.157632	0.968645	0.5	
-0.203766	0.963562	0.377533	
-0.105137	0.975975	0.404942	
-0.115695	1.05029	0.334241	
-0.105137	0.975975	0.404942	
-0.00748686	1.04315	0.386084	
-0.0571477	1.11947	0.416349	
0.276476	1.05355	0	
0.314271	0.949812	0	
0.346509	1.02379	0	
0.265828	0.94766	0.123486	
-0.227254	0.962083	0.121579	
-0.196211	0.8458	0.119009	
-0.110633	0.921519	0.156892	
-0.170219	0.871655	0.235589	
0.0814864	0.506685	0.152319	
0.0854243	0.507351	0.248597	
0.174678	0.531505	0.182891	
0.15722	0.635104	0.236843	
-0.0297704	0.68077	0.178611	
0.0468326	0.745128	0.237913	
0.00505532	0.706778	0.339312	
0.0452903	0.623513	0.25784	
-0.064316	0.676662	0.5	
0.00505532	0.706778	0.339312	
0.064316	0.676662	0.5	
-0.039093	0.610067	0.388942	
0.0807477	0.506563	0.345776	
0.168734	0.529332	0.298219	
0.0452903	0.623513	0.25784	
0.0738912	0.610829	0.388761	
-0.189227	0.766031	0.208899	
-0.196211	0.8458	0.119009	
-0.0726386	0.798943	0.15243	
-0.111014	0.733523	0.0849706	
0.232161	0.652547	0.5	
0.317233	0.613524	0.409527	
0.235698	0.559039	0.431431	
0.260241	0.698507	0.343916	
0.428195	0.741835	0.298245	
0.376757	0.671284	0.253532	
0.278655	0.736565	0.241439	
0.358257	0.834187	0.252847	
-0.189227	0.766031	0.208899	
-0.136534	0.645188	0.231761	
-0.153774	0.693588	0.346551	
-0.259603	0.71434	0.292274	
0.0541326	0.793785	0.132666	
0.142608	0.739294	0.106454	
0.0999617	0.645199	0.138238	
-0.00982582	0.726304	0.0884564	
-0.119993	1.24669	0	
-0.0295403	1.22514	0	
-0.0555676	1.32557	0	
0.00439522	1.27731	0.103072	
-0.0833019	0.506988	0.155211	
0	0.5	0.2	
0.00284042	0.609614	0.1018	
-0.0982069	0.610875	0.136018	
0.328092	1.27024	0	
0.436762	1.24339	0.0969381	
0.386505	1.3172	0.0688254	
0.28898	1.28652	0.0949489	
-0.0369856	0.814061	0.5	
-0.0218546	0.89013	0.5	
-0.00643767	0.847524	0.3797	
-0.087284	0.884388	0.408402	
0.288623	1.13754	0.312711	
0.334194	1.15432	0.215771	
0.208793	1.06331	0.266812	
0.219623	1.16199	0.240766	
-0.105137	0.975975	0.404942	
-0.179827	1.088	0.408491	
-0.117202	1.0938	0.5	
-0.0571477	1.11947	0.416349	
-0.0726386	0.798943	0.15243	
-0.196211	0.8458	0.119009	
-0.189227	0.766031	0.208899	
-0.170219	0.871655	0.235589	
-0.356684	0.80649	0	
-0.331361	0.727047	0	
-0.261345	0.769964	0	
-0.283151	0.746042	0.130367	
0.0468326	0.745128	0.237913	
0.0452903	0.623513	0.25784	
0.0999617	0.645199	0.138238	
0.15722	0.635104	0.236843	
0.0344957	0.828097	0.5	
0	0.75	0.5	
-0.0369856	0.814061	0.5	
0.0581157	0.769455	0.403061	
-0.437078	1.24282	0.152991	
-0.364752	1.11394	0.23148	
-0.470668	1.16873	0.201781	
-0.357904	1.11593	0.101286	
0.0807477	1.49344	0.154224	
0.168734	1.47067	0.201781	
0.0854243	1.49265	0.251403	
0.0196341	1.38361	0.225797	
-0.315029	0.611726	0.0791933	
-0.183989	0.672241	0.119932	
-0.283151	0.746042	0.130367	
-0.247852	0.673084	0.199607	
0.212182	1.31459	0.219285	
0.295334	1.24597	0.26697	
0.209063	1.27717	0.342511	
0.219623	1.16199	0.240766	
0.0593465	1.06716	0.10856	
-0.0105385	0.962638	0.111113	
-0.0151696	1.04156	0.198031	
-0.0543483	1.10288	0.107179	
-0.168043	1.47092	0.300126	
-0.193559	1.35773	0.245031	
-0.0964049	1.37384	0.276475	
-0.166036	1.37976	0.398541	
0.194604	0.628812	0	
0.247079	0.718599	0.118367	
0.201164	0.726422	0	
0.142608	0.739294	0.106454	
-0.296327	0.833736	0.292179	
-0.37095	0.93253	0.240862	
-0.31578	0.863109	0.155248	
-0.332607	0.773484	0.222023	
-0.153774	0.693588	0.346551	
-0.189227	0.766031	0.208899	
-0.081357	0.751661	0.265055	
-0.136534	0.645188	0.231761	
-0.386476	1.31723	0.0904728	
-0.386792	1.31685	0.198616	
-0.437078	1.24282	0.152991	
-0.277342	1.24516	0.0975038	
0.183156	1.27411	0.5	
0.176777	1.17678	0.5	
0.0956709	1.23097	0.5	
0.0902907	1.23506	0.376077	
-0.274113	1.18316	0.5	
-0.323338	1.06432	0.5	
-0.363339	1.1505	0.5	
-0.275403	1.0393	0.403336	
0.5	1	0.3	
0.378383	1.07129	0.271427	
0.347602	0.985936	0.348343	
0.385098	1.08722	0.383771	
-0.277785	0.584265	0.134138	
-0.217356	0.549715	0.144698	
-0.183989	0.672241	0.119932	
-0.247852	0.673084	0.199607	
0.0999617	0.645199	0.138238	
0.0452903	0.623513	0.25784	
-0.0297704	0.68077	0.178611	
0.00284042	0.609614	0.1018	
-0.468495	0.825322	0.182891	
-0.429146	0.74342	0.16876	
-0.31578	0.863109	0.155248	
-0.332607	0.773484	0.222023	
0.0937412	0.930011	0.154317	
0.159132	0.984216	0.0920948	
0.168914	1.06767	0.155545	
0.134932	0.977505	0.230093	
0.0244505	0.94868	0.233905	
0.148799	0.913537	0.303647	
0.106858	0.844305	0.230248	
0.134932	0.977505	0.230093	
-0.468495	0.825322	0.182891	
-0.493315	0.918514	0.152319	
-0.37095	0.93253	0.240862	
-0.390863	0.914451	0.0980906	
-0.315029	0.611726	0.0791933	
-0.331361	0.727047	0	
-0.386831	0.6832	0.104097	
-0.283151	0.746042	0.130367	
0.0153159	1.36356	0	
0.0401436	1.2912	0	
0.114055	1.37411	0	
0.0105232	1.38676	0.111861	
0.0761103	0.977349	0.33014	
0.203143	1.00597	0.37146	
0.101939	0.907787	0.403472	
0.148799	0.913537	0.303647	
-0.210789	1.29041	0.168489	
-0.153777	1.36779	0.103264	
-0.258165	1.42819	0.201755	
-0.193559	1.35773	0.245031	
0.064316	0.676662	0.5	
0.183156	0.725887	0.5	
0.152126	0.632735	0.5	
0.151014	0.679593	0.343049	
-0.0422582	0.562527	0	
-0.0698189	0.504899	0.0723791	
0.00284042	0.609614	0.1018	
-0.0982069	0.610875	0.136018	
-0.110633	0.921519	0.156892	
-0.196211	0.8458	0.119009	
-0.0726386	0.798943	0.15243	
-0.170219	0.871655	0.235589	
0.3168	1.38683	0.395903	
0.25658	1.42915	0.33124	
0.317206	1.3865	0.299678	
0.209063	1.27717	0.342511	
-0.0422582	0.562527	0	
-0.0328721	0.629311	0	
-0.114467	0.613668	0	
-0.0982069	0.610875	0.136018	
0.151014	0.679593	0.343049	
0.0581157	0.769455	0.403061	
0.00505532	0.706778	0.339312	
0.0738912	0.610829	0.388761	
0.226544	0.947552	0.250202	
0.148799	0.913537	0.303647	
0.203143	1.00597	0.37146	
0.134932	0.977505	0.230093	
0.428195	0.741835	0.298245	
0.4284	0.742176	0.204976	
0.376757	0.671284	0.253532	
0.358257	0.834187	0.252847	
-0.00748686	1.04315	0.386084	
-0.0611059	1.11559	0.264866	
-0.00173102	1.15684	0.347507	
0.00363562	1.02785	0.291568	
-0.0850696	1.27829	0.394238	
-0.0552231	1.38907	0.38538	
-0.18052	1.3078	0.334608	
-0.166036	1.37976	0.398541	
-0.315029	0.611726	0.0791933	
-0.203173	0.626976	0	
-0.263582	0.680587	0	
-0.183989	0.672241	0.119932	
-0.210789	1.29041	0.168489	
-0.0697093	1.32708	0.167311	
-0.153777	1.36779	0.103264	
-0.193559	1.35773	0.245031	
0.323338	0.935684	0.5	
0.347602	0.985936	0.348343	
0.398221	1	0.5	
0.368617	0.876452	0.385763	
0.274113	1.18316	0.5	
0.347642	1.19453	0.384775	
0.369516	1.15306	0.5	
0.284123	1.06741	0.387999	
-0.183156	1.27411	0.5	
-0.18052	1.3078	0.334608	
-0.234257	1.21312	0.375398	
-0.263985	1.32297	0.375811	
-0.00643767	0.847524	0.3797	
0.101939	0.907787	0.403472	
0.121965	0.82524	0.342904	
0.0531758	0.885699	0.315425	
-0.115695	1.05029	0.334241	
-0.10768	0.996359	0.238131	
-0.0611059	1.11559	0.264866	
0.00363562	1.02785	0.291568	
-0.0964049	1.37384	0.276475	
-0.0552231	1.38907	0.38538	
-0.0833019	1.49301	0.344789	
-0.166036	1.37976	0.398541	
8.18872e-17	1.39822	0.5	
0.064316	1.32334	0.5	
-0.064316	1.32334	0.5	
-0.0552231	1.38907	0.38538	
-0.183156	1.27411	0.5	
-0.18052	1.3078	0.334608	
-0.263985	1.32297	0.375811	
-0.166036	1.37976	0.398541	
0.25	1	0.5	
0.203143	1.00597	0.37146	
0.23097	1.09567	0.5	
0.284123	1.06741	0.387999	
-0.0815241	0.590151	0.5	
-0.144862	0.521445	0.421652	
-0.152126	0.632735	0.5	
-0.039093	0.610067	0.388942	
-0.168043	0.529084	0.199874	
-0.217356	0.549715	0.144698	
-0.136534	0.645188	0.231761	
-0.0982069	0.610875	0.136018	
-0.156284	1.06551	0.149142	
-0.10768	0.996359	0.238131	
-0.110633	0.921519	0.156892	
-0.10307	0.999921	0.0930669	
-0.440961	1.2357	0.068569	
-0.318983	1.26174	0	
-0.386476	1.31723	0.0904728	
-0.277342	1.24516	0.0975038	
-0.302044	0.949354	0	
-0.227254	0.962083	0.121579	
-0.237047	1.02014	0	
-0.256772	1.06769	0.100506	
0.470916	0.831957	0.199874	
0.476114	0.847306	0.0975404	
0.450285	0.782644	0.144698	
0.355602	0.87751	0.0966392	
-0.0925337	0.803549	0	
-0.196211	0.8458	0.119009	
-0.111014	0.733523	0.0849706	
-0.0724446	0.868744	0.084223	
0.201164	0.726422	0	
0.247079	0.718599	0.118367	
0.245477	0.808349	0	
0.142608	0.739294	0.106454	
0.490343	1.0978	0.241226	
0.460548	1.19467	0.23433	
0.469721	1.17135	0.161666	
0.334194	1.15432	0.215771	
0.374193	0.668368	0.165357	
0.247079	0.718599	0.118367	
0.317206	0.613502	0.200322	
0.278655	0.736565	0.241439	
0.428195	1.25817	0.201755	
0.4284	1.25782	0.295024	
0.295334	1.24597	0.26697	
0.334194	1.15432	0.215771	
-0.114467	0.613668	0	
-0.203173	0.626976	0	
-0.152694	0.523886	0.0975404	
-0.183989	0.672241	0.119932	
0.064316	0.676662	0.5	
0.00505532	0.706778	0.339312	
0.0581157	0.769455	0.403061	
0.0738912	0.610829	0.388761	
0.212182	1.31459	0.219285	
0.190875	1.34709	0.10503	
0.316847	1.38679	0.198616	
0.28898	1.28652	0.0949489	
-0.00643767	0.847524	0.25115	
0.0244505	0.94868	0.233905	
0.106858	0.844305	0.230248	
-0.00436862	0.872297	0.154061	
0.0807477	0.506563	0.345776	
0.0452903	0.623513	0.25784	
0	0.5	0.3	
0.0738912	0.610829	0.388761	
-0.5	1	0.3	
-0.493437	0.919252	0.345776	
-0.492649	0.914576	0.248597	
-0.37095	0.93253	0.240862	
0.226544	0.947552	0.250202	
0.203143	1.00597	0.37146	
0.208793	1.06331	0.266812	
0.134932	0.977505	0.230093	
-0.00982582	0.726304	0.0884564	
-0.111014	0.733523	0.0849706	
-0.0726386	0.798943	0.15243	
-0.0724446	0.868744	0.084223	
0.493012	1.0833	0.344789	
0.378383	1.07129	0.271427	
0.5	1	0.3	
0.385098	1.08722	0.383771	
0.112799	0.66644	0	
0.0404524	0.58928	0	
0.0999617	0.645199	0.138238	
0.00284042	0.609614	0.1018	
0.380873	1.32394	0.152261	
0.428195	1.25817	0.201755	
0.376757	1.32872	0.246468	
0.295334	1.24597	0.26697	
-0.317197	1.38651	0.0688254	
-0.318983	1.26174	0	
-0.273315	1.33496	0	
-0.277342	1.24516	0.0975038	
-0.243391	1.43676	0.0969381	
-0.258165	1.42819	0.201755	
-0.210789	1.29041	0.168489	
-0.153777	1.36779	0.103264	
-0.16685	1.08834	0	
-0.0734441	1.06169	0	
-0.0983601	1.15643	0	
-0.0543483	1.10288	0.107179	
0.0956709	0.76903	0.5	
0.206682	0.777113	0.400851	
0.183156	0.725887	0.5	
0.0581157	0.769455	0.403061	
-0.168043	1.47092	0.300126	
-0.0964049	1.37384	0.276475	
-0.0833019	1.49301	0.344789	
-0.166036	1.37976	0.398541	
-0.0892911	0.866366	0.5	
-0.0369856	0.814061	0.5	
-0.0862712	0.770823	0.389289	
-0.087284	0.884388	0.408402	
0.490343	1.0978	0.241226	
0.378383	1.07129	0.271427	
0.460548	1.19467	0.23433	
0.334194	1.15432	0.215771	
-0.0297704	0.68077	0.178611	
0.0999617	0.645199	0.138238	
0.0468326	0.745128	0.237913	
0.0452903	0.623513	0.25784	
0.323338	0.935684	0.5	
0.274113	0.816844	0.5	
0.23097	0.904329	0.5	
0.368617	0.876452	0.385763	
-0.157632	0.894674	0.5	
-0.203766	0.963562	0.377533	
-0.157632	0.968645	0.5	
-0.105137	0.975975	0.404942	
-0.257824	0.5716	0.204976	
-0.258165	0.571805	0.298245	
-0.136534	0.645188	0.231761	
-0.247852	0.673084	0.199607	
-0.404541	1.12695	0	
-0.389036	1.20743	0	
-0.440961	1.2357	0.068569	
-0.357904	1.11593	0.101286	
0	0.5	0.4	
0	0.5	0.3	
-0.039093	0.610067	0.388942	
0.0738912	0.610829	0.388761	
0.469721	0.828647	0.338334	
0.428195	0.741835	0.298245	
0.436762	0.756609	0.403062	
0.368617	0.876452	0.385763	
0.325159	1.05851	0.165819	
0.253711	1.11341	0.104023	
0.353151	1.15839	0.109095	
0.40353	1.07301	0.105949	
-0.0833019	1.49301	0.344789	
-0.0964049	1.37384	0.276475	
0	1.5	0.3	
-0.0552231	1.38907	0.38538	
-0.18052	1.3078	0.334608	
-0.0552231	1.38907	0.38538	
-0.0964049	1.37384	0.276475	
-0.166036	1.37976	0.398541	
-0.00674902	1.18961	0.168493	
0.0143983	1.28276	0.204525	
-0.0330822	1.21734	0.266884	
0.0323895	1.13978	0.258564	
0.228991	1.44448	0.408099	
0.174678	1.4685	0.317109	
0.25658	1.42915	0.33124	
0.109201	1.35772	0.375246	
-0.00643767	0.847524	0.25115	
0.0541326	0.793785	0.132666	
0.106858	0.844305	0.230248	
0.0468326	0.745128	0.237913	
-0.470668	1.16873	0.201781	
-0.364752	1.11394	0.23148	
-0.493437	1.08075	0.154224	
-0.357904	1.11593	0.101286	
-0.258165	1.42819	0.201755	
-0.328716	1.37676	0.246468	
-0.323938	1.38087	0.152261	
-0.210789	1.29041	0.168489	
-0.25	1	0.5	
-0.177191	1.03636	0.5	
-0.203766	0.963562	0.377533	
-0.275403	1.0393	0.403336	
-0.110633	0.921519	0.156892	
-0.170219	0.871655	0.235589	
-0.0726386	0.798943	0.15243	
-0.0821557	0.901585	0.243527	
-0.0151696	1.04156	0.198031	
-0.0543483	1.10288	0.107179	
-0.0105385	0.962638	0.111113	
-0.10307	0.999921	0.0930669	
0.317206	1.3865	0.299678	
0.316847	1.38679	0.198616	
0.376757	1.32872	0.246468	
0.295334	1.24597	0.26697	
-0.0297704	0.68077	0.178611	
-0.0726386	0.798943	0.15243	
0.0541326	0.793785	0.132666	
-0.00982582	0.726304	0.0884564	
-0.177191	1.03636	0.5	
-0.179827	1.088	0.408491	
-0.203766	0.963562	0.377533	
-0.275403	1.0393	0.403336	
0.470916	0.831957	0.199874	
0.493012	0.916698	0.155211	
0.476114	0.847306	0.0975404	
0.355602	0.87751	0.0966392	
-0.00643767	0.847524	0.25115	
0.106858	0.844305	0.230248	
0.0541326	0.793785	0.132666	
-0.00436862	0.872297	0.154061	
0.232161	0.652547	0.5	
0.151014	0.679593	0.343049	
0.183156	0.725887	0.5	
0.206682	0.777113	0.400851	
-0.0726386	0.798943	0.15243	
-0.111014	0.733523	0.0849706	
-0.196211	0.8458	0.119009	
-0.0724446	0.868744	0.084223	
-0.171353	0.530279	0.338334	
-0.0977967	0.509657	0.258774	
-0.194667	0.539452	0.26567	
-0.136534	0.645188	0.231761	
0	0.5	0.4	
0.0807477	0.506563	0.345776	
0	0.5	0.3	
0.0738912	0.610829	0.388761	
-0.347453	0.767839	0.5	
-0.289723	0.75771	0.393302	
-0.440961	0.764302	0.431431	
-0.351645	0.874975	0.390413	
-0.495012	1.07045	0.0718447	
-0.426463	1.04414	0	
-0.404541	1.12695	0	
-0.357904	1.11593	0.101286	
0.388274	1.31503	0.420807	
0.347453	1.23216	0.5	
0.281092	1.28109	0.5	
0.347642	1.19453	0.384775	
0.274113	1.18316	0.5	
0.22536	1.15058	0.40335	
0.347642	1.19453	0.384775	
0.284123	1.06741	0.387999	
0.274113	1.18316	0.5	
0.183156	1.27411	0.5	
0.281092	1.28109	0.5	
0.22536	1.15058	0.40335	
0.106858	0.844305	0.230248	
0.0244505	0.94868	0.233905	
0.0937412	0.930011	0.154317	
-0.00436862	0.872297	0.154061	
0.274113	0.816844	0.5	
0.211575	0.889225	0.384788	
0.285177	0.816119	0.328962	
0.206682	0.777113	0.400851	
0.245477	0.808349	0	
0.164797	0.822415	0	
0.201164	0.726422	0	
0.142608	0.739294	0.106454	
0.388274	0.684971	0.0791933	
0.314857	0.742551	0	
0.268393	0.665699	0	
0.247079	0.718599	0.118367	
0.373926	1.19893	0	
0.414183	1.13115	0	
0.478555	1.14486	0.0783483	
0.353151	1.15839	0.109095	
-0.429146	1.25658	0.33124	
-0.279096	1.24359	0.272562	
-0.386498	1.31721	0.299678	
-0.343626	1.20201	0.373624	
0.317206	1.3865	0.299678	
0.212182	1.31459	0.219285	
0.316847	1.38679	0.198616	
0.295334	1.24597	0.26697	
-0.114467	0.613668	0	
-0.183989	0.672241	0.119932	
-0.152694	0.523886	0.0975404	
-0.0982069	0.610875	0.136018	
-0.257824	0.5716	0.204976	
-0.168043	0.529084	0.199874	
-0.217356	0.549715	0.144698	
-0.136534	0.645188	0.231761	
0.153328	0.52409	0.40763	
0.151014	0.679593	0.343049	
0.168734	0.529332	0.298219	
0.0738912	0.610829	0.388761	
-0.274228	1.15934	0.161857	
-0.256772	1.06769	0.100506	
-0.3474	1.01863	0.155865	
-0.357904	1.11593	0.101286	
0.260232	1.21075	0.160089	
0.253711	1.11341	0.104023	
0.334194	1.15432	0.215771	
0.219623	1.16199	0.240766	
-0.115695	1.05029	0.334241	
-0.045108	0.948191	0.315425	
-0.10768	0.996359	0.238131	
0.00363562	1.02785	0.291568	
0.388274	0.684971	0.0791933	
0.268393	0.665699	0	
0.3168	0.613169	0.104097	
0.247079	0.718599	0.118367	
0.0209546	1.03628	0	
0.0593465	1.06716	0.10856	
-0.00425413	1.131	0	
-0.0543483	1.10288	0.107179	
0.323338	1.06432	0.5	
0.398221	1	0.5	
0.347602	0.985936	0.348343	
0.385098	1.08722	0.383771	
0.119419	1.18151	0.251425	
0.0919908	1.06424	0.248206	
0.125116	1.11613	0.369411	
0.0323895	1.13978	0.258564	
-0.183156	0.725887	0.5	
-0.064316	0.676662	0.5	
-0.153774	0.693588	0.346551	
-0.0862712	0.770823	0.389289	
-0.257824	1.4284	0.295024	
-0.193559	1.35773	0.245031	
-0.18052	1.3078	0.334608	
-0.263985	1.32297	0.375811	
-0.274113	0.816844	0.5	
-0.239777	0.86007	0.398057	
-0.176777	0.823223	0.5	
-0.289723	0.75771	0.393302	
0.0541326	0.793785	0.132666	
0.106858	0.844305	0.230248	
0.0937412	0.930011	0.154317	
-0.00436862	0.872297	0.154061	
0.112799	0.66644	0	
0.0248177	0.686626	0	
0.0404524	0.58928	0	
0.00284042	0.609614	0.1018	
0.228991	1.44448	0.408099	
0.152393	1.36791	0.5	
0.146853	1.47795	0.415992	
0.109201	1.35772	0.375246	
0.470916	1.16804	0.300126	
0.460548	1.19467	0.23433	
0.378383	1.07129	0.271427	
0.334194	1.15432	0.215771	
-0.257824	0.5716	0.204976	
-0.258165	0.571805	0.298245	
-0.194667	0.539452	0.26567	
-0.136534	0.645188	0.231761	
-0.444481	0.771009	0.0919014	
-0.429146	0.74342	0.16876	
-0.386831	0.6832	0.104097	
-0.283151	0.746042	0.130367	
-0.00167925	1.31098	0.319981	
0.105734	1.2948	0.276786	
-0.0330822	1.21734	0.266884	
0.0143983	1.28276	0.204525	
0.0814864	0.506685	0.152319	
0.0999617	0.645199	0.138238	
0.0728232	0.505332	0.0735406	
0.00284042	0.609614	0.1018	
0.376757	0.671284	0.253532	
0.4284	0.742176	0.204976	
0.374193	0.668368	0.165357	
0.278655	0.736565	0.241439	
-0.189227	0.766031	0.208899	
-0.259603	0.71434	0.292274	
-0.296327	0.833736	0.292179	
-0.332607	0.773484	0.222023	
-0.136534	0.645188	0.231761	
-0.259603	0.71434	0.292274	
-0.189227	0.766031	0.208899	
-0.247852	0.673084	0.199607	
0.347453	0.767839	0.5	
0.278087	0.721913	0.5	
0.274113	0.816844	0.5	
0.206682	0.777113	0.400851	
-0.152694	0.523886	0.0975404	
-0.238488	0.560542	0.0756919	
-0.217356	0.549715	0.144698	
-0.183989	0.672241	0.119932	
0.158056	1.17188	0	
0.184962	1.07993	0	
0.247868	1.14631	0	
0.253711	1.11341	0.104023	
-0.434698	0.752943	0.249501	
-0.437078	0.757178	0.347009	
-0.386792	0.683153	0.301384	
-0.332607	0.773484	0.222023	
-0.363339	1.1505	0.5	
-0.382289	1.08918	0.382504	
-0.477948	1.14685	0.415992	
-0.343626	1.20201	0.373624	
0.00183684	0.777669	0	
-0.0925337	0.803549	0	
-0.00982582	0.726304	0.0884564	
-0.0724446	0.868744	0.084223	
0.183156	0.725887	0.5	
0.232161	0.652547	0.5	
0.152126	0.632735	0.5	
0.151014	0.679593	0.343049	
0.168734	1.47067	0.201781	
0.242822	1.43708	0.152991	
0.212182	1.31459	0.219285	
0.190875	1.34709	0.10503	
-0.045108	0.948191	0.315425	
0.0244505	0.94868	0.233905	
-0.10768	0.996359	0.238131	
0.00363562	1.02785	0.291568	
-0.0892911	0.866366	0.5	
-0.0369856	0.814061	0.5	
-0.0956709	0.76903	0.5	
-0.0862712	0.770823	0.389289	
0.428195	1.25817	0.201755	
0.460548	1.19467	0.23433	
0.4284	1.25782	0.295024	
0.334194	1.15432	0.215771	
-0.114467	0.613668	0	
-0.0982069	0.610875	0.136018	
-0.0638367	0.704239	0	
-0.111014	0.733523	0.0849706	
0.226544	0.947552	0.250202	
0.211575	0.889225	0.384788	
0.203143	1.00597	0.37146	
0.148799	0.913537	0.303647	
0.211575	0.889225	0.384788	
0.101939	0.907787	0.403472	
0.203143	1.00597	0.37146	
0.148799	0.913537	0.303647	
-0.144862	0.521445	0.421652	
-0.0810399	0.506611	0.35285	
-0.171353	0.530279	0.338334	
-0.039093	0.610067	0.388942	
-0.194667	1.46055	0.23433	
-0.171353	1.46972	0.161666	
-0.0977967	1.49034	0.241226	
-0.0964049	1.37384	0.276475	
0.0761103	0.977349	0.33014	
0.0531758	0.885699	0.315425	
0.0244505	0.94868	0.233905	
0.148799	0.913537	0.303647	
0.0943468	0.754666	0	
0.142608	0.739294	0.106454	
0.0541326	0.793785	0.132666	
-0.00982582	0.726304	0.0884564	
-0.0697093	1.32708	0.167311	
0.0196341	1.38361	0.225797	
-0.0964049	1.37384	0.276475	
0.0143983	1.28276	0.204525	
-0.315029	0.611726	0.0791933	
-0.283151	0.746042	0.130367	
-0.331632	0.625807	0.165357	
-0.247852	0.673084	0.199607	
-0.157632	0.894674	0.5	
-0.23097	0.904329	0.5	
-0.203766	0.963562	0.377533	
-0.239777	0.86007	0.398057	
-0.344127	0.887773	0	
-0.41072	0.87541	0	
-0.356684	0.80649	0	
-0.390863	0.914451	0.0980906	
0.14072	0.916025	0	
0.164797	0.822415	0	
0.232997	0.88938	0	
0.177224	0.838965	0.12521	
0.164574	0.7464	0.211103	
0.0541326	0.793785	0.132666	
0.177224	0.838965	0.12521	
0.142608	0.739294	0.106454	
-0.045108	0.948191	0.315425	
-0.00748686	1.04315	0.386084	
-0.115695	1.05029	0.334241	
-0.105137	0.975975	0.404942	
0.00505532	0.706778	0.339312	
-0.081357	0.751661	0.265055	
-0.0862712	0.770823	0.389289	
0.0347483	0.794732	0.315425	
-0.3474	1.01863	0.155865	
-0.364752	1.11394	0.23148	
-0.274228	1.15934	0.161857	
-0.357904	1.11593	0.101286	
0.164574	0.7464	0.211103	
0.106858	0.844305	0.230248	
0.0541326	0.793785	0.132666	
0.0468326	0.745128	0.237913	
-0.323338	0.935684	0.5	
-0.363598	0.972427	0.365583	
-0.397525	1	0.5	
-0.275403	1.0393	0.403336	
-0.25	1	0.5	
-0.177191	1.03636	0.5	
-0.157632	0.968645	0.5	
-0.203766	0.963562	0.377533	
0.25658	0.570854	0.16876	
0.3168	0.613169	0.104097	
0.228991	0.555519	0.0919014	
0.247079	0.718599	0.118367	
0.00505532	0.706778	0.339312	
-0.00643767	0.847524	0.3797	
0.0581157	0.769455	0.403061	
0.0347483	0.794732	0.315425	
-0.0964049	1.37384	0.276475	
0.0196341	1.38361	0.225797	
-0.00167925	1.31098	0.319981	
0.0143983	1.28276	0.204525	
-0.258165	1.42819	0.201755	
-0.323938	1.38087	0.152261	
-0.243391	1.43676	0.0969381	
-0.210789	1.29041	0.168489	
0.317233	1.38648	0.0904728	
0.316847	1.38679	0.198616	
0.190875	1.34709	0.10503	
0.28898	1.28652	0.0949489	
0.0761103	0.977349	0.33014	
0.101939	0.907787	0.403472	
0.203143	1.00597	0.37146	
0.113162	1.01769	0.414132	
0.141405	0.904892	0.5	
0.185939	0.963014	0.5	
0.23097	0.904329	0.5	
0.211575	0.889225	0.384788	
0.064316	1.32334	0.5	
0.183156	1.27411	0.5	
0.0956709	1.23097	0.5	
0.0902907	1.23506	0.376077	
-0.00643767	0.847524	0.3797	
-0.0862712	0.770823	0.389289	
0.00505532	0.706778	0.339312	
0.0581157	0.769455	0.403061	
-0.5	1	0.2	
-0.5	1	0.3	
-0.492649	0.914576	0.248597	
-0.37095	0.93253	0.240862	
-0.386831	1.3168	0.395903	
-0.343626	1.20201	0.373624	
-0.386498	1.31721	0.299678	
-0.263985	1.32297	0.375811	
-0.00748686	1.04315	0.386084	
-0.105137	0.975975	0.404942	
-0.0427935	1.02817	0.5	
-0.0571477	1.11947	0.416349	
-0.31578	0.863109	0.155248	
-0.37095	0.93253	0.240862	
-0.3474	1.01863	0.155865	
-0.390863	0.914451	0.0980906	
-0.144063	0.852748	0.341365	
-0.0862712	0.770823	0.389289	
-0.00643767	0.847524	0.3797	
-0.087284	0.884388	0.408402	
-0.277785	0.584265	0.134138	
-0.257824	0.5716	0.204976	
-0.217356	0.549715	0.144698	
-0.247852	0.673084	0.199607	
-0.363339	1.1505	0.5	
-0.477948	1.14685	0.415992	
-0.444481	1.22899	0.408099	
-0.343626	1.20201	0.373624	
-0.183156	0.725887	0.5	
-0.064316	0.676662	0.5	
-0.152126	0.632735	0.5	
-0.153774	0.693588	0.346551	
0.00505532	0.706778	0.339312	
-0.0862712	0.770823	0.389289	
-0.00643767	0.847524	0.3797	
0.0347483	0.794732	0.315425	
0.00505532	0.706778	0.339312	
-0.081357	0.751661	0.265055	
-0.153774	0.693588	0.346551	
-0.0862712	0.770823	0.389289	
-0.183156	0.725887	0.5	
-0.176777	0.823223	0.5	
-0.0956709	0.76903	0.5	
-0.0862712	0.770823	0.389289	
-0.214341	1.27376	0	
-0.26105	1.2034	0	
-0.18644	1.1823	0	
-0.277342	1.24516	0.0975038	
0.261819	1.31903	0	
0.235698	1.44096	0.068569	
0.202324	1.37852	0	
0.190875	1.34709	0.10503	
0.450285	0.782644	0.144698	
0.4284	0.742176	0.204976	
0.470916	0.831957	0.199874	
0.358257	0.834187	0.252847	
0.323338	1.06432	0.5	
0.347602	0.985936	0.348343	
0.323338	0.935684	0.5	
0.284123	1.06741	0.387999	
-0.437078	1.24282	0.152991	
-0.434698	1.24706	0.250499	
-0.470668	1.16873	0.201781	
-0.364752	1.11394	0.23148	
0.163502	1.02984	0.5	
0.25	1	0.5	
0.185939	0.963014	0.5	
0.203143	1.00597	0.37146	
0.439458	0.761512	0.0756919	
0.341118	0.774271	0.0916023	
0.450285	0.782644	0.144698	
0.355602	0.87751	0.0966392	
0.296805	0.825729	0.165597	
0.265828	0.94766	0.123486	
0.361351	0.935933	0.2197	
0.355602	0.87751	0.0966392	
0.323338	1.06432	0.5	
0.398221	1	0.5	
0.323338	0.935684	0.5	
0.347602	0.985936	0.348343	
0.00505532	0.706778	0.339312	
0.0452903	0.623513	0.25784	
0.151014	0.679593	0.343049	
0.0738912	0.610829	0.388761	
0.347602	0.985936	0.348343	
0.323338	1.06432	0.5	
0.385098	1.08722	0.383771	
0.284123	1.06741	0.387999	
-0.386498	1.31721	0.299678	
-0.434698	1.24706	0.250499	
-0.386792	1.31685	0.198616	
-0.279096	1.24359	0.272562	
0.064316	1.32334	0.5	
0.109201	1.35772	0.375246	
0.183156	1.27411	0.5	
0.0902907	1.23506	0.376077	
-0.386792	1.31685	0.198616	
-0.386476	1.31723	0.0904728	
-0.323938	1.38087	0.152261	
-0.277342	1.24516	0.0975038	
-0.10768	0.996359	0.238131	
0.0244505	0.94868	0.233905	
-0.045108	0.948191	0.315425	
-0.0821557	0.901585	0.243527	
0.25	1	0.5	
0.323338	1.06432	0.5	
0.323338	0.935684	0.5	
0.284123	1.06741	0.387999	
0.5	1	0.3	
0.5	1	0.2	
0.490343	0.902203	0.258774	
0.361351	0.935933	0.2197	
0.0937412	0.930011	0.154317	
0.0244505	0.94868	0.233905	
0.106858	0.844305	0.230248	
0.134932	0.977505	0.230093	
-0.10768	0.996359	0.238131	
0.0244505	0.94868	0.233905	
-0.0151696	1.04156	0.198031	
0.00363562	1.02785	0.291568	
-0.258165	1.42819	0.201755	
-0.153777	1.36779	0.103264	
-0.171353	1.46972	0.161666	
-0.193559	1.35773	0.245031	
-0.0925337	0.803549	0	
-0.111014	0.733523	0.0849706	
-0.00982582	0.726304	0.0884564	
-0.0724446	0.868744	0.084223	
-0.217356	0.549715	0.144698	
-0.238488	0.560542	0.0756919	
-0.277785	0.584265	0.134138	
-0.183989	0.672241	0.119932	
-0.176777	1.17678	0.5	
-0.274113	1.18316	0.5	
-0.234257	1.21312	0.375398	
-0.179827	1.088	0.408491	
0.323338	0.935684	0.5	
0.398221	1	0.5	
0.409849	0.918476	0.5	
0.368617	0.876452	0.385763	
-0.168043	0.529084	0.199874	
-0.136534	0.645188	0.231761	
-0.0977967	0.509657	0.258774	
-0.0982069	0.610875	0.136018	
0.176777	1.17678	0.5	
0.157632	1.10533	0.5	
0.0868435	1.13736	0.5	
0.125116	1.11613	0.369411	
-0.386498	1.31721	0.299678	
-0.279096	1.24359	0.272562	
-0.331632	1.37419	0.334643	
-0.263985	1.32297	0.375811	
-0.23296	0.961598	0.249877	
-0.170219	0.871655	0.235589	
-0.10768	0.996359	0.238131	
-0.140073	0.942584	0.309826	
0.314271	0.949812	0	
0.265828	0.94766	0.123486	
0.232997	0.88938	0	
0.355602	0.87751	0.0966392	
0	1.5	0.3	
-0.0964049	1.37384	0.276475	
-0.0977967	1.49034	0.241226	
0.0196341	1.38361	0.225797	
-3.15026e-17	0.601779	0.5	
0.0704482	0.504988	0.428155	
0	0.5	0.4	
0.0738912	0.610829	0.388761	
0.235698	0.559039	0.431431	
0.317233	0.613524	0.409527	
0.242822	0.562922	0.347009	
0.260241	0.698507	0.343916	
0.146853	0.522052	0.0840084	
0.174678	0.531505	0.182891	
0.228991	0.555519	0.0919014	
0.0999617	0.645199	0.138238	
0.242822	0.562922	0.347009	
0.168734	0.529332	0.298219	
0.153328	0.52409	0.40763	
0.151014	0.679593	0.343049	
-0.257824	1.4284	0.295024	
-0.168043	1.47092	0.300126	
-0.217356	1.45028	0.355302	
-0.193559	1.35773	0.245031	
-0.115695	1.05029	0.334241	
-0.00748686	1.04315	0.386084	
-0.045108	0.948191	0.315425	
0.00363562	1.02785	0.291568	
0.232161	1.34745	0.5	
0.281092	1.28109	0.5	
0.183156	1.27411	0.5	
0.209063	1.27717	0.342511	
-0.203766	0.963562	0.377533	
-0.144063	0.852748	0.341365	
-0.140073	0.942584	0.309826	
-0.087284	0.884388	0.408402	
-0.144063	0.852748	0.341365	
-0.140073	0.942584	0.309826	
-0.045108	0.948191	0.315425	
-0.0821557	0.901585	0.243527	
-0.3474	1.01863	0.155865	
-0.256772	1.06769	0.100506	
-0.337562	1.05476	0	
-0.357904	1.11593	0.101286	
-0.492649	0.914576	0.248597	
-0.493437	0.919252	0.345776	
-0.470668	0.831266	0.298219	
-0.37095	0.93253	0.240862	
-0.203766	0.963562	0.377533	
-0.140073	0.942584	0.309826	
-0.105137	0.975975	0.404942	
-0.087284	0.884388	0.408402	
-0.331632	1.37419	0.334643	
-0.386498	1.31721	0.299678	
-0.328716	1.37676	0.246468	
-0.279096	1.24359	0.272562	
0.428195	1.25817	0.201755	
0.353151	1.15839	0.109095	
0.469721	1.17135	0.161666	
0.334194	1.15432	0.215771	
0.232161	0.652547	0.5	
0.206682	0.777113	0.400851	
0.278087	0.721913	0.5	
0.260241	0.698507	0.343916	
-0.177191	1.03636	0.5	
-0.114443	1.01484	0.5	
-0.157632	0.968645	0.5	
-0.105137	0.975975	0.404942	
0.353151	1.15839	0.109095	
0.334194	1.15432	0.215771	
0.325159	1.05851	0.165819	
0.40353	1.07301	0.105949	
-0.114467	0.613668	0	
-0.183989	0.672241	0.119932	
-0.0982069	0.610875	0.136018	
-0.111014	0.733523	0.0849706	
0.493012	0.916698	0.155211	
0.361351	0.935933	0.2197	
0.5	1	0.2	
0.387337	0.975471	0.113668	
-0.214341	1.27376	0	
-0.138674	1.3238	0	
-0.201912	1.36999	0	
-0.153777	1.36779	0.103264	
0.106675	0.966314	0.5	
0.101939	0.907787	0.403472	
0.00844098	0.944821	0.400532	
0.113162	1.01769	0.414132	
0.361351	0.935933	0.2197	
0.265828	0.94766	0.123486	
0.325159	1.05851	0.165819	
0.387337	0.975471	0.113668	
-0.0297704	0.68077	0.178611	
0.00284042	0.609614	0.1018	
-0.0982069	0.610875	0.136018	
-0.00982582	0.726304	0.0884564	
0.0712814	0.846848	0	
0.00183684	0.777669	0	
0.0943468	0.754666	0	
0.0541326	0.793785	0.132666	
0.0761103	0.977349	0.33014	
0.148799	0.913537	0.303647	
0.0244505	0.94868	0.233905	
0.134932	0.977505	0.230093	
-0.0151696	1.04156	0.198031	
-0.0611059	1.11559	0.264866	
-0.10768	0.996359	0.238131	
0.00363562	1.02785	0.291568	
-0.203766	0.963562	0.377533	
-0.105137	0.975975	0.404942	
-0.115695	1.05029	0.334241	
-0.179827	1.088	0.408491	
-0.444481	0.771009	0.0919014	
-0.477948	0.853147	0.0840084	
-0.468495	0.825322	0.182891	
-0.390863	0.914451	0.0980906	
-0.183156	0.725887	0.5	
-0.0956709	0.76903	0.5	
-0.064316	0.676662	0.5	
-0.0862712	0.770823	0.389289	
-0.152694	0.523886	0.0975404	
-0.183989	0.672241	0.119932	
-0.217356	0.549715	0.144698	
-0.0982069	0.610875	0.136018	
-0.280403	1.2804	0.5	
-0.347453	1.23216	0.5	
-0.386831	1.3168	0.395903	
-0.343626	1.20201	0.373624	
-0.328716	0.623243	0.253532	
-0.386498	0.682794	0.200322	
-0.332607	0.773484	0.222023	
-0.247852	0.673084	0.199607	
0.247868	1.14631	0	
0.337634	1.11556	0	
0.300884	1.19872	0	
0.253711	1.11341	0.104023	
-0.389036	1.20743	0	
-0.328307	1.16356	0	
-0.318983	1.26174	0	
-0.277342	1.24516	0.0975038	
-3.15026e-17	0.601779	0.5	
0	0.5	0.4	
-0.039093	0.610067	0.388942	
0.0738912	0.610829	0.388761	
0.242822	0.562922	0.347009	
0.316847	0.613208	0.301384	
0.247057	0.565302	0.249501	
0.260241	0.698507	0.343916	
0.0461078	0.941573	0	
0.14072	0.916025	0	
0.115537	1.01075	0	
0.159132	0.984216	0.0920948	
0.0999617	0.645199	0.138238	
0.00284042	0.609614	0.1018	
-0.0297704	0.68077	0.178611	
-0.00982582	0.726304	0.0884564	
-0.0422582	0.562527	0	
-0.114467	0.613668	0	
-0.0698189	0.504899	0.0723791	
-0.0982069	0.610875	0.136018	
0.0956709	1.23097	0.5	
0	1.25	0.5	
0.064316	1.32334	0.5	
0.0902907	1.23506	0.376077	
0.439458	0.761512	0.0756919	
0.476114	0.847306	0.0975404	
0.380207	0.80292	0	
0.355602	0.87751	0.0966392	
0.201164	0.726422	0	
0.194604	0.628812	0	
0.268393	0.665699	0	
0.247079	0.718599	0.118367	
-0.00167925	1.31098	0.319981	
-0.0964049	1.37384	0.276475	
-0.0850696	1.27829	0.394238	
-0.0552231	1.38907	0.38538	
-0.0925337	0.803549	0	
-0.196211	0.8458	0.119009	
-0.186407	0.830549	0	
-0.111014	0.733523	0.0849706	
0.337634	1.11556	0	
0.353151	1.15839	0.109095	
0.300884	1.19872	0	
0.253711	1.11341	0.104023	
0.121965	0.82524	0.342904	
0.215953	0.839226	0.238202	
0.106858	0.844305	0.230248	
0.148799	0.913537	0.303647	
-0.47591	0.846672	0.40763	
-0.493437	0.919252	0.345776	
-0.495012	0.929552	0.428155	
-0.351645	0.874975	0.390413	
-0.285945	1.12176	0.325452	
-0.382289	1.08918	0.382504	
-0.364752	1.11394	0.23148	
-0.318838	1.02278	0.259668	
-0.152126	0.632735	0.5	
-0.232161	0.652547	0.5	
-0.183156	0.725887	0.5	
-0.153774	0.693588	0.346551	
-0.00173102	1.15684	0.347507	
0.00363562	1.02785	0.291568	
-0.0611059	1.11559	0.264866	
0.0323895	1.13978	0.258564	
0.439458	0.761512	0.0756919	
0.380207	0.80292	0	
0.341118	0.774271	0.0916023	
0.355602	0.87751	0.0966392	
-0.328716	0.623243	0.253532	
-0.332607	0.773484	0.222023	
-0.259603	0.71434	0.292274	
-0.247852	0.673084	0.199607	
0.0691997	1.04586	0.5	
0.00844098	0.944821	0.400532	
-0.00748686	1.04315	0.386084	
0.113162	1.01769	0.414132	
0.112799	0.66644	0	
0.194604	0.628812	0	
0.201164	0.726422	0	
0.142608	0.739294	0.106454	
-0.157632	0.894674	0.5	
-0.23097	0.904329	0.5	
-0.157632	0.968645	0.5	
-0.203766	0.963562	0.377533	
0	0.75	0.5	
-0.0956709	0.76903	0.5	
-0.0369856	0.814061	0.5	
-0.0862712	0.770823	0.389289	
0.0728232	0.505332	0.0735406	
0.0814864	0.506685	0.152319	
0.146853	0.522052	0.0840084	
0.0999617	0.645199	0.138238	
-0.107214	1.16612	0.5	
-0.117202	1.0938	0.5	
-0.179827	1.088	0.408491	
-0.0571477	1.11947	0.416349	
0.314271	0.949812	0	
0.232997	0.88938	0	
0.313791	0.845535	0	
0.355602	0.87751	0.0966392	
0.0165433	0.957567	0.5	
-0.00748686	1.04315	0.386084	
0.0691997	1.04586	0.5	
0.00844098	0.944821	0.400532	
-0.186407	0.830549	0	
-0.196211	0.8458	0.119009	
-0.0925337	0.803549	0	
-0.0724446	0.868744	0.084223	
0.00505532	0.706778	0.339312	
-0.039093	0.610067	0.388942	
0.0452903	0.623513	0.25784	
0.0738912	0.610829	0.388761	
-0.0218546	0.89013	0.5	
0.00844098	0.944821	0.400532	
-0.00643767	0.847524	0.3797	
-0.087284	0.884388	0.408402	
-0.0297704	0.68077	0.178611	
-0.00982582	0.726304	0.0884564	
-0.0982069	0.610875	0.136018	
-0.111014	0.733523	0.0849706	
-0.323338	1.06432	0.5	
-0.397525	1	0.5	
-0.382289	1.08918	0.382504	
-0.275403	1.0393	0.403336	
0.490343	0.902203	0.258774	
0.460548	0.805333	0.26567	
0.469721	0.828647	0.338334	
0.358257	0.834187	0.252847	
-0.302044	0.949354	0	
-0.237047	1.02014	0	
-0.337562	1.05476	0	
-0.256772	1.06769	0.100506	
-0.048473	0.967143	0	
-0.10307	0.999921	0.0930669	
-0.117671	0.89803	0	
-0.0724446	0.868744	0.084223	
0.5	1	0.2	
0.493389	1.08104	0.14715	
0.5	1	0.1	
0.40353	1.07301	0.105949	
-0.281585	0.718415	0.5	
-0.183156	0.725887	0.5	
-0.232161	0.652547	0.5	
-0.289723	0.75771	0.393302	
0.0165433	0.957567	0.5	
0.106675	0.966314	0.5	
0.0634445	0.898618	0.5	
0.101939	0.907787	0.403472	
-0.142648	0.992859	0	
-0.237047	1.02014	0	
-0.211369	0.923885	0	
-0.227254	0.962083	0.121579	
0	1.5	0.1	
-0.0372406	1.41779	0	
0.0420691	1.42713	0	
0.0105232	1.38676	0.111861	
0.277785	1.41573	0	
0.261819	1.31903	0	
0.235698	1.44096	0.068569	
0.202324	1.37852	0	
-0.125823	1.17124	0.373805	
-0.179827	1.088	0.408491	
-0.115695	1.05029	0.334241	
-0.0571477	1.11947	0.416349	
0.164797	0.822415	0	
0.245477	0.808349	0	
0.232997	0.88938	0	
0.177224	0.838965	0.12521	
0.476114	1.15269	0.40246	
0.369516	1.15306	0.5	
0.439458	1.23849	0.424308	
0.347642	1.19453	0.384775	
-3.15026e-17	0.601779	0.5	
-0.039093	0.610067	0.388942	
0.064316	0.676662	0.5	
0.0738912	0.610829	0.388761	
0.296805	0.825729	0.165597	
0.215953	0.839226	0.238202	
0.278655	0.736565	0.241439	
0.358257	0.834187	0.252847	
0.232161	0.652547	0.5	
0.278087	0.721913	0.5	
0.317233	0.613524	0.409527	
0.260241	0.698507	0.343916	
-0.048473	0.967143	0	
-0.0105385	0.962638	0.111113	
-0.10307	0.999921	0.0930669	
-0.0724446	0.868744	0.084223	
0.157632	1.10533	0.5	
0.0868435	1.13736	0.5	
0.125116	1.11613	0.369411	
0.113162	1.01769	0.414132	
-0.0698189	1.4951	0.427621	
0	1.5	0.4	
8.18872e-17	1.39822	0.5	
-0.0552231	1.38907	0.38538	
-0.157632	0.968645	0.5	
-0.23097	0.904329	0.5	
-0.25	1	0.5	
-0.203766	0.963562	0.377533	
-0.138674	1.3238	0	
-0.0555676	1.32557	0	
-0.118932	1.39861	0	
-0.153777	1.36779	0.103264	
0.380873	0.676062	0.347739	
0.278655	0.736565	0.241439	
0.376757	0.671284	0.253532	
0.260241	0.698507	0.343916	
-0.045108	0.948191	0.315425	
-0.140073	0.942584	0.309826	
-0.144063	0.852748	0.341365	
-0.087284	0.884388	0.408402	
-0.493315	0.918514	0.152319	
-0.5	1	0.2	
-0.492649	0.914576	0.248597	
-0.37095	0.93253	0.240862	
-0.00643767	0.847524	0.25115	
0.106858	0.844305	0.230248	
0.0244505	0.94868	0.233905	
0.0531758	0.885699	0.315425	
-0.263582	0.680587	0	
-0.261345	0.769964	0	
-0.331361	0.727047	0	
-0.283151	0.746042	0.130367	
0.242822	0.562922	0.347009	
0.168734	0.529332	0.298219	
0.151014	0.679593	0.343049	
0.15722	0.635104	0.236843	
-0.00643767	0.847524	0.25115	
-0.00436862	0.872297	0.154061	
-0.0726386	0.798943	0.15243	
-0.0821557	0.901585	0.243527	
-0.409849	0.918476	0.5	
-0.397525	1	0.5	
-0.323338	0.935684	0.5	
-0.363598	0.972427	0.365583	
0.0943468	0.754666	0	
0.0541326	0.793785	0.132666	
0.00183684	0.777669	0	
-0.00982582	0.726304	0.0884564	
-0.281585	0.718415	0.5	
-0.317197	0.613495	0.431175	
-0.386476	0.682767	0.409527	
-0.289723	0.75771	0.393302	
0.0807477	0.506563	0.345776	
0.168734	0.529332	0.298219	
0.0854243	0.507351	0.248597	
0.0452903	0.623513	0.25784	
-0.10768	0.996359	0.238131	
-0.170219	0.871655	0.235589	
-0.110633	0.921519	0.156892	
-0.0821557	0.901585	0.243527	
0.232997	0.88938	0	
0.265828	0.94766	0.123486	
0.210156	0.985203	0	
0.159132	0.984216	0.0920948	
-0.176777	1.17678	0.5	
-0.23097	1.09567	0.5	
-0.274113	1.18316	0.5	
-0.179827	1.088	0.408491	
-0.00674902	1.18961	0.168493	
0.00439522	1.27731	0.103072	
-0.0697093	1.32708	0.167311	
0.0143983	1.28276	0.204525	
0.5	1	0.1	
0.414991	1.04951	0	
0.387337	0.975471	0.113668	
0.40353	1.07301	0.105949	
-0.285945	1.12176	0.325452	
-0.363598	0.972427	0.365583	
-0.382289	1.08918	0.382504	
-0.318838	1.02278	0.259668	
-0.47591	1.15333	0.0923699	
-0.470668	1.16873	0.201781	
-0.493437	1.08075	0.154224	
-0.357904	1.11593	0.101286	
0.5	1	0.2	
0.5	1	0.1	
0.387337	0.975471	0.113668	
0.40353	1.07301	0.105949	
0.314857	0.742551	0	
0.247079	0.718599	0.118367	
0.388274	0.684971	0.0791933	
0.341118	0.774271	0.0916023	
-0.328716	1.37676	0.246468	
-0.386498	1.31721	0.299678	
-0.386792	1.31685	0.198616	
-0.279096	1.24359	0.272562	
0.260232	1.21075	0.160089	
0.212182	1.31459	0.219285	
0.28898	1.28652	0.0949489	
0.189162	1.24479	0.0938772	
-0.117671	0.89803	0	
-0.211369	0.923885	0	
-0.186407	0.830549	0	
-0.196211	0.8458	0.119009	
-0.168043	0.529084	0.199874	
-0.0977967	0.509657	0.258774	
-0.0833019	0.506988	0.155211	
-0.0982069	0.610875	0.136018	
-0.186407	0.830549	0	
-0.278713	0.85696	0	
-0.261345	0.769964	0	
-0.196211	0.8458	0.119009	
-0.0810399	1.49339	0.14715	
0	1.5	0.1	
0	1.5	0.2	
0.0105232	1.38676	0.111861	
-0.323938	0.619127	0.347739	
-0.259603	0.71434	0.292274	
-0.386792	0.683153	0.301384	
-0.289723	0.75771	0.393302	
-0.0684459	1.49529	0.0685965	
0	1.5	0.1	
-0.0810399	1.49339	0.14715	
0.0105232	1.38676	0.111861	
0.157632	1.10533	0.5	
0.125116	1.11613	0.369411	
0.176777	1.17678	0.5	
0.22536	1.15058	0.40335	
-0.0734441	1.06169	0	
0.0209546	1.03628	0	
-0.00425413	1.131	0	
-0.0543483	1.10288	0.107179	
0.0761103	0.977349	0.33014	
0.0244505	0.94868	0.233905	
0.0919908	1.06424	0.248206	
0.134932	0.977505	0.230093	
0.317206	0.613502	0.200322	
0.3168	0.613169	0.104097	
0.25658	0.570854	0.16876	
0.247079	0.718599	0.118367	
-0.317197	1.38651	0.0688254	
-0.386476	1.31723	0.0904728	
-0.318983	1.26174	0	
-0.277342	1.24516	0.0975038	
0.374193	0.668368	0.165357	
0.388274	0.684971	0.0791933	
0.247079	0.718599	0.118367	
0.341118	0.774271	0.0916023	
8.18872e-17	1.39822	0.5	
0.0815241	1.40985	0.5	
0.064316	1.32334	0.5	
0.109201	1.35772	0.375246	
0.4284	1.25782	0.295024	
0.450285	1.21736	0.355302	
0.415735	1.27779	0.365862	
0.347642	1.19453	0.384775	
0.0651412	1.2001	0	
0.0903521	1.10545	0	
0.158056	1.17188	0	
0.113965	1.18028	0.121768	
-0.0726386	0.798943	0.15243	
-0.00436862	0.872297	0.154061	
-0.110633	0.921519	0.156892	
-0.0821557	0.901585	0.243527	
0.23097	0.904329	0.5	
0.176777	0.823223	0.5	
0.141405	0.904892	0.5	
0.211575	0.889225	0.384788	
-0.117671	0.89803	0	
-0.196211	0.8458	0.119009	
-0.186407	0.830549	0	
-0.0724446	0.868744	0.084223	
-0.081357	0.751661	0.265055	
0.0468326	0.745128	0.237913	
-0.00643767	0.847524	0.25115	
0.0347483	0.794732	0.315425	
-0.363339	0.8495	0.5	
-0.347453	0.767839	0.5	
-0.440961	0.764302	0.431431	
-0.351645	0.874975	0.390413	
0.163502	1.02984	0.5	
0.203143	1.00597	0.37146	
0.185939	0.963014	0.5	
0.113162	1.01769	0.414132	
-0.386831	1.3168	0.395903	
-0.315029	1.38827	0.420807	
-0.280403	1.2804	0.5	
-0.263985	1.32297	0.375811	
0.0153159	1.36356	0	
0.0401436	1.2912	0	
0.0105232	1.38676	0.111861	
0.00439522	1.27731	0.103072	
0.190875	1.34709	0.10503	
0.28898	1.28652	0.0949489	
0.212182	1.31459	0.219285	
0.189162	1.24479	0.0938772	
0.0761103	0.977349	0.33014	
0.0919908	1.06424	0.248206	
0.0244505	0.94868	0.233905	
0.00363562	1.02785	0.291568	
-0.353553	1.35355	0	
-0.317197	1.38651	0.0688254	
-0.318983	1.26174	0	
-0.273315	1.33496	0	
-0.0773947	0.947213	0.5	
0.00844098	0.944821	0.400532	
-0.0218546	0.89013	0.5	
-0.087284	0.884388	0.408402	
0.274113	1.18316	0.5	
0.23097	1.09567	0.5	
0.22536	1.15058	0.40335	
0.284123	1.06741	0.387999	
0.5	1	0.1	
0.414991	1.04951	0	
0.409478	0.967053	0	
0.387337	0.975471	0.113668	
0.260232	1.21075	0.160089	
0.295334	1.24597	0.26697	
0.212182	1.31459	0.219285	
0.219623	1.16199	0.240766	
0.365104	0.848769	0.5	
0.347453	0.767839	0.5	
0.274113	0.816844	0.5	
0.368617	0.876452	0.385763	
0.439458	0.761512	0.0756919	
0.450285	0.782644	0.144698	
0.476114	0.847306	0.0975404	
0.355602	0.87751	0.0966392	
0.106675	0.966314	0.5	
0.101939	0.907787	0.403472	
0.0165433	0.957567	0.5	
0.00844098	0.944821	0.400532	
-0.0726386	0.798943	0.15243	
-0.196211	0.8458	0.119009	
-0.110633	0.921519	0.156892	
-0.0724446	0.868744	0.084223	
0.323338	1.06432	0.5	
0.369516	1.15306	0.5	
0.385098	1.08722	0.383771	
0.284123	1.06741	0.387999	
0.476114	0.847306	0.0975404	
0.387337	0.975471	0.113668	
0.495101	0.930181	0.0723791	
0.355602	0.87751	0.0966392	
0.242822	1.43708	0.152991	
0.316847	1.38679	0.198616	
0.212182	1.31459	0.219285	
0.190875	1.34709	0.10503	
0.365104	0.848769	0.5	
0.436762	0.756609	0.403062	
0.347453	0.767839	0.5	
0.368617	0.876452	0.385763	
0.0165433	0.957567	0.5	
0.101939	0.907787	0.403472	
0.0634445	0.898618	0.5	
0.00844098	0.944821	0.400532	
-0.386792	0.683153	0.301384	
-0.259603	0.71434	0.292274	
-0.328716	0.623243	0.253532	
-0.332607	0.773484	0.222023	
-0.409849	0.918476	0.5	
-0.363598	0.972427	0.365583	
-0.323338	0.935684	0.5	
-0.351645	0.874975	0.390413	
0.106675	0.966314	0.5	
0.00844098	0.944821	0.400532	
0.0165433	0.957567	0.5	
0.113162	1.01769	0.414132	
-0.386498	0.682794	0.200322	
-0.386792	0.683153	0.301384	
-0.328716	0.623243	0.253532	
-0.332607	0.773484	0.222023	
-0.440961	0.764302	0.431431	
-0.386476	0.682767	0.409527	
-0.437078	0.757178	0.347009	
-0.289723	0.75771	0.393302	
-0.189227	0.766031	0.208899	
-0.259603	0.71434	0.292274	
-0.332607	0.773484	0.222023	
-0.247852	0.673084	0.199607	
0.0165433	0.957567	0.5	
0.00844098	0.944821	0.400532	
0.0691997	1.04586	0.5	
0.113162	1.01769	0.414132	
0.490343	0.902203	0.258774	
0.361351	0.935933	0.2197	
0.470916	0.831957	0.199874	
0.358257	0.834187	0.252847	
-0.470668	0.831266	0.298219	
-0.493437	0.919252	0.345776	
-0.47591	0.846672	0.40763	
-0.351645	0.874975	0.390413	
-0.274113	1.18316	0.5	
-0.280403	1.2804	0.5	
-0.234257	1.21312	0.375398	
-0.343626	1.20201	0.373624	
-0.0232782	0.872416	0	
0.0461078	0.941573	0	
-0.048473	0.967143	0	
-0.0105385	0.962638	0.111113	
-0.183156	1.27411	0.5	
-0.234257	1.21312	0.375398	
-0.280403	1.2804	0.5	
-0.263985	1.32297	0.375811	
-0.183156	1.27411	0.5	
-0.151231	1.3651	0.5	
-0.0850696	1.27829	0.394238	
-0.166036	1.37976	0.398541	
0.476114	1.15269	0.40246	
0.369516	1.15306	0.5	
0.347642	1.19453	0.384775	
0.385098	1.08722	0.383771	
-0.323338	1.06432	0.5	
-0.274113	1.18316	0.5	
-0.23097	1.09567	0.5	
-0.275403	1.0393	0.403336	
0.153328	1.47591	0.0923699	
0.202324	1.37852	0	
0.235698	1.44096	0.068569	
0.190875	1.34709	0.10503	
0.470916	0.831957	0.199874	
0.490343	0.902203	0.258774	
0.493012	0.916698	0.155211	
0.361351	0.935933	0.2197	
-0.064316	0.676662	0.5	
0.064316	0.676662	0.5	
-3.15026e-17	0.601779	0.5	
-0.039093	0.610067	0.388942	
0.242822	1.43708	0.152991	
0.317233	1.38648	0.0904728	
0.316847	1.38679	0.198616	
0.190875	1.34709	0.10503	
-0.00643767	0.847524	0.3797	
0.0531758	0.885699	0.315425	
0.121965	0.82524	0.342904	
0.0347483	0.794732	0.315425	
0.476114	0.847306	0.0975404	
0.493012	0.916698	0.155211	
0.387337	0.975471	0.113668	
0.355602	0.87751	0.0966392	
-0.0427935	1.02817	0.5	
-0.105137	0.975975	0.404942	
-0.00748686	1.04315	0.386084	
0.00844098	0.944821	0.400532	
-0.048473	0.967143	0	
-0.0232782	0.872416	0	
-0.0105385	0.962638	0.111113	
-0.0724446	0.868744	0.084223	
-0.183989	0.672241	0.119932	
-0.136534	0.645188	0.231761	
-0.189227	0.766031	0.208899	
-0.247852	0.673084	0.199607	
0.0814864	0.506685	0.152319	
0	0.5	0.2	
0.0854243	0.507351	0.248597	
0.0452903	0.623513	0.25784	
0.314271	0.949812	0	
0.276476	1.05355	0	
0.210156	0.985203	0	
0.265828	0.94766	0.123486	
-0.0427935	1.02817	0.5	
-0.0773947	0.947213	0.5	
-0.105137	0.975975	0.404942	
0.00844098	0.944821	0.400532	
-0.274113	0.816844	0.5	
-0.176777	0.823223	0.5	
-0.183156	0.725887	0.5	
-0.289723	0.75771	0.393302	
0.278655	0.736565	0.241439	
0.215953	0.839226	0.238202	
0.285177	0.816119	0.328962	
0.358257	0.834187	0.252847	
-0.0684459	1.49529	0.0685965	
-0.0372406	1.41779	0	
0	1.5	0.1	
0.0105232	1.38676	0.111861	
0.0420691	1.42713	0	
0.0153159	1.36356	0	
0.114055	1.37411	0	
0.0105232	1.38676	0.111861	
-0.285945	1.12176	0.325452	
-0.275403	1.0393	0.403336	
-0.363598	0.972427	0.365583	
-0.318838	1.02278	0.259668	
-0.468495	0.825322	0.182891	
-0.493315	0.918514	0.152319	
-0.492649	0.914576	0.248597	
-0.37095	0.93253	0.240862	
-0.189227	0.766031	0.208899	
-0.332607	0.773484	0.222023	
-0.283151	0.746042	0.130367	
-0.247852	0.673084	0.199607	
-0.152694	1.47611	0.40246	
-0.168043	1.47092	0.300126	
-0.0833019	1.49301	0.344789	
-0.166036	1.37976	0.398541	
-0.409849	1.08152	0.5	
-0.397525	1	0.5	
-0.494668	1.07282	0.426459	
-0.382289	1.08918	0.382504	
0.314857	0.742551	0	
0.245477	0.808349	0	
0.247079	0.718599	0.118367	
0.341118	0.774271	0.0916023	
-0.00643767	0.847524	0.25115	
0.0244505	0.94868	0.233905	
-0.045108	0.948191	0.315425	
0.0531758	0.885699	0.315425	
0.0807477	1.49344	0.154224	
0.0196341	1.38361	0.225797	
0	1.5	0.2	
0.0105232	1.38676	0.111861	
0.098462	1.32087	0.159093	
0.190875	1.34709	0.10503	
0.212182	1.31459	0.219285	
0.189162	1.24479	0.0938772	
-0.386498	0.682794	0.200322	
-0.283151	0.746042	0.130367	
-0.429146	0.74342	0.16876	
-0.332607	0.773484	0.222023	
-0.0151696	1.04156	0.198031	
0.0244505	0.94868	0.233905	
0.0919908	1.06424	0.248206	
0.00363562	1.02785	0.291568	
0.164574	0.7464	0.211103	
0.177224	0.838965	0.12521	
0.247079	0.718599	0.118367	
0.142608	0.739294	0.106454	
-0.00643767	0.847524	0.3797	
0.121965	0.82524	0.342904	
0.0581157	0.769455	0.403061	
0.0347483	0.794732	0.315425	
0.0761103	0.977349	0.33014	
-0.045108	0.948191	0.315425	
0.0244505	0.94868	0.233905	
0.0531758	0.885699	0.315425	
0.476114	0.847306	0.0975404	
0.493012	0.916698	0.155211	
0.495101	0.930181	0.0723791	
0.387337	0.975471	0.113668	
-0.404541	1.12695	0	
-0.440961	1.2357	0.068569	
-0.47591	1.15333	0.0923699	
-0.357904	1.11593	0.101286	
0.476114	1.15269	0.40246	
0.450285	1.21736	0.355302	
0.470916	1.16804	0.300126	
0.385098	1.08722	0.383771	
-0.317197	1.38651	0.0688254	
-0.323938	1.38087	0.152261	
-0.386476	1.31723	0.0904728	
-0.277342	1.24516	0.0975038	
-0.437078	1.24282	0.152991	
-0.470668	1.16873	0.201781	
-0.47591	1.15333	0.0923699	
-0.357904	1.11593	0.101286	
-0.0328721	0.629311	0	
0.00284042	0.609614	0.1018	
0.0248177	0.686626	0	
-0.00982582	0.726304	0.0884564	
0.274113	1.18316	0.5	
0.369516	1.15306	0.5	
0.323338	1.06432	0.5	
0.284123	1.06741	0.387999	
0.436762	0.756609	0.403062	
0.365104	0.848769	0.5	
0.478555	0.855138	0.421652	
0.368617	0.876452	0.385763	
0.114055	1.37411	0	
0.202324	1.37852	0	
0.153328	1.47591	0.0923699	
0.190875	1.34709	0.10503	
0.5	1	0.1	
0.495293	1.06845	0.0685965	
0.414991	1.04951	0	
0.40353	1.07301	0.105949	
-0.279096	1.24359	0.272562	
-0.343626	1.20201	0.373624	
-0.234257	1.21312	0.375398	
-0.263985	1.32297	0.375811	
-0.045108	0.948191	0.315425	
0.00844098	0.944821	0.400532	
-0.00643767	0.847524	0.3797	
0.0531758	0.885699	0.315425	
-0.386476	0.682767	0.409527	
-0.386792	0.683153	0.301384	
-0.437078	0.757178	0.347009	
-0.289723	0.75771	0.393302	
0.478555	1.14486	0.0783483	
0.373926	1.19893	0	
0.46194	1.19134	0	
0.414183	1.13115	0	
-0.0773947	0.947213	0.5	
-0.105137	0.975975	0.404942	
0.00844098	0.944821	0.400532	
-0.087284	0.884388	0.408402	
0.152393	1.36791	0.5	
0.183156	1.27411	0.5	
0.064316	1.32334	0.5	
0.109201	1.35772	0.375246	
-0.437078	1.24282	0.152991	
-0.47591	1.15333	0.0923699	
-0.440961	1.2357	0.068569	
-0.357904	1.11593	0.101286	
-0.115695	1.05029	0.334241	
-0.10768	0.996359	0.238131	
-0.045108	0.948191	0.315425	
-0.140073	0.942584	0.309826	
-0.045108	0.948191	0.315425	
-0.00643767	0.847524	0.3797	
0.00844098	0.944821	0.400532	
-0.087284	0.884388	0.408402	
-0.0833019	0.506988	0.155211	
0	0.5	0.2	
0	0.5	0.1	
0.00284042	0.609614	0.1018	
0.177224	0.838965	0.12521	
0.106858	0.844305	0.230248	
0.164574	0.7464	0.211103	
0.215953	0.839226	0.238202	
-0.285945	1.12176	0.325452	
-0.382289	1.08918	0.382504	
-0.363598	0.972427	0.365583	
-0.275403	1.0393	0.403336	
0.394936	0.880197	0	
0.380207	0.80292	0	
0.476114	0.847306	0.0975404	
0.355602	0.87751	0.0966392	
0	1.5	0.3	
-0.0977967	1.49034	0.241226	
0	1.5	0.2	
0.0196341	1.38361	0.225797	
-0.10768	0.996359	0.238131	
-0.140073	0.942584	0.309826	
-0.170219	0.871655	0.235589	
-0.0821557	0.901585	0.243527	
0.158056	1.17188	0	
0.247868	1.14631	0	
0.231243	1.24169	0	
0.189162	1.24479	0.0938772	
-0.064316	1.32334	0.5	
-0.0552231	1.38907	0.38538	
-0.0850696	1.27829	0.394238	
-0.166036	1.37976	0.398541	
-0.492649	0.914576	0.248597	
-0.470668	0.831266	0.298219	
-0.468495	0.825322	0.182891	
-0.37095	0.93253	0.240862	
0.261819	1.31903	0	
0.317233	1.38648	0.0904728	
0.235698	1.44096	0.068569	
0.190875	1.34709	0.10503	
-0.283151	0.746042	0.130367	
-0.332607	0.773484	0.222023	
-0.386498	0.682794	0.200322	
-0.247852	0.673084	0.199607	
-0.238488	0.560542	0.0756919	
-0.152694	0.523886	0.0975404	
-0.191342	0.53806	0	
-0.203173	0.626976	0	
-3.15026e-17	0.601779	0.5	
0	0.5	0.4	
-0.0684459	0.504707	0.431403	
-0.039093	0.610067	0.388942	
-0.0892911	0.866366	0.5	
-0.176777	0.823223	0.5	
-0.157632	0.894674	0.5	
-0.087284	0.884388	0.408402	
0.373926	1.19893	0	
0.478555	1.14486	0.0783483	
0.436762	1.24339	0.0969381	
0.353151	1.15839	0.109095	
0.493012	0.916698	0.155211	
0.490343	0.902203	0.258774	
0.5	1	0.2	
0.361351	0.935933	0.2197	
-0.00167925	1.31098	0.319981	
0.109201	1.35772	0.375246	
0.0902907	1.23506	0.376077	
0.105734	1.2948	0.276786	
0.168734	1.47067	0.201781	
0.242822	1.43708	0.152991	
0.247057	1.4347	0.250499	
0.212182	1.31459	0.219285	
-0.211369	0.923885	0	
-0.278713	0.85696	0	
-0.186407	0.830549	0	
-0.196211	0.8458	0.119009	
-0.152694	1.47611	0.40246	
-0.0833019	1.49301	0.344789	
-0.0552231	1.38907	0.38538	
-0.166036	1.37976	0.398541	
0.376757	1.32872	0.246468	
0.428195	1.25817	0.201755	
0.4284	1.25782	0.295024	
0.295334	1.24597	0.26697	
-0.00748686	1.04315	0.386084	
-0.105137	0.975975	0.404942	
-0.045108	0.948191	0.315425	
0.00844098	0.944821	0.400532	
-0.115695	1.05029	0.334241	
-0.045108	0.948191	0.315425	
-0.105137	0.975975	0.404942	
-0.140073	0.942584	0.309826	
0	0.5	0.1	
0.0404524	0.58928	0	
-0.0422582	0.562527	0	
0.00284042	0.609614	0.1018	
0.114055	1.37411	0	
0.133074	1.2641	0	
0.189613	1.31366	0	
0.190875	1.34709	0.10503	
-0.386476	0.682767	0.409527	
-0.323938	0.619127	0.347739	
-0.386792	0.683153	0.301384	
-0.289723	0.75771	0.393302	
0.0814864	1.49332	0.347681	
0.146853	1.47795	0.415992	
0.0728232	1.49467	0.426459	
0.109201	1.35772	0.375246	
-0.114443	1.01484	0.5	
-0.117202	1.0938	0.5	
-0.0427935	1.02817	0.5	
-0.0571477	1.11947	0.416349	
-0.331632	0.625807	0.165357	
-0.283151	0.746042	0.130367	
-0.386498	0.682794	0.200322	
-0.247852	0.673084	0.199607	
0.133074	1.2641	0	
0.0651412	1.2001	0	
0.158056	1.17188	0	
0.113965	1.18028	0.121768	
0	0.5	0.2	
0.0814864	0.506685	0.152319	
0	0.5	0.1	
0.00284042	0.609614	0.1018	
0.265828	0.94766	0.123486	
0.387337	0.975471	0.113668	
0.361351	0.935933	0.2197	
0.355602	0.87751	0.0966392	
0.277785	0.584265	0	
0.194604	0.628812	0	
0.228991	0.555519	0.0919014	
0.268393	0.665699	0	
0.14072	0.916025	0	
0.232997	0.88938	0	
0.210156	0.985203	0	
0.159132	0.984216	0.0920948	
-0.328716	0.623243	0.253532	
-0.259603	0.71434	0.292274	
-0.258165	0.571805	0.298245	
-0.247852	0.673084	0.199607	
0.386505	1.3172	0.0688254	
0.436762	1.24339	0.0969381	
0.380873	1.32394	0.152261	
0.28898	1.28652	0.0949489	
-0.0555676	1.32557	0	
0.0153159	1.36356	0	
-0.0372406	1.41779	0	
0.0105232	1.38676	0.111861	
0.0903521	1.10545	0	
-0.00425413	1.131	0	
0.0209546	1.03628	0	
0.0593465	1.06716	0.10856	
0.194604	0.628812	0	
0.191342	0.53806	0	
0.228991	0.555519	0.0919014	
0.125573	0.58604	0	
0.0761103	0.977349	0.33014	
-0.045108	0.948191	0.315425	
0.00844098	0.944821	0.400532	
0.00363562	1.02785	0.291568	
0.146853	0.522052	0.0840084	
0.0814864	0.506685	0.152319	
0.174678	0.531505	0.182891	
0.0999617	0.645199	0.138238	
0.428195	1.25817	0.201755	
0.469721	1.17135	0.161666	
0.460548	1.19467	0.23433	
0.334194	1.15432	0.215771	
0.176777	1.17678	0.5	
0.183156	1.27411	0.5	
0.274113	1.18316	0.5	
0.22536	1.15058	0.40335	
-0.0833019	1.49301	0.344789	
-0.0977967	1.49034	0.241226	
0	1.5	0.3	
-0.0964049	1.37384	0.276475	
-0.468495	1.17468	0.317109	
-0.477948	1.14685	0.415992	
-0.382289	1.08918	0.382504	
-0.343626	1.20201	0.373624	
-0.495012	1.07045	0.0718447	
-0.47591	1.15333	0.0923699	
-0.493437	1.08075	0.154224	
-0.357904	1.11593	0.101286	
0.495101	1.06982	0.427621	
0.398221	1	0.5	
0.409849	1.08152	0.5	
0.385098	1.08722	0.383771	
-0.317197	0.613495	0.431175	
-0.323938	0.619127	0.347739	
-0.386476	0.682767	0.409527	
-0.289723	0.75771	0.393302	
0.103403	0.84471	0.5	
0.0956709	0.76903	0.5	
0.0344957	0.828097	0.5	
0.0581157	0.769455	0.403061	
-0.363339	0.8495	0.5	
-0.440961	0.764302	0.431431	
-0.47591	0.846672	0.40763	
-0.351645	0.874975	0.390413	
-0.0734441	1.06169	0	
-0.16685	1.08834	0	
-0.142648	0.992859	0	
-0.10307	0.999921	0.0930669	
0.0153159	1.36356	0	
0.0105232	1.38676	0.111861	
-0.0555676	1.32557	0	
0.00439522	1.27731	0.103072	
0.0937412	0.930011	0.154317	
0.0244505	0.94868	0.233905	
-0.0105385	0.962638	0.111113	
-0.00436862	0.872297	0.154061	
-0.401548	0.957663	0	
-0.5	1	0.1	
-0.494668	0.927177	0.0735406	
-0.390863	0.914451	0.0980906	
-0.00643767	0.847524	0.25115	
0.0244505	0.94868	0.233905	
-0.00436862	0.872297	0.154061	
-0.0821557	0.901585	0.243527	
0.0209546	1.03628	0	
-0.048473	0.967143	0	
0.0461078	0.941573	0	
-0.0105385	0.962638	0.111113	
0.374193	1.33163	0.334643	
0.317206	1.3865	0.299678	
0.376757	1.32872	0.246468	
0.295334	1.24597	0.26697	
0.314271	0.949812	0	
0.387337	0.975471	0.113668	
0.265828	0.94766	0.123486	
0.355602	0.87751	0.0966392	
-0.47591	1.15333	0.0923699	
-0.495012	1.07045	0.0718447	
-0.404541	1.12695	0	
-0.357904	1.11593	0.101286	
0.476114	0.847306	0.0975404	
0.495101	0.930181	0.0723791	
0.394936	0.880197	0	
0.355602	0.87751	0.0966392	
0.470916	1.16804	0.300126	
0.378383	1.07129	0.271427	
0.493012	1.0833	0.344789	
0.385098	1.08722	0.383771	
-0.0369856	0.814061	0.5	
-0.0892911	0.866366	0.5	
-0.0218546	0.89013	0.5	
-0.087284	0.884388	0.408402	
0.209063	1.27717	0.342511	
0.0902907	1.23506	0.376077	
0.109201	1.35772	0.375246	
0.105734	1.2948	0.276786	
0.476114	1.15269	0.40246	
0.347642	1.19453	0.384775	
0.450285	1.21736	0.355302	
0.385098	1.08722	0.383771	
0.0854243	0.507351	0.248597	
0.0452903	0.623513	0.25784	
0.168734	0.529332	0.298219	
0.15722	0.635104	0.236843	
0.323338	0.935684	0.5	
0.365104	0.848769	0.5	
0.274113	0.816844	0.5	
0.368617	0.876452	0.385763	
0.228991	1.44448	0.408099	
0.146853	1.47795	0.415992	
0.174678	1.4685	0.317109	
0.109201	1.35772	0.375246	
0.0761103	0.977349	0.33014	
0.00844098	0.944821	0.400532	
-0.045108	0.948191	0.315425	
0.0531758	0.885699	0.315425	
0.325159	1.05851	0.165819	
0.353151	1.15839	0.109095	
0.253711	1.11341	0.104023	
0.334194	1.15432	0.215771	
-0.0983601	1.15643	0	
-0.119993	1.24669	0	
-0.18644	1.1823	0	
-0.136328	1.19004	0.119282	
-0.0833019	0.506988	0.155211	
0.00284042	0.609614	0.1018	
-0.0698189	0.504899	0.0723791	
-0.0982069	0.610875	0.136018	
-0.045108	0.948191	0.315425	
-0.105137	0.975975	0.404942	
-0.140073	0.942584	0.309826	
-0.087284	0.884388	0.408402	
0.317206	0.613502	0.200322	
0.374193	0.668368	0.165357	
0.3168	0.613169	0.104097	
0.247079	0.718599	0.118367	
-0.331632	1.37419	0.334643	
-0.257824	1.4284	0.295024	
-0.277785	1.41573	0.365862	
-0.263985	1.32297	0.375811	
-0.064316	0.676662	0.5	
-0.0956709	0.76903	0.5	
0	0.75	0.5	
-0.0862712	0.770823	0.389289	
0.376757	0.671284	0.253532	
0.317206	0.613502	0.200322	
0.316847	0.613208	0.301384	
0.278655	0.736565	0.241439	
-0.157632	0.894674	0.5	
-0.105137	0.975975	0.404942	
-0.0773947	0.947213	0.5	
-0.087284	0.884388	0.408402	
0.00505532	0.706778	0.339312	
0.0468326	0.745128	0.237913	
-0.081357	0.751661	0.265055	
0.0347483	0.794732	0.315425	
0.0728232	1.49467	0.426459	
0.146853	1.47795	0.415992	
0.0815241	1.40985	0.5	
0.109201	1.35772	0.375246	
-0.00643767	0.847524	0.25115	
-0.045108	0.948191	0.315425	
0.0244505	0.94868	0.233905	
-0.0821557	0.901585	0.243527	
0.152393	1.36791	0.5	
0.0815241	1.40985	0.5	
0.146853	1.47795	0.415992	
0.109201	1.35772	0.375246	
-0.468495	1.17468	0.317109	
-0.444481	1.22899	0.408099	
-0.477948	1.14685	0.415992	
-0.343626	1.20201	0.373624	
-0.386831	0.6832	0.104097	
-0.429146	0.74342	0.16876	
-0.386498	0.682794	0.200322	
-0.283151	0.746042	0.130367	
-0.0372406	1.41779	0	
0	1.5	0	
0	1.5	0.1	
0.0420691	1.42713	0	
-0.064316	1.32334	0.5	
-0.0850696	1.27829	0.394238	
-0.151231	1.3651	0.5	
-0.166036	1.37976	0.398541	
0.274113	0.816844	0.5	
0.176777	0.823223	0.5	
0.23097	0.904329	0.5	
0.211575	0.889225	0.384788	
-0.00643767	0.847524	0.3797	
0.00844098	0.944821	0.400532	
0.101939	0.907787	0.403472	
0.0531758	0.885699	0.315425	
0.469721	1.17135	0.161666	
0.428195	1.25817	0.201755	
0.436762	1.24339	0.0969381	
0.353151	1.15839	0.109095	
0.347642	1.19453	0.384775	
0.22536	1.15058	0.40335	
0.288623	1.13754	0.312711	
0.284123	1.06741	0.387999	
0.0704482	1.49501	0.0718447	
0	1.5	0.1	
0.0420691	1.42713	0	
0.0105232	1.38676	0.111861	
0.316847	0.613208	0.301384	
0.376757	0.671284	0.253532	
0.278655	0.736565	0.241439	
0.260241	0.698507	0.343916	
-0.46194	0.808658	0	
-0.444481	0.771009	0.0919014	
-0.356684	0.80649	0	
-0.41072	0.87541	0	
0.388274	0.684971	0.0791933	
0.3168	0.613169	0.104097	
0.374193	0.668368	0.165357	
0.247079	0.718599	0.118367	
0.316847	1.38679	0.198616	
0.317206	1.3865	0.299678	
0.247057	1.4347	0.250499	
0.212182	1.31459	0.219285	
-0.115695	1.05029	0.334241	
-0.105137	0.975975	0.404942	
-0.203766	0.963562	0.377533	
-0.140073	0.942584	0.309826	
0.168914	1.06767	0.155545	
0.208793	1.06331	0.266812	
0.0919908	1.06424	0.248206	
0.134932	0.977505	0.230093	
-0.045108	0.948191	0.315425	
0.00844098	0.944821	0.400532	
-0.105137	0.975975	0.404942	
-0.087284	0.884388	0.408402	
0.414183	1.13115	0	
0.353151	1.15839	0.109095	
0.337634	1.11556	0	
0.40353	1.07301	0.105949	
-0.00748686	1.04315	0.386084	
0.00844098	0.944821	0.400532	
-0.045108	0.948191	0.315425	
0.00363562	1.02785	0.291568	
0.228991	0.555519	0.0919014	
0.191342	0.53806	0	
0.146853	0.522052	0.0840084	
0.125573	0.58604	0	
0.133074	1.2641	0	
0.113965	1.18028	0.121768	
0.158056	1.17188	0	
0.189162	1.24479	0.0938772	
0.277785	1.41573	0	
0.261819	1.31903	0	
0.317233	1.38648	0.0904728	
0.235698	1.44096	0.068569	
-0.0833019	0.506988	0.155211	
0	0.5	0.1	
-0.0698189	0.504899	0.0723791	
0.00284042	0.609614	0.1018	
-0.5	1	0.4	
-0.493315	1.08149	0.347681	
-0.494668	1.07282	0.426459	
-0.382289	1.08918	0.382504	
0.460548	0.805333	0.26567	
0.428195	0.741835	0.298245	
0.469721	0.828647	0.338334	
0.358257	0.834187	0.252847	
-0.386831	1.3168	0.395903	
-0.386498	1.31721	0.299678	
-0.331632	1.37419	0.334643	
-0.263985	1.32297	0.375811	
-0.171353	1.46972	0.161666	
-0.144862	1.47856	0.0783483	
-0.0810399	1.49339	0.14715	
-0.153777	1.36779	0.103264	
-0.168688	0.718299	0	
-0.183989	0.672241	0.119932	
-0.114467	0.613668	0	
-0.111014	0.733523	0.0849706	
0.414183	1.13115	0	
0.478555	1.14486	0.0783483	
0.353151	1.15839	0.109095	
0.40353	1.07301	0.105949	
-0.440961	0.764302	0.431431	
-0.347453	0.767839	0.5	
-0.386476	0.682767	0.409527	
-0.289723	0.75771	0.393302	
-0.189227	0.766031	0.208899	
-0.283151	0.746042	0.130367	
-0.183989	0.672241	0.119932	
-0.247852	0.673084	0.199607	
0.260232	1.21075	0.160089	
0.253711	1.11341	0.104023	
0.353151	1.15839	0.109095	
0.334194	1.15432	0.215771	
-0.183156	1.27411	0.5	
-0.263985	1.32297	0.375811	
-0.232161	1.34745	0.5	
-0.166036	1.37976	0.398541	
-0.0151696	1.04156	0.198031	
-0.0611059	1.11559	0.264866	
0.00363562	1.02785	0.291568	
0.0323895	1.13978	0.258564	
0.478555	0.855138	0.421652	
0.495293	0.931554	0.431403	
0.493389	0.91896	0.35285	
0.368617	0.876452	0.385763	
0.376757	0.671284	0.253532	
0.374193	0.668368	0.165357	
0.317206	0.613502	0.200322	
0.278655	0.736565	0.241439	
0	0.5	0.3	
-0.0810399	0.506611	0.35285	
0	0.5	0.4	
-0.039093	0.610067	0.388942	
-0.064316	1.32334	0.5	
-0.151231	1.3651	0.5	
-0.0552231	1.38907	0.38538	
-0.166036	1.37976	0.398541	
-0.47591	0.846672	0.40763	
-0.495012	0.929552	0.428155	
-0.409849	0.918476	0.5	
-0.351645	0.874975	0.390413	
0.374193	1.33163	0.334643	
0.376757	1.32872	0.246468	
0.4284	1.25782	0.295024	
0.295334	1.24597	0.26697	
0.414991	1.04951	0	
0.5	1	0	
0.5	1	0.1	
0.409478	0.967053	0	
0.0761103	0.977349	0.33014	
0.0244505	0.94868	0.233905	
-0.045108	0.948191	0.315425	
0.00363562	1.02785	0.291568	
0.157632	1.10533	0.5	
0.0691997	1.04586	0.5	
0.0868435	1.13736	0.5	
0.113162	1.01769	0.414132	
-0.437078	0.757178	0.347009	
-0.470668	0.831266	0.298219	
-0.47591	0.846672	0.40763	
-0.351645	0.874975	0.390413	
0.274113	1.18316	0.5	
0.281092	1.28109	0.5	
0.347453	1.23216	0.5	
0.347642	1.19453	0.384775	
-0.401548	0.957663	0	
-0.5	1	0	
-0.5	1	0.1	
-0.426463	1.04414	0	
0.0807477	1.49344	0.154224	
0	1.5	0.2	
0	1.5	0.1	
0.0105232	1.38676	0.111861	
-0.0833019	1.49301	0.344789	
0	1.5	0.3	
0	1.5	0.4	
-0.0552231	1.38907	0.38538	
-0.440961	0.764302	0.431431	
-0.437078	0.757178	0.347009	
-0.47591	0.846672	0.40763	
-0.351645	0.874975	0.390413	
0.0903521	1.10545	0	
0.0209546	1.03628	0	
0.115537	1.01075	0	
0.0593465	1.06716	0.10856	
-0.274113	1.18316	0.5	
-0.347453	1.23216	0.5	
-0.280403	1.2804	0.5	
-0.343626	1.20201	0.373624	
-0.279096	1.24359	0.272562	
-0.234257	1.21312	0.375398	
-0.18052	1.3078	0.334608	
-0.263985	1.32297	0.375811	
0.476114	0.847306	0.0975404	
0.380207	0.80292	0	
0.46194	0.808658	0	
0.439458	0.761512	0.0756919	
0.153328	1.47591	0.0923699	
0.242822	1.43708	0.152991	
0.168734	1.47067	0.201781	
0.190875	1.34709	0.10503	
0.346509	1.02379	0	
0.387337	0.975471	0.113668	
0.414991	1.04951	0	
0.40353	1.07301	0.105949	
-0.243391	1.43676	0.0969381	
-0.171353	1.46972	0.161666	
-0.258165	1.42819	0.201755	
-0.153777	1.36779	0.103264	
-0.0815241	0.590151	0.5	
-0.152126	0.632735	0.5	
-0.064316	0.676662	0.5	
-0.039093	0.610067	0.388942	
-0.176777	1.17678	0.5	
-0.107214	1.16612	0.5	
-0.117202	1.0938	0.5	
-0.179827	1.088	0.408491	
-0.114467	0.613668	0	
-0.152694	0.523886	0.0975404	
-0.0698189	0.504899	0.0723791	
-0.0982069	0.610875	0.136018	
0.242822	0.562922	0.347009	
0.247057	0.565302	0.249501	
0.168734	0.529332	0.298219	
0.15722	0.635104	0.236843	
-0.168688	0.718299	0	
-0.203173	0.626976	0	
-0.114467	0.613668	0	
-0.183989	0.672241	0.119932	
-0.0151696	1.04156	0.198031	
0.00363562	1.02785	0.291568	
0.0919908	1.06424	0.248206	
0.0323895	1.13978	0.258564	
-0.444481	0.771009	0.0919014	
-0.46194	0.808658	0	
-0.477948	0.853147	0.0840084	
-0.41072	0.87541	0	
-0.257824	0.5716	0.204976	
-0.194667	0.539452	0.26567	
-0.168043	0.529084	0.199874	
-0.136534	0.645188	0.231761	
0.174678	1.4685	0.317109	
0.146853	1.47795	0.415992	
0.0814864	1.49332	0.347681	
0.109201	1.35772	0.375246	
-0.110633	0.921519	0.156892	
-0.10307	0.999921	0.0930669	
-0.0105385	0.962638	0.111113	
-0.0724446	0.868744	0.084223	
0.288623	1.13754	0.312711	
0.378383	1.07129	0.271427	
0.385098	1.08722	0.383771	
0.284123	1.06741	0.387999	
-0.00674902	1.18961	0.168493	
-0.0330822	1.21734	0.266884	
-0.0611059	1.11559	0.264866	
0.0323895	1.13978	0.258564	
-0.00748686	1.04315	0.386084	
0.00844098	0.944821	0.400532	
0.0761103	0.977349	0.33014	
0.113162	1.01769	0.414132	
-0.470668	1.16873	0.201781	
-0.434698	1.24706	0.250499	
-0.468495	1.17468	0.317109	
-0.364752	1.11394	0.23148	
0.0761103	0.977349	0.33014	
0.00844098	0.944821	0.400532	
-0.00748686	1.04315	0.386084	
0.00363562	1.02785	0.291568	
-0.0698189	0.504899	0.0723791	
0	0.5	0.1	
-0.0422582	0.562527	0	
0.00284042	0.609614	0.1018	
-0.302044	0.949354	0	
-0.211369	0.923885	0	
-0.237047	1.02014	0	
-0.227254	0.962083	0.121579	
-0.00643767	0.847524	0.25115	
0.0468326	0.745128	0.237913	
0.106858	0.844305	0.230248	
0.0347483	0.794732	0.315425	
-0.114443	1.01484	0.5	
-0.177191	1.03636	0.5	
-0.117202	1.0938	0.5	
-0.179827	1.088	0.408491	
0.268393	0.665699	0	
0.228991	0.555519	0.0919014	
0.277785	0.584265	0	
0.3168	0.613169	0.104097	
-0.389036	1.20743	0	
-0.46194	1.19134	0	
-0.404541	1.12695	0	
-0.440961	1.2357	0.068569	
0.261819	1.31903	0	
0.317233	1.38648	0.0904728	
0.190875	1.34709	0.10503	
0.28898	1.28652	0.0949489	
0.490343	1.0978	0.241226	
0.470916	1.16804	0.300126	
0.460548	1.19467	0.23433	
0.378383	1.07129	0.271427	
0.386505	0.682803	0.431175	
0.380873	0.676062	0.347739	
0.317233	0.613524	0.409527	
0.260241	0.698507	0.343916	
0.409478	0.967053	0	
0.387337	0.975471	0.113668	
0.314271	0.949812	0	
0.355602	0.87751	0.0966392	
-0.0422582	0.562527	0	
0	0.5	0.1	
0	0.5	0	
0.0404524	0.58928	0	
0.5	1	0.3	
0.490343	1.0978	0.241226	
0.5	1	0.2	
0.378383	1.07129	0.271427	
0.133074	1.2641	0	
0.189613	1.31366	0	
0.190875	1.34709	0.10503	
0.189162	1.24479	0.0938772	
0.353553	0.646447	0	
0.388274	0.684971	0.0791933	
0.268393	0.665699	0	
0.3168	0.613169	0.104097	
0.106858	0.844305	0.230248	
0.121965	0.82524	0.342904	
0.0531758	0.885699	0.315425	
0.0347483	0.794732	0.315425	
0.121965	0.82524	0.342904	
0.101939	0.907787	0.403472	
0.211575	0.889225	0.384788	
0.148799	0.913537	0.303647	
0.347602	0.985936	0.348343	
0.385098	1.08722	0.383771	
0.378383	1.07129	0.271427	
0.284123	1.06741	0.387999	
-0.142648	0.992859	0	
-0.117671	0.89803	0	
-0.048473	0.967143	0	
-0.10307	0.999921	0.0930669	
-0.353553	0.646447	0	
-0.315029	0.611726	0.0791933	
-0.263582	0.680587	0	
-0.331361	0.727047	0	
-0.353553	1.35355	0	
-0.317197	1.38651	0.0688254	
-0.386476	1.31723	0.0904728	
-0.318983	1.26174	0	
0.0807477	0.506563	0.345776	
0.0854243	0.507351	0.248597	
0	0.5	0.3	
0.0452903	0.623513	0.25784	
0.274113	0.816844	0.5	
0.176777	0.823223	0.5	
0.211575	0.889225	0.384788	
0.206682	0.777113	0.400851	
-0.468495	0.825322	0.182891	
-0.434698	0.752943	0.249501	
-0.429146	0.74342	0.16876	
-0.332607	0.773484	0.222023	
-0.238488	1.43946	0.424308	
-0.263985	1.32297	0.375811	
-0.277785	1.41573	0.365862	
-0.166036	1.37976	0.398541	
0.232161	0.652547	0.5	
0.183156	0.725887	0.5	
0.278087	0.721913	0.5	
0.206682	0.777113	0.400851	
0.210156	0.985203	0	
0.232997	0.88938	0	
0.314271	0.949812	0	
0.265828	0.94766	0.123486	
0.409478	0.967053	0	
0.495101	0.930181	0.0723791	
0.5	1	0.1	
0.387337	0.975471	0.113668	
-0.168688	0.718299	0	
-0.263582	0.680587	0	
-0.203173	0.626976	0	
-0.183989	0.672241	0.119932	
-0.157632	0.894674	0.5	
-0.157632	0.968645	0.5	
-0.0773947	0.947213	0.5	
-0.105137	0.975975	0.404942	
0.274113	1.18316	0.5	
0.323338	1.06432	0.5	
0.23097	1.09567	0.5	
0.284123	1.06741	0.387999	
-0.00643767	0.847524	0.25115	
0.0531758	0.885699	0.315425	
-0.00643767	0.847524	0.3797	
0.0347483	0.794732	0.315425	
-0.238488	0.560542	0.0756919	
-0.277785	0.584265	0	
-0.315029	0.611726	0.0791933	
-0.203173	0.626976	0	
0.460548	0.805333	0.26567	
0.490343	0.902203	0.258774	
0.470916	0.831957	0.199874	
0.358257	0.834187	0.252847	
0.439458	1.23849	0.424308	
0.388274	1.31503	0.420807	
0.415735	1.27779	0.365862	
0.347642	1.19453	0.384775	
-0.152694	0.523886	0.0975404	
-0.114467	0.613668	0	
-0.191342	0.53806	0	
-0.203173	0.626976	0	
0.374193	0.668368	0.165357	
0.415735	0.722215	0.134138	
0.388274	0.684971	0.0791933	
0.341118	0.774271	0.0916023	
0.201164	0.726422	0	
0.314857	0.742551	0	
0.245477	0.808349	0	
0.247079	0.718599	0.118367	
-0.0427935	1.02817	0.5	
0.0165433	0.957567	0.5	
-0.0773947	0.947213	0.5	
0.00844098	0.944821	0.400532	
-0.323338	1.06432	0.5	
-0.323338	0.935684	0.5	
-0.397525	1	0.5	
-0.275403	1.0393	0.403336	
-0.0815241	1.40985	0.5	
-0.0552231	1.38907	0.38538	
-0.151231	1.3651	0.5	
-0.166036	1.37976	0.398541	
-0.353553	1.35355	0.5	
-0.280403	1.2804	0.5	
-0.386831	1.3168	0.395903	
-0.315029	1.38827	0.420807	
-0.00167925	1.31098	0.319981	
0.0196341	1.38361	0.225797	
0.105734	1.2948	0.276786	
0.0143983	1.28276	0.204525	
-0.0427935	1.02817	0.5	
-0.00748686	1.04315	0.386084	
0.0165433	0.957567	0.5	
0.00844098	0.944821	0.400532	
-0.0925337	0.803549	0	
0.00183684	0.777669	0	
-0.0232782	0.872416	0	
-0.0724446	0.868744	0.084223	
-0.239777	0.86007	0.398057	
-0.289723	0.75771	0.393302	
-0.274113	0.816844	0.5	
-0.351645	0.874975	0.390413	
0.495293	1.06845	0.0685965	
0.5	1	0	
0.5	1	0.1	
0.414991	1.04951	0	
-0.315029	0.611726	0.0791933	
-0.386831	0.6832	0.104097	
-0.331632	0.625807	0.165357	
-0.283151	0.746042	0.130367	
-0.00643767	0.847524	0.25115	
0.106858	0.844305	0.230248	
0.0531758	0.885699	0.315425	
0.0347483	0.794732	0.315425	
-0.353553	0.646447	0	
-0.315029	0.611726	0.0791933	
-0.331361	0.727047	0	
-0.386831	0.6832	0.104097	
0.0807477	0.506563	0.345776	
0.153328	0.52409	0.40763	
0.168734	0.529332	0.298219	
0.0738912	0.610829	0.388761	
0.3168	1.38683	0.395903	
0.353553	1.35355	0.5	
0.281092	1.28109	0.5	
0.388274	1.31503	0.420807	
-0.0697093	1.32708	0.167311	
0.0105232	1.38676	0.111861	
0.0196341	1.38361	0.225797	
0.0143983	1.28276	0.204525	
-0.0726386	0.798943	0.15243	
-0.00982582	0.726304	0.0884564	
-0.0297704	0.68077	0.178611	
-0.111014	0.733523	0.0849706	
0.261819	1.31903	0	
0.189613	1.31366	0	
0.231243	1.24169	0	
0.189162	1.24479	0.0938772	
0.0691997	1.04586	0.5	
0.0165433	0.957567	0.5	
-0.0427935	1.02817	0.5	
-0.00748686	1.04315	0.386084	
0.493012	1.0833	0.344789	
0.5	1	0.4	
0.495101	1.06982	0.427621	
0.385098	1.08722	0.383771	
-0.257956	1.11632	0	
-0.337562	1.05476	0	
-0.256772	1.06769	0.100506	
-0.357904	1.11593	0.101286	
-0.191342	1.46194	0	
-0.201912	1.36999	0	
-0.118932	1.39861	0	
-0.153777	1.36779	0.103264	
0.353553	0.646447	0	
0.388274	0.684971	0.0791933	
0.314857	0.742551	0	
0.268393	0.665699	0	
0.380207	0.80292	0	
0.46194	0.808658	0	
0.394936	0.880197	0	
0.476114	0.847306	0.0975404	
0.346509	1.02379	0	
0.414991	1.04951	0	
0.337634	1.11556	0	
0.40353	1.07301	0.105949	
0.478555	0.855138	0.421652	
0.436762	0.756609	0.403062	
0.46194	0.808658	0.5	
0.365104	0.848769	0.5	
-0.0734441	1.06169	0	
-0.00425413	1.131	0	
-0.0983601	1.15643	0	
-0.0543483	1.10288	0.107179	
-0.470668	1.16873	0.201781	
-0.492649	1.08542	0.251403	
-0.493437	1.08075	0.154224	
-0.364752	1.11394	0.23148	
-0.0697093	1.32708	0.167311	
0.00439522	1.27731	0.103072	
0.0105232	1.38676	0.111861	
0.0143983	1.28276	0.204525	
0	0.5	0.1	
0.0728232	0.505332	0.0735406	
0.0404524	0.58928	0	
0.00284042	0.609614	0.1018	
0.0704482	1.49501	0.0718447	
0.0420691	1.42713	0	
0.0975452	1.49039	0	
0.114055	1.37411	0	
-0.404541	1.12695	0	
-0.328307	1.16356	0	
-0.389036	1.20743	0	
-0.357904	1.11593	0.101286	
0.0761103	0.977349	0.33014	
0.00844098	0.944821	0.400532	
0.101939	0.907787	0.403472	
0.113162	1.01769	0.414132	
-0.232161	1.34745	0.5	
-0.263985	1.32297	0.375811	
-0.238488	1.43946	0.424308	
-0.166036	1.37976	0.398541	
0.0815241	0.590151	0.5	
0.0704482	0.504988	0.428155	
-3.15026e-17	0.601779	0.5	
0.0738912	0.610829	0.388761	
0.337634	1.11556	0	
0.414183	1.13115	0	
0.373926	1.19893	0	
0.353151	1.15839	0.109095	
-0.243391	0.563238	0.403062	
-0.152126	0.632735	0.5	
-0.191342	0.53806	0.5	
-0.144862	0.521445	0.421652	
-0.194667	1.46055	0.23433	
-0.258165	1.42819	0.201755	
-0.171353	1.46972	0.161666	
-0.193559	1.35773	0.245031	
0	0.5	0.1	
0.0814864	0.506685	0.152319	
0.0728232	0.505332	0.0735406	
0.00284042	0.609614	0.1018	
-0.144862	0.521445	0.421652	
-0.0684459	0.504707	0.431403	
-0.0810399	0.506611	0.35285	
-0.039093	0.610067	0.388942	
0.46194	1.19134	0	
0.373926	1.19893	0	
0.478555	1.14486	0.0783483	
0.436762	1.24339	0.0969381	
0.414183	1.13115	0	
0.414991	1.04951	0	
0.495293	1.06845	0.0685965	
0.40353	1.07301	0.105949	
0.346509	1.02379	0	
0.409478	0.967053	0	
0.414991	1.04951	0	
0.387337	0.975471	0.113668	
-0.426463	1.04414	0	
-0.337562	1.05476	0	
-0.404541	1.12695	0	
-0.357904	1.11593	0.101286	
-0.0773947	0.947213	0.5	
0.0165433	0.957567	0.5	
-0.0218546	0.89013	0.5	
0.00844098	0.944821	0.400532	
0.106858	0.844305	0.230248	
0.0531758	0.885699	0.315425	
0.121965	0.82524	0.342904	
0.148799	0.913537	0.303647	
0.414183	1.13115	0	
0.337634	1.11556	0	
0.414991	1.04951	0	
0.40353	1.07301	0.105949	
-0.0218546	0.89013	0.5	
0.0165433	0.957567	0.5	
0.0634445	0.898618	0.5	
0.00844098	0.944821	0.400532	
-0.263582	0.680587	0	
-0.315029	0.611726	0.0791933	
-0.277785	0.584265	0	
-0.203173	0.626976	0	
0.316847	0.613208	0.301384	
0.380873	0.676062	0.347739	
0.376757	0.671284	0.253532	
0.260241	0.698507	0.343916	
-0.0698189	1.4951	0.427621	
8.18872e-17	1.39822	0.5	
-0.0815241	1.40985	0.5	
-0.0552231	1.38907	0.38538	
0.347642	1.19453	0.384775	
0.288623	1.13754	0.312711	
0.385098	1.08722	0.383771	
0.284123	1.06741	0.387999	
0.0196341	1.38361	0.225797	
0.0105232	1.38676	0.111861	
0.098462	1.32087	0.159093	
0.0143983	1.28276	0.204525	
0.106675	0.966314	0.5	
0.0165433	0.957567	0.5	
0.0691997	1.04586	0.5	
0.113162	1.01769	0.414132	
0.098462	1.32087	0.159093	
0.105734	1.2948	0.276786	
0.0196341	1.38361	0.225797	
0.0143983	1.28276	0.204525	
0.152126	0.632735	0.5	
0.153328	0.52409	0.40763	
0.0815241	0.590151	0.5	
0.0738912	0.610829	0.388761	
0.5	1	0.1	
0.493012	0.916698	0.155211	
0.5	1	0.2	
0.387337	0.975471	0.113668	
0.261819	1.31903	0	
0.231243	1.24169	0	
0.28898	1.28652	0.0949489	
0.189162	1.24479	0.0938772	
-0.363339	1.1505	0.5	
-0.444481	1.22899	0.408099	
-0.347453	1.23216	0.5	
-0.343626	1.20201	0.373624	
0.0105232	1.38676	0.111861	
0.00439522	1.27731	0.103072	
0.098462	1.32087	0.159093	
0.0143983	1.28276	0.204525	
-0.328716	0.623243	0.253532	
-0.331632	0.625807	0.165357	
-0.386498	0.682794	0.200322	
-0.247852	0.673084	0.199607	
-0.409849	1.08152	0.5	
-0.477948	1.14685	0.415992	
-0.363339	1.1505	0.5	
-0.382289	1.08918	0.382504	
-0.176777	0.823223	0.5	
-0.23097	0.904329	0.5	
-0.157632	0.894674	0.5	
-0.239777	0.86007	0.398057	
-0.117671	0.89803	0	
-0.186407	0.830549	0	
-0.0925337	0.803549	0	
-0.0724446	0.868744	0.084223	
-0.429146	1.25658	0.33124	
-0.386498	1.31721	0.299678	
-0.386831	1.3168	0.395903	
-0.343626	1.20201	0.373624	
-0.257824	0.5716	0.204976	
-0.328716	0.623243	0.253532	
-0.258165	0.571805	0.298245	
-0.247852	0.673084	0.199607	
0.478555	0.855138	0.421652	
0.409849	0.918476	0.5	
0.495293	0.931554	0.431403	
0.368617	0.876452	0.385763	
-0.0815241	1.40985	0.5	
-0.152694	1.47611	0.40246	
-0.0552231	1.38907	0.38538	
-0.166036	1.37976	0.398541	
-0.183156	0.725887	0.5	
-0.281585	0.718415	0.5	
-0.274113	0.816844	0.5	
-0.289723	0.75771	0.393302	
-0.194667	0.539452	0.26567	
-0.0977967	0.509657	0.258774	
-0.168043	0.529084	0.199874	
-0.136534	0.645188	0.231761	
0.450285	1.21736	0.355302	
0.476114	1.15269	0.40246	
0.439458	1.23849	0.424308	
0.347642	1.19453	0.384775	
0.46194	1.19134	0.5	
0.439458	1.23849	0.424308	
0.476114	1.15269	0.40246	
0.369516	1.15306	0.5	
0.476114	1.15269	0.40246	
0.409849	1.08152	0.5	
0.369516	1.15306	0.5	
0.385098	1.08722	0.383771	
-0.238488	1.43946	0.424308	
-0.315029	1.38827	0.420807	
-0.277785	1.41573	0.365862	
-0.263985	1.32297	0.375811	
0.317233	0.613524	0.409527	
0.278087	0.721913	0.5	
0.353553	0.646447	0.5	
0.386505	0.682803	0.431175	
-0.23097	1.09567	0.5	
-0.179827	1.088	0.408491	
-0.177191	1.03636	0.5	
-0.275403	1.0393	0.403336	
0.235698	1.44096	0.068569	
0.153328	1.47591	0.0923699	
0.191342	1.46194	0	
0.202324	1.37852	0	
0.373926	1.19893	0	
0.300884	1.19872	0	
0.337634	1.11556	0	
0.353151	1.15839	0.109095	
-0.493315	0.918514	0.152319	
-0.494668	0.927177	0.0735406	
-0.5	1	0.1	
-0.390863	0.914451	0.0980906	
-0.110633	0.921519	0.156892	
-0.00436862	0.872297	0.154061	
-0.0726386	0.798943	0.15243	
-0.0724446	0.868744	0.084223	
0.394936	0.880197	0	
0.409478	0.967053	0	
0.314271	0.949812	0	
0.355602	0.87751	0.0966392	
-0.323338	0.935684	0.5	
-0.239777	0.86007	0.398057	
-0.274113	0.816844	0.5	
-0.351645	0.874975	0.390413	
0.0401436	1.2912	0	
-0.0295403	1.22514	0	
0.0651412	1.2001	0	
0.00439522	1.27731	0.103072	
-0.144862	0.521445	0.421652	
-0.0815241	0.590151	0.5	
-0.0684459	0.504707	0.431403	
-0.039093	0.610067	0.388942	
-0.386831	0.6832	0.104097	
-0.386498	0.682794	0.200322	
-0.331632	0.625807	0.165357	
-0.283151	0.746042	0.130367	
0.268393	0.665699	0	
0.314857	0.742551	0	
0.201164	0.726422	0	
0.247079	0.718599	0.118367	
-0.0684459	0.504707	0.431403	
0	0.5	0.5	
0	0.5	0.4	
-3.15026e-17	0.601779	0.5	
-0.494668	1.07282	0.426459	
-0.5	1	0.5	
-0.5	1	0.4	
-0.397525	1	0.5	
-0.0328721	0.629311	0	
0.0404524	0.58928	0	
0.0248177	0.686626	0	
0.00284042	0.609614	0.1018	
-0.495012	0.929552	0.428155	
-0.5	1	0.4	
-0.5	1	0.5	
-0.397525	1	0.5	
-0.201912	1.36999	0	
-0.191342	1.46194	0	
-0.243391	1.43676	0.0969381	
-0.153777	1.36779	0.103264	
0.495293	0.931554	0.431403	
0.5	1	0.5	
0.5	1	0.4	
0.398221	1	0.5	
0.0807477	1.49344	0.154224	
0.0854243	1.49265	0.251403	
0	1.5	0.2	
0.0196341	1.38361	0.225797	
0.314271	0.949812	0	
0.409478	0.967053	0	
0.346509	1.02379	0	
0.387337	0.975471	0.113668	
0	0.5	0.5	
0	0.5	0.4	
-3.15026e-17	0.601779	0.5	
0.0704482	0.504988	0.428155	
0	1.5	0.4	
0	1.5	0.5	
8.18872e-17	1.39822	0.5	
0.0728232	1.49467	0.426459	
-0.25	1	0.5	
-0.23097	1.09567	0.5	
-0.177191	1.03636	0.5	
-0.275403	1.0393	0.403336	
-0.296327	0.833736	0.292179	
-0.289723	0.75771	0.393302	
-0.239777	0.86007	0.398057	
-0.351645	0.874975	0.390413	
0.495101	1.06982	0.427621	
0.5	1	0.4	
0.5	1	0.5	
0.398221	1	0.5	
-0.0698189	1.4951	0.427621	
0	1.5	0.4	
0	1.5	0.5	
8.18872e-17	1.39822	0.5	
-0.328716	0.623243	0.253532	
-0.323938	0.619127	0.347739	
-0.258165	0.571805	0.298245	
-0.259603	0.71434	0.292274	
-0.285945	1.12176	0.325452	
-0.234257	1.21312	0.375398	
-0.279096	1.24359	0.272562	
-0.343626	1.20201	0.373624	
0.114055	1.37411	0	
0.191342	1.46194	0	
0.153328	1.47591	0.0923699	
0.202324	1.37852	0	
-0.274113	0.816844	0.5	
-0.323338	0.935684	0.5	
-0.23097	0.904329	0.5	
-0.239777	0.86007	0.398057	
-0.477948	1.14685	0.415992	
-0.46194	1.19134	0.5	
-0.363339	1.1505	0.5	
-0.444481	1.22899	0.408099	
-0.170219	0.871655	0.235589	
-0.140073	0.942584	0.309826	
-0.144063	0.852748	0.341365	
-0.0821557	0.901585	0.243527	
-0.152694	1.47611	0.40246	
-0.0698189	1.4951	0.427621	
-0.0815241	1.40985	0.5	
-0.0552231	1.38907	0.38538	
-0.0105385	0.962638	0.111113	
-0.00436862	0.872297	0.154061	
-0.110633	0.921519	0.156892	
-0.0724446	0.868744	0.084223	
0.141405	0.904892	0.5	
0.103403	0.84471	0.5	
0.0634445	0.898618	0.5	
0.101939	0.907787	0.403472	
0.0807477	1.49344	0.154224	
0	1.5	0.1	
0.0704482	1.49501	0.0718447	
0.0105232	1.38676	0.111861	
-0.238488	1.43946	0.424308	
-0.232161	1.34745	0.5	
-0.315029	1.38827	0.420807	
-0.263985	1.32297	0.375811	
-0.191342	1.46194	0	
-0.118932	1.39861	0	
-0.144862	1.47856	0.0783483	
-0.153777	1.36779	0.103264	
0.478555	1.14486	0.0783483	
0.414183	1.13115	0	
0.495293	1.06845	0.0685965	
0.40353	1.07301	0.105949	
-0.183156	1.27411	0.5	
-0.280403	1.2804	0.5	
-0.232161	1.34745	0.5	
-0.263985	1.32297	0.375811	
0.121965	0.82524	0.342904	
0.0531758	0.885699	0.315425	
0.101939	0.907787	0.403472	
0.148799	0.913537	0.303647	
-0.409849	0.918476	0.5	
-0.363339	0.8495	0.5	
-0.47591	0.846672	0.40763	
-0.351645	0.874975	0.390413	
-0.347453	0.767839	0.5	
-0.281585	0.718415	0.5	
-0.386476	0.682767	0.409527	
-0.289723	0.75771	0.393302	
-0.0638367	0.704239	0	
0.00183684	0.777669	0	
-0.0925337	0.803549	0	
-0.00982582	0.726304	0.0884564	
-0.0328721	0.629311	0	
0.0248177	0.686626	0	
-0.0638367	0.704239	0	
-0.00982582	0.726304	0.0884564	
-0.317197	0.613495	0.431175	
-0.386476	0.682767	0.409527	
-0.353553	0.646447	0.5	
-0.281585	0.718415	0.5	
-0.0372406	1.41779	0	
0	1.5	0.1	
0	1.5	0	
-0.0684459	1.49529	0.0685965	
-0.493315	0.918514	0.152319	
-0.468495	0.825322	0.182891	
-0.477948	0.853147	0.0840084	
-0.390863	0.914451	0.0980906	
-0.168043	1.47092	0.300126	
-0.194667	1.46055	0.23433	
-0.0964049	1.37384	0.276475	
-0.193559	1.35773	0.245031	
0.439458	0.761512	0.0756919	
0.415735	0.722215	0.134138	
0.450285	0.782644	0.144698	
0.341118	0.774271	0.0916023	
-0.257956	1.11632	0	
-0.237047	1.02014	0	
-0.16685	1.08834	0	
-0.256772	1.06769	0.100506	
0.0761103	0.977349	0.33014	
0.101939	0.907787	0.403472	
0.00844098	0.944821	0.400532	
0.0531758	0.885699	0.315425	
-0.183156	1.27411	0.5	
-0.274113	1.18316	0.5	
-0.280403	1.2804	0.5	
-0.234257	1.21312	0.375398	
0.493012	1.0833	0.344789	
0.490343	1.0978	0.241226	
0.5	1	0.3	
0.378383	1.07129	0.271427	
-0.401548	0.957663	0	
-0.5	1	0.1	
-0.5	1	0	
-0.494668	0.927177	0.0735406	
-0.26105	1.2034	0	
-0.318983	1.26174	0	
-0.328307	1.16356	0	
-0.277342	1.24516	0.0975038	
0.0956709	0.76903	0.5	
0.176777	0.823223	0.5	
0.183156	0.725887	0.5	
0.206682	0.777113	0.400851	
0.470916	1.16804	0.300126	
0.490343	1.0978	0.241226	
0.493012	1.0833	0.344789	
0.378383	1.07129	0.271427	
0.0943468	0.754666	0	
0.00183684	0.777669	0	
0.0248177	0.686626	0	
-0.00982582	0.726304	0.0884564	
0.495101	0.930181	0.0723791	
0.5	1	0.1	
0.5	1	0	
0.409478	0.967053	0	
0.439458	1.23849	0.424308	
0.369516	1.15306	0.5	
0.347453	1.23216	0.5	
0.347642	1.19453	0.384775	
0.439458	1.23849	0.424308	
0.347453	1.23216	0.5	
0.388274	1.31503	0.420807	
0.347642	1.19453	0.384775	
0.242822	1.43708	0.152991	
0.316847	1.38679	0.198616	
0.247057	1.4347	0.250499	
0.212182	1.31459	0.219285	
0	0.5	0.3	
0.0854243	0.507351	0.248597	
0	0.5	0.2	
0.0452903	0.623513	0.25784	
-0.468495	1.17468	0.317109	
-0.492649	1.08542	0.251403	
-0.470668	1.16873	0.201781	
-0.364752	1.11394	0.23148	
-0.176777	1.17678	0.5	
-0.274113	1.18316	0.5	
-0.183156	1.27411	0.5	
-0.234257	1.21312	0.375398	
-0.217356	1.45028	0.355302	
-0.168043	1.47092	0.300126	
-0.152694	1.47611	0.40246	
-0.166036	1.37976	0.398541	
-0.444481	1.22899	0.408099	
-0.386831	1.3168	0.395903	
-0.347453	1.23216	0.5	
-0.343626	1.20201	0.373624	
-0.183156	1.27411	0.5	
-0.151231	1.3651	0.5	
-0.064316	1.32334	0.5	
-0.0850696	1.27829	0.394238	
0.228991	1.44448	0.408099	
0.152393	1.36791	0.5	
0.191342	1.46194	0.5	
0.146853	1.47795	0.415992	
-0.0372406	1.41779	0	
0.0153159	1.36356	0	
0.0420691	1.42713	0	
0.0105232	1.38676	0.111861	
-0.217356	1.45028	0.355302	
-0.238488	1.43946	0.424308	
-0.277785	1.41573	0.365862	
-0.166036	1.37976	0.398541	
-0.152694	0.523886	0.0975404	
-0.217356	0.549715	0.144698	
-0.168043	0.529084	0.199874	
-0.0982069	0.610875	0.136018	
-0.0638367	0.704239	0	
-0.00982582	0.726304	0.0884564	
-0.0925337	0.803549	0	
-0.111014	0.733523	0.0849706	
-3.15026e-17	0.601779	0.5	
-0.0684459	0.504707	0.431403	
-0.0815241	0.590151	0.5	
-0.039093	0.610067	0.388942	
-0.258165	1.42819	0.201755	
-0.257824	1.4284	0.295024	
-0.328716	1.37676	0.246468	
-0.193559	1.35773	0.245031	
-0.064316	1.32334	0.5	
-0.151231	1.3651	0.5	
-0.0815241	1.40985	0.5	
-0.0552231	1.38907	0.38538	
-0.118932	1.39861	0	
-0.0372406	1.41779	0	
-0.0975452	1.49039	0	
-0.0684459	1.49529	0.0685965	
-0.0815241	1.40985	0.5	
-0.151231	1.3651	0.5	
-0.152694	1.47611	0.40246	
-0.166036	1.37976	0.398541	
0.0761103	0.977349	0.33014	
0.101939	0.907787	0.403472	
0.0531758	0.885699	0.315425	
0.148799	0.913537	0.303647	
0.476114	1.15269	0.40246	
0.470916	1.16804	0.300126	
0.493012	1.0833	0.344789	
0.385098	1.08722	0.383771	
-0.0392044	1.16291	0.5	
0.028723	1.17517	0.5	
0.000305103	1.09462	0.5	
-0.0571477	1.11947	0.416349	
0.163502	1.02984	0.5	
0.185939	0.963014	0.5	
0.106675	0.966314	0.5	
0.113162	1.01769	0.414132	
-0.273315	1.33496	0	
-0.318983	1.26174	0	
-0.214341	1.27376	0	
-0.277342	1.24516	0.0975038	
-0.048473	0.967143	0	
-0.117671	0.89803	0	
-0.0232782	0.872416	0	
-0.0724446	0.868744	0.084223	
0.380873	1.32394	0.152261	
0.316847	1.38679	0.198616	
0.317233	1.38648	0.0904728	
0.28898	1.28652	0.0949489	
0.0704482	1.49501	0.0718447	
0.0975452	1.49039	0	
0.153328	1.47591	0.0923699	
0.114055	1.37411	0	
0.469721	1.17135	0.161666	
0.353151	1.15839	0.109095	
0.478555	1.14486	0.0783483	
0.40353	1.07301	0.105949	
0.288623	1.13754	0.312711	
0.295334	1.24597	0.26697	
0.334194	1.15432	0.215771	
0.219623	1.16199	0.240766	
0.0728232	0.505332	0.0735406	
0	0.5	0	
0	0.5	0.1	
0.0404524	0.58928	0	
-0.0833019	1.49301	0.344789	
-0.168043	1.47092	0.300126	
-0.0977967	1.49034	0.241226	
-0.0964049	1.37384	0.276475	
-0.315029	1.38827	0.420807	
-0.232161	1.34745	0.5	
-0.280403	1.2804	0.5	
-0.263985	1.32297	0.375811	
-0.440961	1.2357	0.068569	
-0.46194	1.19134	0	
-0.404541	1.12695	0	
-0.47591	1.15333	0.0923699	
-0.257956	1.11632	0	
-0.328307	1.16356	0	
-0.337562	1.05476	0	
-0.357904	1.11593	0.101286	
-0.323338	0.935684	0.5	
-0.274113	0.816844	0.5	
-0.363339	0.8495	0.5	
-0.351645	0.874975	0.390413	
-0.440961	0.764302	0.431431	
-0.46194	0.808658	0.5	
-0.363339	0.8495	0.5	
-0.47591	0.846672	0.40763	
0.247868	1.14631	0	
0.184962	1.07993	0	
0.276476	1.05355	0	
0.253711	1.11341	0.104023	
0.247868	1.14631	0	
0.276476	1.05355	0	
0.337634	1.11556	0	
0.253711	1.11341	0.104023	
0.261819	1.31903	0	
0.202324	1.37852	0	
0.189613	1.31366	0	
0.190875	1.34709	0.10503	
0.260232	1.21075	0.160089	
0.334194	1.15432	0.215771	
0.295334	1.24597	0.26697	
0.219623	1.16199	0.240766	
0.0854243	0.507351	0.248597	
0.168734	0.529332	0.298219	
0.174678	0.531505	0.182891	
0.15722	0.635104	0.236843	
0.495293	1.06845	0.0685965	
0.414183	1.13115	0	
0.490393	1.09755	0	
0.414991	1.04951	0	
0.313791	0.845535	0	
0.341118	0.774271	0.0916023	
0.380207	0.80292	0	
0.355602	0.87751	0.0966392	
-0.191342	1.46194	0	
-0.144862	1.47856	0.0783483	
-0.243391	1.43676	0.0969381	
-0.153777	1.36779	0.103264	
-0.323338	0.935684	0.5	
-0.323338	1.06432	0.5	
-0.25	1	0.5	
-0.275403	1.0393	0.403336	
-0.064316	1.32334	0.5	
0	1.25	0.5	
-0.0956709	1.23097	0.5	
-0.0850696	1.27829	0.394238	
0.439458	0.761512	0.0756919	
0.380207	0.80292	0	
0.415735	0.722215	0	
0.341118	0.774271	0.0916023	
-0.152694	1.47611	0.40246	
-0.151231	1.3651	0.5	
-0.191342	1.46194	0.5	
-0.166036	1.37976	0.398541	
-0.168043	1.47092	0.300126	
-0.194667	1.46055	0.23433	
-0.0977967	1.49034	0.241226	
-0.0964049	1.37384	0.276475	
-0.0422582	0.562527	0	
0.0404524	0.58928	0	
-0.0328721	0.629311	0	
0.00284042	0.609614	0.1018	
-0.00173102	1.15684	0.347507	
-0.0611059	1.11559	0.264866	
-0.0330822	1.21734	0.266884	
0.0323895	1.13978	0.258564	
-0.064316	1.32334	0.5	
-0.0956709	1.23097	0.5	
-0.183156	1.27411	0.5	
-0.0850696	1.27829	0.394238	
0.470916	0.831957	0.199874	
0.4284	0.742176	0.204976	
0.460548	0.805333	0.26567	
0.358257	0.834187	0.252847	
0.115537	1.01075	0	
0.210156	0.985203	0	
0.184962	1.07993	0	
0.159132	0.984216	0.0920948	
-0.386831	1.3168	0.395903	
-0.280403	1.2804	0.5	
-0.353553	1.35355	0.5	
-0.347453	1.23216	0.5	
0.0420691	1.42713	0	
0	1.5	0	
0	1.5	0.1	
0.0704482	1.49501	0.0718447	
0.152126	0.632735	0.5	
0.191342	0.53806	0.5	
0.153328	0.52409	0.40763	
0.235698	0.559039	0.431431	
0.231243	1.24169	0	
0.300884	1.19872	0	
0.328092	1.27024	0	
0.28898	1.28652	0.0949489	
0	0.5	0.4	
0.0704482	0.504988	0.428155	
0.0807477	0.506563	0.345776	
0.0738912	0.610829	0.388761	
-0.493315	1.08149	0.347681	
-0.468495	1.17468	0.317109	
-0.477948	1.14685	0.415992	
-0.382289	1.08918	0.382504	
0.0344957	0.828097	0.5	
0.0956709	0.76903	0.5	
0	0.75	0.5	
0.0581157	0.769455	0.403061	
0.232161	1.34745	0.5	
0.353553	1.35355	0.5	
0.281092	1.28109	0.5	
0.3168	1.38683	0.395903	
-0.323938	0.619127	0.347739	
-0.328716	0.623243	0.253532	
-0.386792	0.683153	0.301384	
-0.259603	0.71434	0.292274	
0.25	1	0.5	
0.23097	1.09567	0.5	
0.323338	1.06432	0.5	
0.284123	1.06741	0.387999	
0.164797	0.822415	0	
0.0943468	0.754666	0	
0.201164	0.726422	0	
0.142608	0.739294	0.106454	
0.478555	0.855138	0.421652	
0.365104	0.848769	0.5	
0.409849	0.918476	0.5	
0.368617	0.876452	0.385763	
0	1.5	0.3	
0	1.5	0.2	
0.0854243	1.49265	0.251403	
0.0196341	1.38361	0.225797	
-0.0925337	0.803549	0	
-0.186407	0.830549	0	
-0.168688	0.718299	0	
-0.111014	0.733523	0.0849706	
-0.168688	0.718299	0	
-0.114467	0.613668	0	
-0.0638367	0.704239	0	
-0.111014	0.733523	0.0849706	
0.469721	0.828647	0.338334	
0.478555	0.855138	0.421652	
0.493389	0.91896	0.35285	
0.368617	0.876452	0.385763	
-0.323338	1.06432	0.5	
-0.397525	1	0.5	
-0.409849	1.08152	0.5	
-0.382289	1.08918	0.382504	
0.495101	0.930181	0.0723791	
0.493012	0.916698	0.155211	
0.5	1	0.1	
0.387337	0.975471	0.113668	
0.0153159	1.36356	0	
-0.0555676	1.32557	0	
0.0401436	1.2912	0	
0.00439522	1.27731	0.103072	
0.0634445	0.898618	0.5	
0.106675	0.966314	0.5	
0.141405	0.904892	0.5	
0.101939	0.907787	0.403472	
-0.0975452	0.509607	0	
-0.0422582	0.562527	0	
-0.114467	0.613668	0	
-0.0698189	0.504899	0.0723791	
-0.0427935	1.02817	0.5	
-0.0773947	0.947213	0.5	
-0.114443	1.01484	0.5	
-0.105137	0.975975	0.404942	
-0.495012	1.07045	0.0718447	
-0.5	1	0.1	
-0.5	1	0	
-0.426463	1.04414	0	
0.353553	1.35355	0	
0.317233	1.38648	0.0904728	
0.261819	1.31903	0	
0.28898	1.28652	0.0949489	
0.439458	1.23849	0.424308	
0.415735	1.27779	0.365862	
0.450285	1.21736	0.355302	
0.347642	1.19453	0.384775	
0.245477	0.808349	0	
0.314857	0.742551	0	
0.313791	0.845535	0	
0.341118	0.774271	0.0916023	
-0.468495	1.17468	0.317109	
-0.429146	1.25658	0.33124	
-0.444481	1.22899	0.408099	
-0.343626	1.20201	0.373624	
0.114055	1.37411	0	
0.189613	1.31366	0	
0.202324	1.37852	0	
0.190875	1.34709	0.10503	
0.469721	0.828647	0.338334	
0.436762	0.756609	0.403062	
0.478555	0.855138	0.421652	
0.368617	0.876452	0.385763	
0.328092	1.27024	0	
0.353553	1.35355	0	
0.261819	1.31903	0	
0.28898	1.28652	0.0949489	
0.365104	0.848769	0.5	
0.436762	0.756609	0.403062	
0.46194	0.808658	0.5	
0.347453	0.767839	0.5	
-0.0892911	0.866366	0.5	
-0.157632	0.894674	0.5	
-0.0773947	0.947213	0.5	
-0.087284	0.884388	0.408402	
0.247057	0.565302	0.249501	
0.25658	0.570854	0.16876	
0.174678	0.531505	0.182891	
0.15722	0.635104	0.236843	
-0.41072	0.87541	0	
-0.494668	0.927177	0.0735406	
-0.477948	0.853147	0.0840084	
-0.390863	0.914451	0.0980906	
-0.490393	1.09755	0	
-0.495012	1.07045	0.0718447	
-0.426463	1.04414	0	
-0.404541	1.12695	0	
-0.191342	0.53806	0.5	
-0.152126	0.632735	0.5	
-0.243391	0.563238	0.403062	
-0.232161	0.652547	0.5	
-0.0684459	1.49529	0.0685965	
-0.0975452	1.49039	0	
-0.118932	1.39861	0	
-0.144862	1.47856	0.0783483	
0.323338	1.06432	0.5	
0.409849	1.08152	0.5	
0.398221	1	0.5	
0.385098	1.08722	0.383771	
0.428195	0.741835	0.298245	
0.460548	0.805333	0.26567	
0.4284	0.742176	0.204976	
0.358257	0.834187	0.252847	
-0.10768	0.996359	0.238131	
-0.045108	0.948191	0.315425	
-0.140073	0.942584	0.309826	
-0.0821557	0.901585	0.243527	
-0.0734441	1.06169	0	
-0.142648	0.992859	0	
-0.048473	0.967143	0	
-0.10307	0.999921	0.0930669	
-0.0698189	0.504899	0.0723791	
-0.114467	0.613668	0	
-0.0975452	0.509607	0	
-0.152694	0.523886	0.0975404	
0.478555	1.14486	0.0783483	
0.469721	1.17135	0.161666	
0.436762	1.24339	0.0969381	
0.353151	1.15839	0.109095	
-0.0295403	1.22514	0	
0.0401436	1.2912	0	
-0.0555676	1.32557	0	
0.00439522	1.27731	0.103072	
0.0975452	0.509607	0	
0.0728232	0.505332	0.0735406	
0.125573	0.58604	0	
0.0404524	0.58928	0	
-0.232161	1.34745	0.5	
-0.238488	1.43946	0.424308	
-0.151231	1.3651	0.5	
-0.166036	1.37976	0.398541	
-0.168043	1.47092	0.300126	
-0.257824	1.4284	0.295024	
-0.194667	1.46055	0.23433	
-0.193559	1.35773	0.245031	
0.0956709	0.76903	0.5	
0.064316	0.676662	0.5	
0	0.75	0.5	
0.0581157	0.769455	0.403061	
-0.41072	0.87541	0	
-0.401548	0.957663	0	
-0.494668	0.927177	0.0735406	
-0.390863	0.914451	0.0980906	
0.476114	1.15269	0.40246	
0.495101	1.06982	0.427621	
0.409849	1.08152	0.5	
0.385098	1.08722	0.383771	
0.414183	1.13115	0	
0.490393	1.09755	0	
0.478555	1.14486	0.0783483	
0.495293	1.06845	0.0685965	
0.316847	0.613208	0.301384	
0.242822	0.562922	0.347009	
0.317233	0.613524	0.409527	
0.260241	0.698507	0.343916	
-0.302044	0.949354	0	
-0.401548	0.957663	0	
-0.344127	0.887773	0	
-0.390863	0.914451	0.0980906	
0.0943468	0.754666	0	
0.112799	0.66644	0	
0.201164	0.726422	0	
0.142608	0.739294	0.106454	
-0.0698189	1.4951	0.427621	
-0.0833019	1.49301	0.344789	
0	1.5	0.4	
-0.0552231	1.38907	0.38538	
0.000305103	1.09462	0.5	
0.0691997	1.04586	0.5	
-0.0427935	1.02817	0.5	
-0.00748686	1.04315	0.386084	
-0.238488	1.43946	0.424308	
-0.191342	1.46194	0.5	
-0.151231	1.3651	0.5	
-0.166036	1.37976	0.398541	
0.328092	1.27024	0	
0.386505	1.3172	0.0688254	
0.353553	1.35355	0	
0.28898	1.28652	0.0949489	
-0.0815241	1.40985	0.5	
-0.191342	1.46194	0.5	
-0.152694	1.47611	0.40246	
-0.151231	1.3651	0.5	
-0.386792	0.683153	0.301384	
-0.386498	0.682794	0.200322	
-0.434698	0.752943	0.249501	
-0.332607	0.773484	0.222023	
0.153328	1.47591	0.0923699	
0.235698	1.44096	0.068569	
0.242822	1.43708	0.152991	
0.190875	1.34709	0.10503	
-0.232161	1.34745	0.5	
-0.151231	1.3651	0.5	
-0.183156	1.27411	0.5	
-0.166036	1.37976	0.398541	
-0.257956	1.11632	0	
-0.337562	1.05476	0	
-0.237047	1.02014	0	
-0.256772	1.06769	0.100506	
-0.477948	1.14685	0.415992	
-0.409849	1.08152	0.5	
-0.494668	1.07282	0.426459	
-0.382289	1.08918	0.382504	
-0.363339	1.1505	0.5	
-0.347453	1.23216	0.5	
-0.274113	1.18316	0.5	
-0.343626	1.20201	0.373624	
0.476114	1.15269	0.40246	
0.409849	1.08152	0.5	
0.46194	1.19134	0.5	
0.369516	1.15306	0.5	
0.490393	0.902455	0	
0.495101	0.930181	0.0723791	
0.394936	0.880197	0	
0.476114	0.847306	0.0975404	
0.242822	1.43708	0.152991	
0.235698	1.44096	0.068569	
0.317233	1.38648	0.0904728	
0.190875	1.34709	0.10503	
0.380207	0.80292	0	
0.314857	0.742551	0	
0.415735	0.722215	0	
0.341118	0.774271	0.0916023	
0.228991	1.44448	0.408099	
0.277785	1.41573	0.5	
0.232161	1.34745	0.5	
0.3168	1.38683	0.395903	
-0.444481	1.22899	0.408099	
-0.386831	1.3168	0.395903	
-0.415735	1.27779	0.5	
-0.347453	1.23216	0.5	
0.386505	1.3172	0.0688254	
0.317233	1.38648	0.0904728	
0.353553	1.35355	0	
0.28898	1.28652	0.0949489	
0	0.5	0.4	
-0.0810399	0.506611	0.35285	
-0.0684459	0.504707	0.431403	
-0.039093	0.610067	0.388942	
-0.152694	1.47611	0.40246	
-0.0833019	1.49301	0.344789	
-0.0698189	1.4951	0.427621	
-0.0552231	1.38907	0.38538	
0.439458	0.761512	0.0756919	
0.415735	0.722215	0	
0.388274	0.684971	0.0791933	
0.341118	0.774271	0.0916023	
0.394936	0.880197	0	
0.495101	0.930181	0.0723791	
0.490393	0.902455	0	
0.409478	0.967053	0	
0.0704482	0.504988	0.428155	
0.0815241	0.590151	0.5	
0.153328	0.52409	0.40763	
0.0738912	0.610829	0.388761	
0.152393	1.36791	0.5	
0.064316	1.32334	0.5	
0.0815241	1.40985	0.5	
0.109201	1.35772	0.375246	
-0.118932	1.39861	0	
-0.201912	1.36999	0	
-0.138674	1.3238	0	
-0.153777	1.36779	0.103264	
-0.444481	1.22899	0.408099	
-0.46194	1.19134	0.5	
-0.363339	1.1505	0.5	
-0.347453	1.23216	0.5	
-0.0892911	0.866366	0.5	
-0.0773947	0.947213	0.5	
-0.0218546	0.89013	0.5	
-0.087284	0.884388	0.408402	
-0.318983	1.26174	0	
-0.26105	1.2034	0	
-0.214341	1.27376	0	
-0.277342	1.24516	0.0975038	
0.278087	0.721913	0.5	
0.353553	0.646447	0.5	
0.232161	0.652547	0.5	
0.317233	0.613524	0.409527	
0.232161	1.34745	0.5	
0.152393	1.36791	0.5	
0.191342	1.46194	0.5	
0.228991	1.44448	0.408099	
0.0691997	1.04586	0.5	
0.157632	1.10533	0.5	
0.163502	1.02984	0.5	
0.113162	1.01769	0.414132	
0.394936	0.880197	0	
0.314271	0.949812	0	
0.313791	0.845535	0	
0.355602	0.87751	0.0966392	
-0.0422582	0.562527	0	
0	0.5	0	
0	0.5	0.1	
-0.0698189	0.504899	0.0723791	
0.157632	1.10533	0.5	
0.176777	1.17678	0.5	
0.23097	1.09567	0.5	
0.22536	1.15058	0.40335	
-0.281585	0.718415	0.5	
-0.386476	0.682767	0.409527	
-0.353553	0.646447	0.5	
-0.347453	0.767839	0.5	
-0.41072	0.87541	0	
-0.401548	0.957663	0	
-0.490393	0.902455	0	
-0.494668	0.927177	0.0735406	
-0.409849	0.918476	0.5	
-0.363339	0.8495	0.5	
-0.46194	0.808658	0.5	
-0.47591	0.846672	0.40763	
0.247057	0.565302	0.249501	
0.174678	0.531505	0.182891	
0.168734	0.529332	0.298219	
0.15722	0.635104	0.236843	
0.469721	1.17135	0.161666	
0.478555	1.14486	0.0783483	
0.493389	1.08104	0.14715	
0.40353	1.07301	0.105949	
0.0728232	0.505332	0.0735406	
0.146853	0.522052	0.0840084	
0.0975452	0.509607	0	
0.125573	0.58604	0	
0.000305103	1.09462	0.5	
-0.00748686	1.04315	0.386084	
-0.0427935	1.02817	0.5	
-0.0571477	1.11947	0.416349	
0.388274	0.684971	0.0791933	
0.415735	0.722215	0	
0.314857	0.742551	0	
0.341118	0.774271	0.0916023	
-0.257824	0.5716	0.204976	
-0.277785	0.584265	0.134138	
-0.331632	0.625807	0.165357	
-0.247852	0.673084	0.199607	
-0.477948	1.14685	0.415992	
-0.363339	1.1505	0.5	
-0.46194	1.19134	0.5	
-0.409849	1.08152	0.5	
0.191342	0.53806	0.5	
0.0815241	0.590151	0.5	
0.152126	0.632735	0.5	
0.153328	0.52409	0.40763	
-0.114443	1.01484	0.5	
-0.0773947	0.947213	0.5	
-0.157632	0.968645	0.5	
-0.105137	0.975975	0.404942	
-0.5	1	0.5	
-0.494668	1.07282	0.426459	
-0.409849	1.08152	0.5	
-0.397525	1	0.5	
0.353553	1.35355	0	
0.277785	1.41573	0	
0.261819	1.31903	0	
0.317233	1.38648	0.0904728	
0.317233	0.613524	0.409527	
0.380873	0.676062	0.347739	
0.316847	0.613208	0.301384	
0.260241	0.698507	0.343916	
-0.490393	1.09755	0	
-0.495012	1.07045	0.0718447	
-0.404541	1.12695	0	
-0.47591	1.15333	0.0923699	
-0.274113	0.816844	0.5	
-0.23097	0.904329	0.5	
-0.176777	0.823223	0.5	
-0.239777	0.86007	0.398057	
0.064316	0.676662	0.5	
0.152126	0.632735	0.5	
0.0815241	0.590151	0.5	
0.0738912	0.610829	0.388761	
0.0815241	1.40985	0.5	
8.18872e-17	1.39822	0.5	
0	1.5	0.5	
0.0728232	1.49467	0.426459	
0.133074	1.2641	0	
0.158056	1.17188	0	
0.231243	1.24169	0	
0.189162	1.24479	0.0938772	
0.394936	0.880197	0	
0.313791	0.845535	0	
0.380207	0.80292	0	
0.355602	0.87751	0.0966392	
0.409849	1.08152	0.5	
0.323338	1.06432	0.5	
0.369516	1.15306	0.5	
0.385098	1.08722	0.383771	
-0.0833019	0.506988	0.155211	
-0.152694	0.523886	0.0975404	
-0.168043	0.529084	0.199874	
-0.0982069	0.610875	0.136018	
-0.328307	1.16356	0	
-0.404541	1.12695	0	
-0.337562	1.05476	0	
-0.357904	1.11593	0.101286	
0.347453	1.23216	0.5	
0.369516	1.15306	0.5	
0.274113	1.18316	0.5	
0.347642	1.19453	0.384775	
-0.490393	0.902455	0	
-0.477948	0.853147	0.0840084	
-0.41072	0.87541	0	
-0.494668	0.927177	0.0735406	
0.152393	1.36791	0.5	
0.0815241	1.40985	0.5	
0.191342	1.46194	0.5	
0.146853	1.47795	0.415992	
0.5	1	0.1	
0.493389	1.08104	0.14715	
0.495293	1.06845	0.0685965	
0.40353	1.07301	0.105949	
-0.5	1	0.5	
-0.409849	0.918476	0.5	
-0.495012	0.929552	0.428155	
-0.397525	1	0.5	
-0.444481	0.771009	0.0919014	
-0.415735	0.722215	0	
-0.46194	0.808658	0	
-0.356684	0.80649	0	
0.153328	1.47591	0.0923699	
0.0975452	1.49039	0	
0.191342	1.46194	0	
0.114055	1.37411	0	
0.5	1	0.5	
0.409849	1.08152	0.5	
0.495101	1.06982	0.427621	
0.398221	1	0.5	
-0.0815241	1.40985	0.5	
-0.0698189	1.4951	0.427621	
0	1.5	0.5	
8.18872e-17	1.39822	0.5	
-0.191342	0.53806	0	
-0.0975452	0.509607	0	
-0.114467	0.613668	0	
-0.152694	0.523886	0.0975404	
0.0815241	0.590151	0.5	
0	0.5	0.5	
-3.15026e-17	0.601779	0.5	
0.0704482	0.504988	0.428155	
-0.493315	1.08149	0.347681	
-0.477948	1.14685	0.415992	
-0.494668	1.07282	0.426459	
-0.382289	1.08918	0.382504	
-0.277785	1.41573	0.5	
-0.315029	1.38827	0.420807	
-0.238488	1.43946	0.424308	
-0.232161	1.34745	0.5	
0.14072	0.916025	0	
0.210156	0.985203	0	
0.115537	1.01075	0	
0.159132	0.984216	0.0920948	
0.328092	1.27024	0	
0.261819	1.31903	0	
0.231243	1.24169	0	
0.28898	1.28652	0.0949489	
-0.23097	1.09567	0.5	
-0.176777	1.17678	0.5	
-0.117202	1.0938	0.5	
-0.179827	1.088	0.408491	
-0.232161	1.34745	0.5	
-0.238488	1.43946	0.424308	
-0.191342	1.46194	0.5	
-0.151231	1.3651	0.5	
-3.15026e-17	0.601779	0.5	
0.064316	0.676662	0.5	
0.0815241	0.590151	0.5	
0.0738912	0.610829	0.388761	
0.277785	1.41573	0.5	
0.353553	1.35355	0.5	
0.232161	1.34745	0.5	
0.3168	1.38683	0.395903	
-0.353553	1.35355	0.5	
-0.415735	1.27779	0.5	
-0.386831	1.3168	0.395903	
-0.347453	1.23216	0.5	
-0.0684459	0.504707	0.431403	
-0.0815241	0.590151	0.5	
0	0.5	0.5	
-3.15026e-17	0.601779	0.5	
0.495293	0.931554	0.431403	
0.409849	0.918476	0.5	
0.5	1	0.5	
0.398221	1	0.5	
-0.0815241	1.40985	0.5	
8.18872e-17	1.39822	0.5	
-0.064316	1.32334	0.5	
-0.0552231	1.38907	0.38538	
-0.415735	1.27779	0	
-0.353553	1.35355	0	
-0.386476	1.31723	0.0904728	
-0.318983	1.26174	0	
-0.243391	0.563238	0.403062	
-0.277785	0.584265	0.5	
-0.191342	0.53806	0.5	
-0.232161	0.652547	0.5	
0.436762	0.756609	0.403062	
0.415735	0.722215	0.5	
0.46194	0.808658	0.5	
0.347453	0.767839	0.5	
-0.238488	1.43946	0.424308	
-0.152694	1.47611	0.40246	
-0.191342	1.46194	0.5	
-0.166036	1.37976	0.398541	
-0.444481	1.22899	0.408099	
-0.429146	1.25658	0.33124	
-0.386831	1.3168	0.395903	
-0.343626	1.20201	0.373624	
0.439458	1.23849	0.424308	
0.46194	1.19134	0.5	
0.347453	1.23216	0.5	
0.369516	1.15306	0.5	
-0.0833019	0.506988	0.155211	
-0.0698189	0.504899	0.0723791	
-0.152694	0.523886	0.0975404	
-0.0982069	0.610875	0.136018	
-0.353553	1.35355	0.5	
-0.280403	1.2804	0.5	
-0.315029	1.38827	0.420807	
-0.232161	1.34745	0.5	
0.394936	0.880197	0	
0.46194	0.808658	0	
0.490393	0.902455	0	
0.476114	0.847306	0.0975404	
-0.317197	0.613495	0.431175	
-0.277785	0.584265	0.5	
-0.243391	0.563238	0.403062	
-0.232161	0.652547	0.5	
0.347453	0.767839	0.5	
0.436762	0.756609	0.403062	
0.415735	0.722215	0.5	
0.386505	0.682803	0.431175	
0.347453	1.23216	0.5	
0.281092	1.28109	0.5	
0.353553	1.35355	0.5	
0.388274	1.31503	0.420807	
-0.409849	1.08152	0.5	
-0.363339	1.1505	0.5	
-0.323338	1.06432	0.5	
-0.382289	1.08918	0.382504	
0.313791	0.845535	0	
0.314857	0.742551	0	
0.380207	0.80292	0	
0.341118	0.774271	0.0916023	
0.495101	1.06982	0.427621	
0.409849	1.08152	0.5	
0.490393	1.09755	0.5	
0.476114	1.15269	0.40246	
-0.0975452	1.49039	0.5	
-0.152694	1.47611	0.40246	
-0.0698189	1.4951	0.427621	
-0.0815241	1.40985	0.5	
0.439458	1.23849	0.424308	
0.347453	1.23216	0.5	
0.415735	1.27779	0.5	
0.388274	1.31503	0.420807	
0.373926	1.19893	0	
0.46194	1.19134	0	
0.415735	1.27779	0	
0.436762	1.24339	0.0969381	
-0.243391	1.43676	0.0969381	
-0.144862	1.47856	0.0783483	
-0.171353	1.46972	0.161666	
-0.153777	1.36779	0.103264	
-0.328716	0.623243	0.253532	
-0.257824	0.5716	0.204976	
-0.331632	0.625807	0.165357	
-0.247852	0.673084	0.199607	
-0.331361	0.727047	0	
-0.415735	0.722215	0	
-0.353553	0.646447	0	
-0.386831	0.6832	0.104097	
0.409849	0.918476	0.5	
0.365104	0.848769	0.5	
0.323338	0.935684	0.5	
0.368617	0.876452	0.385763	
-0.23097	1.09567	0.5	
-0.117202	1.0938	0.5	
-0.177191	1.03636	0.5	
-0.179827	1.088	0.408491	
-0.347453	0.767839	0.5	
-0.386476	0.682767	0.409527	
-0.415735	0.722215	0.5	
-0.440961	0.764302	0.431431	
0.235698	0.559039	0.431431	
0.232161	0.652547	0.5	
0.277785	0.584265	0.5	
0.317233	0.613524	0.409527	
0.176777	0.823223	0.5	
0.274113	0.816844	0.5	
0.183156	0.725887	0.5	
0.206682	0.777113	0.400851	
0.409849	1.08152	0.5	
0.46194	1.19134	0.5	
0.490393	1.09755	0.5	
0.476114	1.15269	0.40246	
-0.0975452	1.49039	0.5	
-0.191342	1.46194	0.5	
-0.152694	1.47611	0.40246	
-0.0815241	1.40985	0.5	
0.478555	0.855138	0.421652	
0.46194	0.808658	0.5	
0.409849	0.918476	0.5	
0.365104	0.848769	0.5	
0.0704482	0.504988	0.428155	
0.153328	0.52409	0.40763	
0.0807477	0.506563	0.345776	
0.0738912	0.610829	0.388761	
-0.201912	1.36999	0	
-0.191342	1.46194	0	
-0.277785	1.41573	0	
-0.243391	1.43676	0.0969381	
0.274113	1.18316	0.5	
0.23097	1.09567	0.5	
0.176777	1.17678	0.5	
0.22536	1.15058	0.40335	
-0.386831	1.3168	0.395903	
-0.331632	1.37419	0.334643	
-0.315029	1.38827	0.420807	
-0.263985	1.32297	0.375811	
0.388274	0.684971	0.0791933	
0.415735	0.722215	0.134138	
0.439458	0.761512	0.0756919	
0.341118	0.774271	0.0916023	
-0.144862	0.521445	0.421652	
-0.152126	0.632735	0.5	
-0.191342	0.53806	0.5	
-0.0815241	0.590151	0.5	
0.194604	0.628812	0	
0.191342	0.53806	0	
0.277785	0.584265	0	
0.228991	0.555519	0.0919014	
0.274113	0.816844	0.5	
0.278087	0.721913	0.5	
0.183156	0.725887	0.5	
0.206682	0.777113	0.400851	
-0.46194	1.19134	0.5	
-0.490393	1.09755	0.5	
-0.477948	1.14685	0.415992	
-0.409849	1.08152	0.5	
-0.434698	0.752943	0.249501	
-0.386498	0.682794	0.200322	
-0.429146	0.74342	0.16876	
-0.332607	0.773484	0.222023	
0.00183684	0.777669	0	
-0.0638367	0.704239	0	
0.0248177	0.686626	0	
-0.00982582	0.726304	0.0884564	
0.476114	1.15269	0.40246	
0.493012	1.0833	0.344789	
0.495101	1.06982	0.427621	
0.385098	1.08722	0.383771	
0.268393	0.665699	0	
0.277785	0.584265	0	
0.353553	0.646447	0	
0.3168	0.613169	0.104097	
0.0704482	0.504988	0.428155	
0.0815241	0.590151	0.5	
0.0975452	0.509607	0.5	
0.153328	0.52409	0.40763	
-0.495012	0.929552	0.428155	
-0.409849	0.918476	0.5	
-0.490393	0.902455	0.5	
-0.47591	0.846672	0.40763	
-0.401548	0.957663	0	
-0.41072	0.87541	0	
-0.344127	0.887773	0	
-0.390863	0.914451	0.0980906	
-0.0392044	1.16291	0.5	
-0.117202	1.0938	0.5	
-0.107214	1.16612	0.5	
-0.0571477	1.11947	0.416349	
-0.064316	0.676662	0.5	
-3.15026e-17	0.601779	0.5	
-0.0815241	0.590151	0.5	
-0.039093	0.610067	0.388942	
0.347453	0.767839	0.5	
0.353553	0.646447	0.5	
0.278087	0.721913	0.5	
0.386505	0.682803	0.431175	
-0.347453	0.767839	0.5	
-0.46194	0.808658	0.5	
-0.363339	0.8495	0.5	
-0.440961	0.764302	0.431431	
0.0728232	0.505332	0.0735406	
0.0975452	0.509607	0	
0	0.5	0	
0.0404524	0.58928	0	
0.133074	1.2641	0	
0.231243	1.24169	0	
0.189613	1.31366	0	
0.189162	1.24479	0.0938772	
0.191342	0.53806	0	
0.0975452	0.509607	0	
0.146853	0.522052	0.0840084	
0.125573	0.58604	0	
0.191342	0.53806	0.5	
0.0975452	0.509607	0.5	
0.0815241	0.590151	0.5	
0.153328	0.52409	0.40763	
-0.46194	0.808658	0.5	
-0.490393	0.902455	0.5	
-0.409849	0.918476	0.5	
-0.47591	0.846672	0.40763	
-0.0925337	0.803549	0	
-0.0232782	0.872416	0	
-0.117671	0.89803	0	
-0.0724446	0.868744	0.084223	
-0.401548	0.957663	0	
-0.5	1	0	
-0.490393	0.902455	0	
-0.494668	0.927177	0.0735406	
-0.477948	0.853147	0.0840084	
-0.494668	0.927177	0.0735406	
-0.493315	0.918514	0.152319	
-0.390863	0.914451	0.0980906	
-0.494668	1.07282	0.426459	
-0.477948	1.14685	0.415992	
-0.490393	1.09755	0.5	
-0.409849	1.08152	0.5	
0.232161	1.34745	0.5	
0.191342	1.46194	0.5	
0.277785	1.41573	0.5	
0.228991	1.44448	0.408099	
-0.415735	1.27779	0.5	
-0.46194	1.19134	0.5	
-0.444481	1.22899	0.408099	
-0.347453	1.23216	0.5	
0.386505	1.3172	0.0688254	
0.380873	1.32394	0.152261	
0.317233	1.38648	0.0904728	
0.28898	1.28652	0.0949489	
-0.409849	0.918476	0.5	
-0.323338	0.935684	0.5	
-0.363339	0.8495	0.5	
-0.351645	0.874975	0.390413	
-0.238488	1.43946	0.424308	
-0.191342	1.46194	0.5	
-0.277785	1.41573	0.5	
-0.232161	1.34745	0.5	
-0.281585	0.718415	0.5	
-0.353553	0.646447	0.5	
-0.317197	0.613495	0.431175	
-0.232161	0.652547	0.5	
0.191342	0.53806	0.5	
0.152126	0.632735	0.5	
0.232161	0.652547	0.5	
0.235698	0.559039	0.431431	
-0.404541	1.12695	0	
-0.46194	1.19134	0	
-0.490393	1.09755	0	
-0.47591	1.15333	0.0923699	
-0.0372406	1.41779	0	
0	1.5	0	
-0.0975452	1.49039	0	
-0.0684459	1.49529	0.0685965	
-0.315029	1.38827	0.420807	
-0.277785	1.41573	0.5	
-0.353553	1.35355	0.5	
-0.232161	1.34745	0.5	
-0.0638367	0.704239	0	
-0.0925337	0.803549	0	
-0.168688	0.718299	0	
-0.111014	0.733523	0.0849706	
-0.490393	1.09755	0.5	
-0.5	1	0.5	
-0.494668	1.07282	0.426459	
-0.409849	1.08152	0.5	
0.5	1	0	
0.490393	0.902455	0	
0.495101	0.930181	0.0723791	
0.409478	0.967053	0	
-0.258165	1.42819	0.201755	
-0.194667	1.46055	0.23433	
-0.257824	1.4284	0.295024	
-0.193559	1.35773	0.245031	
-0.386476	0.682767	0.409527	
-0.415735	0.722215	0.5	
-0.353553	0.646447	0.5	
-0.347453	0.767839	0.5	
0.232161	0.652547	0.5	
0.353553	0.646447	0.5	
0.277785	0.584265	0.5	
0.317233	0.613524	0.409527	
0.0815241	1.40985	0.5	
0.0975452	1.49039	0.5	
0.191342	1.46194	0.5	
0.146853	1.47795	0.415992	
0.495293	1.06845	0.0685965	
0.490393	1.09755	0	
0.5	1	0	
0.414991	1.04951	0	
-0.117202	1.0938	0.5	
0.000305103	1.09462	0.5	
-0.0427935	1.02817	0.5	
-0.0571477	1.11947	0.416349	
0.347453	1.23216	0.5	
0.415735	1.27779	0.5	
0.46194	1.19134	0.5	
0.439458	1.23849	0.424308	
-0.46194	0.808658	0	
-0.490393	0.902455	0	
-0.477948	0.853147	0.0840084	
-0.41072	0.87541	0	
-0.315029	0.611726	0.0791933	
-0.277785	0.584265	0	
-0.353553	0.646447	0	
-0.263582	0.680587	0	
-0.25	1	0.5	
-0.323338	1.06432	0.5	
-0.23097	1.09567	0.5	
-0.275403	1.0393	0.403336	
0.353553	1.35355	0.5	
0.415735	1.27779	0.5	
0.347453	1.23216	0.5	
0.388274	1.31503	0.420807	
0.0975452	1.49039	0.5	
0.0815241	1.40985	0.5	
0.0728232	1.49467	0.426459	
0.146853	1.47795	0.415992	
-0.0392044	1.16291	0.5	
0.000305103	1.09462	0.5	
-0.117202	1.0938	0.5	
-0.0571477	1.11947	0.416349	
-0.347453	0.767839	0.5	
-0.274113	0.816844	0.5	
-0.281585	0.718415	0.5	
-0.289723	0.75771	0.393302	
0.388274	0.684971	0.0791933	
0.415735	0.722215	0	
0.353553	0.646447	0	
0.314857	0.742551	0	
-0.0975452	1.49039	0	
-0.191342	1.46194	0	
-0.118932	1.39861	0	
-0.144862	1.47856	0.0783483	
0.493389	1.08104	0.14715	
0.478555	1.14486	0.0783483	
0.495293	1.06845	0.0685965	
0.40353	1.07301	0.105949	
0.0691997	1.04586	0.5	
0.163502	1.02984	0.5	
0.106675	0.966314	0.5	
0.113162	1.01769	0.414132	
0.0815241	1.40985	0.5	
0	1.5	0.5	
0.0975452	1.49039	0.5	
0.0728232	1.49467	0.426459	
0.0815241	0.590151	0.5	
0.0975452	0.509607	0.5	
0	0.5	0.5	
0.0704482	0.504988	0.428155	
-0.409849	0.918476	0.5	
-0.490393	0.902455	0.5	
-0.5	1	0.5	
-0.495012	0.929552	0.428155	
-0.238488	0.560542	0.0756919	
-0.191342	0.53806	0	
-0.277785	0.584265	0	
-0.203173	0.626976	0	
0.380207	0.80292	0	
0.415735	0.722215	0	
0.46194	0.808658	0	
0.439458	0.761512	0.0756919	
0.490393	1.09755	0.5	
0.5	1	0.5	
0.409849	1.08152	0.5	
0.495101	1.06982	0.427621	
-0.0698189	1.4951	0.427621	
0	1.5	0.5	
-0.0975452	1.49039	0.5	
-0.0815241	1.40985	0.5	
-0.152694	1.47611	0.40246	
-0.238488	1.43946	0.424308	
-0.217356	1.45028	0.355302	
-0.166036	1.37976	0.398541	
-0.0815241	0.590151	0.5	
0	0.5	0.5	
-0.0975452	0.509607	0.5	
-0.0684459	0.504707	0.431403	
0.5	1	0.5	
0.490393	0.902455	0.5	
0.409849	0.918476	0.5	
0.495293	0.931554	0.431403	
-0.353553	0.646447	0.5	
-0.277785	0.584265	0.5	
-0.317197	0.613495	0.431175	
-0.232161	0.652547	0.5	
0.347453	0.767839	0.5	
0.415735	0.722215	0.5	
0.353553	0.646447	0.5	
0.386505	0.682803	0.431175	
-0.144862	0.521445	0.421652	
-0.191342	0.53806	0.5	
-0.0975452	0.509607	0.5	
-0.0815241	0.590151	0.5	
0.409849	0.918476	0.5	
0.490393	0.902455	0.5	
0.46194	0.808658	0.5	
0.478555	0.855138	0.421652	
-0.0975452	0.509607	0.5	
-0.144862	0.521445	0.421652	
-0.0815241	0.590151	0.5	
-0.0684459	0.504707	0.431403	
0.478555	0.855138	0.421652	
0.409849	0.918476	0.5	
0.490393	0.902455	0.5	
0.495293	0.931554	0.431403	
-0.277785	1.41573	0.365862	
-0.315029	1.38827	0.420807	
-0.331632	1.37419	0.334643	
-0.263985	1.32297	0.375811	
-0.495012	1.07045	0.0718447	
-0.5	1	0	
-0.490393	1.09755	0	
-0.426463	1.04414	0	
0.478555	1.14486	0.0783483	
0.46194	1.19134	0	
0.490393	1.09755	0	
0.414183	1.13115	0	
-0.347453	0.767839	0.5	
-0.415735	0.722215	0.5	
-0.46194	0.808658	0.5	
-0.440961	0.764302	0.431431	
0.232161	0.652547	0.5	
0.277785	0.584265	0.5	
0.191342	0.53806	0.5	
0.235698	0.559039	0.431431	
0.0420691	1.42713	0	
0.0975452	1.49039	0	
0	1.5	0	
0.0704482	1.49501	0.0718447	
-0.353553	1.35355	0	
-0.277785	1.41573	0	
-0.317197	1.38651	0.0688254	
-0.273315	1.33496	0	
0.328092	1.27024	0	
0.415735	1.27779	0	
0.353553	1.35355	0	
0.386505	1.3172	0.0688254	
-0.0975452	0.509607	0	
0	0.5	0	
-0.0422582	0.562527	0	
-0.0698189	0.504899	0.0723791	
0.235698	1.44096	0.068569	
0.191342	1.46194	0	
0.277785	1.41573	0	
0.202324	1.37852	0	
-0.389036	1.20743	0	
-0.415735	1.27779	0	
-0.46194	1.19134	0	
-0.440961	1.2357	0.068569	
-0.00173102	1.15684	0.347507	
0.0868435	1.13736	0.5	
0.0902907	1.23506	0.376077	
0.028723	1.17517	0.5	
-0.00173102	1.15684	0.347507	
0.0902907	1.23506	0.376077	
0.0868435	1.13736	0.5	
0.125116	1.11613	0.369411	
-0.153777	1.36779	0.103264	
-0.277342	1.24516	0.0975038	
-0.317197	1.38651	0.0688254	
-0.273315	1.33496	0	
-0.317197	1.38651	0.0688254	
-0.277342	1.24516	0.0975038	
-0.153777	1.36779	0.103264	
-0.210789	1.29041	0.168489	
-0.289723	0.75771	0.393302	
-0.144063	0.852748	0.341365	
-0.0862712	0.770823	0.389289	
-0.153774	0.693588	0.346551	
-0.289723	0.75771	0.393302	
-0.0862712	0.770823	0.389289	
-0.144063	0.852748	0.341365	
-0.239777	0.86007	0.398057	
0.341118	0.774271	0.0916023	
0.4284	0.742176	0.204976	
0.374193	0.668368	0.165357	
0.415735	0.722215	0.134138	
-0.0552231	1.38907	0.38538	
0.0728232	1.49467	0.426459	
0.0814864	1.49332	0.347681	
0	1.5	0.4	
-0.0552231	1.38907	0.38538	
0.0814864	1.49332	0.347681	
0.0728232	1.49467	0.426459	
0.109201	1.35772	0.375246	
0.134932	0.977505	0.230093	
-0.0151696	1.04156	0.198031	
0.0593465	1.06716	0.10856	
0.0937412	0.930011	0.154317	
0.134932	0.977505	0.230093	
0.0593465	1.06716	0.10856	
-0.0151696	1.04156	0.198031	
0.0919908	1.06424	0.248206	
0.0593465	1.06716	0.10856	
0.184962	1.07993	0	
0.113965	1.18028	0.121768	
0.168914	1.06767	0.155545	
0.0593465	1.06716	0.10856	
0.113965	1.18028	0.121768	
0.184962	1.07993	0	
0.0903521	1.10545	0	
0.0196341	1.38361	0.225797	
-0.0552231	1.38907	0.38538	
0.0814864	1.49332	0.347681	
0	1.5	0.3	
0.0814864	1.49332	0.347681	
-0.0552231	1.38907	0.38538	
0.0196341	1.38361	0.225797	
-0.00167925	1.31098	0.319981	
0.211575	0.889225	0.384788	
0.206682	0.777113	0.400851	
0.101939	0.907787	0.403472	
0.121965	0.82524	0.342904	
0.211575	0.889225	0.384788	
0.101939	0.907787	0.403472	
0.206682	0.777113	0.400851	
0.176777	0.823223	0.5	
-0.111014	0.733523	0.0849706	
-0.283151	0.746042	0.130367	
-0.189227	0.766031	0.208899	
-0.196211	0.8458	0.119009	
-0.111014	0.733523	0.0849706	
-0.189227	0.766031	0.208899	
-0.283151	0.746042	0.130367	
-0.183989	0.672241	0.119932	
0.208793	1.06331	0.266812	
0.0761103	0.977349	0.33014	
0.125116	1.11613	0.369411	
0.0919908	1.06424	0.248206	
0.208793	1.06331	0.266812	
0.125116	1.11613	0.369411	
0.0761103	0.977349	0.33014	
0.203143	1.00597	0.37146	
-0.193842	1.09373	0.257323	
-0.140073	0.942584	0.309826	
-0.203766	0.963562	0.377533	
-0.23296	0.961598	0.249877	
-0.203766	0.963562	0.377533	
-0.140073	0.942584	0.309826	
-0.193842	1.09373	0.257323	
-0.115695	1.05029	0.334241	
0.0581157	0.769455	0.403061	
0.176777	0.823223	0.5	
0.121965	0.82524	0.342904	
0.103403	0.84471	0.5	
0.0581157	0.769455	0.403061	
0.121965	0.82524	0.342904	
0.176777	0.823223	0.5	
0.206682	0.777113	0.400851	
0.101939	0.907787	0.403472	
0.121965	0.82524	0.342904	
0.176777	0.823223	0.5	
0.103403	0.84471	0.5	
0.101939	0.907787	0.403472	
0.176777	0.823223	0.5	
0.121965	0.82524	0.342904	
0.206682	0.777113	0.400851	
0.341118	0.774271	0.0916023	
0.278655	0.736565	0.241439	
0.4284	0.742176	0.204976	
0.296805	0.825729	0.165597	
0.341118	0.774271	0.0916023	
0.4284	0.742176	0.204976	
0.278655	0.736565	0.241439	
0.374193	0.668368	0.165357	
-0.289723	0.75771	0.393302	
-0.176777	0.823223	0.5	
-0.0862712	0.770823	0.389289	
-0.239777	0.86007	0.398057	
-0.289723	0.75771	0.393302	
-0.0862712	0.770823	0.389289	
-0.176777	0.823223	0.5	
-0.183156	0.725887	0.5	
-0.10307	0.999921	0.0930669	
-0.237047	1.02014	0	
-0.16685	1.08834	0	
-0.142648	0.992859	0	
-0.10307	0.999921	0.0930669	
-0.16685	1.08834	0	
-0.237047	1.02014	0	
-0.256772	1.06769	0.100506	
0.206682	0.777113	0.400851	
0.215953	0.839226	0.238202	
0.211575	0.889225	0.384788	
0.285177	0.816119	0.328962	
0.211575	0.889225	0.384788	
0.215953	0.839226	0.238202	
0.206682	0.777113	0.400851	
0.121965	0.82524	0.342904	
-0.318838	1.02278	0.259668	
-0.203766	0.963562	0.377533	
-0.193842	1.09373	0.257323	
-0.275403	1.0393	0.403336	
-0.318838	1.02278	0.259668	
-0.193842	1.09373	0.257323	
-0.203766	0.963562	0.377533	
-0.23296	0.961598	0.249877	
-0.296327	0.833736	0.292179	
-0.351645	0.874975	0.390413	
-0.23296	0.961598	0.249877	
-0.363598	0.972427	0.365583	
-0.296327	0.833736	0.292179	
-0.23296	0.961598	0.249877	
-0.351645	0.874975	0.390413	
-0.239777	0.86007	0.398057	
-0.203766	0.963562	0.377533	
-0.23296	0.961598	0.249877	
-0.351645	0.874975	0.390413	
-0.363598	0.972427	0.365583	
-0.203766	0.963562	0.377533	
-0.351645	0.874975	0.390413	
-0.23296	0.961598	0.249877	
-0.239777	0.86007	0.398057	
0.358257	0.834187	0.252847	
0.347602	0.985936	0.348343	
0.490343	0.902203	0.258774	
0.361351	0.935933	0.2197	
0.358257	0.834187	0.252847	
0.490343	0.902203	0.258774	
0.347602	0.985936	0.348343	
0.368617	0.876452	0.385763	
-0.243391	1.43676	0.0969381	
-0.273315	1.33496	0	
-0.277785	1.41573	0	
-0.201912	1.36999	0	
-0.277785	1.41573	0	
-0.273315	1.33496	0	
-0.243391	1.43676	0.0969381	
-0.317197	1.38651	0.0688254	
-0.382289	1.08918	0.382504	
-0.5	1	0.3	
-0.5	1	0.4	
-0.493315	1.08149	0.347681	
-0.382289	1.08918	0.382504	
-0.5	1	0.4	
-0.5	1	0.3	
-0.363598	0.972427	0.365583	
-0.356684	0.80649	0	
-0.386831	0.6832	0.104097	
-0.415735	0.722215	0	
-0.331361	0.727047	0	
-0.356684	0.80649	0	
-0.415735	0.722215	0	
-0.386831	0.6832	0.104097	
-0.444481	0.771009	0.0919014	
-0.0571477	1.11947	0.416349	
-0.0611059	1.11559	0.264866	
-0.00748686	1.04315	0.386084	
-0.115695	1.05029	0.334241	
-0.0571477	1.11947	0.416349	
-0.00748686	1.04315	0.386084	
-0.0611059	1.11559	0.264866	
-0.00173102	1.15684	0.347507	
0.0902907	1.23506	0.376077	
0.0323895	1.13978	0.258564	
0.125116	1.11613	0.369411	
-0.00173102	1.15684	0.347507	
0.125116	1.11613	0.369411	
0.0323895	1.13978	0.258564	
0.0902907	1.23506	0.376077	
0.119419	1.18151	0.251425	
0.40353	1.07301	0.105949	
0.490343	1.0978	0.241226	
0.5	1	0.2	
0.493389	1.08104	0.14715	
0.40353	1.07301	0.105949	
0.5	1	0.2	
0.490343	1.0978	0.241226	
0.378383	1.07129	0.271427	
0.28898	1.28652	0.0949489	
0.373926	1.19893	0	
0.300884	1.19872	0	
0.328092	1.27024	0	
0.28898	1.28652	0.0949489	
0.300884	1.19872	0	
0.373926	1.19893	0	
0.353151	1.15839	0.109095	
-0.382289	1.08918	0.382504	
-0.492649	1.08542	0.251403	
-0.468495	1.17468	0.317109	
-0.364752	1.11394	0.23148	
-0.382289	1.08918	0.382504	
-0.468495	1.17468	0.317109	
-0.492649	1.08542	0.251403	
-0.493315	1.08149	0.347681	
0.323338	0.935684	0.5	
0.284123	1.06741	0.387999	
0.203143	1.00597	0.37146	
0.25	1	0.5	
0.203143	1.00597	0.37146	
0.284123	1.06741	0.387999	
0.323338	0.935684	0.5	
0.347602	0.985936	0.348343	
0.334194	1.15432	0.215771	
0.490343	1.0978	0.241226	
0.40353	1.07301	0.105949	
0.469721	1.17135	0.161666	
0.334194	1.15432	0.215771	
0.40353	1.07301	0.105949	
0.490343	1.0978	0.241226	
0.378383	1.07129	0.271427	
0.219623	1.16199	0.240766	
0.0919908	1.06424	0.248206	
0.125116	1.11613	0.369411	
0.119419	1.18151	0.251425	
0.219623	1.16199	0.240766	
0.125116	1.11613	0.369411	
0.0919908	1.06424	0.248206	
0.208793	1.06331	0.266812	
0.215953	0.839226	0.238202	
0.134932	0.977505	0.230093	
0.148799	0.913537	0.303647	
0.226544	0.947552	0.250202	
0.148799	0.913537	0.303647	
0.134932	0.977505	0.230093	
0.215953	0.839226	0.238202	
0.106858	0.844305	0.230248	
-0.332607	0.773484	0.222023	
-0.437078	0.757178	0.347009	
-0.470668	0.831266	0.298219	
-0.434698	0.752943	0.249501	
-0.332607	0.773484	0.222023	
-0.470668	0.831266	0.298219	
-0.437078	0.757178	0.347009	
-0.296327	0.833736	0.292179	
-0.283151	0.746042	0.130367	
-0.168688	0.718299	0	
-0.263582	0.680587	0	
-0.261345	0.769964	0	
-0.283151	0.746042	0.130367	
-0.263582	0.680587	0	
-0.168688	0.718299	0	
-0.183989	0.672241	0.119932	
0.125573	0.58604	0	
0.228991	0.555519	0.0919014	
0.0999617	0.645199	0.138238	
0.146853	0.522052	0.0840084	
0.125573	0.58604	0	
0.0999617	0.645199	0.138238	
0.228991	0.555519	0.0919014	
0.194604	0.628812	0	
0.368617	0.876452	0.385763	
0.398221	1	0.5	
0.495293	0.931554	0.431403	
0.347602	0.985936	0.348343	
0.368617	0.876452	0.385763	
0.495293	0.931554	0.431403	
0.398221	1	0.5	
0.409849	0.918476	0.5	
0.328092	1.27024	0	
0.436762	1.24339	0.0969381	
0.415735	1.27779	0	
0.386505	1.3172	0.0688254	
0.415735	1.27779	0	
0.436762	1.24339	0.0969381	
0.328092	1.27024	0	
0.373926	1.19893	0	
-0.179827	1.088	0.408491	
-0.274113	1.18316	0.5	
-0.275403	1.0393	0.403336	
-0.23097	1.09567	0.5	
-0.179827	1.088	0.408491	
-0.275403	1.0393	0.403336	
-0.274113	1.18316	0.5	
-0.234257	1.21312	0.375398	
0.113162	1.01769	0.414132	
0.0868435	1.13736	0.5	
-0.00748686	1.04315	0.386084	
0.0691997	1.04586	0.5	
0.113162	1.01769	0.414132	
-0.00748686	1.04315	0.386084	
0.0868435	1.13736	0.5	
0.125116	1.11613	0.369411	
-0.318983	1.26174	0	
-0.440961	1.2357	0.068569	
-0.415735	1.27779	0	
-0.389036	1.20743	0	
-0.318983	1.26174	0	
-0.415735	1.27779	0	
-0.440961	1.2357	0.068569	
-0.386476	1.31723	0.0904728	
-0.351645	0.874975	0.390413	
-0.347453	0.767839	0.5	
-0.274113	0.816844	0.5	
-0.363339	0.8495	0.5	
-0.351645	0.874975	0.390413	
-0.274113	0.816844	0.5	
-0.347453	0.767839	0.5	
-0.289723	0.75771	0.393302	
0.355602	0.87751	0.0966392	
0.409478	0.967053	0	
0.495101	0.930181	0.0723791	
0.394936	0.880197	0	
0.355602	0.87751	0.0966392	
0.495101	0.930181	0.0723791	
0.409478	0.967053	0	
0.387337	0.975471	0.113668	
0.189162	1.24479	0.0938772	
0.261819	1.31903	0	
0.190875	1.34709	0.10503	
0.28898	1.28652	0.0949489	
0.189162	1.24479	0.0938772	
0.190875	1.34709	0.10503	
0.261819	1.31903	0	
0.189613	1.31366	0	
-0.0369856	0.814061	0.5	
-0.0840558	0.819296	0.633477	
0.075477	0.809328	0.60941	
-0.00979043	0.90873	0.615519	
0.287378	0.983941	1	
0.330142	0.959051	0.83873	
0.215886	1.00836	0.878507	
0.39915	0.990133	0.906414	
-0.143721	0.860033	0.841612	
-0.0207624	0.923302	0.863864	
-0.0902369	0.906851	1	
-0.0183257	0.793213	0.875792	
0.330142	0.959051	0.83873	
0.318292	0.91002	0.672643	
0.19355	1.00275	0.74991	
0.348128	1.05074	0.719677	
0.19355	1.00275	0.74991	
0.318292	0.91002	0.672643	
0.330142	0.959051	0.83873	
0.219433	0.887973	0.783321	
0.287378	0.983941	1	
0.215886	1.00836	0.878507	
0.356074	1.09276	0.865831	
0.39915	0.990133	0.906414	
-0.238625	1.43938	0.576642	
-0.276265	1.41675	0.637452	
-0.232161	1.34745	0.5	
-0.180037	1.30947	0.668767	
-0.33007	1.27363	1	
-0.366596	1.14153	0.904615	
-0.386559	1.31713	0.911838	
-0.254431	1.30452	0.892066	
0.114269	0.8976	0.845027	
-0.0207624	0.923302	0.863864	
0.102037	0.944747	1	
0.0803871	1.00814	0.885647	
0.00587698	0.925804	1	
0.102037	0.944747	1	
0.114269	0.8976	0.845027	
-0.0207624	0.923302	0.863864	
-0.121053	1.20203	0.750792	
-0.0202852	1.17994	0.855385	
-0.0111034	1.32302	0.823352	
-0.082655	1.28145	0.901959	
-0.180037	1.30947	0.668767	
-0.159358	1.32099	0.830937	
-0.256028	1.42948	0.708421	
-0.271071	1.28122	0.731982	
-0.0369856	0.814061	0.5	
0.075477	0.809328	0.60941	
0.0344957	0.828097	0.5	
-0.00979043	0.90873	0.615519	
0.00587698	0.925804	1	
-0.0207624	0.923302	0.863864	
0.114269	0.8976	0.845027	
0.0761281	0.822015	0.902396	
-0.121053	1.20203	0.750792	
-0.0202852	1.17994	0.855385	
-0.149856	1.07611	0.843427	
-0.0933205	1.08542	0.735608	
0.356074	1.09276	0.865831	
0.215886	1.00836	0.878507	
0.330142	0.959051	0.83873	
0.39915	0.990133	0.906414	
0.0372834	1.27178	1	
0.0921027	1.22053	0.879559	
-0.0111034	1.32302	0.823352	
0.0835299	1.37795	0.884613	
-0.19416	1.46076	0.765941	
-0.256028	1.42948	0.708421	
-0.180037	1.30947	0.668767	
-0.159358	1.32099	0.830937	
-0.314941	1.38835	0.579801	
-0.180037	1.30947	0.668767	
-0.276265	1.41675	0.637452	
-0.28145	1.24879	0.622796	
0.0372834	1.27178	1	
-0.0111034	1.32302	0.823352	
0.0921027	1.22053	0.879559	
-0.082655	1.28145	0.901959	
-0.225256	0.972563	0.749303	
-0.0808186	0.989298	0.663479	
-0.218908	1.02882	0.620926	
-0.0933205	1.08542	0.735608	
-0.206133	0.729722	0.836828	
-0.0830296	0.764069	0.733505	
-0.143721	0.860033	0.841612	
-0.11576	0.747665	0.899003	
0.19355	1.00275	0.74991	
0.101275	0.91604	0.653562	
0.0539582	0.949081	0.757017	
0.030532	1.00082	0.661954	
-0.5	1	0.7	
-0.371949	0.959293	0.777377	
-0.351178	0.986498	0.65	
-0.307788	1.04281	0.733348	
-0.121053	1.20203	0.750792	
-0.180037	1.30947	0.668767	
-0.0146393	1.2919	0.660146	
-0.106349	1.24066	0.613882	
0.00587698	0.925804	1	
0.114269	0.8976	0.845027	
0.102037	0.944747	1	
0.0761281	0.822015	0.902396	
-0.328139	1.06792	0.838021	
-0.149856	1.07611	0.843427	
-0.225256	0.972563	0.749303	
-0.197777	1.1209	0.753033	
-0.143721	0.860033	0.841612	
-0.206133	0.729722	0.836828	
-0.194345	0.772916	0.709268	
-0.0830296	0.764069	0.733505	
0.00587698	0.925804	1	
0.102037	0.944747	1	
-0.0207624	0.923302	0.863864	
0.0803871	1.00814	0.885647	
0.0868435	1.13736	0.5	
-0.00475677	1.13123	0.664793	
0.12042	1.06036	0.636718	
0.125807	1.18828	0.618322	
0.166834	0.675675	0.635152	
0.075477	0.809328	0.60941	
0.197542	0.7915	0.711395	
0.215224	0.853148	0.609812	
-0.217299	1.45031	0.645888	
-0.276265	1.41675	0.637452	
-0.238625	1.43938	0.576642	
-0.180037	1.30947	0.668767	
0.5	1	0.8	
0.348128	1.05074	0.719677	
0.330142	0.959051	0.83873	
0.356074	1.09276	0.865831	
0.5	1	0.8	
0.356074	1.09276	0.865831	
0.330142	0.959051	0.83873	
0.39915	0.990133	0.906414	
-0.0258184	0.833057	1	
-0.0902369	0.906851	1	
-0.0207624	0.923302	0.863864	
-0.0183257	0.793213	0.875792	
-0.00475677	1.13123	0.664793	
0.125807	1.18828	0.618322	
0.0868435	1.13736	0.5	
0.0261041	1.21709	0.59722	
-0.121053	1.20203	0.750792	
-0.271071	1.28122	0.731982	
-0.180037	1.30947	0.668767	
-0.206572	1.20934	0.689284	
-0.0146393	1.2919	0.660146	
-0.180037	1.30947	0.668767	
-0.121053	1.20203	0.750792	
-0.0867584	1.36717	0.731965	
-0.33007	1.27363	1	
-0.250247	1.23307	1	
-0.366596	1.14153	0.904615	
-0.254431	1.30452	0.892066	
0.0921027	1.22053	0.879559	
0.0831122	1.10495	0.740369	
-0.0202852	1.17994	0.855385	
-0.00595418	1.2142	0.745645	
0.141405	0.904892	0.5	
0.075477	0.809328	0.60941	
0.103403	0.84471	0.5	
0.215224	0.853148	0.609812	
-0.149856	1.07611	0.843427	
-0.0202852	1.17994	0.855385	
9.40847e-05	1.04509	0.800768	
-0.0933205	1.08542	0.735608	
-0.149856	1.07611	0.843427	
-0.14568	1.20044	0.877353	
-0.122575	1.07331	1	
-0.0551398	1.05013	0.899099	
-0.147604	1.13485	0.630599	
-0.106349	1.24066	0.613882	
-0.28145	1.24879	0.622796	
-0.206572	1.20934	0.689284	
-0.121053	1.20203	0.750792	
-0.0111034	1.32302	0.823352	
-0.0202852	1.17994	0.855385	
-0.00595418	1.2142	0.745645	
0.197542	0.7915	0.711395	
0.091716	0.737167	0.833117	
0.175884	0.803375	0.889741	
0.105164	0.85062	0.744059	
-0.5	1	0.7	
-0.351178	0.986498	0.65	
-0.492656	1.08538	0.748652	
-0.307788	1.04281	0.733348	
-0.19416	1.46076	0.765941	
-0.159358	1.32099	0.830937	
-0.180037	1.30947	0.668767	
-0.0867584	1.36717	0.731965	
-0.23097	1.09567	0.5	
-0.218908	1.02882	0.620926	
-0.284603	1.13833	0.684978	
-0.378892	1.09874	0.625908	
-0.314941	1.38835	0.579801	
-0.232161	1.34745	0.5	
-0.276265	1.41675	0.637452	
-0.180037	1.30947	0.668767	
-0.0896492	1.16615	1	
-0.122575	1.07331	1	
-0.14568	1.20044	0.877353	
-0.0551398	1.05013	0.899099	
-0.225256	0.972563	0.749303	
-0.0933205	1.08542	0.735608	
-0.218908	1.02882	0.620926	
-0.197777	1.1209	0.753033	
-0.0810399	0.506611	0.85285	
0.0321461	0.626308	0.873516	
-0.0706186	0.688282	0.818117	
-0.142163	0.63573	0.89494	
0.326547	1.07249	1	
0.356074	1.09276	0.865831	
0.287378	0.983941	1	
0.215886	1.00836	0.878507	
-0.0706186	0.688282	0.818117	
-0.0830296	0.764069	0.733505	
-0.206133	0.729722	0.836828	
-0.11576	0.747665	0.899003	
-0.0896492	1.16615	1	
-0.14568	1.20044	0.877353	
-0.0202852	1.17994	0.855385	
-0.0551398	1.05013	0.899099	
0.0372834	1.27178	1	
0.0921027	1.22053	0.879559	
-0.0202852	1.17994	0.855385	
-0.082655	1.28145	0.901959	
-0.0810399	0.506611	0.85285	
-0.0684459	0.504707	0.931403	
0.0321461	0.626308	0.873516	
-0.142163	0.63573	0.89494	
-0.328139	1.06792	0.838021	
-0.208534	0.966027	0.877319	
-0.31121	1.03591	1	
-0.385003	0.984343	0.895239	
-0.0369856	0.814061	0.5	
0.075477	0.809328	0.60941	
-0.0840558	0.819296	0.633477	
-0.0421997	0.724204	0.59801	
-0.0810399	0.506611	0.85285	
-0.0706186	0.688282	0.818117	
-0.171353	0.530279	0.838334	
-0.142163	0.63573	0.89494	
-0.0684459	0.504707	0.931403	
-0.0444138	0.583252	1	
0.0321461	0.626308	0.873516	
-0.142163	0.63573	0.89494	
0.19355	1.00275	0.74991	
0.12042	1.06036	0.636718	
0.101275	0.91604	0.653562	
0.030532	1.00082	0.661954	
0.11795	1.23142	0.740012	
0.0831122	1.10495	0.740369	
0.0921027	1.22053	0.879559	
-0.00595418	1.2142	0.745645	
-0.0902369	0.906851	1	
-0.0207624	0.923302	0.863864	
-0.143721	0.860033	0.841612	
-0.10341	0.960236	0.912939	
0.19355	1.00275	0.74991	
0.030532	1.00082	0.661954	
0.0539582	0.949081	0.757017	
0.107062	1.02445	0.792092	
-0.208232	1.3886	1	
-0.159358	1.32099	0.830937	
-0.243302	1.43681	0.906373	
-0.0684719	1.38599	0.898819	
-0.31121	1.03591	1	
-0.208534	0.966027	0.877319	
-0.328139	1.06792	0.838021	
-0.2429	1.12372	0.891069	
-0.386831	0.6832	0.604097	
-0.347453	0.767839	0.5	
-0.32134	0.844606	0.681688	
-0.245183	0.701709	0.623779	
-0.176777	1.17678	0.5	
-0.28145	1.24879	0.622796	
-0.147604	1.13485	0.630599	
-0.106349	1.24066	0.613882	
-0.429162	1.25655	0.668732	
-0.28145	1.24879	0.622796	
-0.271071	1.28122	0.731982	
-0.355776	1.16297	0.774979	
-0.149856	1.07611	0.843427	
-0.0202852	1.17994	0.855385	
-0.121053	1.20203	0.750792	
-0.14568	1.20044	0.877353	
-0.0202852	1.17994	0.855385	
0.0921027	1.22053	0.879559	
0.13567	1.10909	0.864428	
0.0831122	1.10495	0.740369	
9.40847e-05	1.04509	0.800768	
-0.0933205	1.08542	0.735608	
-0.0202852	1.17994	0.855385	
-0.00595418	1.2142	0.745645	
0.376757	0.671284	0.753532	
0.216076	0.69962	0.805486	
0.287428	0.80533	0.842537	
0.328874	0.804808	0.729739	
-0.0111034	1.32302	0.823352	
-0.121053	1.20203	0.750792	
-0.0867584	1.36717	0.731965	
-0.00595418	1.2142	0.745645	
-0.180037	1.30947	0.668767	
-0.121053	1.20203	0.750792	
-0.159358	1.32099	0.830937	
-0.271071	1.28122	0.731982	
-0.492656	1.08538	0.748652	
-0.351178	0.986498	0.65	
-0.378892	1.09874	0.625908	
-0.307788	1.04281	0.733348	
0.0868435	1.13736	0.5	
0.12042	1.06036	0.636718	
-0.00475677	1.13123	0.664793	
-0.0230921	1.05776	0.595963	
0.287378	0.983941	1	
0.356074	1.09276	0.865831	
0.326547	1.07249	1	
0.39915	0.990133	0.906414	
-0.0261261	1.3467	1	
0.0372834	1.27178	1	
-0.0111034	1.32302	0.823352	
0.0835299	1.37795	0.884613	
-0.121053	1.20203	0.750792	
-0.0111034	1.32302	0.823352	
-0.159358	1.32099	0.830937	
-0.082655	1.28145	0.901959	
-0.429162	1.25655	0.668732	
-0.28145	1.24879	0.622796	
-0.284603	1.13833	0.684978	
-0.378892	1.09874	0.625908	
-0.00643767	0.847524	0.748532	
0.00376155	0.753357	0.785071	
0.105164	0.85062	0.744059	
0.0761281	0.822015	0.902396	
-0.440961	0.764302	0.931431	
-0.308389	0.85948	0.835633	
-0.376173	0.802719	1	
-0.313556	0.75907	0.879554	
-0.5	1	0.7	
-0.492656	1.08538	0.748652	
-0.371949	0.959293	0.777377	
-0.307788	1.04281	0.733348	
-0.107214	1.16612	0.5	
-0.147604	1.13485	0.630599	
-0.0392044	1.16291	0.5	
-0.106349	1.24066	0.613882	
-0.0111034	1.32302	0.823352	
-0.121053	1.20203	0.750792	
-0.159358	1.32099	0.830937	
-0.0867584	1.36717	0.731965	
-0.328716	0.623243	0.753532	
-0.172711	0.659579	0.756944	
-0.245183	0.701709	0.623779	
-0.297014	0.758037	0.771096	
9.40847e-05	1.04509	0.800768	
-0.0202852	1.17994	0.855385	
-0.149856	1.07611	0.843427	
-0.0551398	1.05013	0.899099	
-0.0202852	1.17994	0.855385	
0.0921027	1.22053	0.879559	
-0.0111034	1.32302	0.823352	
-0.082655	1.28145	0.901959	
-0.492656	1.08538	0.748652	
-0.351178	0.986498	0.65	
-0.5	1	0.7	
-0.378892	1.09874	0.625908	
-0.429162	1.25655	0.668732	
-0.284603	1.13833	0.684978	
-0.28145	1.24879	0.622796	
-0.355776	1.16297	0.774979	
-0.225256	0.972563	0.749303	
-0.149856	1.07611	0.843427	
-0.328139	1.06792	0.838021	
-0.208534	0.966027	0.877319	
0.114269	0.8976	0.845027	
0.215886	1.00836	0.878507	
0.198196	0.963699	1	
0.248837	0.902557	0.889756	
-0.386559	1.31713	0.911838	
-0.366596	1.14153	0.904615	
-0.263764	1.21559	0.825362	
-0.254431	1.30452	0.892066	
0.114269	0.8976	0.845027	
-0.0207624	0.923302	0.863864	
-0.00643767	0.847524	0.748532	
0.0761281	0.822015	0.902396	
-0.323338	0.935684	0.5	
-0.351178	0.986498	0.65	
-0.193736	0.903788	0.633349	
-0.218908	1.02882	0.620926	
-0.225256	0.972563	0.749303	
-0.32134	0.844606	0.681688	
-0.351178	0.986498	0.65	
-0.193736	0.903788	0.633349	
-0.386498	0.682794	0.700322	
-0.245183	0.701709	0.623779	
-0.32134	0.844606	0.681688	
-0.297014	0.758037	0.771096	
-0.274113	0.816844	0.5	
-0.32134	0.844606	0.681688	
-0.245183	0.701709	0.623779	
-0.18639	0.799846	0.604991	
-0.386831	0.6832	0.604097	
-0.429146	0.74342	0.66876	
-0.386498	0.682794	0.700322	
-0.32134	0.844606	0.681688	
0.376757	0.671284	0.753532	
0.216076	0.69962	0.805486	
0.328874	0.804808	0.729739	
0.253474	0.699951	0.70471	
0.19355	1.00275	0.74991	
0.12042	1.06036	0.636718	
0.030532	1.00082	0.661954	
0.107062	1.02445	0.792092	
0.197542	0.7915	0.711395	
0.175884	0.803375	0.889741	
0.219433	0.887973	0.783321	
0.105164	0.85062	0.744059	
0.141405	0.904892	0.5	
0.214567	0.972198	0.625898	
0.101275	0.91604	0.653562	
0.215224	0.853148	0.609812	
-0.0207624	0.923302	0.863864	
-0.0183257	0.793213	0.875792	
-0.00643767	0.847524	0.748532	
0.0761281	0.822015	0.902396	
0.0372834	1.27178	1	
-0.0261261	1.3467	1	
-0.0111034	1.32302	0.823352	
-0.082655	1.28145	0.901959	
-0.323338	0.935684	0.5	
-0.193736	0.903788	0.633349	
-0.25	1	0.5	
-0.218908	1.02882	0.620926	
0.330142	0.959051	0.83873	
0.348128	1.05074	0.719677	
0.5	1	0.8	
0.402785	0.956541	0.723347	
0.106675	0.966314	0.5	
0.0631871	0.946434	0.577068	
0.214567	0.972198	0.625898	
0.201501	1.05838	0.584156	
-0.0111034	1.32302	0.823352	
0.11795	1.23142	0.740012	
0.0921027	1.22053	0.879559	
-0.00595418	1.2142	0.745645	
-0.0261261	1.3467	1	
0.0645888	1.34627	1	
0.0372834	1.27178	1	
0.0835299	1.37795	0.884613	
-0.23097	1.09567	0.5	
-0.147604	1.13485	0.630599	
-0.284603	1.13833	0.684978	
-0.218908	1.02882	0.620926	
0.114269	0.8976	0.845027	
-0.00643767	0.847524	0.748532	
0.105164	0.85062	0.744059	
0.0761281	0.822015	0.902396	
-0.0706186	0.688282	0.818117	
0.0321461	0.626308	0.873516	
-0.0810399	0.506611	0.85285	
-0.000498869	0.611892	0.760268	
-0.238625	1.43938	0.576642	
-0.180037	1.30947	0.668767	
-0.151231	1.3651	0.5	
-0.0927842	1.36919	0.612233	
-0.492656	1.08538	0.748652	
-0.328139	1.06792	0.838021	
-0.371949	0.959293	0.777377	
-0.307788	1.04281	0.733348	
-0.376173	0.802719	1	
-0.440961	0.764302	0.931431	
-0.47591	0.846672	0.90763	
-0.308389	0.85948	0.835633	
-0.371949	0.959293	0.777377	
-0.208534	0.966027	0.877319	
-0.328139	1.06792	0.838021	
-0.385003	0.984343	0.895239	
-0.258315	1.4281	0.803104	
-0.256028	1.42948	0.708421	
-0.159358	1.32099	0.830937	
-0.271071	1.28122	0.731982	
-0.328139	1.06792	0.838021	
-0.197777	1.1209	0.753033	
-0.225256	0.972563	0.749303	
-0.307788	1.04281	0.733348	
-0.493315	0.918514	0.652319	
-0.351178	0.986498	0.65	
-0.371949	0.959293	0.777377	
-0.377424	0.892421	0.60103	
0.197542	0.7915	0.711395	
0.091716	0.737167	0.833117	
0.216076	0.69962	0.805486	
0.175884	0.803375	0.889741	
-0.386498	0.682794	0.700322	
-0.386831	0.6832	0.604097	
-0.32134	0.844606	0.681688	
-0.245183	0.701709	0.623779	
0.141405	0.904892	0.5	
0.101275	0.91604	0.653562	
0.075477	0.809328	0.60941	
0.215224	0.853148	0.609812	
0.183156	0.725887	0.5	
0.075477	0.809328	0.60941	
0.166834	0.675675	0.635152	
0.215224	0.853148	0.609812	
-0.0810399	0.506611	0.85285	
-0.0977967	0.509657	0.758774	
-0.171353	0.530279	0.838334	
-0.0706186	0.688282	0.818117	
-0.376173	0.802719	1	
-0.47591	0.846672	0.90763	
-0.396617	0.880856	1	
-0.308389	0.85948	0.835633	
-0.121053	1.20203	0.750792	
-0.14568	1.20044	0.877353	
-0.0202852	1.17994	0.855385	
-0.082655	1.28145	0.901959	
0.318292	0.91002	0.672643	
0.214567	0.972198	0.625898	
0.19355	1.00275	0.74991	
0.286804	1.05056	0.632278	
-0.171353	0.530279	0.838334	
-0.0706186	0.688282	0.818117	
-0.172711	0.659579	0.756944	
-0.142163	0.63573	0.89494	
-0.323338	0.935684	0.5	
-0.23097	0.904329	0.5	
-0.25	1	0.5	
-0.193736	0.903788	0.633349	
-0.492656	1.08538	0.748652	
-0.493438	1.08074	0.845784	
-0.5	1	0.8	
-0.328139	1.06792	0.838021	
-0.238625	1.43938	0.576642	
-0.217299	1.45031	0.645888	
-0.180037	1.30947	0.668767	
-0.0927842	1.36919	0.612233	
-0.263764	1.21559	0.825362	
-0.366596	1.14153	0.904615	
-0.250247	1.23307	1	
-0.254431	1.30452	0.892066	
0.23097	1.09567	0.5	
0.358556	1.12901	0.622438	
0.240959	1.14173	0.663655	
0.286804	1.05056	0.632278	
-0.218908	1.02882	0.620926	
-0.0933205	1.08542	0.735608	
-0.0808186	0.989298	0.663479	
-0.124649	1.04531	0.594053	
0.290856	0.760973	0.624503	
0.166834	0.675675	0.635152	
0.197542	0.7915	0.711395	
0.215224	0.853148	0.609812	
-0.122575	1.07331	1	
-0.154491	0.98059	1	
-0.218034	1.05414	1	
-0.149856	1.07611	0.843427	
-0.0111034	1.32302	0.823352	
0.11795	1.23142	0.740012	
0.0991769	1.35538	0.76662	
0.0921027	1.22053	0.879559	
-0.444497	1.22896	0.591906	
-0.28145	1.24879	0.622796	
-0.429162	1.25655	0.668732	
-0.378892	1.09874	0.625908	
-0.257824	0.5716	0.704976	
-0.217356	0.549715	0.644698	
-0.277785	0.584265	0.634138	
-0.245183	0.701709	0.623779	
-0.284603	1.13833	0.684978	
-0.271071	1.28122	0.731982	
-0.28145	1.24879	0.622796	
-0.355776	1.16297	0.774979	
-0.468495	0.825322	0.682891	
-0.493315	0.918514	0.652319	
-0.371949	0.959293	0.777377	
-0.377424	0.892421	0.60103	
-0.274113	0.816844	0.5	
-0.193736	0.903788	0.633349	
-0.32134	0.844606	0.681688	
-0.18639	0.799846	0.604991	
-0.00643767	0.847524	0.748532	
-0.0183257	0.793213	0.875792	
-0.143721	0.860033	0.841612	
-0.0830296	0.764069	0.733505	
-0.208232	1.3886	1	
-0.243302	1.43681	0.906373	
-0.119808	1.39485	1	
-0.0684719	1.38599	0.898819	
-0.218034	1.05414	1	
-0.208534	0.966027	0.877319	
-0.31121	1.03591	1	
-0.2429	1.12372	0.891069	
-0.180037	1.30947	0.668767	
-0.159358	1.32099	0.830937	
-0.121053	1.20203	0.750792	
-0.0867584	1.36717	0.731965	
-0.00475677	1.13123	0.664793	
0.0261041	1.21709	0.59722	
0.0868435	1.13736	0.5	
-0.0230921	1.05776	0.595963	
0.0539582	0.949081	0.757017	
0.219433	0.887973	0.783321	
0.114269	0.8976	0.845027	
0.105164	0.85062	0.744059	
-0.5	1	0.8	
-0.492656	1.08538	0.748652	
-0.328139	1.06792	0.838021	
-0.371949	0.959293	0.777377	
-0.23097	0.904329	0.5	
-0.274113	0.816844	0.5	
-0.193736	0.903788	0.633349	
-0.377424	0.892421	0.60103	
-0.0392044	1.16291	0.5	
-0.147604	1.13485	0.630599	
-0.107214	1.16612	0.5	
-0.0230921	1.05776	0.595963	
0.19355	1.00275	0.74991	
0.219433	0.887973	0.783321	
0.0539582	0.949081	0.757017	
0.105164	0.85062	0.744059	
0.101275	0.91604	0.653562	
0.214567	0.972198	0.625898	
0.141405	0.904892	0.5	
0.0631871	0.946434	0.577068	
-0.171353	0.530279	0.838334	
-0.0706186	0.688282	0.818117	
-0.0977967	0.509657	0.758774	
-0.172711	0.659579	0.756944	
0.122935	1.34062	0.641539	
0.125807	1.18828	0.618322	
0.11795	1.23142	0.740012	
0.0261041	1.21709	0.59722	
0.0956709	1.23097	0.5	
0.125807	1.18828	0.618322	
0.122935	1.34062	0.641539	
0.0261041	1.21709	0.59722	
9.40847e-05	1.04509	0.800768	
-0.00475677	1.13123	0.664793	
-0.0933205	1.08542	0.735608	
-0.00595418	1.2142	0.745645	
0.19355	1.00275	0.74991	
0.12042	1.06036	0.636718	
0.240959	1.14173	0.663655	
0.201501	1.05838	0.584156	
-0.468495	0.825322	0.682891	
-0.371949	0.959293	0.777377	
-0.32134	0.844606	0.681688	
-0.377424	0.892421	0.60103	
-0.396617	0.880856	1	
-0.308389	0.85948	0.835633	
-0.47591	0.846672	0.90763	
-0.385003	0.984343	0.895239	
0.493012	1.0833	0.844789	
0.348128	1.05074	0.719677	
0.5	1	0.8	
0.356074	1.09276	0.865831	
-0.0146393	1.2919	0.660146	
0.122935	1.34062	0.641539	
0.11795	1.23142	0.740012	
0.0261041	1.21709	0.59722	
-0.444497	1.22896	0.591906	
-0.363339	1.1505	0.5	
-0.28145	1.24879	0.622796	
-0.378892	1.09874	0.625908	
0.330142	0.959051	0.83873	
0.348128	1.05074	0.719677	
0.19355	1.00275	0.74991	
0.262314	1.07918	0.800995	
-0.434698	0.752943	0.749501	
-0.32134	0.844606	0.681688	
-0.308389	0.85948	0.835633	
-0.297014	0.758037	0.771096	
-0.328716	0.623243	0.753532	
-0.257824	0.5716	0.704976	
-0.245183	0.701709	0.623779	
-0.172711	0.659579	0.756944	
-0.225256	0.972563	0.749303	
-0.102765	0.975873	0.785694	
-0.0808186	0.989298	0.663479	
-0.0933205	1.08542	0.735608	
0.19355	1.00275	0.74991	
0.240959	1.14173	0.663655	
0.286804	1.05056	0.632278	
0.201501	1.05838	0.584156	
-0.0537386	1.25516	1	
0.0372834	1.27178	1	
-0.0202852	1.17994	0.855385	
-0.082655	1.28145	0.901959	
-0.147604	1.13485	0.630599	
-0.28145	1.24879	0.622796	
-0.284603	1.13833	0.684978	
-0.206572	1.20934	0.689284	
-0.0810399	0.506611	0.85285	
-0.0977967	0.509657	0.758774	
-0.0706186	0.688282	0.818117	
-0.000498869	0.611892	0.760268	
-0.0706186	0.688282	0.818117	
-0.172711	0.659579	0.756944	
-0.206133	0.729722	0.836828	
-0.0830296	0.764069	0.733505	
-0.328716	0.623243	0.753532	
-0.206133	0.729722	0.836828	
-0.172711	0.659579	0.756944	
-0.297014	0.758037	0.771096	
-0.122575	1.07331	1	
-0.154491	0.98059	1	
-0.149856	1.07611	0.843427	
-0.10341	0.960236	0.912939	
-0.225256	0.972563	0.749303	
-0.328139	1.06792	0.838021	
-0.371949	0.959293	0.777377	
-0.208534	0.966027	0.877319	
0.19355	1.00275	0.74991	
0.105164	0.85062	0.744059	
0.0539582	0.949081	0.757017	
0.190918	0.90269	0.690758	
-0.263764	1.21559	0.825362	
-0.159358	1.32099	0.830937	
-0.121053	1.20203	0.750792	
-0.271071	1.28122	0.731982	
-0.492656	1.08538	0.748652	
-0.355776	1.16297	0.774979	
-0.328139	1.06792	0.838021	
-0.307788	1.04281	0.733348	
-0.274113	1.18316	0.5	
-0.284603	1.13833	0.684978	
-0.147604	1.13485	0.630599	
-0.28145	1.24879	0.622796	
-0.0202852	1.17994	0.855385	
0.0831122	1.10495	0.740369	
0.13567	1.10909	0.864428	
0.0362445	1.10288	0.900124	
0.114269	0.8976	0.845027	
0.0539582	0.949081	0.757017	
0.19355	1.00275	0.74991	
0.219433	0.887973	0.783321	
0.091716	0.737167	0.833117	
0.105164	0.85062	0.744059	
0.00376155	0.753357	0.785071	
0.0761281	0.822015	0.902396	
-0.0537386	1.25516	1	
0.0372834	1.27178	1	
0.00512645	1.18472	1	
-0.0202852	1.17994	0.855385	
0.102037	0.944747	1	
0.198196	0.963699	1	
0.166518	0.870941	1	
0.114269	0.8976	0.845027	
0.183156	0.725887	0.5	
0.176777	0.823223	0.5	
0.075477	0.809328	0.60941	
0.215224	0.853148	0.609812	
-0.32134	0.844606	0.681688	
-0.193736	0.903788	0.633349	
-0.274113	0.816844	0.5	
-0.377424	0.892421	0.60103	
0.163502	1.02984	0.5	
0.12042	1.06036	0.636718	
0.106675	0.966314	0.5	
0.201501	1.05838	0.584156	
-0.19416	1.46076	0.765941	
-0.258315	1.4281	0.803104	
-0.256028	1.42948	0.708421	
-0.159358	1.32099	0.830937	
-0.0392044	1.16291	0.5	
-0.147604	1.13485	0.630599	
-0.00475677	1.13123	0.664793	
-0.106349	1.24066	0.613882	
-0.0146393	1.2919	0.660146	
-0.0867584	1.36717	0.731965	
-0.121053	1.20203	0.750792	
-0.00595418	1.2142	0.745645	
0.12042	1.06036	0.636718	
0.0631871	0.946434	0.577068	
0.106675	0.966314	0.5	
0.201501	1.05838	0.584156	
-0.00643767	0.847524	0.748532	
-0.0183257	0.793213	0.875792	
0.00376155	0.753357	0.785071	
0.0761281	0.822015	0.902396	
0.028723	1.17517	0.5	
0.000305103	1.09462	0.5	
0.0868435	1.13736	0.5	
0.0261041	1.21709	0.59722	
-0.308389	0.85948	0.835633	
-0.32134	0.844606	0.681688	
-0.470668	0.831266	0.798219	
-0.371949	0.959293	0.777377	
-0.345102	0.953927	1	
-0.308389	0.85948	0.835633	
-0.396617	0.880856	1	
-0.385003	0.984343	0.895239	
0.318292	0.91002	0.672643	
0.19355	1.00275	0.74991	
0.348128	1.05074	0.719677	
0.286804	1.05056	0.632278	
-0.206133	0.729722	0.836828	
-0.172711	0.659579	0.756944	
-0.194345	0.772916	0.709268	
-0.0830296	0.764069	0.733505	
-0.328716	0.623243	0.753532	
-0.206133	0.729722	0.836828	
-0.258165	0.571805	0.798245	
-0.172711	0.659579	0.756944	
-0.314941	1.38835	0.579801	
-0.232161	1.34745	0.5	
-0.238625	1.43938	0.576642	
-0.276265	1.41675	0.637452	
-0.0202852	1.17994	0.855385	
0.0831122	1.10495	0.740369	
9.40847e-05	1.04509	0.800768	
-0.00595418	1.2142	0.745645	
-0.386831	0.6832	0.604097	
-0.347453	0.767839	0.5	
-0.444481	0.771009	0.591901	
-0.32134	0.844606	0.681688	
0.19355	1.00275	0.74991	
0.240959	1.14173	0.663655	
0.12042	1.06036	0.636718	
0.188892	1.15001	0.759985	
-0.492649	0.914576	0.748597	
-0.468495	0.825322	0.682891	
-0.493315	0.918514	0.652319	
-0.371949	0.959293	0.777377	
0.197542	0.7915	0.711395	
0.287428	0.80533	0.842537	
0.219433	0.887973	0.783321	
0.175884	0.803375	0.889741	
-0.0369856	0.814061	0.5	
0.0344957	0.828097	0.5	
-0.0218546	0.89013	0.5	
-0.00979043	0.90873	0.615519	
-0.323338	0.935684	0.5	
-0.193736	0.903788	0.633349	
-0.351178	0.986498	0.65	
-0.377424	0.892421	0.60103	
-0.143721	0.860033	0.841612	
-0.0830296	0.764069	0.733505	
-0.0183257	0.793213	0.875792	
-0.11576	0.747665	0.899003	
0.11795	1.23142	0.740012	
0.188892	1.15001	0.759985	
0.176308	1.30549	0.856004	
0.193121	1.21116	0.891371	
-0.492656	1.08538	0.748652	
-0.378892	1.09874	0.625908	
-0.355776	1.16297	0.774979	
-0.307788	1.04281	0.733348	
0.287378	0.983941	1	
0.326547	1.07249	1	
0.360576	0.998064	1	
0.39915	0.990133	0.906414	
-0.493437	0.919252	0.845776	
-0.308389	0.85948	0.835633	
-0.371949	0.959293	0.777377	
-0.385003	0.984343	0.895239	
0.11795	1.23142	0.740012	
0.13567	1.10909	0.864428	
0.0921027	1.22053	0.879559	
0.0831122	1.10495	0.740369	
-0.470668	0.831266	0.798219	
-0.308389	0.85948	0.835633	
-0.434698	0.752943	0.749501	
-0.32134	0.844606	0.681688	
0.0321461	0.626308	0.873516	
-0.142163	0.63573	0.89494	
-0.0444138	0.583252	1	
-0.0283413	0.698633	0.90895	
-0.0202852	1.17994	0.855385	
-0.0933205	1.08542	0.735608	
-0.121053	1.20203	0.750792	
-0.00595418	1.2142	0.745645	
-0.386831	0.6832	0.604097	
-0.444481	0.771009	0.591901	
-0.429146	0.74342	0.66876	
-0.32134	0.844606	0.681688	
-0.5	1	0.8	
-0.328139	1.06792	0.838021	
-0.493438	1.08074	0.845784	
-0.385003	0.984343	0.895239	
-0.115668	0.660224	0.648618	
-0.172711	0.659579	0.756944	
-0.0977967	0.509657	0.758774	
-0.000498869	0.611892	0.760268	
-0.332191	1.3737	0.665943	
-0.276265	1.41675	0.637452	
-0.180037	1.30947	0.668767	
-0.28145	1.24879	0.622796	
0.0372834	1.27178	1	
0.0645888	1.34627	1	
0.0921027	1.22053	0.879559	
0.0835299	1.37795	0.884613	
-0.0392044	1.16291	0.5	
-0.106349	1.24066	0.613882	
-0.00475677	1.13123	0.664793	
0.0261041	1.21709	0.59722	
-0.121053	1.20203	0.750792	
-0.263764	1.21559	0.825362	
-0.271071	1.28122	0.731982	
-0.206572	1.20934	0.689284	
0.176777	1.17678	0.5	
0.23097	1.09567	0.5	
0.240959	1.14173	0.663655	
0.201501	1.05838	0.584156	
-0.208232	1.3886	1	
-0.159358	1.32099	0.830937	
-0.182108	1.31839	1	
-0.254431	1.30452	0.892066	
0.376757	0.671284	0.753532	
0.380873	0.676062	0.847739	
0.287428	0.80533	0.842537	
0.216076	0.69962	0.805486	
0	1.5	0.9	
0.0835299	1.37795	0.884613	
-0.0684719	1.38599	0.898819	
0.00695298	1.40388	0.759796	
0.091716	0.737167	0.833117	
0.175884	0.803375	0.889741	
0.097631	0.704268	1	
0.160008	0.641459	0.892261	
0.197542	0.7915	0.711395	
0.091716	0.737167	0.833117	
0.105164	0.85062	0.744059	
0.103438	0.745916	0.728223	
-0.0706186	0.688282	0.818117	
-0.115668	0.660224	0.648618	
-0.0830296	0.764069	0.733505	
-0.000498869	0.611892	0.760268	
-0.308389	0.85948	0.835633	
-0.208534	0.966027	0.877319	
-0.371949	0.959293	0.777377	
-0.385003	0.984343	0.895239	
-0.492656	1.08538	0.748652	
-0.5	1	0.7	
-0.493066	1.08298	0.651653	
-0.378892	1.09874	0.625908	
0.0703509	0.851998	1	
0.00587698	0.925804	1	
0.102037	0.944747	1	
0.0761281	0.822015	0.902396	
-0.351178	0.986498	0.65	
-0.193736	0.903788	0.633349	
-0.32134	0.844606	0.681688	
-0.377424	0.892421	0.60103	
-0.238488	0.560542	0.575692	
-0.277785	0.584265	0.634138	
-0.217356	0.549715	0.644698	
-0.245183	0.701709	0.623779	
0.214567	0.972198	0.625898	
0.0631871	0.946434	0.577068	
0.12042	1.06036	0.636718	
0.201501	1.05838	0.584156	
-0.274113	0.816844	0.5	
-0.32134	0.844606	0.681688	
-0.347453	0.767839	0.5	
-0.245183	0.701709	0.623779	
0.11795	1.23142	0.740012	
0.125807	1.18828	0.618322	
-0.00475677	1.13123	0.664793	
0.0261041	1.21709	0.59722	
0.0375767	1.01852	1	
0.0803871	1.00814	0.885647	
-0.0207624	0.923302	0.863864	
-0.0551398	1.05013	0.899099	
0.097631	0.704268	1	
0.091716	0.737167	0.833117	
0.0321461	0.626308	0.873516	
-0.0283413	0.698633	0.90895	
-0.0202852	1.17994	0.855385	
-0.14568	1.20044	0.877353	
-0.149856	1.07611	0.843427	
-0.0551398	1.05013	0.899099	
0.219433	0.887973	0.783321	
0.105164	0.85062	0.744059	
0.19355	1.00275	0.74991	
0.190918	0.90269	0.690758	
0.322164	0.745112	1	
0.287428	0.80533	0.842537	
0.386505	0.682803	0.931175	
0.248978	0.726366	0.903842	
0.19355	1.00275	0.74991	
0.286804	1.05056	0.632278	
0.214567	0.972198	0.625898	
0.201501	1.05838	0.584156	
-0.328139	1.06792	0.838021	
-0.149856	1.07611	0.843427	
-0.197777	1.1209	0.753033	
-0.2429	1.12372	0.891069	
0.197542	0.7915	0.711395	
0.216076	0.69962	0.805486	
0.287428	0.80533	0.842537	
0.175884	0.803375	0.889741	
-0.493437	0.919252	0.845776	
-0.47591	0.846672	0.90763	
-0.308389	0.85948	0.835633	
-0.385003	0.984343	0.895239	
9.40847e-05	1.04509	0.800768	
0.0831122	1.10495	0.740369	
-0.0202852	1.17994	0.855385	
0.0362445	1.10288	0.900124	
-0.218034	1.05414	1	
-0.149856	1.07611	0.843427	
-0.154491	0.98059	1	
-0.208534	0.966027	0.877319	
-0.429162	1.25655	0.668732	
-0.271071	1.28122	0.731982	
-0.386533	1.31716	0.700258	
-0.355776	1.16297	0.774979	
-0.33007	1.27363	1	
-0.250247	1.23307	1	
-0.357396	1.18789	1	
-0.366596	1.14153	0.904615	
-0.238488	0.560542	0.575692	
-0.217356	0.549715	0.644698	
-0.115668	0.660224	0.648618	
-0.245183	0.701709	0.623779	
0.0645888	1.34627	1	
0.134677	1.30158	1	
0.0921027	1.22053	0.879559	
0.0835299	1.37795	0.884613	
0.166518	0.870941	1	
0.114269	0.8976	0.845027	
0.198196	0.963699	1	
0.248837	0.902557	0.889756	
0.097631	0.704268	1	
0.0383625	0.760787	1	
0.091716	0.737167	0.833117	
-0.0283413	0.698633	0.90895	
-0.0706186	0.688282	0.818117	
-0.0977967	0.509657	0.758774	
-0.172711	0.659579	0.756944	
-0.000498869	0.611892	0.760268	
-0.238488	0.560542	0.575692	
-0.115668	0.660224	0.648618	
-0.152126	0.632735	0.5	
-0.245183	0.701709	0.623779	
0	0.75	0.5	
0.0344957	0.828097	0.5	
-0.0369856	0.814061	0.5	
0.075477	0.809328	0.60941	
0.141405	0.904892	0.5	
0.185939	0.963014	0.5	
0.214567	0.972198	0.625898	
0.215224	0.853148	0.609812	
0.183156	0.725887	0.5	
0.166834	0.675675	0.635152	
0.290856	0.760973	0.624503	
0.215224	0.853148	0.609812	
-0.122575	1.07331	1	
-0.149856	1.07611	0.843427	
-0.185909	1.14844	1	
-0.14568	1.20044	0.877353	
0.11795	1.23142	0.740012	
-0.00475677	1.13123	0.664793	
-0.00595418	1.2142	0.745645	
0.0261041	1.21709	0.59722	
-0.0585581	0.999611	1	
0.0375767	1.01852	1	
-0.0207624	0.923302	0.863864	
-0.0551398	1.05013	0.899099	
-0.238625	1.43938	0.576642	
-0.232161	1.34745	0.5	
-0.151231	1.3651	0.5	
-0.180037	1.30947	0.668767	
-0.208232	1.3886	1	
-0.243302	1.43681	0.906373	
-0.159358	1.32099	0.830937	
-0.254431	1.30452	0.892066	
-0.245183	0.701709	0.623779	
-0.172711	0.659579	0.756944	
-0.194345	0.772916	0.709268	
-0.297014	0.758037	0.771096	
-0.32134	0.844606	0.681688	
-0.371949	0.959293	0.777377	
-0.351178	0.986498	0.65	
-0.377424	0.892421	0.60103	
0.101275	0.91604	0.653562	
0.105164	0.85062	0.744059	
0.075477	0.809328	0.60941	
0.190918	0.90269	0.690758	
0.267628	1.19145	0.824346	
0.176308	1.30549	0.856004	
0.188892	1.15001	0.759985	
0.193121	1.21116	0.891371	
-0.5	1	0.8	
-0.371949	0.959293	0.777377	
-0.328139	1.06792	0.838021	
-0.385003	0.984343	0.895239	
0.356074	1.09276	0.865831	
0.215886	1.00836	0.878507	
0.326547	1.07249	1	
0.230545	1.11436	0.899122	
0.097631	0.704268	1	
0.091716	0.737167	0.833117	
0.132272	0.778577	1	
0.175884	0.803375	0.889741	
0.176777	1.17678	0.5	
0.240959	1.14173	0.663655	
0.125807	1.18828	0.618322	
0.201501	1.05838	0.584156	
0.0807477	1.49344	0.654224	
0.122935	1.34062	0.641539	
0.0991769	1.35538	0.76662	
0.0232779	1.38849	0.611701	
0.00512645	1.18472	1	
-0.0202852	1.17994	0.855385	
0.0372834	1.27178	1	
0.0921027	1.22053	0.879559	
-0.0261261	1.3467	1	
0.0835299	1.37795	0.884613	
-0.0111034	1.32302	0.823352	
-0.0684719	1.38599	0.898819	
-0.345102	0.953927	1	
-0.249134	0.962669	1	
-0.296764	0.859492	1	
-0.308389	0.85948	0.835633	
-0.121053	1.20203	0.750792	
-0.00595418	1.2142	0.745645	
-0.00475677	1.13123	0.664793	
-0.106349	1.24066	0.613882	
-0.225256	0.972563	0.749303	
-0.193736	0.903788	0.633349	
-0.351178	0.986498	0.65	
-0.218908	1.02882	0.620926	
-0.331632	0.625807	0.665357	
-0.328716	0.623243	0.753532	
-0.257824	0.5716	0.704976	
-0.245183	0.701709	0.623779	
0.0807477	1.49344	0.654224	
0.0232779	1.38849	0.611701	
0.0991769	1.35538	0.76662	
0.00695298	1.40388	0.759796	
0.11795	1.23142	0.740012	
0.0991769	1.35538	0.76662	
-0.0146393	1.2919	0.660146	
-0.00595418	1.2142	0.745645	
-0.274113	1.18316	0.5	
-0.284603	1.13833	0.684978	
-0.23097	1.09567	0.5	
-0.147604	1.13485	0.630599	
-0.23097	1.09567	0.5	
-0.284603	1.13833	0.684978	
-0.274113	1.18316	0.5	
-0.378892	1.09874	0.625908	
0.176777	1.17678	0.5	
0.125807	1.18828	0.618322	
0.240959	1.14173	0.663655	
0.197701	1.26759	0.618397	
0.101275	0.91604	0.653562	
-0.00643767	0.847524	0.748532	
-0.00979043	0.90873	0.615519	
0.0014459	0.786307	0.671061	
0.19355	1.00275	0.74991	
0.214567	0.972198	0.625898	
0.12042	1.06036	0.636718	
0.201501	1.05838	0.584156	
-0.429162	1.25655	0.668732	
-0.28145	1.24879	0.622796	
-0.386533	1.31716	0.700258	
-0.271071	1.28122	0.731982	
-0.154491	0.98059	1	
-0.208534	0.966027	0.877319	
-0.149856	1.07611	0.843427	
-0.10341	0.960236	0.912939	
-0.0111034	1.32302	0.823352	
0.0921027	1.22053	0.879559	
0.0991769	1.35538	0.76662	
0.0835299	1.37795	0.884613	
-0.00475677	1.13123	0.664793	
9.40847e-05	1.04509	0.800768	
0.0831122	1.10495	0.740369	
-0.00595418	1.2142	0.745645	
-0.0146393	1.2919	0.660146	
0.0991769	1.35538	0.76662	
-0.0111034	1.32302	0.823352	
-0.00595418	1.2142	0.745645	
-0.351178	0.986498	0.65	
-0.32134	0.844606	0.681688	
-0.225256	0.972563	0.749303	
-0.371949	0.959293	0.777377	
0.240959	1.14173	0.663655	
0.23097	1.09567	0.5	
0.286804	1.05056	0.632278	
0.201501	1.05838	0.584156	
-0.00643767	0.847524	0.748532	
-0.0207624	0.923302	0.863864	
-0.143721	0.860033	0.841612	
-0.0183257	0.793213	0.875792	
9.40847e-05	1.04509	0.800768	
-0.0808186	0.989298	0.663479	
-0.0933205	1.08542	0.735608	
0.030532	1.00082	0.661954	
-0.0585581	0.999611	1	
0.0375767	1.01852	1	
0.00587698	0.925804	1	
-0.0207624	0.923302	0.863864	
0.460548	1.19467	0.73433	
0.333887	1.18738	0.72436	
0.348128	1.05074	0.719677	
0.369343	1.17686	0.815886	
-0.218908	1.02882	0.620926	
-0.0933205	1.08542	0.735608	
-0.147604	1.13485	0.630599	
-0.197777	1.1209	0.753033	
-0.314941	1.38835	0.579801	
-0.232161	1.34745	0.5	
-0.180037	1.30947	0.668767	
-0.28145	1.24879	0.622796	
0.490343	1.0978	0.741226	
0.348128	1.05074	0.719677	
0.493012	1.0833	0.844789	
0.356074	1.09276	0.865831	
-0.0183257	0.793213	0.875792	
-0.0830296	0.764069	0.733505	
-0.0706186	0.688282	0.818117	
-0.11576	0.747665	0.899003	
-0.429162	1.25655	0.668732	
-0.284603	1.13833	0.684978	
-0.468473	1.17474	0.682816	
-0.378892	1.09874	0.625908	
0.097631	0.704268	1	
0.132272	0.778577	1	
0.091716	0.737167	0.833117	
0.0761281	0.822015	0.902396	
-0.0896492	1.16615	1	
-0.0202852	1.17994	0.855385	
-0.0267938	1.0921	1	
-0.0551398	1.05013	0.899099	
-0.225256	0.972563	0.749303	
-0.149856	1.07611	0.843427	
-0.102765	0.975873	0.785694	
-0.0933205	1.08542	0.735608	
-0.149856	1.07611	0.843427	
-0.0933205	1.08542	0.735608	
-0.225256	0.972563	0.749303	
-0.197777	1.1209	0.753033	
0.19355	1.00275	0.74991	
0.240959	1.14173	0.663655	
0.262314	1.07918	0.800995	
0.286804	1.05056	0.632278	
9.40847e-05	1.04509	0.800768	
-0.0933205	1.08542	0.735608	
-0.00475677	1.13123	0.664793	
0.030532	1.00082	0.661954	
0.101275	0.91604	0.653562	
0.12042	1.06036	0.636718	
0.19355	1.00275	0.74991	
0.214567	0.972198	0.625898	
0.267628	1.19145	0.824346	
0.247079	1.26952	0.713352	
0.176308	1.30549	0.856004	
0.278791	1.29194	0.808109	
-0.296764	0.859492	1	
-0.308389	0.85948	0.835633	
-0.249134	0.962669	1	
-0.208534	0.966027	0.877319	
0.322164	0.745112	1	
0.436762	0.756609	0.903062	
0.386505	0.682803	0.931175	
0.287428	0.80533	0.842537	
0.0372834	1.27178	1	
0.0645888	1.34627	1	
0.134677	1.30158	1	
0.0921027	1.22053	0.879559	
-0.323338	0.935684	0.5	
-0.23097	0.904329	0.5	
-0.193736	0.903788	0.633349	
-0.377424	0.892421	0.60103	
-0.147604	1.13485	0.630599	
-0.0933205	1.08542	0.735608	
-0.218908	1.02882	0.620926	
-0.124649	1.04531	0.594053	
0.348128	1.05074	0.719677	
0.356074	1.09276	0.865831	
0.490343	1.0978	0.741226	
0.369343	1.17686	0.815886	
-0.0811073	1.49338	0.853007	
-0.171627	1.46962	0.839884	
-0.0867584	1.36717	0.731965	
-0.0684719	1.38599	0.898819	
0.097631	0.704268	1	
0.091716	0.737167	0.833117	
0.0383625	0.760787	1	
0.0761281	0.822015	0.902396	
-0.0840558	0.819296	0.633477	
-0.0421997	0.724204	0.59801	
0.075477	0.809328	0.60941	
0.0014459	0.786307	0.671061	
-0.0207624	0.923302	0.863864	
-0.00643767	0.847524	0.748532	
-0.117533	0.874656	0.729651	
-0.0365827	0.936141	0.729399	
0.228991	1.44448	0.908099	
0.176308	1.30549	0.856004	
0.201148	1.36807	1	
0.0835299	1.37795	0.884613	
-0.0369856	0.814061	0.5	
-0.00979043	0.90873	0.615519	
-0.0218546	0.89013	0.5	
-0.105125	0.905315	0.589497	
-0.328139	1.06792	0.838021	
-0.208534	0.966027	0.877319	
-0.149856	1.07611	0.843427	
-0.2429	1.12372	0.891069	
-0.331632	0.625807	0.665357	
-0.328716	0.623243	0.753532	
-0.245183	0.701709	0.623779	
-0.297014	0.758037	0.771096	
-0.31121	1.03591	1	
-0.208534	0.966027	0.877319	
-0.249134	0.962669	1	
-0.385003	0.984343	0.895239	
-0.19416	1.46076	0.765941	
-0.180037	1.30947	0.668767	
-0.167464	1.47112	0.699894	
-0.0867584	1.36717	0.731965	
-0.00475677	1.13123	0.664793	
-0.147604	1.13485	0.630599	
-0.0392044	1.16291	0.5	
-0.0230921	1.05776	0.595963	
-0.323338	1.06432	0.5	
-0.218908	1.02882	0.620926	
-0.23097	1.09567	0.5	
-0.378892	1.09874	0.625908	
0.493389	0.91896	0.85285	
0.382077	0.87532	0.792977	
0.330142	0.959051	0.83873	
0.402785	0.956541	0.723347	
-0.347453	0.767839	0.5	
-0.444481	0.771009	0.591901	
-0.32134	0.844606	0.681688	
-0.377424	0.892421	0.60103	
-0.468495	0.825322	0.682891	
-0.470668	0.831266	0.798219	
-0.32134	0.844606	0.681688	
-0.371949	0.959293	0.777377	
-0.121053	1.20203	0.750792	
-0.159358	1.32099	0.830937	
-0.14568	1.20044	0.877353	
-0.082655	1.28145	0.901959	
-0.00475677	1.13123	0.664793	
-0.147604	1.13485	0.630599	
-0.121053	1.20203	0.750792	
-0.106349	1.24066	0.613882	
-0.250247	1.23307	1	
-0.263764	1.21559	0.825362	
-0.2429	1.12372	0.891069	
-0.366596	1.14153	0.904615	
-0.468473	1.17474	0.682816	
-0.284603	1.13833	0.684978	
-0.429162	1.25655	0.668732	
-0.355776	1.16297	0.774979	
0.075477	0.809328	0.60941	
0.105164	0.85062	0.744059	
0.197542	0.7915	0.711395	
0.190918	0.90269	0.690758	
-0.0773947	0.947213	0.5	
-0.105125	0.905315	0.589497	
-0.00979043	0.90873	0.615519	
-0.0230921	1.05776	0.595963	
0.101275	0.91604	0.653562	
-0.00979043	0.90873	0.615519	
-0.00643767	0.847524	0.748532	
-0.0365827	0.936141	0.729399	
0.318292	0.91002	0.672643	
0.330142	0.959051	0.83873	
0.219433	0.887973	0.783321	
0.382077	0.87532	0.792977	
0.0956709	0.76903	0.5	
0.064316	0.676662	0.5	
0.166834	0.675675	0.635152	
0.075477	0.809328	0.60941	
-0.172711	0.659579	0.756944	
-0.142163	0.63573	0.89494	
-0.206133	0.729722	0.836828	
-0.231903	0.663623	0.918546	
-0.429162	1.25655	0.668732	
-0.386533	1.31716	0.700258	
-0.434718	1.24702	0.749442	
-0.355776	1.16297	0.774979	
-0.0706186	0.688282	0.818117	
-0.172711	0.659579	0.756944	
-0.115668	0.660224	0.648618	
-0.000498869	0.611892	0.760268	
0.075477	0.809328	0.60941	
0.215224	0.853148	0.609812	
0.101275	0.91604	0.653562	
0.190918	0.90269	0.690758	
-0.0977967	0.509657	0.758774	
-0.115668	0.660224	0.648618	
-0.168043	0.529084	0.699874	
-0.172711	0.659579	0.756944	
-0.0811073	1.49338	0.853007	
-0.0684719	1.38599	0.898819	
-0.0867584	1.36717	0.731965	
0.00695298	1.40388	0.759796	
0.23097	0.904329	0.5	
0.323338	0.935684	0.5	
0.214567	0.972198	0.625898	
0.215224	0.853148	0.609812	
0.0991769	1.35538	0.76662	
0.0921027	1.22053	0.879559	
0.176308	1.30549	0.856004	
0.0835299	1.37795	0.884613	
-0.00979043	0.90873	0.615519	
-0.105125	0.905315	0.589497	
-0.0808186	0.989298	0.663479	
-0.0230921	1.05776	0.595963	
-0.0840558	0.819296	0.633477	
-0.00979043	0.90873	0.615519	
-0.0369856	0.814061	0.5	
-0.105125	0.905315	0.589497	
0.00587698	0.925804	1	
-0.0207624	0.923302	0.863864	
0.0375767	1.01852	1	
0.0803871	1.00814	0.885647	
0.132272	0.778577	1	
0.175884	0.803375	0.889741	
0.091716	0.737167	0.833117	
0.0761281	0.822015	0.902396	
-0.0808186	0.989298	0.663479	
-0.225256	0.972563	0.749303	
-0.193736	0.903788	0.633349	
-0.117533	0.874656	0.729651	
0.13371	1.03748	1	
0.13567	1.10909	0.864428	
0.215886	1.00836	0.878507	
0.0803871	1.00814	0.885647	
0.122935	1.34062	0.641539	
0.125807	1.18828	0.618322	
0.0956709	1.23097	0.5	
0.197701	1.26759	0.618397	
-0.143721	0.860033	0.841612	
-0.0207624	0.923302	0.863864	
-0.00643767	0.847524	0.748532	
-0.117533	0.874656	0.729651	
0.376757	0.671284	0.753532	
0.287428	0.80533	0.842537	
0.428195	0.741835	0.798245	
0.328874	0.804808	0.729739	
-0.194345	0.772916	0.709268	
-0.206133	0.729722	0.836828	
-0.143721	0.860033	0.841612	
-0.221068	0.864025	0.764044	
0.322164	0.745112	1	
0.436762	0.756609	0.903062	
0.287428	0.80533	0.842537	
0.36821	0.862229	0.899925	
-0.167464	1.47112	0.699894	
-0.19416	1.46076	0.765941	
-0.256028	1.42948	0.708421	
-0.180037	1.30947	0.668767	
0.197542	0.7915	0.711395	
0.215224	0.853148	0.609812	
0.075477	0.809328	0.60941	
0.190918	0.90269	0.690758	
-0.225256	0.972563	0.749303	
-0.371949	0.959293	0.777377	
-0.308389	0.85948	0.835633	
-0.208534	0.966027	0.877319	
-0.437035	1.2429	0.847369	
-0.263764	1.21559	0.825362	
-0.386559	1.31713	0.911838	
-0.366596	1.14153	0.904615	
0.19355	1.00275	0.74991	
0.12042	1.06036	0.636718	
0.0831122	1.10495	0.740369	
0.188892	1.15001	0.759985	
0.11795	1.23142	0.740012	
0.122935	1.34062	0.641539	
-0.0146393	1.2919	0.660146	
0.0991769	1.35538	0.76662	
-0.00643767	0.847524	0.748532	
-0.0207624	0.923302	0.863864	
0.114269	0.8976	0.845027	
0.0539582	0.949081	0.757017	
-0.274113	1.18316	0.5	
-0.284603	1.13833	0.684978	
-0.28145	1.24879	0.622796	
-0.378892	1.09874	0.625908	
-0.0833019	0.506988	0.655211	
-0.115668	0.660224	0.648618	
-0.0977967	0.509657	0.758774	
-0.000498869	0.611892	0.760268	
-0.225256	0.972563	0.749303	
-0.0808186	0.989298	0.663479	
-0.193736	0.903788	0.633349	
-0.218908	1.02882	0.620926	
-0.0258184	0.833057	1	
-0.0207624	0.923302	0.863864	
0.00587698	0.925804	1	
0.0761281	0.822015	0.902396	
9.40847e-05	1.04509	0.800768	
-0.0808186	0.989298	0.663479	
0.030532	1.00082	0.661954	
-0.0365827	0.936141	0.729399	
-0.225256	0.972563	0.749303	
-0.371949	0.959293	0.777377	
-0.32134	0.844606	0.681688	
-0.221068	0.864025	0.764044	
0.11795	1.23142	0.740012	
-0.00595418	1.2142	0.745645	
-0.0146393	1.2919	0.660146	
0.0261041	1.21709	0.59722	
-0.0261261	1.3467	1	
-0.0684719	1.38599	0.898819	
-0.0111034	1.32302	0.823352	
-0.082655	1.28145	0.901959	
0.11795	1.23142	0.740012	
-0.00475677	1.13123	0.664793	
0.125807	1.18828	0.618322	
0.0831122	1.10495	0.740369	
0	1.5	0.9	
0	1.5	0.8	
0.0835299	1.37795	0.884613	
0.00695298	1.40388	0.759796	
0	0.75	0.5	
0.075477	0.809328	0.60941	
-0.0369856	0.814061	0.5	
-0.0421997	0.724204	0.59801	
-0.28145	1.24879	0.622796	
-0.106349	1.24066	0.613882	
-0.180037	1.30947	0.668767	
-0.206572	1.20934	0.689284	
-0.274113	1.18316	0.5	
-0.147604	1.13485	0.630599	
-0.176777	1.17678	0.5	
-0.28145	1.24879	0.622796	
-0.0111034	1.32302	0.823352	
0.0921027	1.22053	0.879559	
-0.0202852	1.17994	0.855385	
-0.00595418	1.2142	0.745645	
0.240959	1.14173	0.663655	
0.125807	1.18828	0.618322	
0.12042	1.06036	0.636718	
0.188892	1.15001	0.759985	
-0.121053	1.20203	0.750792	
-0.159358	1.32099	0.830937	
-0.263764	1.21559	0.825362	
-0.14568	1.20044	0.877353	
0.097631	0.704268	1	
0.0321461	0.626308	0.873516	
0.091716	0.737167	0.833117	
0.160008	0.641459	0.892261	
0.075477	0.809328	0.60941	
-0.00979043	0.90873	0.615519	
-0.0840558	0.819296	0.633477	
0.0014459	0.786307	0.671061	
-0.258315	1.4281	0.803104	
-0.271071	1.28122	0.731982	
-0.159358	1.32099	0.830937	
-0.254431	1.30452	0.892066	
-0.328716	0.623243	0.753532	
-0.323938	0.619127	0.847739	
-0.258165	0.571805	0.798245	
-0.206133	0.729722	0.836828	
0.125807	1.18828	0.618322	
0.0831122	1.10495	0.740369	
0.12042	1.06036	0.636718	
0.188892	1.15001	0.759985	
0.091716	0.737167	0.833117	
0.0383625	0.760787	1	
0.0761281	0.822015	0.902396	
-0.0283413	0.698633	0.90895	
-0.00643767	0.847524	0.748532	
0.101275	0.91604	0.653562	
0.105164	0.85062	0.744059	
0.0014459	0.786307	0.671061	
-0.296764	0.859492	1	
-0.396617	0.880856	1	
-0.345102	0.953927	1	
-0.308389	0.85948	0.835633	
-0.5	1	0.7	
-0.493315	0.918514	0.652319	
-0.351178	0.986498	0.65	
-0.371949	0.959293	0.777377	
0.11795	1.23142	0.740012	
-0.0111034	1.32302	0.823352	
0.0991769	1.35538	0.76662	
-0.00595418	1.2142	0.745645	
0.318292	0.91002	0.672643	
0.214567	0.972198	0.625898	
0.323338	0.935684	0.5	
0.215224	0.853148	0.609812	
0.141405	0.904892	0.5	
0.23097	0.904329	0.5	
0.185939	0.963014	0.5	
0.215224	0.853148	0.609812	
-0.0833019	0.506988	0.655211	
-0.115668	0.660224	0.648618	
-0.000498869	0.611892	0.760268	
-0.0201375	0.611237	0.611421	
0.0309435	0.691773	0.673181	
0.166834	0.675675	0.635152	
0.064316	0.676662	0.5	
0.075477	0.809328	0.60941	
-0.182108	1.31839	1	
-0.149858	1.24003	1	
-0.14568	1.20044	0.877353	
-0.082655	1.28145	0.901959	
-0.00643767	0.847524	0.748532	
-0.0830296	0.764069	0.733505	
-0.143721	0.860033	0.841612	
-0.117533	0.874656	0.729651	
-0.258165	0.571805	0.798245	
-0.172711	0.659579	0.756944	
-0.206133	0.729722	0.836828	
-0.231903	0.663623	0.918546	
0.13371	1.03748	1	
0.0692432	1.11129	1	
0.13567	1.10909	0.864428	
0.0362445	1.10288	0.900124	
-0.0111034	1.32302	0.823352	
-0.0684719	1.38599	0.898819	
0.0835299	1.37795	0.884613	
0.00695298	1.40388	0.759796	
-0.194345	0.772916	0.709268	
-0.115668	0.660224	0.648618	
-0.0840558	0.819296	0.633477	
-0.0830296	0.764069	0.733505	
-0.0183257	0.793213	0.875792	
-0.0830296	0.764069	0.733505	
-0.00643767	0.847524	0.748532	
0.00376155	0.753357	0.785071	
-0.0706186	0.688282	0.818117	
-0.000498869	0.611892	0.760268	
-0.0830296	0.764069	0.733505	
0.00376155	0.753357	0.785071	
0.175091	0.697234	1	
0.097631	0.704268	1	
0.175884	0.803375	0.889741	
0.160008	0.641459	0.892261	
-0.332191	1.3737	0.665943	
-0.276265	1.41675	0.637452	
-0.256028	1.42948	0.708421	
-0.180037	1.30947	0.668767	
0.101275	0.91604	0.653562	
-0.00643767	0.847524	0.748532	
0.0539582	0.949081	0.757017	
-0.0365827	0.936141	0.729399	
-0.5	1	0.6	
-0.351178	0.986498	0.65	
-0.397525	1	0.5	
-0.378892	1.09874	0.625908	
0.13567	1.10909	0.864428	
0.0921027	1.22053	0.879559	
-0.0202852	1.17994	0.855385	
0.0362445	1.10288	0.900124	
-0.117202	1.0938	0.5	
-0.107214	1.16612	0.5	
-0.147604	1.13485	0.630599	
-0.0230921	1.05776	0.595963	
0.13371	1.03748	1	
0.0692432	1.11129	1	
0.16533	1.13018	1	
0.13567	1.10909	0.864428	
-0.0896492	1.16615	1	
-0.122575	1.07331	1	
-0.185909	1.14844	1	
-0.14568	1.20044	0.877353	
0.122935	1.34062	0.641539	
0.247079	1.26952	0.713352	
0.242822	1.43708	0.652991	
0.202645	1.34448	0.765823	
-0.493437	0.919252	0.845776	
-0.308389	0.85948	0.835633	
-0.470668	0.831266	0.798219	
-0.371949	0.959293	0.777377	
0.318292	0.91002	0.672643	
0.348128	1.05074	0.719677	
0.330142	0.959051	0.83873	
0.402785	0.956541	0.723347	
-0.493438	1.08074	0.845784	
-0.328139	1.06792	0.838021	
-0.492656	1.08538	0.748652	
-0.355776	1.16297	0.774979	
0.0309435	0.691773	0.673181	
-0.0830296	0.764069	0.733505	
-0.115668	0.660224	0.648618	
-0.000498869	0.611892	0.760268	
-0.0810399	0.506611	0.85285	
-0.0684459	0.504707	0.931403	
0	0.5	0.9	
0.0321461	0.626308	0.873516	
0.141405	0.904892	0.5	
0.103403	0.84471	0.5	
0.176777	0.823223	0.5	
0.215224	0.853148	0.609812	
0.19355	1.00275	0.74991	
0.215886	1.00836	0.878507	
0.114269	0.8976	0.845027	
0.219433	0.887973	0.783321	
-0.0840558	0.819296	0.633477	
-0.115668	0.660224	0.648618	
-0.194345	0.772916	0.709268	
-0.18639	0.799846	0.604991	
0.000305103	1.09462	0.5	
0.0868435	1.13736	0.5	
0.0261041	1.21709	0.59722	
-0.0230921	1.05776	0.595963	
-0.376173	0.802719	1	
-0.396617	0.880856	1	
-0.296764	0.859492	1	
-0.308389	0.85948	0.835633	
-0.0258184	0.833057	1	
-0.0183257	0.793213	0.875792	
-0.0207624	0.923302	0.863864	
0.0761281	0.822015	0.902396	
0.493389	0.91896	0.85285	
0.5	1	0.8	
0.330142	0.959051	0.83873	
0.39915	0.990133	0.906414	
-0.159358	1.32099	0.830937	
-0.0867584	1.36717	0.731965	
-0.171627	1.46962	0.839884	
-0.0684719	1.38599	0.898819	
-0.0267938	1.0921	1	
-0.0551398	1.05013	0.899099	
-0.0202852	1.17994	0.855385	
0.0362445	1.10288	0.900124	
0.493012	1.0833	0.844789	
0.490343	1.0978	0.741226	
0.5	1	0.8	
0.348128	1.05074	0.719677	
0.470916	1.16804	0.800126	
0.490343	1.0978	0.741226	
0.356074	1.09276	0.865831	
0.369343	1.17686	0.815886	
0.493012	1.0833	0.844789	
0.356074	1.09276	0.865831	
0.5	1	0.8	
0.39915	0.990133	0.906414	
-0.183156	1.27411	0.5	
-0.28145	1.24879	0.622796	
-0.176777	1.17678	0.5	
-0.106349	1.24066	0.613882	
-0.14499	1.47852	0.92371	
-0.119808	1.39485	1	
-0.243302	1.43681	0.906373	
-0.0684719	1.38599	0.898819	
0.19355	1.00275	0.74991	
0.318292	0.91002	0.672643	
0.219433	0.887973	0.783321	
0.190918	0.90269	0.690758	
0.103403	0.84471	0.5	
0.075477	0.809328	0.60941	
0.176777	0.823223	0.5	
0.215224	0.853148	0.609812	
0.287378	0.983941	1	
0.344935	0.908506	1	
0.330142	0.959051	0.83873	
0.39915	0.990133	0.906414	
0.176308	1.30549	0.856004	
0.0991769	1.35538	0.76662	
0.11795	1.23142	0.740012	
0.0921027	1.22053	0.879559	
0.226913	1.05511	1	
0.326547	1.07249	1	
0.287378	0.983941	1	
0.215886	1.00836	0.878507	
-0.296764	0.859492	1	
-0.308389	0.85948	0.835633	
-0.208534	0.966027	0.877319	
-0.228331	0.826788	0.903124	
0.460548	1.19467	0.73433	
0.348128	1.05074	0.719677	
0.490343	1.0978	0.741226	
0.369343	1.17686	0.815886	
-0.23097	0.904329	0.5	
-0.157632	0.968645	0.5	
-0.25	1	0.5	
-0.193736	0.903788	0.633349	
-0.182108	1.31839	1	
-0.082655	1.28145	0.901959	
-0.14568	1.20044	0.877353	
-0.254431	1.30452	0.892066	
0.322164	0.745112	1	
0.287428	0.80533	0.842537	
0.301328	0.82727	1	
0.36821	0.862229	0.899925	
0.19355	1.00275	0.74991	
0.330142	0.959051	0.83873	
0.215886	1.00836	0.878507	
0.219433	0.887973	0.783321	
-0.0808186	0.989298	0.663479	
9.40847e-05	1.04509	0.800768	
-0.0933205	1.08542	0.735608	
-0.0365827	0.936141	0.729399	
-0.104053	1.31415	1	
-0.182108	1.31839	1	
-0.0684719	1.38599	0.898819	
-0.082655	1.28145	0.901959	
0	1.5	0.9	
-0.0684719	1.38599	0.898819	
0	1.5	0.8	
0.00695298	1.40388	0.759796	
-0.444497	1.22896	0.591906	
-0.363339	1.1505	0.5	
-0.347453	1.23216	0.5	
-0.28145	1.24879	0.622796	
0.13371	1.03748	1	
0.215886	1.00836	0.878507	
0.13567	1.10909	0.864428	
0.230545	1.11436	0.899122	
0.197542	0.7915	0.711395	
0.075477	0.809328	0.60941	
0.166834	0.675675	0.635152	
0.103438	0.745916	0.728223	
-0.157632	0.968645	0.5	
-0.193736	0.903788	0.633349	
-0.105125	0.905315	0.589497	
-0.124649	1.04531	0.594053	
0.13371	1.03748	1	
0.13567	1.10909	0.864428	
0.0803871	1.00814	0.885647	
0.0362445	1.10288	0.900124	
0.19355	1.00275	0.74991	
0.114269	0.8976	0.845027	
0.215886	1.00836	0.878507	
0.107062	1.02445	0.792092	
-0.0146393	1.2919	0.660146	
0.0232779	1.38849	0.611701	
0.122935	1.34062	0.641539	
0.0261041	1.21709	0.59722	
-0.323938	0.619127	0.847739	
-0.206133	0.729722	0.836828	
-0.328716	0.623243	0.753532	
-0.297014	0.758037	0.771096	
-0.0207624	0.923302	0.863864	
-0.117533	0.874656	0.729651	
-0.102765	0.975873	0.785694	
-0.0365827	0.936141	0.729399	
0.091716	0.737167	0.833117	
0.197542	0.7915	0.711395	
0.216076	0.69962	0.805486	
0.103438	0.745916	0.728223	
0.13567	1.10909	0.864428	
0.0921027	1.22053	0.879559	
0.16533	1.13018	1	
0.193121	1.21116	0.891371	
0.240959	1.14173	0.663655	
0.125807	1.18828	0.618322	
0.11795	1.23142	0.740012	
0.197701	1.26759	0.618397	
0.114269	0.8976	0.845027	
0.175884	0.803375	0.889741	
0.091716	0.737167	0.833117	
0.105164	0.85062	0.744059	
-0.0808186	0.989298	0.663479	
-0.102765	0.975873	0.785694	
-0.225256	0.972563	0.749303	
-0.117533	0.874656	0.729651	
0.219433	0.887973	0.783321	
0.175884	0.803375	0.889741	
0.114269	0.8976	0.845027	
0.105164	0.85062	0.744059	
-0.0706186	0.688282	0.818117	
-0.115668	0.660224	0.648618	
-0.172711	0.659579	0.756944	
-0.0830296	0.764069	0.733505	
0.415735	1.27779	0.865862	
0.369343	1.17686	0.815886	
0.337852	1.21393	0.901789	
0.278791	1.29194	0.808109	
0.175091	0.697234	1	
0.097631	0.704268	1	
0.132272	0.778577	1	
0.175884	0.803375	0.889741	
0	1.25	0.5	
-0.0146393	1.2919	0.660146	
-0.106349	1.24066	0.613882	
0.0261041	1.21709	0.59722	
0.122568	1.39751	1	
0.228991	1.44448	0.908099	
0.201148	1.36807	1	
0.0835299	1.37795	0.884613	
-0.32134	0.844606	0.681688	
-0.245183	0.701709	0.623779	
-0.194345	0.772916	0.709268	
-0.297014	0.758037	0.771096	
0.23097	0.904329	0.5	
0.214567	0.972198	0.625898	
0.185939	0.963014	0.5	
0.215224	0.853148	0.609812	
0.101275	0.91604	0.653562	
0.19355	1.00275	0.74991	
0.0539582	0.949081	0.757017	
0.190918	0.90269	0.690758	
-0.468473	1.17474	0.682816	
-0.378892	1.09874	0.625908	
-0.284603	1.13833	0.684978	
-0.355776	1.16297	0.774979	
0.242822	1.43708	0.652991	
0.247079	1.26952	0.713352	
0.122935	1.34062	0.641539	
0.197701	1.26759	0.618397	
-0.121053	1.20203	0.750792	
-0.147604	1.13485	0.630599	
-0.00475677	1.13123	0.664793	
-0.0933205	1.08542	0.735608	
-0.5	1	0.6	
-0.397525	1	0.5	
-0.495208	1.06906	0.569036	
-0.378892	1.09874	0.625908	
-0.182108	1.31839	1	
-0.14568	1.20044	0.877353	
-0.149858	1.24003	1	
-0.254431	1.30452	0.892066	
-0.440961	0.764302	0.931431	
-0.437078	0.757178	0.847009	
-0.308389	0.85948	0.835633	
-0.313556	0.75907	0.879554	
0.460548	1.19467	0.73433	
0.469721	1.17135	0.661666	
0.348128	1.05074	0.719677	
0.333887	1.18738	0.72436	
-0.122575	1.07331	1	
-0.149856	1.07611	0.843427	
-0.0551398	1.05013	0.899099	
-0.10341	0.960236	0.912939	
0.201148	1.36807	1	
0.176308	1.30549	0.856004	
0.134677	1.30158	1	
0.0835299	1.37795	0.884613	
-0.0892911	0.866366	0.5	
-0.0369856	0.814061	0.5	
-0.0218546	0.89013	0.5	
-0.105125	0.905315	0.589497	
-0.470668	0.831266	0.798219	
-0.493437	0.919252	0.845776	
-0.47591	0.846672	0.90763	
-0.308389	0.85948	0.835633	
-0.331632	0.625807	0.665357	
-0.245183	0.701709	0.623779	
-0.386498	0.682794	0.700322	
-0.297014	0.758037	0.771096	
-0.0146393	1.2919	0.660146	
0.0991769	1.35538	0.76662	
0.0232779	1.38849	0.611701	
0.00695298	1.40388	0.759796	
0.0691997	1.04586	0.5	
0.12042	1.06036	0.636718	
0.0868435	1.13736	0.5	
-0.0230921	1.05776	0.595963	
-0.32134	0.844606	0.681688	
-0.194345	0.772916	0.709268	
-0.245183	0.701709	0.623779	
-0.18639	0.799846	0.604991	
-0.0267938	1.0921	1	
-0.0896492	1.16615	1	
0.00512645	1.18472	1	
-0.0202852	1.17994	0.855385	
-0.0146393	1.2919	0.660146	
0.0991769	1.35538	0.76662	
0.122935	1.34062	0.641539	
0.0232779	1.38849	0.611701	
0.318292	0.91002	0.672643	
0.215224	0.853148	0.609812	
0.323338	0.935684	0.5	
0.366244	0.831981	0.604187	
-0.328139	1.06792	0.838021	
-0.197777	1.1209	0.753033	
-0.263764	1.21559	0.825362	
-0.2429	1.12372	0.891069	
-0.217299	1.45031	0.645888	
-0.167464	1.47112	0.699894	
-0.180037	1.30947	0.668767	
-0.0927842	1.36919	0.612233	
-0.25	1	0.5	
-0.193736	0.903788	0.633349	
-0.157632	0.968645	0.5	
-0.218908	1.02882	0.620926	
0.114269	0.8976	0.845027	
0.19355	1.00275	0.74991	
0.0539582	0.949081	0.757017	
0.107062	1.02445	0.792092	
-0.274113	1.18316	0.5	
-0.28145	1.24879	0.622796	
-0.363339	1.1505	0.5	
-0.378892	1.09874	0.625908	
0.11795	1.23142	0.740012	
0.176308	1.30549	0.856004	
0.247079	1.26952	0.713352	
0.202645	1.34448	0.765823	
0.240959	1.14173	0.663655	
0.247079	1.26952	0.713352	
0.11795	1.23142	0.740012	
0.188892	1.15001	0.759985	
-0.159358	1.32099	0.830937	
-0.0684719	1.38599	0.898819	
-0.182108	1.31839	1	
-0.082655	1.28145	0.901959	
-0.122575	1.07331	1	
-0.149856	1.07611	0.843427	
-0.218034	1.05414	1	
-0.2429	1.12372	0.891069	
0.19355	1.00275	0.74991	
0.214567	0.972198	0.625898	
0.318292	0.91002	0.672643	
0.190918	0.90269	0.690758	
-0.0202852	1.17994	0.855385	
-0.14568	1.20044	0.877353	
-0.0896492	1.16615	1	
-0.082655	1.28145	0.901959	
0.176308	1.30549	0.856004	
0.0921027	1.22053	0.879559	
0.134677	1.30158	1	
0.0835299	1.37795	0.884613	
0.197542	0.7915	0.711395	
0.219433	0.887973	0.783321	
0.328874	0.804808	0.729739	
0.190918	0.90269	0.690758	
-0.0537386	1.25516	1	
-0.0202852	1.17994	0.855385	
-0.0896492	1.16615	1	
-0.082655	1.28145	0.901959	
-0.328139	1.06792	0.838021	
-0.263764	1.21559	0.825362	
-0.197777	1.1209	0.753033	
-0.355776	1.16297	0.774979	
0.197542	0.7915	0.711395	
0.290856	0.760973	0.624503	
0.215224	0.853148	0.609812	
0.328874	0.804808	0.729739	
0.19355	1.00275	0.74991	
0.101275	0.91604	0.653562	
0.214567	0.972198	0.625898	
0.190918	0.90269	0.690758	
-0.0111034	1.32302	0.823352	
0.0991769	1.35538	0.76662	
-0.0146393	1.2919	0.660146	
0.00695298	1.40388	0.759796	
-0.117202	1.0938	0.5	
-0.0392044	1.16291	0.5	
-0.107214	1.16612	0.5	
-0.0230921	1.05776	0.595963	
0.11795	1.23142	0.740012	
0.0921027	1.22053	0.879559	
0.188892	1.15001	0.759985	
0.193121	1.21116	0.891371	
-0.185909	1.14844	1	
-0.14568	1.20044	0.877353	
-0.149856	1.07611	0.843427	
-0.2429	1.12372	0.891069	
0.287378	0.983941	1	
0.330142	0.959051	0.83873	
0.344935	0.908506	1	
0.248837	0.902557	0.889756	
0.13371	1.03748	1	
0.215886	1.00836	0.878507	
0.198196	0.963699	1	
0.0803871	1.00814	0.885647	
-0.225256	0.972563	0.749303	
-0.32134	0.844606	0.681688	
-0.193736	0.903788	0.633349	
-0.221068	0.864025	0.764044	
-0.258165	0.571805	0.798245	
-0.142163	0.63573	0.89494	
-0.172711	0.659579	0.756944	
-0.231903	0.663623	0.918546	
0.240959	1.14173	0.663655	
0.11795	1.23142	0.740012	
0.125807	1.18828	0.618322	
0.188892	1.15001	0.759985	
0.240959	1.14173	0.663655	
0.11795	1.23142	0.740012	
0.247079	1.26952	0.713352	
0.197701	1.26759	0.618397	
0.323338	0.935684	0.5	
0.214567	0.972198	0.625898	
0.38174	0.996023	0.618569	
0.286804	1.05056	0.632278	
-0.263764	1.21559	0.825362	
-0.14568	1.20044	0.877353	
-0.250247	1.23307	1	
-0.2429	1.12372	0.891069	
0.19355	1.00275	0.74991	
0.262314	1.07918	0.800995	
0.348128	1.05074	0.719677	
0.286804	1.05056	0.632278	
0.323338	0.935684	0.5	
0.25	1	0.5	
0.214567	0.972198	0.625898	
0.286804	1.05056	0.632278	
0.12042	1.06036	0.636718	
0.214567	0.972198	0.625898	
0.101275	0.91604	0.653562	
0.0631871	0.946434	0.577068	
0.228991	1.44448	0.908099	
0.201148	1.36807	1	
0.176308	1.30549	0.856004	
0.262414	1.28412	0.908895	
-0.157632	0.968645	0.5	
-0.218908	1.02882	0.620926	
-0.193736	0.903788	0.633349	
-0.124649	1.04531	0.594053	
0.242822	1.43708	0.652991	
0.122935	1.34062	0.641539	
0.235698	1.44096	0.568569	
0.197701	1.26759	0.618397	
0.00512645	1.18472	1	
-0.0267938	1.0921	1	
-0.0202852	1.17994	0.855385	
0.0362445	1.10288	0.900124	
0.287428	0.80533	0.842537	
0.216076	0.69962	0.805486	
0.197542	0.7915	0.711395	
0.328874	0.804808	0.729739	
0.226913	1.05511	1	
0.326547	1.07249	1	
0.215886	1.00836	0.878507	
0.230545	1.11436	0.899122	
0.469721	1.17135	0.661666	
0.358556	1.12901	0.622438	
0.348128	1.05074	0.719677	
0.333887	1.18738	0.72436	
-0.00643767	0.847524	0.748532	
-0.00979043	0.90873	0.615519	
-0.0840558	0.819296	0.633477	
-0.0365827	0.936141	0.729399	
-0.250247	1.23307	1	
-0.14568	1.20044	0.877353	
-0.263764	1.21559	0.825362	
-0.254431	1.30452	0.892066	
0.274113	1.18316	0.5	
0.240959	1.14173	0.663655	
0.23097	1.09567	0.5	
0.358556	1.12901	0.622438	
0.493389	0.91896	0.85285	
0.330142	0.959051	0.83873	
0.5	1	0.8	
0.402785	0.956541	0.723347	
-0.31121	1.03591	1	
-0.348481	1.09787	1	
-0.2429	1.12372	0.891069	
-0.366596	1.14153	0.904615	
0.19355	1.00275	0.74991	
0.262314	1.07918	0.800995	
0.240959	1.14173	0.663655	
0.188892	1.15001	0.759985	
-0.183156	1.27411	0.5	
-0.180037	1.30947	0.668767	
-0.28145	1.24879	0.622796	
-0.106349	1.24066	0.613882	
-0.168043	0.529084	0.699874	
-0.0977967	0.509657	0.758774	
-0.0833019	0.506988	0.655211	
-0.115668	0.660224	0.648618	
0.0376698	1.41981	1	
0	1.5	0.9	
0.0835299	1.37795	0.884613	
-0.0684719	1.38599	0.898819	
0.428195	0.741835	0.798245	
0.376757	0.671284	0.753532	
0.380873	0.676062	0.847739	
0.287428	0.80533	0.842537	
9.40847e-05	1.04509	0.800768	
-0.00475677	1.13123	0.664793	
0.0831122	1.10495	0.740369	
0.030532	1.00082	0.661954	
-0.14568	1.20044	0.877353	
-0.082655	1.28145	0.901959	
-0.159358	1.32099	0.830937	
-0.254431	1.30452	0.892066	
0.101275	0.91604	0.653562	
-0.00979043	0.90873	0.615519	
0.075477	0.809328	0.60941	
0.0014459	0.786307	0.671061	
-0.0537386	1.25516	1	
0.00512645	1.18472	1	
-0.0896492	1.16615	1	
-0.0202852	1.17994	0.855385	
-0.238488	0.560542	0.575692	
-0.217356	0.549715	0.644698	
-0.152694	0.523886	0.59754	
-0.115668	0.660224	0.648618	
0.242822	1.43708	0.652991	
0.316847	1.38679	0.698616	
0.247079	1.26952	0.713352	
0.197701	1.26759	0.618397	
-0.121053	1.20203	0.750792	
-0.0146393	1.2919	0.660146	
-0.00595418	1.2142	0.745645	
-0.106349	1.24066	0.613882	
-0.0706186	0.688282	0.818117	
-0.142163	0.63573	0.89494	
0.0321461	0.626308	0.873516	
-0.0283413	0.698633	0.90895	
-0.218034	1.05414	1	
-0.149856	1.07611	0.843427	
-0.208534	0.966027	0.877319	
-0.2429	1.12372	0.891069	
0.16533	1.13018	1	
0.13371	1.03748	1	
0.13567	1.10909	0.864428	
0.230545	1.11436	0.899122	
0.415735	0.722215	0.634138	
0.4284	0.742176	0.704976	
0.450285	0.782644	0.644698	
0.366244	0.831981	0.604187	
-0.194345	0.772916	0.709268	
-0.143721	0.860033	0.841612	
-0.0830296	0.764069	0.733505	
-0.117533	0.874656	0.729651	
0.318292	0.91002	0.672643	
0.215224	0.853148	0.609812	
0.197542	0.7915	0.711395	
0.190918	0.90269	0.690758	
0.0634445	0.898618	0.5	
0.0344957	0.828097	0.5	
0.075477	0.809328	0.60941	
-0.00979043	0.90873	0.615519	
0.374193	0.668368	0.665357	
0.415735	0.722215	0.634138	
0.290856	0.760973	0.624503	
0.328874	0.804808	0.729739	
-0.121053	1.20203	0.750792	
-0.14568	1.20044	0.877353	
-0.263764	1.21559	0.825362	
-0.197777	1.1209	0.753033	
0.197542	0.7915	0.711395	
0.215224	0.853148	0.609812	
0.318292	0.91002	0.672643	
0.328874	0.804808	0.729739	
0.11795	1.23142	0.740012	
-0.00475677	1.13123	0.664793	
0.0831122	1.10495	0.740369	
-0.00595418	1.2142	0.745645	
-0.233276	0.710046	1	
-0.206133	0.729722	0.836828	
-0.153466	0.725651	1	
-0.231903	0.663623	0.918546	
-0.233276	0.710046	1	
-0.217395	0.789549	1	
-0.153466	0.725651	1	
-0.206133	0.729722	0.836828	
0.323338	0.935684	0.5	
0.214567	0.972198	0.625898	
0.318292	0.91002	0.672643	
0.38174	0.996023	0.618569	
0.476114	0.847306	0.59754	
0.38174	0.996023	0.618569	
0.495101	0.930181	0.572379	
0.366244	0.831981	0.604187	
0.470916	0.831957	0.699874	
0.493012	0.916698	0.655211	
0.366244	0.831981	0.604187	
0.402785	0.956541	0.723347	
-0.468495	0.825322	0.682891	
-0.492649	0.914576	0.748597	
-0.470668	0.831266	0.798219	
-0.371949	0.959293	0.777377	
-0.332191	1.3737	0.665943	
-0.314941	1.38835	0.579801	
-0.276265	1.41675	0.637452	
-0.28145	1.24879	0.622796	
-0.143721	0.860033	0.841612	
-0.102765	0.975873	0.785694	
-0.0207624	0.923302	0.863864	
-0.117533	0.874656	0.729651	
0.122568	1.39751	1	
0.201148	1.36807	1	
0.134677	1.30158	1	
0.0835299	1.37795	0.884613	
0.0814864	0.506685	0.652319	
-0.000498869	0.611892	0.760268	
0.115192	0.637967	0.754396	
0.0872942	0.606698	0.613217	
-0.397525	1	0.5	
-0.351178	0.986498	0.65	
-0.5	1	0.6	
-0.377424	0.892421	0.60103	
-0.437078	0.757178	0.847009	
-0.47591	0.846672	0.90763	
-0.440961	0.764302	0.931431	
-0.308389	0.85948	0.835633	
0.415735	0.722215	0.634138	
0.290856	0.760973	0.624503	
0.328874	0.804808	0.729739	
0.366244	0.831981	0.604187	
-0.493438	1.08074	0.845784	
-0.385003	0.984343	0.895239	
-0.328139	1.06792	0.838021	
-0.366596	1.14153	0.904615	
-0.225256	0.972563	0.749303	
-0.371949	0.959293	0.777377	
-0.328139	1.06792	0.838021	
-0.307788	1.04281	0.733348	
0	1.5	0.9	
0	1.5	0.8	
0.0814864	1.49332	0.847681	
0.0835299	1.37795	0.884613	
0.287378	0.983941	1	
0.215886	1.00836	0.878507	
0.330142	0.959051	0.83873	
0.248837	0.902557	0.889756	
-0.122575	1.07331	1	
-0.185909	1.14844	1	
-0.149856	1.07611	0.843427	
-0.2429	1.12372	0.891069	
0.102037	0.944747	1	
0.13371	1.03748	1	
0.198196	0.963699	1	
0.0803871	1.00814	0.885647	
0.197542	0.7915	0.711395	
0.328874	0.804808	0.729739	
0.216076	0.69962	0.805486	
0.253474	0.699951	0.70471	
-0.308389	0.85948	0.835633	
-0.32134	0.844606	0.681688	
-0.371949	0.959293	0.777377	
-0.221068	0.864025	0.764044	
0.493389	1.08104	0.64715	
0.348128	1.05074	0.719677	
0.469721	1.17135	0.661666	
0.358556	1.12901	0.622438	
0.183156	0.725887	0.5	
0.0956709	0.76903	0.5	
0.166834	0.675675	0.635152	
0.075477	0.809328	0.60941	
-0.258315	1.4281	0.803104	
-0.324048	1.38078	0.849851	
-0.271071	1.28122	0.731982	
-0.254431	1.30452	0.892066	
-0.351178	0.986498	0.65	
-0.218908	1.02882	0.620926	
-0.284603	1.13833	0.684978	
-0.307788	1.04281	0.733348	
-0.0979281	1.49032	0.75908	
-0.0811073	1.49338	0.853007	
-0.171627	1.46962	0.839884	
-0.0867584	1.36717	0.731965	
0.176777	1.17678	0.5	
0.240959	1.14173	0.663655	
0.274113	1.18316	0.5	
0.197701	1.26759	0.618397	
-0.0684459	0.504707	0.931403	
-0.0444138	0.583252	1	
0	0.5	0.9	
0.0321461	0.626308	0.873516	
0.330142	0.959051	0.83873	
0.19355	1.00275	0.74991	
0.215886	1.00836	0.878507	
0.262314	1.07918	0.800995	
0.183156	0.725887	0.5	
0.176777	0.823223	0.5	
0.0956709	0.76903	0.5	
0.075477	0.809328	0.60941	
-0.32134	0.844606	0.681688	
-0.193736	0.903788	0.633349	
-0.194345	0.772916	0.709268	
-0.18639	0.799846	0.604991	
-0.233276	0.710046	1	
-0.313556	0.75907	0.879554	
-0.206133	0.729722	0.836828	
-0.231903	0.663623	0.918546	
-0.115668	0.660224	0.648618	
-0.18639	0.799846	0.604991	
-0.0840558	0.819296	0.633477	
-0.0421997	0.724204	0.59801	
0.415735	1.27779	0.865862	
0.374193	1.33163	0.834643	
0.369343	1.17686	0.815886	
0.278791	1.29194	0.808109	
0.301328	0.82727	1	
0.287428	0.80533	0.842537	
0.322164	0.745112	1	
0.248978	0.726366	0.903842	
0.075477	0.809328	0.60941	
0.105164	0.85062	0.744059	
0.101275	0.91604	0.653562	
0.0014459	0.786307	0.671061	
0.242822	1.43708	0.652991	
0.235698	1.44096	0.568569	
0.317233	1.38648	0.590473	
0.197701	1.26759	0.618397	
-0.167464	1.47112	0.699894	
-0.256028	1.42948	0.708421	
-0.217299	1.45031	0.645888	
-0.180037	1.30947	0.668767	
-0.5	1	0.7	
-0.492649	0.914576	0.748597	
-0.493315	0.918514	0.652319	
-0.371949	0.959293	0.777377	
-0.0830296	0.764069	0.733505	
-0.000498869	0.611892	0.760268	
0.0309435	0.691773	0.673181	
0.00376155	0.753357	0.785071	
0.197542	0.7915	0.711395	
0.328874	0.804808	0.729739	
0.318292	0.91002	0.672643	
0.190918	0.90269	0.690758	
-0.225256	0.972563	0.749303	
-0.197777	1.1209	0.753033	
-0.218908	1.02882	0.620926	
-0.307788	1.04281	0.733348	
0.11795	1.23142	0.740012	
0.176308	1.30549	0.856004	
0.0921027	1.22053	0.879559	
0.193121	1.21116	0.891371	
-0.284603	1.13833	0.684978	
-0.218908	1.02882	0.620926	
-0.351178	0.986498	0.65	
-0.378892	1.09874	0.625908	
0.470916	0.831957	0.699874	
0.366244	0.831981	0.604187	
0.318292	0.91002	0.672643	
0.402785	0.956541	0.723347	
-0.238488	0.560542	0.575692	
-0.152694	0.523886	0.59754	
-0.152126	0.632735	0.5	
-0.115668	0.660224	0.648618	
0.242822	1.43708	0.652991	
0.317233	1.38648	0.590473	
0.316847	1.38679	0.698616	
0.197701	1.26759	0.618397	
-0.495012	1.07045	0.928155	
-0.385003	0.984343	0.895239	
-0.493438	1.08074	0.845784	
-0.366596	1.14153	0.904615	
0.386505	0.682803	0.931175	
0.287428	0.80533	0.842537	
0.380873	0.676062	0.847739	
0.248978	0.726366	0.903842	
0.301328	0.82727	1	
0.287428	0.80533	0.842537	
0.233424	0.783671	1	
0.248837	0.902557	0.889756	
0.287428	0.80533	0.842537	
0.216076	0.69962	0.805486	
0.380873	0.676062	0.847739	
0.248978	0.726366	0.903842	
0.3168	0.613169	0.604097	
0.290856	0.760973	0.624503	
0.166834	0.675675	0.635152	
0.253474	0.699951	0.70471	
0.064316	1.32334	0.5	
0.0956709	1.23097	0.5	
0.122935	1.34062	0.641539	
0.0261041	1.21709	0.59722	
0	0.75	0.5	
0.064316	0.676662	0.5	
0.075477	0.809328	0.60941	
-0.0421997	0.724204	0.59801	
0.11795	1.23142	0.740012	
0.0921027	1.22053	0.879559	
0.13567	1.10909	0.864428	
0.188892	1.15001	0.759985	
-0.0892911	0.866366	0.5	
-0.0840558	0.819296	0.633477	
-0.0369856	0.814061	0.5	
-0.105125	0.905315	0.589497	
0.23097	1.09567	0.5	
0.274113	1.18316	0.5	
0.176777	1.17678	0.5	
0.240959	1.14173	0.663655	
-0.345102	0.953927	1	
-0.31121	1.03591	1	
-0.249134	0.962669	1	
-0.385003	0.984343	0.895239	
0.476114	0.847306	0.59754	
0.493012	0.916698	0.655211	
0.38174	0.996023	0.618569	
0.366244	0.831981	0.604187	
0.235698	1.44096	0.568569	
0.122935	1.34062	0.641539	
0.232161	1.34745	0.5	
0.197701	1.26759	0.618397	
0.318292	0.91002	0.672643	
0.219433	0.887973	0.783321	
0.328874	0.804808	0.729739	
0.382077	0.87532	0.792977	
0.470916	1.16804	0.800126	
0.490343	1.0978	0.741226	
0.493012	1.0833	0.844789	
0.356074	1.09276	0.865831	
-0.00475677	1.13123	0.664793	
-0.00595418	1.2142	0.745645	
-0.0146393	1.2919	0.660146	
-0.106349	1.24066	0.613882	
0.152393	1.36791	0.5	
0.232161	1.34745	0.5	
0.235698	1.44096	0.568569	
0.122935	1.34062	0.641539	
-0.386498	0.682794	0.700322	
-0.32134	0.844606	0.681688	
-0.429146	0.74342	0.66876	
-0.297014	0.758037	0.771096	
-0.328139	1.06792	0.838021	
-0.355776	1.16297	0.774979	
-0.197777	1.1209	0.753033	
-0.307788	1.04281	0.733348	
-0.31121	1.03591	1	
-0.2429	1.12372	0.891069	
-0.328139	1.06792	0.838021	
-0.366596	1.14153	0.904615	
-0.0111034	1.32302	0.823352	
-0.0867584	1.36717	0.731965	
-0.0146393	1.2919	0.660146	
-0.00595418	1.2142	0.745645	
0.318292	0.91002	0.672643	
0.328874	0.804808	0.729739	
0.219433	0.887973	0.783321	
0.190918	0.90269	0.690758	
0.0309435	0.691773	0.673181	
0.075477	0.809328	0.60941	
0.064316	0.676662	0.5	
-0.0421997	0.724204	0.59801	
-0.183156	0.725887	0.5	
-0.18639	0.799846	0.604991	
-0.115668	0.660224	0.648618	
-0.0421997	0.724204	0.59801	
-0.296764	0.859492	1	
-0.376173	0.802719	1	
-0.308389	0.85948	0.835633	
-0.313556	0.75907	0.879554	
-0.0706186	0.688282	0.818117	
-0.0830296	0.764069	0.733505	
-0.0183257	0.793213	0.875792	
0.00376155	0.753357	0.785071	
0.470916	0.831957	0.699874	
0.318292	0.91002	0.672643	
0.328874	0.804808	0.729739	
0.382077	0.87532	0.792977	
0.348128	1.05074	0.719677	
0.262314	1.07918	0.800995	
0.240959	1.14173	0.663655	
0.286804	1.05056	0.632278	
-0.102765	0.975873	0.785694	
-0.0933205	1.08542	0.735608	
9.40847e-05	1.04509	0.800768	
-0.0365827	0.936141	0.729399	
-0.347453	0.767839	0.5	
-0.32134	0.844606	0.681688	
-0.274113	0.816844	0.5	
-0.377424	0.892421	0.60103	
-0.0444138	0.583252	1	
-0.0684459	0.504707	0.931403	
-0.125573	0.58604	1	
-0.142163	0.63573	0.89494	
0.374193	0.668368	0.665357	
0.4284	0.742176	0.704976	
0.415735	0.722215	0.634138	
0.328874	0.804808	0.729739	
-0.470668	0.831266	0.798219	
-0.434698	0.752943	0.749501	
-0.468495	0.825322	0.682891	
-0.32134	0.844606	0.681688	
-0.323338	1.06432	0.5	
-0.351178	0.986498	0.65	
-0.218908	1.02882	0.620926	
-0.378892	1.09874	0.625908	
0.091716	0.737167	0.833117	
0.0761281	0.822015	0.902396	
-0.0183257	0.793213	0.875792	
-0.0283413	0.698633	0.90895	
0.064316	0.676662	0.5	
0.166834	0.675675	0.635152	
0.0309435	0.691773	0.673181	
0.0872942	0.606698	0.613217	
-0.186081	0.888066	1	
-0.0902369	0.906851	1	
-0.121993	0.814118	1	
-0.143721	0.860033	0.841612	
0.318292	0.91002	0.672643	
0.215224	0.853148	0.609812	
0.290856	0.760973	0.624503	
0.328874	0.804808	0.729739	
0.091716	0.737167	0.833117	
0.114269	0.8976	0.845027	
0.105164	0.85062	0.744059	
0.0761281	0.822015	0.902396	
-0.121053	1.20203	0.750792	
-0.149856	1.07611	0.843427	
-0.14568	1.20044	0.877353	
-0.197777	1.1209	0.753033	
-0.183156	0.725887	0.5	
-0.0956709	0.76903	0.5	
-0.18639	0.799846	0.604991	
-0.0421997	0.724204	0.59801	
-0.331632	0.625807	0.665357	
-0.386498	0.682794	0.700322	
-0.328716	0.623243	0.753532	
-0.297014	0.758037	0.771096	
-0.168043	0.529084	0.699874	
-0.115668	0.660224	0.648618	
-0.217356	0.549715	0.644698	
-0.172711	0.659579	0.756944	
0.0807477	1.49344	0.654224	
0.122935	1.34062	0.641539	
0.168734	1.47067	0.701781	
0.0991769	1.35538	0.76662	
-0.104053	1.31415	1	
-0.182108	1.31839	1	
-0.119808	1.39485	1	
-0.0684719	1.38599	0.898819	
-0.00643767	0.847524	0.748532	
0.0539582	0.949081	0.757017	
0.114269	0.8976	0.845027	
0.105164	0.85062	0.744059	
-0.0833019	1.49301	0.655211	
0	1.5	0.7	
-0.0867584	1.36717	0.731965	
0.0232779	1.38849	0.611701	
0.470916	0.831957	0.699874	
0.328874	0.804808	0.729739	
0.318292	0.91002	0.672643	
0.366244	0.831981	0.604187	
-0.0833019	1.49301	0.655211	
-0.0867584	1.36717	0.731965	
-0.0927842	1.36919	0.612233	
0.0232779	1.38849	0.611701	
0.13567	1.10909	0.864428	
0.188892	1.15001	0.759985	
0.0921027	1.22053	0.879559	
0.193121	1.21116	0.891371	
0.0807477	0.506563	0.845776	
0.115192	0.637967	0.754396	
0.0321461	0.626308	0.873516	
0.160008	0.641459	0.892261	
-0.256028	1.42948	0.708421	
-0.276265	1.41675	0.637452	
-0.217299	1.45031	0.645888	
-0.180037	1.30947	0.668767	
-0.0956709	0.76903	0.5	
-0.0840558	0.819296	0.633477	
-0.18639	0.799846	0.604991	
-0.0421997	0.724204	0.59801	
0.102037	0.944747	1	
0.114269	0.8976	0.845027	
0.166518	0.870941	1	
0.0761281	0.822015	0.902396	
0.4284	1.25782	0.795024	
0.415735	1.27779	0.865862	
0.374193	1.33163	0.834643	
0.369343	1.17686	0.815886	
-0.238488	0.560542	0.575692	
-0.152126	0.632735	0.5	
-0.232161	0.652547	0.5	
-0.245183	0.701709	0.623779	
-0.494668	0.927177	0.573541	
-0.397525	1	0.5	
-0.5	1	0.6	
-0.377424	0.892421	0.60103	
0.460548	1.19467	0.73433	
0.469721	1.17135	0.661666	
0.490343	1.0978	0.741226	
0.348128	1.05074	0.719677	
0.428195	0.741835	0.798245	
0.287428	0.80533	0.842537	
0.36821	0.862229	0.899925	
0.382077	0.87532	0.792977	
0.287428	0.80533	0.842537	
0.219433	0.887973	0.783321	
0.330142	0.959051	0.83873	
0.382077	0.87532	0.792977	
0.318292	0.91002	0.672643	
0.38174	0.996023	0.618569	
0.214567	0.972198	0.625898	
0.286804	1.05056	0.632278	
0.409849	0.918476	0.5	
0.495101	0.930181	0.572379	
0.38174	0.996023	0.618569	
0.366244	0.831981	0.604187	
-0.0867584	1.36717	0.731965	
0.0232779	1.38849	0.611701	
0	1.5	0.7	
0.00695298	1.40388	0.759796	
0	1.25	0.5	
-0.064316	1.32334	0.5	
-0.0146393	1.2919	0.660146	
0.0232779	1.38849	0.611701	
-0.437078	0.757178	0.847009	
-0.434698	0.752943	0.749501	
-0.308389	0.85948	0.835633	
-0.297014	0.758037	0.771096	
0.12042	1.06036	0.636718	
0.0631871	0.946434	0.577068	
0.030532	1.00082	0.661954	
-0.0230921	1.05776	0.595963	
-0.23097	0.904329	0.5	
-0.193736	0.903788	0.633349	
-0.274113	0.816844	0.5	
-0.18639	0.799846	0.604991	
-0.274113	1.18316	0.5	
-0.23097	1.09567	0.5	
-0.176777	1.17678	0.5	
-0.147604	1.13485	0.630599	
-0.0979281	1.49032	0.75908	
-0.0811073	1.49338	0.853007	
-0.0867584	1.36717	0.731965	
0.00695298	1.40388	0.759796	
-0.284603	1.13833	0.684978	
-0.378892	1.09874	0.625908	
-0.351178	0.986498	0.65	
-0.307788	1.04281	0.733348	
9.40847e-05	1.04509	0.800768	
0.13567	1.10909	0.864428	
0.0831122	1.10495	0.740369	
0.0362445	1.10288	0.900124	
0.376757	0.671284	0.753532	
0.316847	0.613208	0.801384	
0.380873	0.676062	0.847739	
0.216076	0.69962	0.805486	
-0.0585581	0.999611	1	
-0.0551398	1.05013	0.899099	
-0.0207624	0.923302	0.863864	
-0.10341	0.960236	0.912939	
0.091716	0.737167	0.833117	
-0.000498869	0.611892	0.760268	
0.0321461	0.626308	0.873516	
0.00376155	0.753357	0.785071	
-0.0933205	1.08542	0.735608	
-0.124649	1.04531	0.594053	
-0.147604	1.13485	0.630599	
-0.0230921	1.05776	0.595963	
0.11795	1.23142	0.740012	
0.0831122	1.10495	0.740369	
0.125807	1.18828	0.618322	
0.188892	1.15001	0.759985	
-0.258315	1.4281	0.803104	
-0.324048	1.38078	0.849851	
-0.3284	1.37703	0.756783	
-0.271071	1.28122	0.731982	
-0.194345	0.772916	0.709268	
-0.193736	0.903788	0.633349	
-0.32134	0.844606	0.681688	
-0.221068	0.864025	0.764044	
0.0807477	1.49344	0.654224	
0.0991769	1.35538	0.76662	
0.0854243	1.49265	0.751403	
0.00695298	1.40388	0.759796	
-0.0258184	0.833057	1	
0.00587698	0.925804	1	
0.0703509	0.851998	1	
0.0761281	0.822015	0.902396	
0.0634445	0.898618	0.5	
0.075477	0.809328	0.60941	
0.103403	0.84471	0.5	
0.0631871	0.946434	0.577068	
-0.121053	1.20203	0.750792	
-0.197777	1.1209	0.753033	
-0.263764	1.21559	0.825362	
-0.206572	1.20934	0.689284	
0.322164	0.745112	1	
0.37256	0.810612	1	
0.436762	0.756609	0.903062	
0.36821	0.862229	0.899925	
-0.00643767	0.847524	0.748532	
0.101275	0.91604	0.653562	
0.0539582	0.949081	0.757017	
0.105164	0.85062	0.744059	
0.380873	0.676062	0.847739	
0.386505	0.682803	0.931175	
0.436762	0.756609	0.903062	
0.287428	0.80533	0.842537	
-0.180037	1.30947	0.668767	
-0.106349	1.24066	0.613882	
-0.183156	1.27411	0.5	
-0.0927842	1.36919	0.612233	
0.415735	0.722215	0.634138	
0.328874	0.804808	0.729739	
0.4284	0.742176	0.704976	
0.366244	0.831981	0.604187	
0.0634445	0.898618	0.5	
-0.0218546	0.89013	0.5	
0.0344957	0.828097	0.5	
-0.00979043	0.90873	0.615519	
-0.468473	1.17474	0.682816	
-0.492656	1.08538	0.748652	
-0.378892	1.09874	0.625908	
-0.355776	1.16297	0.774979	
-0.323338	1.06432	0.5	
-0.23097	1.09567	0.5	
-0.274113	1.18316	0.5	
-0.378892	1.09874	0.625908	
0.114269	0.8976	0.845027	
0.0803871	1.00814	0.885647	
0.215886	1.00836	0.878507	
0.107062	1.02445	0.792092	
-0.0902369	0.906851	1	
-0.143721	0.860033	0.841612	
-0.186081	0.888066	1	
-0.10341	0.960236	0.912939	
0.122935	1.34062	0.641539	
0.0232779	1.38849	0.611701	
0.064316	1.32334	0.5	
0.0261041	1.21709	0.59722	
-0.193736	0.903788	0.633349	
-0.0808186	0.989298	0.663479	
-0.105125	0.905315	0.589497	
-0.124649	1.04531	0.594053	
-0.0258184	0.833057	1	
-0.0902369	0.906851	1	
0.00587698	0.925804	1	
-0.0207624	0.923302	0.863864	
0.11795	1.23142	0.740012	
0.247079	1.26952	0.713352	
0.122935	1.34062	0.641539	
0.202645	1.34448	0.765823	
-0.218034	1.05414	1	
-0.249134	0.962669	1	
-0.31121	1.03591	1	
-0.208534	0.966027	0.877319	
0	1.5	0.8	
0.0814864	1.49332	0.847681	
0.0835299	1.37795	0.884613	
0.00695298	1.40388	0.759796	
0.228991	1.44448	0.908099	
0.122568	1.39751	1	
0.146853	1.47795	0.915992	
0.0835299	1.37795	0.884613	
0.176308	1.30549	0.856004	
0.278791	1.29194	0.808109	
0.247079	1.26952	0.713352	
0.202645	1.34448	0.765823	
0.25658	1.42915	0.83124	
0.262414	1.28412	0.908895	
0.176308	1.30549	0.856004	
0.278791	1.29194	0.808109	
-0.00643767	0.847524	0.748532	
-0.0840558	0.819296	0.633477	
-0.117533	0.874656	0.729651	
-0.0365827	0.936141	0.729399	
0.0854243	0.507351	0.748597	
0.115192	0.637967	0.754396	
0.0814864	0.506685	0.652319	
-0.000498869	0.611892	0.760268	
-0.0867584	1.36717	0.731965	
-0.0684719	1.38599	0.898819	
-0.0111034	1.32302	0.823352	
0.00695298	1.40388	0.759796	
0.287428	0.80533	0.842537	
0.175884	0.803375	0.889741	
0.233424	0.783671	1	
0.248837	0.902557	0.889756	
9.40847e-05	1.04509	0.800768	
0.0539582	0.949081	0.757017	
0.030532	1.00082	0.661954	
0.107062	1.02445	0.792092	
0.495101	0.930181	0.572379	
0.476114	0.847306	0.59754	
0.493012	0.916698	0.655211	
0.38174	0.996023	0.618569	
-0.00475677	1.13123	0.664793	
-0.106349	1.24066	0.613882	
-0.0146393	1.2919	0.660146	
0.0261041	1.21709	0.59722	
0.331919	1.15546	1	
0.337852	1.21393	0.901789	
0.356074	1.09276	0.865831	
0.230545	1.11436	0.899122	
9.40847e-05	1.04509	0.800768	
0.0803871	1.00814	0.885647	
-0.0207624	0.923302	0.863864	
0.0539582	0.949081	0.757017	
0.0831122	1.10495	0.740369	
0.030532	1.00082	0.661954	
0.12042	1.06036	0.636718	
0.107062	1.02445	0.792092	
0.00512645	1.18472	1	
-0.0202852	1.17994	0.855385	
0.0921027	1.22053	0.879559	
0.0362445	1.10288	0.900124	
0.322164	0.745112	1	
0.301328	0.82727	1	
0.37256	0.810612	1	
0.36821	0.862229	0.899925	
-0.182108	1.31839	1	
-0.159358	1.32099	0.830937	
-0.082655	1.28145	0.901959	
-0.254431	1.30452	0.892066	
0	0.5	0.8	
-0.0810399	0.506611	0.85285	
0.0321461	0.626308	0.873516	
-0.000498869	0.611892	0.760268	
-0.263764	1.21559	0.825362	
-0.271071	1.28122	0.731982	
-0.386405	1.31732	0.798513	
-0.254431	1.30452	0.892066	
0.330142	0.959051	0.83873	
0.215886	1.00836	0.878507	
0.356074	1.09276	0.865831	
0.262314	1.07918	0.800995	
0.166518	0.870941	1	
0.175884	0.803375	0.889741	
0.114269	0.8976	0.845027	
0.248837	0.902557	0.889756	
-0.332191	1.3737	0.665943	
-0.28145	1.24879	0.622796	
-0.180037	1.30947	0.668767	
-0.271071	1.28122	0.731982	
-0.257824	0.5716	0.704976	
-0.168043	0.529084	0.699874	
-0.217356	0.549715	0.644698	
-0.172711	0.659579	0.756944	
-0.167464	1.47112	0.699894	
-0.0867584	1.36717	0.731965	
-0.180037	1.30947	0.668767	
-0.0927842	1.36919	0.612233	
-0.153466	0.725651	1	
-0.206133	0.729722	0.836828	
-0.217395	0.789549	1	
-0.11576	0.747665	0.899003	
0.417242	0.878937	1	
0.421425	0.957658	1	
0.495293	0.931554	0.931403	
0.39915	0.990133	0.906414	
0.0376698	1.41981	1	
0.0835299	1.37795	0.884613	
-0.0261261	1.3467	1	
-0.0684719	1.38599	0.898819	
9.40847e-05	1.04509	0.800768	
-0.102765	0.975873	0.785694	
-0.149856	1.07611	0.843427	
-0.0933205	1.08542	0.735608	
0.493389	1.08104	0.64715	
0.490343	1.0978	0.741226	
0.469721	1.17135	0.661666	
0.348128	1.05074	0.719677	
-0.5	1	0.8	
-0.5	1	0.7	
-0.492656	1.08538	0.748652	
-0.371949	0.959293	0.777377	
-0.00979043	0.90873	0.615519	
0.101275	0.91604	0.653562	
0.030532	1.00082	0.661954	
-0.0365827	0.936141	0.729399	
0.344935	0.908506	1	
0.36821	0.862229	0.899925	
0.330142	0.959051	0.83873	
0.39915	0.990133	0.906414	
0.114269	0.8976	0.845027	
0.091716	0.737167	0.833117	
0.175884	0.803375	0.889741	
0.0761281	0.822015	0.902396	
0.235698	1.44096	0.568569	
0.232161	1.34745	0.5	
0.317233	1.38648	0.590473	
0.197701	1.26759	0.618397	
-0.0773947	0.947213	0.5	
0.0165433	0.957567	0.5	
-0.0427935	1.02817	0.5	
-0.00979043	0.90873	0.615519	
-0.151231	1.3651	0.5	
-0.180037	1.30947	0.668767	
-0.183156	1.27411	0.5	
-0.0927842	1.36919	0.612233	
0.0376698	1.41981	1	
-0.0411619	1.43035	1	
0	1.5	0.9	
-0.0684719	1.38599	0.898819	
-0.00475677	1.13123	0.664793	
-0.121053	1.20203	0.750792	
-0.0933205	1.08542	0.735608	
-0.00595418	1.2142	0.745645	
-0.0773947	0.947213	0.5	
-0.00979043	0.90873	0.615519	
-0.0427935	1.02817	0.5	
-0.0230921	1.05776	0.595963	
-0.218908	1.02882	0.620926	
-0.197777	1.1209	0.753033	
-0.284603	1.13833	0.684978	
-0.307788	1.04281	0.733348	
0	0.5	0.7	
-0.000498869	0.611892	0.760268	
0.0814864	0.506685	0.652319	
0.0872942	0.606698	0.613217	
-0.194667	0.539452	0.76567	
-0.171353	0.530279	0.838334	
-0.0977967	0.509657	0.758774	
-0.172711	0.659579	0.756944	
0.0634445	0.898618	0.5	
-0.00979043	0.90873	0.615519	
0.075477	0.809328	0.60941	
0.0631871	0.946434	0.577068	
0.378521	1.20232	1	
0.476114	1.15269	0.90246	
0.394936	1.1198	1	
0.337852	1.21393	0.901789	
-0.0808186	0.989298	0.663479	
-0.105125	0.905315	0.589497	
-0.00979043	0.90873	0.615519	
-0.0365827	0.936141	0.729399	
0.0956709	0.76903	0.5	
0	0.75	0.5	
0.064316	0.676662	0.5	
0.075477	0.809328	0.60941	
-0.429146	0.74342	0.66876	
-0.32134	0.844606	0.681688	
-0.434698	0.752943	0.749501	
-0.297014	0.758037	0.771096	
-0.121053	1.20203	0.750792	
-0.0933205	1.08542	0.735608	
-0.149856	1.07611	0.843427	
-0.197777	1.1209	0.753033	
0.141405	0.904892	0.5	
0.0634445	0.898618	0.5	
0.103403	0.84471	0.5	
0.0631871	0.946434	0.577068	
0.348128	1.05074	0.719677	
0.358556	1.12901	0.622438	
0.493389	1.08104	0.64715	
0.38174	0.996023	0.618569	
-0.193736	0.903788	0.633349	
-0.218908	1.02882	0.620926	
-0.0808186	0.989298	0.663479	
-0.124649	1.04531	0.594053	
-0.437035	1.2429	0.847369	
-0.386559	1.31713	0.911838	
-0.440961	1.2357	0.931396	
-0.366596	1.14153	0.904615	
-0.308389	0.85948	0.835633	
-0.371949	0.959293	0.777377	
-0.225256	0.972563	0.749303	
-0.221068	0.864025	0.764044	
0.470916	1.16804	0.800126	
0.460548	1.19467	0.73433	
0.490343	1.0978	0.741226	
0.369343	1.17686	0.815886	
-0.386559	1.31713	0.911838	
-0.263764	1.21559	0.825362	
-0.386405	1.31732	0.798513	
-0.254431	1.30452	0.892066	
0.493389	1.08104	0.64715	
0.358556	1.12901	0.622438	
0.495293	1.06845	0.568597	
0.38174	0.996023	0.618569	
0.174678	0.531505	0.682891	
0.25658	0.570854	0.66876	
0.166834	0.675675	0.635152	
0.115192	0.637967	0.754396	
0.476114	1.15269	0.90246	
0.356074	1.09276	0.865831	
0.394936	1.1198	1	
0.337852	1.21393	0.901789	
0.100521	1.20361	1	
0.16533	1.13018	1	
0.0921027	1.22053	0.879559	
0.193121	1.21116	0.891371	
-0.0808186	0.989298	0.663479	
-0.124649	1.04531	0.594053	
-0.0933205	1.08542	0.735608	
-0.0230921	1.05776	0.595963	
0.101275	0.91604	0.653562	
0.0539582	0.949081	0.757017	
0.105164	0.85062	0.744059	
0.190918	0.90269	0.690758	
-0.225256	0.972563	0.749303	
-0.351178	0.986498	0.65	
-0.371949	0.959293	0.777377	
-0.307788	1.04281	0.733348	
0.330142	0.959051	0.83873	
0.36821	0.862229	0.899925	
0.344935	0.908506	1	
0.248837	0.902557	0.889756	
0.228991	1.44448	0.908099	
0.174678	1.4685	0.817109	
0.176308	1.30549	0.856004	
0.0835299	1.37795	0.884613	
-0.493438	1.08074	0.845784	
-0.492656	1.08538	0.748652	
-0.47067	1.16873	0.798201	
-0.355776	1.16297	0.774979	
-0.386559	1.31713	0.911838	
-0.437035	1.2429	0.847369	
-0.386405	1.31732	0.798513	
-0.263764	1.21559	0.825362	
-0.0207624	0.923302	0.863864	
0.0803871	1.00814	0.885647	
0.114269	0.8976	0.845027	
0.0539582	0.949081	0.757017	
0.330142	0.959051	0.83873	
0.356074	1.09276	0.865831	
0.348128	1.05074	0.719677	
0.262314	1.07918	0.800995	
9.40847e-05	1.04509	0.800768	
0.030532	1.00082	0.661954	
0.0831122	1.10495	0.740369	
0.107062	1.02445	0.792092	
-0.296764	0.859492	1	
-0.208534	0.966027	0.877319	
-0.249134	0.962669	1	
-0.228331	0.826788	0.903124	
-0.0207624	0.923302	0.863864	
0.0803871	1.00814	0.885647	
9.40847e-05	1.04509	0.800768	
-0.0551398	1.05013	0.899099	
-0.437035	1.2429	0.847369	
-0.355776	1.16297	0.774979	
-0.263764	1.21559	0.825362	
-0.366596	1.14153	0.904615	
0.174678	0.531505	0.682891	
0.247057	0.565302	0.749501	
0.25658	0.570854	0.66876	
0.115192	0.637967	0.754396	
0.12042	1.06036	0.636718	
0.125807	1.18828	0.618322	
-0.00475677	1.13123	0.664793	
0.0831122	1.10495	0.740369	
-0.0892911	0.866366	0.5	
-0.18639	0.799846	0.604991	
-0.0840558	0.819296	0.633477	
-0.105125	0.905315	0.589497	
0.470916	0.831957	0.699874	
0.318292	0.91002	0.672643	
0.382077	0.87532	0.792977	
0.402785	0.956541	0.723347	
-0.00643767	0.847524	0.748532	
-0.0840558	0.819296	0.633477	
-0.00979043	0.90873	0.615519	
0.0014459	0.786307	0.671061	
-0.256028	1.42948	0.708421	
-0.332191	1.3737	0.665943	
-0.180037	1.30947	0.668767	
-0.271071	1.28122	0.731982	
0.115192	0.637967	0.754396	
-0.000498869	0.611892	0.760268	
0.091716	0.737167	0.833117	
0.00376155	0.753357	0.785071	
-0.194345	0.772916	0.709268	
-0.297014	0.758037	0.771096	
-0.206133	0.729722	0.836828	
-0.221068	0.864025	0.764044	
-0.0392044	1.16291	0.5	
0.0261041	1.21709	0.59722	
-0.00475677	1.13123	0.664793	
-0.0230921	1.05776	0.595963	
-0.171627	1.46962	0.839884	
-0.159358	1.32099	0.830937	
-0.19416	1.46076	0.765941	
-0.0867584	1.36717	0.731965	
-0.183156	1.27411	0.5	
-0.180037	1.30947	0.668767	
-0.232161	1.34745	0.5	
-0.28145	1.24879	0.622796	
0.0539582	0.949081	0.757017	
0.030532	1.00082	0.661954	
0.101275	0.91604	0.653562	
-0.0365827	0.936141	0.729399	
-0.0808186	0.989298	0.663479	
-0.0933205	1.08542	0.735608	
-0.102765	0.975873	0.785694	
-0.0365827	0.936141	0.729399	
0.19355	1.00275	0.74991	
0.215886	1.00836	0.878507	
0.13567	1.10909	0.864428	
0.107062	1.02445	0.792092	
0.278087	0.721913	0.5	
0.290856	0.760973	0.624503	
0.183156	0.725887	0.5	
0.166834	0.675675	0.635152	
-0.40408	1.03727	1	
-0.385003	0.984343	0.895239	
-0.495012	1.07045	0.928155	
-0.366596	1.14153	0.904615	
0.114269	0.8976	0.845027	
0.219433	0.887973	0.783321	
0.215886	1.00836	0.878507	
0.248837	0.902557	0.889756	
0.287378	0.983941	1	
0.360576	0.998064	1	
0.344935	0.908506	1	
0.39915	0.990133	0.906414	
0.287428	0.80533	0.842537	
0.328874	0.804808	0.729739	
0.219433	0.887973	0.783321	
0.382077	0.87532	0.792977	
-0.437078	0.757178	0.847009	
-0.434698	0.752943	0.749501	
-0.470668	0.831266	0.798219	
-0.308389	0.85948	0.835633	
0.378521	1.20232	1	
0.439458	1.23849	0.924308	
0.476114	1.15269	0.90246	
0.337852	1.21393	0.901789	
-0.0808186	0.989298	0.663479	
-0.117533	0.874656	0.729651	
-0.105125	0.905315	0.589497	
-0.0365827	0.936141	0.729399	
0.19355	1.00275	0.74991	
0.13567	1.10909	0.864428	
0.215886	1.00836	0.878507	
0.262314	1.07918	0.800995	
0.0376698	1.41981	1	
0.0645888	1.34627	1	
-0.0261261	1.3467	1	
0.0835299	1.37795	0.884613	
0.23097	1.09567	0.5	
0.323338	1.06432	0.5	
0.358556	1.12901	0.622438	
0.286804	1.05056	0.632278	
-0.122575	1.07331	1	
-0.218034	1.05414	1	
-0.185909	1.14844	1	
-0.2429	1.12372	0.891069	
0.247057	0.565302	0.749501	
0.115192	0.637967	0.754396	
0.216076	0.69962	0.805486	
0.253474	0.699951	0.70471	
0	0.5	0.7	
-0.0201375	0.611237	0.611421	
-0.000498869	0.611892	0.760268	
0.0872942	0.606698	0.613217	
9.40847e-05	1.04509	0.800768	
-0.149856	1.07611	0.843427	
-0.102765	0.975873	0.785694	
-0.0551398	1.05013	0.899099	
-0.143721	0.860033	0.841612	
-0.11576	0.747665	0.899003	
-0.121993	0.814118	1	
-0.228331	0.826788	0.903124	
-0.250247	1.23307	1	
-0.149858	1.24003	1	
-0.14568	1.20044	0.877353	
-0.254431	1.30452	0.892066	
0.174678	1.4685	0.817109	
0.0991769	1.35538	0.76662	
0.176308	1.30549	0.856004	
0.0835299	1.37795	0.884613	
-0.183156	0.725887	0.5	
-0.245183	0.701709	0.623779	
-0.115668	0.660224	0.648618	
-0.18639	0.799846	0.604991	
0.197542	0.7915	0.711395	
0.105164	0.85062	0.744059	
0.075477	0.809328	0.60941	
0.103438	0.745916	0.728223	
-0.114443	1.01484	0.5	
-0.105125	0.905315	0.589497	
-0.0773947	0.947213	0.5	
-0.124649	1.04531	0.594053	
-0.0111034	1.32302	0.823352	
-0.0867584	1.36717	0.731965	
-0.159358	1.32099	0.830937	
-0.0684719	1.38599	0.898819	
0.233424	0.783671	1	
0.287428	0.80533	0.842537	
0.301328	0.82727	1	
0.248978	0.726366	0.903842	
0.000305103	1.09462	0.5	
0.028723	1.17517	0.5	
-0.0392044	1.16291	0.5	
0.0261041	1.21709	0.59722	
0.333887	1.18738	0.72436	
0.369343	1.17686	0.815886	
0.4284	1.25782	0.795024	
0.278791	1.29194	0.808109	
0.428195	0.741835	0.798245	
0.287428	0.80533	0.842537	
0.436762	0.756609	0.903062	
0.36821	0.862229	0.899925	
-0.263764	1.21559	0.825362	
-0.197777	1.1209	0.753033	
-0.14568	1.20044	0.877353	
-0.2429	1.12372	0.891069	
-0.121053	1.20203	0.750792	
-0.180037	1.30947	0.668767	
-0.106349	1.24066	0.613882	
-0.206572	1.20934	0.689284	
-0.0183257	0.793213	0.875792	
0.0761281	0.822015	0.902396	
0.0383625	0.760787	1	
-0.0283413	0.698633	0.90895	
-0.0444138	0.583252	1	
0.0374329	0.572928	1	
0	0.5	0.9	
0.0321461	0.626308	0.873516	
0.197542	0.7915	0.711395	
0.219433	0.887973	0.783321	
0.287428	0.80533	0.842537	
0.328874	0.804808	0.729739	
-0.00475677	1.13123	0.664793	
-0.0933205	1.08542	0.735608	
-0.147604	1.13485	0.630599	
-0.0230921	1.05776	0.595963	
-0.197777	1.1209	0.753033	
-0.355776	1.16297	0.774979	
-0.284603	1.13833	0.684978	
-0.307788	1.04281	0.733348	
-0.194345	0.772916	0.709268	
-0.143721	0.860033	0.841612	
-0.117533	0.874656	0.729651	
-0.221068	0.864025	0.764044	
9.40847e-05	1.04509	0.800768	
0.0539582	0.949081	0.757017	
-0.0207624	0.923302	0.863864	
-0.0365827	0.936141	0.729399	
-0.14568	1.20044	0.877353	
-0.197777	1.1209	0.753033	
-0.149856	1.07611	0.843427	
-0.2429	1.12372	0.891069	
0.318292	0.91002	0.672643	
0.330142	0.959051	0.83873	
0.382077	0.87532	0.792977	
0.402785	0.956541	0.723347	
0.348128	1.05074	0.719677	
0.333887	1.18738	0.72436	
0.240959	1.14173	0.663655	
0.262314	1.07918	0.800995	
0.11795	1.23142	0.740012	
0.13567	1.10909	0.864428	
0.0831122	1.10495	0.740369	
0.188892	1.15001	0.759985	
0.316847	0.613208	0.801384	
0.216076	0.69962	0.805486	
0.376757	0.671284	0.753532	
0.253474	0.699951	0.70471	
-0.194345	0.772916	0.709268	
-0.117533	0.874656	0.729651	
-0.0840558	0.819296	0.633477	
-0.18639	0.799846	0.604991	
-0.0840558	0.819296	0.633477	
-0.0830296	0.764069	0.733505	
-0.115668	0.660224	0.648618	
-0.0421997	0.724204	0.59801	
0.232161	1.34745	0.5	
0.122935	1.34062	0.641539	
0.152393	1.36791	0.5	
0.197701	1.26759	0.618397	
0.176777	1.17678	0.5	
0.125807	1.18828	0.618322	
0.157632	1.10533	0.5	
0.201501	1.05838	0.584156	
-0.250247	1.23307	1	
-0.2429	1.12372	0.891069	
-0.279278	1.1257	1	
-0.366596	1.14153	0.904615	
-0.284603	1.13833	0.684978	
-0.218908	1.02882	0.620926	
-0.147604	1.13485	0.630599	
-0.197777	1.1209	0.753033	
0	1.5	0.8	
-0.0684719	1.38599	0.898819	
-0.0811073	1.49338	0.853007	
0.00695298	1.40388	0.759796	
-0.225256	0.972563	0.749303	
-0.218908	1.02882	0.620926	
-0.351178	0.986498	0.65	
-0.307788	1.04281	0.733348	
0.330142	0.959051	0.83873	
0.219433	0.887973	0.783321	
0.287428	0.80533	0.842537	
0.248837	0.902557	0.889756	
0.19355	1.00275	0.74991	
0.13567	1.10909	0.864428	
0.188892	1.15001	0.759985	
0.107062	1.02445	0.792092	
-0.0840558	0.819296	0.633477	
-0.117533	0.874656	0.729651	
-0.193736	0.903788	0.633349	
-0.18639	0.799846	0.604991	
0.183156	1.27411	0.5	
0.122935	1.34062	0.641539	
0.0956709	1.23097	0.5	
0.197701	1.26759	0.618397	
-0.278183	0.659732	1	
-0.317197	0.613495	0.931175	
-0.313556	0.75907	0.879554	
-0.231903	0.663623	0.918546	
0.19355	1.00275	0.74991	
0.13567	1.10909	0.864428	
0.262314	1.07918	0.800995	
0.188892	1.15001	0.759985	
0.168734	0.529332	0.798219	
0.115192	0.637967	0.754396	
0.0807477	0.506563	0.845776	
0.160008	0.641459	0.892261	
0.163502	1.02984	0.5	
0.0691997	1.04586	0.5	
0.106675	0.966314	0.5	
0.12042	1.06036	0.636718	
0.0868435	1.13736	0.5	
0.12042	1.06036	0.636718	
0.157632	1.10533	0.5	
0.125807	1.18828	0.618322	
-0.258165	0.571805	0.798245	
-0.206133	0.729722	0.836828	
-0.323938	0.619127	0.847739	
-0.231903	0.663623	0.918546	
0.122935	1.34062	0.641539	
0.247079	1.26952	0.713352	
0.11795	1.23142	0.740012	
0.197701	1.26759	0.618397	
-0.206133	0.729722	0.836828	
-0.221068	0.864025	0.764044	
-0.297014	0.758037	0.771096	
-0.228331	0.826788	0.903124	
0	1.25	0.5	
-0.0146393	1.2919	0.660146	
-0.064316	1.32334	0.5	
-0.106349	1.24066	0.613882	
-0.176777	1.17678	0.5	
-0.147604	1.13485	0.630599	
-0.107214	1.16612	0.5	
-0.106349	1.24066	0.613882	
0.166834	0.675675	0.635152	
0.075477	0.809328	0.60941	
0.0309435	0.691773	0.673181	
0.103438	0.745916	0.728223	
-0.0585581	0.999611	1	
-0.0207624	0.923302	0.863864	
0.00587698	0.925804	1	
-0.10341	0.960236	0.912939	
0.242822	1.43708	0.652991	
0.247079	1.26952	0.713352	
0.316847	1.38679	0.698616	
0.202645	1.34448	0.765823	
0.376757	1.32872	0.746468	
0.333887	1.18738	0.72436	
0.4284	1.25782	0.795024	
0.278791	1.29194	0.808109	
0.106675	0.966314	0.5	
0.12042	1.06036	0.636718	
0.0691997	1.04586	0.5	
0.0631871	0.946434	0.577068	
0.302677	1.24769	1	
0.262414	1.28412	0.908895	
0.337852	1.21393	0.901789	
0.193121	1.21116	0.891371	
9.40847e-05	1.04509	0.800768	
-0.102765	0.975873	0.785694	
-0.0207624	0.923302	0.863864	
-0.0551398	1.05013	0.899099	
-0.263764	1.21559	0.825362	
-0.284603	1.13833	0.684978	
-0.271071	1.28122	0.731982	
-0.206572	1.20934	0.689284	
0.215886	1.00836	0.878507	
0.219433	0.887973	0.783321	
0.330142	0.959051	0.83873	
0.248837	0.902557	0.889756	
0.417242	0.878937	1	
0.495293	0.931554	0.931403	
0.36821	0.862229	0.899925	
0.39915	0.990133	0.906414	
-0.493315	0.918514	0.652319	
-0.5	1	0.6	
-0.5	1	0.7	
-0.351178	0.986498	0.65	
-0.143721	0.860033	0.841612	
-0.102765	0.975873	0.785694	
-0.225256	0.972563	0.749303	
-0.208534	0.966027	0.877319	
0.206639	0.624902	1	
0.317233	0.613524	0.909527	
0.235698	0.559039	0.931431	
0.160008	0.641459	0.892261	
0.102037	0.944747	1	
0.166518	0.870941	1	
0.0703509	0.851998	1	
0.0761281	0.822015	0.902396	
-0.217395	0.789549	1	
-0.11576	0.747665	0.899003	
-0.206133	0.729722	0.836828	
-0.228331	0.826788	0.903124	
-0.386498	0.682794	0.700322	
-0.429146	0.74342	0.66876	
-0.434698	0.752943	0.749501	
-0.297014	0.758037	0.771096	
0.240959	1.14173	0.663655	
0.302151	1.24532	0.611118	
0.274113	1.18316	0.5	
0.197701	1.26759	0.618397	
0.422937	1.04242	1	
0.394936	1.1198	1	
0.495101	1.06982	0.927621	
0.356074	1.09276	0.865831	
0.333887	1.18738	0.72436	
0.262314	1.07918	0.800995	
0.348128	1.05074	0.719677	
0.369343	1.17686	0.815886	
-0.238625	1.43938	0.576642	
-0.152637	1.47613	0.597671	
-0.217299	1.45031	0.645888	
-0.0927842	1.36919	0.612233	
-0.40408	1.03727	1	
-0.348481	1.09787	1	
-0.385003	0.984343	0.895239	
-0.366596	1.14153	0.904615	
0.356074	1.09276	0.865831	
0.348128	1.05074	0.719677	
0.262314	1.07918	0.800995	
0.369343	1.17686	0.815886	
-0.0369856	0.814061	0.5	
-0.0892911	0.866366	0.5	
-0.0956709	0.76903	0.5	
-0.0840558	0.819296	0.633477	
0.0165433	0.957567	0.5	
-0.0427935	1.02817	0.5	
-0.00979043	0.90873	0.615519	
-0.0230921	1.05776	0.595963	
-0.0915272	0.659988	1	
-0.0444138	0.583252	1	
-0.142163	0.63573	0.89494	
-0.0283413	0.698633	0.90895	
-0.281585	0.718415	0.5	
-0.274113	0.816844	0.5	
-0.347453	0.767839	0.5	
-0.245183	0.701709	0.623779	
0	1.5	0.9	
-0.0811073	1.49338	0.853007	
0	1.5	0.8	
-0.0684719	1.38599	0.898819	
0.12042	1.06036	0.636718	
0.0691997	1.04586	0.5	
0.0631871	0.946434	0.577068	
-0.0230921	1.05776	0.595963	
-0.232161	1.34745	0.5	
-0.183156	1.27411	0.5	
-0.151231	1.3651	0.5	
-0.180037	1.30947	0.668767	
0.19355	1.00275	0.74991	
0.0831122	1.10495	0.740369	
0.12042	1.06036	0.636718	
0.107062	1.02445	0.792092	
-0.257824	0.5716	0.704976	
-0.277785	0.584265	0.634138	
-0.331632	0.625807	0.665357	
-0.245183	0.701709	0.623779	
0.134677	1.30158	1	
0.0921027	1.22053	0.879559	
0.176308	1.30549	0.856004	
0.193121	1.21116	0.891371	
0.323338	0.935684	0.5	
0.38174	0.996023	0.618569	
0.318292	0.91002	0.672643	
0.366244	0.831981	0.604187	
0.0321461	0.626308	0.873516	
0.115192	0.637967	0.754396	
0.0807477	0.506563	0.845776	
-0.000498869	0.611892	0.760268	
-0.324048	1.38078	0.849851	
-0.386405	1.31732	0.798513	
-0.271071	1.28122	0.731982	
-0.254431	1.30452	0.892066	
-0.117202	1.0938	0.5	
-0.147604	1.13485	0.630599	
-0.124649	1.04531	0.594053	
-0.0230921	1.05776	0.595963	
0.301328	0.82727	1	
0.36821	0.862229	0.899925	
0.287428	0.80533	0.842537	
0.248837	0.902557	0.889756	
-0.143721	0.860033	0.841612	
-0.225256	0.972563	0.749303	
-0.102765	0.975873	0.785694	
-0.221068	0.864025	0.764044	
0.374193	0.668368	0.665357	
0.328874	0.804808	0.729739	
0.290856	0.760973	0.624503	
0.253474	0.699951	0.70471	
-0.194345	0.772916	0.709268	
-0.193736	0.903788	0.633349	
-0.117533	0.874656	0.729651	
-0.18639	0.799846	0.604991	
0.317233	0.613524	0.909527	
0.160008	0.641459	0.892261	
0.206639	0.624902	1	
0.248978	0.726366	0.903842	
-0.206133	0.729722	0.836828	
-0.143721	0.860033	0.841612	
-0.221068	0.864025	0.764044	
-0.228331	0.826788	0.903124	
-0.153466	0.725651	1	
-0.206133	0.729722	0.836828	
-0.11576	0.747665	0.899003	
-0.231903	0.663623	0.918546	
0.428195	0.741835	0.798245	
0.328874	0.804808	0.729739	
0.287428	0.80533	0.842537	
0.382077	0.87532	0.792977	
-0.0146393	1.2919	0.660146	
-0.106349	1.24066	0.613882	
-0.180037	1.30947	0.668767	
-0.0927842	1.36919	0.612233	
0.394936	1.1198	1	
0.356074	1.09276	0.865831	
0.331919	1.15546	1	
0.337852	1.21393	0.901789	
-0.115668	0.660224	0.648618	
-0.245183	0.701709	0.623779	
-0.194345	0.772916	0.709268	
-0.18639	0.799846	0.604991	
0.0165433	0.957567	0.5	
-0.00979043	0.90873	0.615519	
0.0631871	0.946434	0.577068	
-0.0230921	1.05776	0.595963	
-0.0111034	1.32302	0.823352	
-0.0146393	1.2919	0.660146	
-0.0867584	1.36717	0.731965	
0.00695298	1.40388	0.759796	
0.233424	0.783671	1	
0.175884	0.803375	0.889741	
0.287428	0.80533	0.842537	
0.248978	0.726366	0.903842	
0.153328	1.47591	0.59237	
0.152393	1.36791	0.5	
0.235698	1.44096	0.568569	
0.122935	1.34062	0.641539	
0.201148	1.36807	1	
0.214716	1.29378	1	
0.176308	1.30549	0.856004	
0.262414	1.28412	0.908895	
0.0854243	1.49265	0.751403	
0.0807477	1.49344	0.654224	
0.168734	1.47067	0.701781	
0.0991769	1.35538	0.76662	
0.175091	0.697234	1	
0.160008	0.641459	0.892261	
0.175884	0.803375	0.889741	
0.248978	0.726366	0.903842	
0.197542	0.7915	0.711395	
0.166834	0.675675	0.635152	
0.290856	0.760973	0.624503	
0.253474	0.699951	0.70471	
0.216076	0.69962	0.805486	
0.175884	0.803375	0.889741	
0.091716	0.737167	0.833117	
0.160008	0.641459	0.892261	
0.240959	1.14173	0.663655	
0.262314	1.07918	0.800995	
0.333887	1.18738	0.72436	
0.188892	1.15001	0.759985	
-0.194345	0.772916	0.709268	
-0.172711	0.659579	0.756944	
-0.206133	0.729722	0.836828	
-0.297014	0.758037	0.771096	
0.166518	0.870941	1	
0.114269	0.8976	0.845027	
0.175884	0.803375	0.889741	
0.0761281	0.822015	0.902396	
-0.180037	1.30947	0.668767	
-0.0867584	1.36717	0.731965	
-0.0146393	1.2919	0.660146	
-0.0927842	1.36919	0.612233	
-0.263764	1.21559	0.825362	
-0.197777	1.1209	0.753033	
-0.284603	1.13833	0.684978	
-0.206572	1.20934	0.689284	
-0.114443	1.01484	0.5	
-0.157632	0.968645	0.5	
-0.105125	0.905315	0.589497	
-0.124649	1.04531	0.594053	
-0.256028	1.42948	0.708421	
-0.258315	1.4281	0.803104	
-0.3284	1.37703	0.756783	
-0.271071	1.28122	0.731982	
0.00512645	1.18472	1	
0.0921027	1.22053	0.879559	
0.100521	1.20361	1	
0.0362445	1.10288	0.900124	
0.091716	0.737167	0.833117	
0.115192	0.637967	0.754396	
0.0321461	0.626308	0.873516	
-0.000498869	0.611892	0.760268	
-0.386831	0.6832	0.604097	
-0.281585	0.718415	0.5	
-0.347453	0.767839	0.5	
-0.245183	0.701709	0.623779	
-0.386405	1.31732	0.798513	
-0.271071	1.28122	0.731982	
-0.263764	1.21559	0.825362	
-0.355776	1.16297	0.774979	
0.422937	1.04242	1	
0.356074	1.09276	0.865831	
0.495101	1.06982	0.927621	
0.39915	0.990133	0.906414	
-0.5	1	0.6	
-0.351178	0.986498	0.65	
-0.493315	0.918514	0.652319	
-0.377424	0.892421	0.60103	
0.226913	1.05511	1	
0.215886	1.00836	0.878507	
0.13371	1.03748	1	
0.230545	1.11436	0.899122	
-0.183156	0.725887	0.5	
-0.152126	0.632735	0.5	
-0.115668	0.660224	0.648618	
-0.245183	0.701709	0.623779	
9.40847e-05	1.04509	0.800768	
-0.0207624	0.923302	0.863864	
-0.102765	0.975873	0.785694	
-0.0365827	0.936141	0.729399	
-0.107214	1.16612	0.5	
-0.0392044	1.16291	0.5	
-0.0956709	1.23097	0.5	
-0.106349	1.24066	0.613882	
0.11795	1.23142	0.740012	
0.122935	1.34062	0.641539	
0.0991769	1.35538	0.76662	
0.202645	1.34448	0.765823	
-0.427161	0.957142	1	
-0.396617	0.880856	1	
-0.495012	0.929552	0.928155	
-0.385003	0.984343	0.895239	
0.415735	0.722215	0.634138	
0.388274	0.684971	0.579193	
0.290856	0.760973	0.624503	
0.366244	0.831981	0.604187	
0.331919	1.15546	1	
0.356074	1.09276	0.865831	
0.326547	1.07249	1	
0.230545	1.11436	0.899122	
0	0.5	0.9	
0	0.5	0.8	
-0.0810399	0.506611	0.85285	
0.0321461	0.626308	0.873516	
-0.0773947	0.947213	0.5	
-0.0427935	1.02817	0.5	
-0.114443	1.01484	0.5	
-0.124649	1.04531	0.594053	
-0.159358	1.32099	0.830937	
-0.271071	1.28122	0.731982	
-0.263764	1.21559	0.825362	
-0.254431	1.30452	0.892066	
0.5	1	0.7	
0.348128	1.05074	0.719677	
0.493389	1.08104	0.64715	
0.38174	0.996023	0.618569	
-0.31121	1.03591	1	
-0.348481	1.09787	1	
-0.279278	1.1257	1	
-0.2429	1.12372	0.891069	
0.091716	0.737167	0.833117	
0.00376155	0.753357	0.785071	
-0.0183257	0.793213	0.875792	
0.0761281	0.822015	0.902396	
0.174678	1.4685	0.817109	
0.176308	1.30549	0.856004	
0.0991769	1.35538	0.76662	
0.202645	1.34448	0.765823	
9.40847e-05	1.04509	0.800768	
0.030532	1.00082	0.661954	
0.0539582	0.949081	0.757017	
-0.0365827	0.936141	0.729399	
-0.284603	1.13833	0.684978	
-0.355776	1.16297	0.774979	
-0.378892	1.09874	0.625908	
-0.307788	1.04281	0.733348	
0.19355	1.00275	0.74991	
0.188892	1.15001	0.759985	
0.0831122	1.10495	0.740369	
0.107062	1.02445	0.792092	
-0.186081	0.888066	1	
-0.143721	0.860033	0.841612	
-0.121993	0.814118	1	
-0.228331	0.826788	0.903124	
-0.0369856	0.814061	0.5	
-0.0840558	0.819296	0.633477	
-0.0956709	0.76903	0.5	
-0.0421997	0.724204	0.59801	
0.380873	1.32394	0.652261	
0.376757	1.32872	0.746468	
0.247079	1.26952	0.713352	
0.333887	1.18738	0.72436	
0.274113	0.816844	0.5	
0.323338	0.935684	0.5	
0.215224	0.853148	0.609812	
0.366244	0.831981	0.604187	
0.428195	1.25817	0.701755	
0.436762	1.24339	0.596938	
0.358556	1.12901	0.622438	
0.333887	1.18738	0.72436	
0.376757	0.671284	0.753532	
0.328874	0.804808	0.729739	
0.374193	0.668368	0.665357	
0.253474	0.699951	0.70471	
-0.396617	0.880856	1	
-0.47591	0.846672	0.90763	
-0.495012	0.929552	0.928155	
-0.385003	0.984343	0.895239	
0.157632	1.10533	0.5	
0.125807	1.18828	0.618322	
0.12042	1.06036	0.636718	
0.201501	1.05838	0.584156	
-0.31121	1.03591	1	
-0.40408	1.03727	1	
-0.348481	1.09787	1	
-0.385003	0.984343	0.895239	
-0.0146393	1.2919	0.660146	
0.0232779	1.38849	0.611701	
-0.0867584	1.36717	0.731965	
0.00695298	1.40388	0.759796	
0.12042	1.06036	0.636718	
0.125807	1.18828	0.618322	
0.240959	1.14173	0.663655	
0.201501	1.05838	0.584156	
0.290856	0.760973	0.624503	
0.215224	0.853148	0.609812	
0.318292	0.91002	0.672643	
0.366244	0.831981	0.604187	
-0.143721	0.860033	0.841612	
-0.208534	0.966027	0.877319	
-0.186081	0.888066	1	
-0.10341	0.960236	0.912939	
-0.176777	0.823223	0.5	
-0.18639	0.799846	0.604991	
-0.0892911	0.866366	0.5	
-0.105125	0.905315	0.589497	
-0.363339	1.1505	0.5	
-0.323338	1.06432	0.5	
-0.274113	1.18316	0.5	
-0.378892	1.09874	0.625908	
0.216076	0.69962	0.805486	
0.253474	0.699951	0.70471	
0.115192	0.637967	0.754396	
0.103438	0.745916	0.728223	
0	1.25	0.5	
-0.106349	1.24066	0.613882	
-0.0956709	1.23097	0.5	
0.0261041	1.21709	0.59722	
0.317233	0.613524	0.909527	
0.206639	0.624902	1	
0.261819	0.680973	1	
0.248978	0.726366	0.903842	
0.228991	1.44448	0.908099	
0.174678	1.4685	0.817109	
0.25658	1.42915	0.83124	
0.176308	1.30549	0.856004	
-0.143721	0.860033	0.841612	
-0.102765	0.975873	0.785694	
-0.117533	0.874656	0.729651	
-0.221068	0.864025	0.764044	
-0.470668	0.831266	0.798219	
-0.47591	0.846672	0.90763	
-0.437078	0.757178	0.847009	
-0.308389	0.85948	0.835633	
-0.0833019	0.506988	0.655211	
-0.000498869	0.611892	0.760268	
0	0.5	0.7	
-0.0201375	0.611237	0.611421	
0.0634445	0.898618	0.5	
0.0344957	0.828097	0.5	
0.103403	0.84471	0.5	
0.075477	0.809328	0.60941	
0.176777	0.823223	0.5	
0.103403	0.84471	0.5	
0.0956709	0.76903	0.5	
0.075477	0.809328	0.60941	
-0.0773947	0.947213	0.5	
-0.0427935	1.02817	0.5	
-0.124649	1.04531	0.594053	
-0.0230921	1.05776	0.595963	
-0.149856	1.07611	0.843427	
-0.225256	0.972563	0.749303	
-0.102765	0.975873	0.785694	
-0.208534	0.966027	0.877319	
0.13567	1.10909	0.864428	
0.16533	1.13018	1	
0.230545	1.11436	0.899122	
0.193121	1.21116	0.891371	
-0.225256	0.972563	0.749303	
-0.208534	0.966027	0.877319	
-0.308389	0.85948	0.835633	
-0.221068	0.864025	0.764044	
-0.0808186	0.989298	0.663479	
-0.117533	0.874656	0.729651	
-0.193736	0.903788	0.633349	
-0.105125	0.905315	0.589497	
0.122935	1.34062	0.641539	
0.11795	1.23142	0.740012	
0.125807	1.18828	0.618322	
0.197701	1.26759	0.618397	
-0.0956709	1.23097	0.5	
-0.106349	1.24066	0.613882	
-0.0392044	1.16291	0.5	
0.0261041	1.21709	0.59722	
-0.185909	1.14844	1	
-0.250247	1.23307	1	
-0.14568	1.20044	0.877353	
-0.2429	1.12372	0.891069	
0.216076	0.69962	0.805486	
0.115192	0.637967	0.754396	
0.242822	0.562922	0.847009	
0.160008	0.641459	0.892261	
-0.41072	1.12459	1	
-0.40408	1.03727	1	
-0.495012	1.07045	0.928155	
-0.366596	1.14153	0.904615	
-0.347453	0.767839	0.5	
-0.274113	0.816844	0.5	
-0.363339	0.8495	0.5	
-0.377424	0.892421	0.60103	
9.40847e-05	1.04509	0.800768	
-0.0202852	1.17994	0.855385	
-0.0551398	1.05013	0.899099	
0.0362445	1.10288	0.900124	
9.40847e-05	1.04509	0.800768	
0.0831122	1.10495	0.740369	
0.13567	1.10909	0.864428	
0.107062	1.02445	0.792092	
0.214716	1.29378	1	
0.134677	1.30158	1	
0.201148	1.36807	1	
0.176308	1.30549	0.856004	
0.0991769	1.35538	0.76662	
0.0835299	1.37795	0.884613	
0.0814864	1.49332	0.847681	
0.00695298	1.40388	0.759796	
-0.206133	0.729722	0.836828	
-0.297014	0.758037	0.771096	
-0.323938	0.619127	0.847739	
-0.313556	0.75907	0.879554	
-0.0684459	0.504707	0.931403	
-0.144862	0.521445	0.921652	
-0.125573	0.58604	1	
-0.142163	0.63573	0.89494	
0.415735	0.722215	0.634138	
0.439458	0.761512	0.575692	
0.388274	0.684971	0.579193	
0.366244	0.831981	0.604187	
0.0691997	1.04586	0.5	
0.0868435	1.13736	0.5	
0.000305103	1.09462	0.5	
-0.0230921	1.05776	0.595963	
0.13567	1.10909	0.864428	
0.0362445	1.10288	0.900124	
9.40847e-05	1.04509	0.800768	
0.107062	1.02445	0.792092	
-0.0706186	0.688282	0.818117	
0.0321461	0.626308	0.873516	
-0.000498869	0.611892	0.760268	
0.00376155	0.753357	0.785071	
-0.194345	0.772916	0.709268	
-0.245183	0.701709	0.623779	
-0.115668	0.660224	0.648618	
-0.172711	0.659579	0.756944	
0.450285	1.21736	0.855302	
0.476114	1.15269	0.90246	
0.337852	1.21393	0.901789	
0.369343	1.17686	0.815886	
0.097631	0.704268	1	
0.0321461	0.626308	0.873516	
0.0152702	0.660767	1	
-0.0283413	0.698633	0.90895	
-0.386405	1.31732	0.798513	
-0.263764	1.21559	0.825362	
-0.437035	1.2429	0.847369	
-0.355776	1.16297	0.774979	
0.166834	0.675675	0.635152	
0.115192	0.637967	0.754396	
0.253474	0.699951	0.70471	
0.103438	0.745916	0.728223	
0.316847	0.613208	0.801384	
0.380873	0.676062	0.847739	
0.216076	0.69962	0.805486	
0.248978	0.726366	0.903842	
-0.263764	1.21559	0.825362	
-0.271071	1.28122	0.731982	
-0.284603	1.13833	0.684978	
-0.355776	1.16297	0.774979	
0.00587698	0.925804	1	
0.0375767	1.01852	1	
0.102037	0.944747	1	
0.0803871	1.00814	0.885647	
0.409849	0.918476	0.5	
0.476114	0.847306	0.59754	
0.495101	0.930181	0.572379	
0.366244	0.831981	0.604187	
0.25	1	0.5	
0.23097	0.904329	0.5	
0.323338	0.935684	0.5	
0.214567	0.972198	0.625898	
0.436762	0.756609	0.903062	
0.428195	0.741835	0.798245	
0.380873	0.676062	0.847739	
0.287428	0.80533	0.842537	
0.000305103	1.09462	0.5	
0.0261041	1.21709	0.59722	
-0.0392044	1.16291	0.5	
-0.0230921	1.05776	0.595963	
-0.171353	0.530279	0.838334	
-0.172711	0.659579	0.756944	
-0.258165	0.571805	0.798245	
-0.142163	0.63573	0.89494	
0.3168	1.38683	0.895903	
0.262414	1.28412	0.908895	
0.25658	1.42915	0.83124	
0.278791	1.29194	0.808109	
0.257371	1.14566	1	
0.337852	1.21393	0.901789	
0.230545	1.11436	0.899122	
0.193121	1.21116	0.891371	
-0.225256	0.972563	0.749303	
-0.117533	0.874656	0.729651	
-0.102765	0.975873	0.785694	
-0.221068	0.864025	0.764044	
0.358556	1.12901	0.622438	
0.333887	1.18738	0.72436	
0.436762	1.24339	0.596938	
0.302151	1.24532	0.611118	
-0.206133	0.729722	0.836828	
-0.172711	0.659579	0.756944	
-0.0706186	0.688282	0.818117	
-0.142163	0.63573	0.89494	
-0.115668	0.660224	0.648618	
-0.0830296	0.764069	0.733505	
0.0309435	0.691773	0.673181	
-0.0421997	0.724204	0.59801	
0.374193	1.33163	0.834643	
0.4284	1.25782	0.795024	
0.369343	1.17686	0.815886	
0.278791	1.29194	0.808109	
0.428195	0.741835	0.798245	
0.36821	0.862229	0.899925	
0.469721	0.828647	0.838334	
0.382077	0.87532	0.792977	
-0.249134	0.962669	1	
-0.208534	0.966027	0.877319	
-0.186081	0.888066	1	
-0.228331	0.826788	0.903124	
0	1.5	0.9	
0.0728232	1.49467	0.926459	
0.0376698	1.41981	1	
0.0835299	1.37795	0.884613	
-0.494668	0.927177	0.573541	
-0.5	1	0.6	
-0.493315	0.918514	0.652319	
-0.377424	0.892421	0.60103	
0.0374329	0.572928	1	
0.118763	0.611014	1	
0.0704482	0.504988	0.928155	
0.0321461	0.626308	0.873516	
-0.386476	0.682767	0.909527	
-0.278183	0.659732	1	
-0.317197	0.613495	0.931175	
-0.313556	0.75907	0.879554	
-0.284603	1.13833	0.684978	
-0.197777	1.1209	0.753033	
-0.263764	1.21559	0.825362	
-0.355776	1.16297	0.774979	
0.274113	0.816844	0.5	
0.323338	0.935684	0.5	
0.23097	0.904329	0.5	
0.215224	0.853148	0.609812	
0.216076	0.69962	0.805486	
0.197542	0.7915	0.711395	
0.253474	0.699951	0.70471	
0.103438	0.745916	0.728223	
0.356074	1.09276	0.865831	
0.262314	1.07918	0.800995	
0.215886	1.00836	0.878507	
0.230545	1.11436	0.899122	
0.091716	0.737167	0.833117	
0.00376155	0.753357	0.785071	
0.0321461	0.626308	0.873516	
-0.0283413	0.698633	0.90895	
0.5	1	0.8	
0.348128	1.05074	0.719677	
0.490343	1.0978	0.741226	
0.402785	0.956541	0.723347	
0.3168	0.613169	0.604097	
0.166834	0.675675	0.635152	
0.25658	0.570854	0.66876	
0.253474	0.699951	0.70471	
-0.225256	0.972563	0.749303	
-0.143721	0.860033	0.841612	
-0.208534	0.966027	0.877319	
-0.221068	0.864025	0.764044	
0.242822	0.562922	0.847009	
0.216076	0.69962	0.805486	
0.160008	0.641459	0.892261	
0.248978	0.726366	0.903842	
0.495293	1.06845	0.568597	
0.358556	1.12901	0.622438	
0.409849	1.08152	0.5	
0.38174	0.996023	0.618569	
-0.444497	1.22896	0.591906	
-0.429162	1.25655	0.668732	
-0.468473	1.17474	0.682816	
-0.378892	1.09874	0.625908	
0.0309435	0.691773	0.673181	
-0.000498869	0.611892	0.760268	
-0.115668	0.660224	0.648618	
-0.0201375	0.611237	0.611421	
-0.000498869	0.611892	0.760268	
-0.0201375	0.611237	0.611421	
0.0309435	0.691773	0.673181	
0.0872942	0.606698	0.613217	
0.242822	0.562922	0.847009	
0.317233	0.613524	0.909527	
0.216076	0.69962	0.805486	
0.248978	0.726366	0.903842	
-0.194345	0.772916	0.709268	
-0.172711	0.659579	0.756944	
-0.115668	0.660224	0.648618	
-0.0830296	0.764069	0.733505	
0.174678	1.4685	0.817109	
0.25658	1.42915	0.83124	
0.176308	1.30549	0.856004	
0.202645	1.34448	0.765823	
-0.147604	1.13485	0.630599	
-0.218908	1.02882	0.620926	
-0.23097	1.09567	0.5	
-0.124649	1.04531	0.594053	
-0.250247	1.23307	1	
-0.279278	1.1257	1	
-0.357396	1.18789	1	
-0.366596	1.14153	0.904615	
-0.328139	1.06792	0.838021	
-0.2429	1.12372	0.891069	
-0.263764	1.21559	0.825362	
-0.366596	1.14153	0.904615	
-0.122575	1.07331	1	
-0.0896492	1.16615	1	
-0.0267938	1.0921	1	
-0.0551398	1.05013	0.899099	
0.185939	0.963014	0.5	
0.23097	0.904329	0.5	
0.25	1	0.5	
0.214567	0.972198	0.625898	
0.0803871	1.00814	0.885647	
-0.0551398	1.05013	0.899099	
0.0375767	1.01852	1	
0.0362445	1.10288	0.900124	
0.428195	1.25817	0.701755	
0.436762	1.24339	0.596938	
0.333887	1.18738	0.72436	
0.302151	1.24532	0.611118	
0.175884	0.803375	0.889741	
0.160008	0.641459	0.892261	
0.216076	0.69962	0.805486	
0.248978	0.726366	0.903842	
0.240959	1.14173	0.663655	
0.358556	1.12901	0.622438	
0.274113	1.18316	0.5	
0.302151	1.24532	0.611118	
-0.208534	0.966027	0.877319	
-0.221068	0.864025	0.764044	
-0.143721	0.860033	0.841612	
-0.228331	0.826788	0.903124	
-0.194667	0.539452	0.76567	
-0.0977967	0.509657	0.758774	
-0.168043	0.529084	0.699874	
-0.172711	0.659579	0.756944	
0.168734	1.47067	0.701781	
0.0991769	1.35538	0.76662	
0.122935	1.34062	0.641539	
0.202645	1.34448	0.765823	
-0.194345	0.772916	0.709268	
-0.117533	0.874656	0.729651	
-0.193736	0.903788	0.633349	
-0.221068	0.864025	0.764044	
0.274113	0.816844	0.5	
0.183156	0.725887	0.5	
0.290856	0.760973	0.624503	
0.215224	0.853148	0.609812	
0	0.5	0.7	
0.0814864	0.506685	0.652319	
-0.0201375	0.611237	0.611421	
0.0872942	0.606698	0.613217	
0.134677	1.30158	1	
0.176308	1.30549	0.856004	
0.214716	1.29378	1	
0.193121	1.21116	0.891371	
-0.00643767	0.847524	0.748532	
-0.0207624	0.923302	0.863864	
0.0539582	0.949081	0.757017	
-0.0365827	0.936141	0.729399	
-0.495208	1.06906	0.569036	
-0.397525	1	0.5	
-0.409849	1.08152	0.5	
-0.378892	1.09874	0.625908	
0.267628	1.19145	0.824346	
0.333887	1.18738	0.72436	
0.262314	1.07918	0.800995	
0.188892	1.15001	0.759985	
-0.444481	0.771009	0.591901	
-0.468495	0.825322	0.682891	
-0.429146	0.74342	0.66876	
-0.32134	0.844606	0.681688	
0.378521	1.20232	1	
0.394936	1.1198	1	
0.331919	1.15546	1	
0.337852	1.21393	0.901789	
-0.00475677	1.13123	0.664793	
-0.0146393	1.2919	0.660146	
-0.00595418	1.2142	0.745645	
0.0261041	1.21709	0.59722	
0.115192	0.637967	0.754396	
0.00376155	0.753357	0.785071	
0.091716	0.737167	0.833117	
0.103438	0.745916	0.728223	
0.228991	0.555519	0.591901	
0.166834	0.675675	0.635152	
0.152126	0.632735	0.5	
0.0872942	0.606698	0.613217	
-0.177191	1.03636	0.5	
-0.23097	1.09567	0.5	
-0.218908	1.02882	0.620926	
-0.124649	1.04531	0.594053	
0.493389	0.91896	0.85285	
0.36821	0.862229	0.899925	
0.495293	0.931554	0.931403	
0.39915	0.990133	0.906414	
0.115192	0.637967	0.754396	
-0.000498869	0.611892	0.760268	
0.0309435	0.691773	0.673181	
0.0872942	0.606698	0.613217	
-0.143721	0.860033	0.841612	
-0.186081	0.888066	1	
-0.208534	0.966027	0.877319	
-0.228331	0.826788	0.903124	
-0.323338	1.06432	0.5	
-0.397525	1	0.5	
-0.351178	0.986498	0.65	
-0.378892	1.09874	0.625908	
0.242822	1.43708	0.652991	
0.168734	1.47067	0.701781	
0.122935	1.34062	0.641539	
0.202645	1.34448	0.765823	
-0.437078	0.757178	0.847009	
-0.297014	0.758037	0.771096	
-0.308389	0.85948	0.835633	
-0.313556	0.75907	0.879554	
0.376757	1.32872	0.746468	
0.247079	1.26952	0.713352	
0.333887	1.18738	0.72436	
0.278791	1.29194	0.808109	
-0.323338	0.935684	0.5	
-0.274113	0.816844	0.5	
-0.23097	0.904329	0.5	
-0.377424	0.892421	0.60103	
0.388274	0.684971	0.579193	
0.278087	0.721913	0.5	
0.3168	0.613169	0.604097	
0.290856	0.760973	0.624503	
0.00512645	1.18472	1	
0.100521	1.20361	1	
0.0692432	1.11129	1	
0.0362445	1.10288	0.900124	
0.097631	0.704268	1	
0.118763	0.611014	1	
0.0321461	0.626308	0.873516	
0.160008	0.641459	0.892261	
0.476114	1.15269	0.90246	
0.495101	1.06982	0.927621	
0.394936	1.1198	1	
0.356074	1.09276	0.865831	
-0.258165	0.571805	0.798245	
-0.243391	0.563238	0.903062	
-0.142163	0.63573	0.89494	
-0.231903	0.663623	0.918546	
-0.0258184	0.833057	1	
-0.0183257	0.793213	0.875792	
-0.0578538	0.743596	1	
-0.11576	0.747665	0.899003	
0.281092	1.28109	0.5	
0.302151	1.24532	0.611118	
0.232161	1.34745	0.5	
0.197701	1.26759	0.618397	
0.302677	1.24769	1	
0.337852	1.21393	0.901789	
0.257371	1.14566	1	
0.193121	1.21116	0.891371	
0.240959	1.14173	0.663655	
0.333887	1.18738	0.72436	
0.247079	1.26952	0.713352	
0.188892	1.15001	0.759985	
0.326547	1.07249	1	
0.356074	1.09276	0.865831	
0.422937	1.04242	1	
0.39915	0.990133	0.906414	
0	1.25	0.5	
-0.0956709	1.23097	0.5	
-0.0392044	1.16291	0.5	
0.0261041	1.21709	0.59722	
-0.308389	0.85948	0.835633	
-0.221068	0.864025	0.764044	
-0.208534	0.966027	0.877319	
-0.228331	0.826788	0.903124	
-0.328139	1.06792	0.838021	
-0.263764	1.21559	0.825362	
-0.355776	1.16297	0.774979	
-0.366596	1.14153	0.904615	
-0.238625	1.43938	0.576642	
-0.151231	1.3651	0.5	
-0.152637	1.47613	0.597671	
-0.0927842	1.36919	0.612233	
-0.102765	0.975873	0.785694	
-0.0207624	0.923302	0.863864	
-0.0551398	1.05013	0.899099	
-0.10341	0.960236	0.912939	
0.287428	0.80533	0.842537	
0.330142	0.959051	0.83873	
0.36821	0.862229	0.899925	
0.382077	0.87532	0.792977	
0.356074	1.09276	0.865831	
0.337852	1.21393	0.901789	
0.476114	1.15269	0.90246	
0.369343	1.17686	0.815886	
0.064316	0.676662	0.5	
-0.0201375	0.611237	0.611421	
0.0309435	0.691773	0.673181	
-0.0421997	0.724204	0.59801	
0.0321461	0.626308	0.873516	
0.00376155	0.753357	0.785071	
-0.0706186	0.688282	0.818117	
-0.0283413	0.698633	0.90895	
-0.152126	0.632735	0.5	
-0.152694	0.523886	0.59754	
-0.0815241	0.590151	0.5	
-0.115668	0.660224	0.648618	
-0.121053	1.20203	0.750792	
-0.147604	1.13485	0.630599	
-0.0933205	1.08542	0.735608	
-0.197777	1.1209	0.753033	
0.134677	1.30158	1	
0.100521	1.20361	1	
0.0921027	1.22053	0.879559	
0.193121	1.21116	0.891371	
0.0704482	0.504988	0.928155	
0.118763	0.611014	1	
0.153328	0.52409	0.90763	
0.0321461	0.626308	0.873516	
0.0309435	0.691773	0.673181	
-0.000498869	0.611892	0.760268	
0.115192	0.637967	0.754396	
0.00376155	0.753357	0.785071	
0.214567	0.972198	0.625898	
0.101275	0.91604	0.653562	
0.215224	0.853148	0.609812	
0.190918	0.90269	0.690758	
0	0.5	0.7	
0.0854243	0.507351	0.748597	
0.0814864	0.506685	0.652319	
-0.000498869	0.611892	0.760268	
0.0854243	0.507351	0.748597	
0.0807477	0.506563	0.845776	
0.115192	0.637967	0.754396	
-0.000498869	0.611892	0.760268	
0.490343	0.902203	0.758774	
0.382077	0.87532	0.792977	
0.493389	0.91896	0.85285	
0.402785	0.956541	0.723347	
0.316847	0.613208	0.801384	
0.216076	0.69962	0.805486	
0.317233	0.613524	0.909527	
0.248978	0.726366	0.903842	
0.470916	0.831957	0.699874	
0.493012	0.916698	0.655211	
0.476114	0.847306	0.59754	
0.366244	0.831981	0.604187	
-0.121053	1.20203	0.750792	
-0.106349	1.24066	0.613882	
-0.147604	1.13485	0.630599	
-0.206572	1.20934	0.689284	
0.16533	1.13018	1	
0.226913	1.05511	1	
0.13371	1.03748	1	
0.230545	1.11436	0.899122	
0.317233	1.38648	0.590473	
0.232161	1.34745	0.5	
0.281092	1.28109	0.5	
0.302151	1.24532	0.611118	
-0.157632	0.894674	0.5	
-0.157632	0.968645	0.5	
-0.23097	0.904329	0.5	
-0.193736	0.903788	0.633349	
0.00587698	0.925804	1	
-0.0207624	0.923302	0.863864	
-0.0902369	0.906851	1	
-0.10341	0.960236	0.912939	
-0.177191	1.03636	0.5	
-0.218908	1.02882	0.620926	
-0.157632	0.968645	0.5	
-0.124649	1.04531	0.594053	
-0.0956709	1.23097	0.5	
-0.176777	1.17678	0.5	
-0.107214	1.16612	0.5	
-0.106349	1.24066	0.613882	
0.0309435	0.691773	0.673181	
0.00376155	0.753357	0.785071	
0.115192	0.637967	0.754396	
0.103438	0.745916	0.728223	
-0.121993	0.814118	1	
-0.0258184	0.833057	1	
-0.0578538	0.743596	1	
-0.11576	0.747665	0.899003	
-0.347453	0.767839	0.5	
-0.363339	0.8495	0.5	
-0.444481	0.771009	0.591901	
-0.377424	0.892421	0.60103	
-0.0810399	0.506611	0.85285	
-0.144862	0.521445	0.921652	
-0.0684459	0.504707	0.931403	
-0.142163	0.63573	0.89494	
0.247079	1.26952	0.713352	
0.333887	1.18738	0.72436	
0.267628	1.19145	0.824346	
0.188892	1.15001	0.759985	
-0.314941	1.38835	0.579801	
-0.280403	1.2804	0.5	
-0.232161	1.34745	0.5	
-0.28145	1.24879	0.622796	
-0.0979281	1.49032	0.75908	
-0.171627	1.46962	0.839884	
-0.19416	1.46076	0.765941	
-0.0867584	1.36717	0.731965	
0.318292	0.91002	0.672643	
0.328874	0.804808	0.729739	
0.290856	0.760973	0.624503	
0.366244	0.831981	0.604187	
0.380873	1.32394	0.652261	
0.333887	1.18738	0.72436	
0.247079	1.26952	0.713352	
0.302151	1.24532	0.611118	
0.0321461	0.626308	0.873516	
0.115192	0.637967	0.754396	
0.091716	0.737167	0.833117	
0.160008	0.641459	0.892261	
-0.274113	0.816844	0.5	
-0.245183	0.701709	0.623779	
-0.281585	0.718415	0.5	
-0.18639	0.799846	0.604991	
-0.149856	1.07611	0.843427	
-0.102765	0.975873	0.785694	
-0.0551398	1.05013	0.899099	
-0.10341	0.960236	0.912939	
-0.309811	0.742372	1	
-0.278183	0.659732	1	
-0.313556	0.75907	0.879554	
-0.231903	0.663623	0.918546	
0.166834	0.675675	0.635152	
0.253474	0.699951	0.70471	
0.197542	0.7915	0.711395	
0.103438	0.745916	0.728223	
-0.0815241	0.590151	0.5	
-0.115668	0.660224	0.648618	
-0.152694	0.523886	0.59754	
-0.0201375	0.611237	0.611421	
0.091716	0.737167	0.833117	
0.00376155	0.753357	0.785071	
0.105164	0.85062	0.744059	
0.103438	0.745916	0.728223	
0.0372834	1.27178	1	
-0.0537386	1.25516	1	
-0.0261261	1.3467	1	
-0.082655	1.28145	0.901959	
-0.0896492	1.16615	1	
-0.14568	1.20044	0.877353	
-0.149858	1.24003	1	
-0.082655	1.28145	0.901959	
0.064316	1.32334	0.5	
0.0956709	1.23097	0.5	
0.183156	1.27411	0.5	
0.122935	1.34062	0.641539	
-0.277785	0.584265	0.634138	
-0.238488	0.560542	0.575692	
-0.315029	0.611726	0.579193	
-0.245183	0.701709	0.623779	
0.0814864	0.506685	0.652319	
0.115192	0.637967	0.754396	
0.174678	0.531505	0.682891	
0.0872942	0.606698	0.613217	
0.064316	0.676662	0.5	
0.0309435	0.691773	0.673181	
-0.0201375	0.611237	0.611421	
0.0872942	0.606698	0.613217	
0.030532	1.00082	0.661954	
0.0631871	0.946434	0.577068	
-0.00979043	0.90873	0.615519	
-0.0230921	1.05776	0.595963	
-0.194345	0.772916	0.709268	
-0.0830296	0.764069	0.733505	
-0.0840558	0.819296	0.633477	
-0.117533	0.874656	0.729651	
0.422937	1.04242	1	
0.326547	1.07249	1	
0.394936	1.1198	1	
0.356074	1.09276	0.865831	
-0.493437	0.919252	0.845776	
-0.495012	0.929552	0.928155	
-0.47591	0.846672	0.90763	
-0.385003	0.984343	0.895239	
-0.00475677	1.13123	0.664793	
0.12042	1.06036	0.636718	
0.0831122	1.10495	0.740369	
0.030532	1.00082	0.661954	
0.0807477	1.49344	0.654224	
0	1.5	0.7	
0.0232779	1.38849	0.611701	
0.00695298	1.40388	0.759796	
0.274113	0.816844	0.5	
0.176777	0.823223	0.5	
0.183156	0.725887	0.5	
0.215224	0.853148	0.609812	
9.40847e-05	1.04509	0.800768	
0.0362445	1.10288	0.900124	
0.0803871	1.00814	0.885647	
0.107062	1.02445	0.792092	
0.168734	0.529332	0.798219	
0.242822	0.562922	0.847009	
0.115192	0.637967	0.754396	
0.160008	0.641459	0.892261	
0.493389	1.08104	0.64715	
0.5	1	0.7	
0.490343	1.0978	0.741226	
0.348128	1.05074	0.719677	
0.317233	1.38648	0.590473	
0.232161	1.34745	0.5	
0.302151	1.24532	0.611118	
0.197701	1.26759	0.618397	
0	1.25	0.5	
0.064316	1.32334	0.5	
-0.064316	1.32334	0.5	
0.0232779	1.38849	0.611701	
0.146853	0.522052	0.584008	
0.228991	0.555519	0.591901	
0.152126	0.632735	0.5	
0.0872942	0.606698	0.613217	
-0.064316	1.32334	0.5	
-0.0927842	1.36919	0.612233	
-0.0146393	1.2919	0.660146	
0.0232779	1.38849	0.611701	
-0.468473	1.17474	0.682816	
-0.492656	1.08538	0.748652	
-0.493066	1.08298	0.651653	
-0.378892	1.09874	0.625908	
-0.25	1	0.5	
-0.157632	0.968645	0.5	
-0.177191	1.03636	0.5	
-0.218908	1.02882	0.620926	
-0.193736	0.903788	0.633349	
-0.117533	0.874656	0.729651	
-0.225256	0.972563	0.749303	
-0.221068	0.864025	0.764044	
-0.00643767	0.847524	0.748532	
-0.0840558	0.819296	0.633477	
-0.0830296	0.764069	0.733505	
-0.117533	0.874656	0.729651	
-0.263764	1.21559	0.825362	
-0.14568	1.20044	0.877353	
-0.159358	1.32099	0.830937	
-0.254431	1.30452	0.892066	
-0.206133	0.729722	0.836828	
-0.142163	0.63573	0.89494	
-0.0706186	0.688282	0.818117	
-0.11576	0.747665	0.899003	
0.323338	0.935684	0.5	
0.409849	0.918476	0.5	
0.38174	0.996023	0.618569	
0.366244	0.831981	0.604187	
0.242822	0.562922	0.847009	
0.160008	0.641459	0.892261	
0.317233	0.613524	0.909527	
0.248978	0.726366	0.903842	
-0.114443	1.01484	0.5	
-0.157632	0.968645	0.5	
-0.0773947	0.947213	0.5	
-0.105125	0.905315	0.589497	
-0.0146393	1.2919	0.660146	
-0.0927842	1.36919	0.612233	
-0.0867584	1.36717	0.731965	
0.0232779	1.38849	0.611701	
0.228991	1.44448	0.908099	
0.146853	1.47795	0.915992	
0.174678	1.4685	0.817109	
0.0835299	1.37795	0.884613	
0.174678	1.4685	0.817109	
0.0814864	1.49332	0.847681	
0.0991769	1.35538	0.76662	
0.0835299	1.37795	0.884613	
9.40847e-05	1.04509	0.800768	
0.0803871	1.00814	0.885647	
0.0539582	0.949081	0.757017	
0.107062	1.02445	0.792092	
0.287428	0.80533	0.842537	
0.36821	0.862229	0.899925	
0.330142	0.959051	0.83873	
0.248837	0.902557	0.889756	
0.376757	0.671284	0.753532	
0.4284	0.742176	0.704976	
0.374193	0.668368	0.665357	
0.328874	0.804808	0.729739	
0.0956709	0.76903	0.5	
0.064316	0.676662	0.5	
0.183156	0.725887	0.5	
0.166834	0.675675	0.635152	
-0.149856	1.07611	0.843427	
-0.208534	0.966027	0.877319	
-0.102765	0.975873	0.785694	
-0.10341	0.960236	0.912939	
0.214716	1.29378	1	
0.176308	1.30549	0.856004	
0.262414	1.28412	0.908895	
0.193121	1.21116	0.891371	
-0.243302	1.43681	0.906373	
-0.258315	1.4281	0.803104	
-0.159358	1.32099	0.830937	
-0.254431	1.30452	0.892066	
-0.444497	1.22896	0.591906	
-0.386847	1.31678	0.604131	
-0.429162	1.25655	0.668732	
-0.28145	1.24879	0.622796	
0.11795	1.23142	0.740012	
0.0991769	1.35538	0.76662	
0.176308	1.30549	0.856004	
0.202645	1.34448	0.765823	
-0.0207624	0.923302	0.863864	
-0.102765	0.975873	0.785694	
-0.143721	0.860033	0.841612	
-0.10341	0.960236	0.912939	
-0.193736	0.903788	0.633349	
-0.18639	0.799846	0.604991	
-0.157632	0.894674	0.5	
-0.105125	0.905315	0.589497	
0.495101	1.06982	0.927621	
0.356074	1.09276	0.865831	
0.493012	1.0833	0.844789	
0.39915	0.990133	0.906414	
-0.386498	0.682794	0.700322	
-0.331632	0.625807	0.665357	
-0.386831	0.6832	0.604097	
-0.245183	0.701709	0.623779	
0.478555	1.14486	0.578348	
0.495293	1.06845	0.568597	
0.493389	1.08104	0.64715	
0.358556	1.12901	0.622438	
-0.297014	0.758037	0.771096	
-0.221068	0.864025	0.764044	
-0.308389	0.85948	0.835633	
-0.228331	0.826788	0.903124	
0.356074	1.09276	0.865831	
0.337852	1.21393	0.901789	
0.267628	1.19145	0.824346	
0.230545	1.11436	0.899122	
0.097631	0.704268	1	
0.0383625	0.760787	1	
0.132272	0.778577	1	
0.0761281	0.822015	0.902396	
-0.324048	1.38078	0.849851	
-0.386405	1.31732	0.798513	
-0.3284	1.37703	0.756783	
-0.271071	1.28122	0.731982	
0.25658	1.42915	0.83124	
0.278791	1.29194	0.808109	
0.176308	1.30549	0.856004	
0.202645	1.34448	0.765823	
0.257371	1.14566	1	
0.337852	1.21393	0.901789	
0.331919	1.15546	1	
0.230545	1.11436	0.899122	
0.215886	1.00836	0.878507	
0.0803871	1.00814	0.885647	
0.13567	1.10909	0.864428	
0.107062	1.02445	0.792092	
0.278087	0.721913	0.5	
0.183156	0.725887	0.5	
0.232161	0.652547	0.5	
0.166834	0.675675	0.635152	
0.0309435	0.691773	0.673181	
-0.0421997	0.724204	0.59801	
-0.0830296	0.764069	0.733505	
0.0014459	0.786307	0.671061	
0.13567	1.10909	0.864428	
0.267628	1.19145	0.824346	
0.188892	1.15001	0.759985	
0.193121	1.21116	0.891371	
0.101275	0.91604	0.653562	
0.030532	1.00082	0.661954	
0.12042	1.06036	0.636718	
0.0631871	0.946434	0.577068	
0.075477	0.809328	0.60941	
0.103438	0.745916	0.728223	
0.105164	0.85062	0.744059	
0.0014459	0.786307	0.671061	
0	1.5	0.6	
-0.0833019	1.49301	0.655211	
-0.0698146	1.4951	0.5724	
0.0232779	1.38849	0.611701	
-0.149858	1.24003	1	
-0.185909	1.14844	1	
-0.250247	1.23307	1	
-0.14568	1.20044	0.877353	
-0.493066	1.08298	0.651653	
-0.5	1	0.6	
-0.495208	1.06906	0.569036	
-0.378892	1.09874	0.625908	
-0.5	1	0.9	
-0.5	1	0.8	
-0.493438	1.08074	0.845784	
-0.385003	0.984343	0.895239	
-0.125573	0.58604	1	
-0.0915272	0.659988	1	
-0.0444138	0.583252	1	
-0.142163	0.63573	0.89494	
0.450285	1.21736	0.855302	
0.476114	1.15269	0.90246	
0.439458	1.23849	0.924308	
0.337852	1.21393	0.901789	
-0.279278	1.1257	1	
-0.2429	1.12372	0.891069	
-0.348481	1.09787	1	
-0.366596	1.14153	0.904615	
0.153328	1.47591	0.59237	
0.0815241	1.40985	0.5	
0.122935	1.34062	0.641539	
0.0232779	1.38849	0.611701	
-0.257824	0.5716	0.704976	
-0.328716	0.623243	0.753532	
-0.258165	0.571805	0.798245	
-0.172711	0.659579	0.756944	
0.153328	0.52409	0.90763	
0.0321461	0.626308	0.873516	
0.118763	0.611014	1	
0.160008	0.641459	0.892261	
-0.274113	1.18316	0.5	
-0.347453	1.23216	0.5	
-0.363339	1.1505	0.5	
-0.28145	1.24879	0.622796	
-0.064316	1.32334	0.5	
-0.106349	1.24066	0.613882	
-0.0146393	1.2919	0.660146	
-0.0927842	1.36919	0.612233	
0.274113	1.18316	0.5	
0.23097	1.09567	0.5	
0.323338	1.06432	0.5	
0.358556	1.12901	0.622438	
-0.157632	0.968645	0.5	
-0.193736	0.903788	0.633349	
-0.157632	0.894674	0.5	
-0.105125	0.905315	0.589497	
-0.183156	0.725887	0.5	
-0.115668	0.660224	0.648618	
-0.064316	0.676662	0.5	
-0.0421997	0.724204	0.59801	
0.105164	0.85062	0.744059	
0.00376155	0.753357	0.785071	
-0.00643767	0.847524	0.748532	
0.103438	0.745916	0.728223	
0.428195	1.25817	0.701755	
0.358556	1.12901	0.622438	
0.469721	1.17135	0.661666	
0.333887	1.18738	0.72436	
0.287378	0.983941	1	
0.198196	0.963699	1	
0.215886	1.00836	0.878507	
0.248837	0.902557	0.889756	
0.153328	1.47591	0.59237	
0.122935	1.34062	0.641539	
0.0807477	1.49344	0.654224	
0.0232779	1.38849	0.611701	
0.232161	0.652547	0.5	
0.228991	0.555519	0.591901	
0.3168	0.613169	0.604097	
0.166834	0.675675	0.635152	
-0.468495	0.825322	0.682891	
-0.32134	0.844606	0.681688	
-0.444481	0.771009	0.591901	
-0.377424	0.892421	0.60103	
0.380873	1.32394	0.652261	
0.428195	1.25817	0.701755	
0.376757	1.32872	0.746468	
0.333887	1.18738	0.72436	
-0.444497	1.22896	0.591906	
-0.477722	1.14759	0.583558	
-0.363339	1.1505	0.5	
-0.378892	1.09874	0.625908	
0.301328	0.82727	1	
0.233424	0.783671	1	
0.259634	0.890927	1	
0.248837	0.902557	0.889756	
-0.296764	0.859492	1	
-0.249134	0.962669	1	
-0.186081	0.888066	1	
-0.228331	0.826788	0.903124	
0.114269	0.8976	0.845027	
0.175884	0.803375	0.889741	
0.219433	0.887973	0.783321	
0.248837	0.902557	0.889756	
0.348128	1.05074	0.719677	
0.358556	1.12901	0.622438	
0.240959	1.14173	0.663655	
0.333887	1.18738	0.72436	
-0.00643767	0.847524	0.748532	
0.105164	0.85062	0.744059	
0.103438	0.745916	0.728223	
0.0014459	0.786307	0.671061	
-0.152694	0.523886	0.59754	
-0.217356	0.549715	0.644698	
-0.168043	0.529084	0.699874	
-0.115668	0.660224	0.648618	
0.0376698	1.41981	1	
-0.0261261	1.3467	1	
-0.0411619	1.43035	1	
-0.0684719	1.38599	0.898819	
0.337852	1.21393	0.901789	
0.267628	1.19145	0.824346	
0.230545	1.11436	0.899122	
0.193121	1.21116	0.891371	
0.242822	0.562922	0.847009	
0.317233	0.613524	0.909527	
0.316847	0.613208	0.801384	
0.216076	0.69962	0.805486	
0.25	1	0.5	
0.214567	0.972198	0.625898	
0.286804	1.05056	0.632278	
0.201501	1.05838	0.584156	
-0.468495	0.825322	0.682891	
-0.434698	0.752943	0.749501	
-0.429146	0.74342	0.66876	
-0.32134	0.844606	0.681688	
0.091716	0.737167	0.833117	
-0.0183257	0.793213	0.875792	
0.00376155	0.753357	0.785071	
-0.0283413	0.698633	0.90895	
-0.193736	0.903788	0.633349	
-0.117533	0.874656	0.729651	
-0.0840558	0.819296	0.633477	
-0.105125	0.905315	0.589497	
-0.206133	0.729722	0.836828	
-0.313556	0.75907	0.879554	
-0.323938	0.619127	0.847739	
-0.231903	0.663623	0.918546	
-0.493437	0.919252	0.845776	
-0.371949	0.959293	0.777377	
-0.5	1	0.8	
-0.385003	0.984343	0.895239	
0.12042	1.06036	0.636718	
0.030532	1.00082	0.661954	
-0.00475677	1.13123	0.664793	
-0.0230921	1.05776	0.595963	
-0.468473	1.17474	0.682816	
-0.429162	1.25655	0.668732	
-0.434718	1.24702	0.749442	
-0.355776	1.16297	0.774979	
-0.296764	0.859492	1	
-0.313556	0.75907	0.879554	
-0.308389	0.85948	0.835633	
-0.228331	0.826788	0.903124	
0.428195	0.741835	0.798245	
0.436762	0.756609	0.903062	
0.469721	0.828647	0.838334	
0.36821	0.862229	0.899925	
0.274113	0.816844	0.5	
0.215224	0.853148	0.609812	
0.290856	0.760973	0.624503	
0.366244	0.831981	0.604187	
-0.0833019	0.506988	0.655211	
-0.0977967	0.509657	0.758774	
0	0.5	0.7	
-0.000498869	0.611892	0.760268	
0.114269	0.8976	0.845027	
0.0539582	0.949081	0.757017	
0.0803871	1.00814	0.885647	
0.107062	1.02445	0.792092	
0.267628	1.19145	0.824346	
0.262314	1.07918	0.800995	
0.333887	1.18738	0.72436	
0.369343	1.17686	0.815886	
-0.0808186	0.989298	0.663479	
0.030532	1.00082	0.661954	
-0.00979043	0.90873	0.615519	
-0.0230921	1.05776	0.595963	
0.0815241	1.40985	0.5	
0.152393	1.36791	0.5	
0.153328	1.47591	0.59237	
0.122935	1.34062	0.641539	
0.316847	0.613208	0.801384	
0.317233	0.613524	0.909527	
0.380873	0.676062	0.847739	
0.248978	0.726366	0.903842	
0.0691997	1.04586	0.5	
0.157632	1.10533	0.5	
0.0868435	1.13736	0.5	
0.12042	1.06036	0.636718	
0.228991	0.555519	0.591901	
0.25658	0.570854	0.66876	
0.3168	0.613169	0.604097	
0.166834	0.675675	0.635152	
0.13567	1.10909	0.864428	
0.0803871	1.00814	0.885647	
0.0362445	1.10288	0.900124	
0.107062	1.02445	0.792092	
0.0807477	0.506563	0.845776	
0.0321461	0.626308	0.873516	
0.153328	0.52409	0.90763	
0.160008	0.641459	0.892261	
0.374193	0.668368	0.665357	
0.290856	0.760973	0.624503	
0.3168	0.613169	0.604097	
0.253474	0.699951	0.70471	
-0.064316	0.676662	0.5	
-0.183156	0.725887	0.5	
-0.152126	0.632735	0.5	
-0.115668	0.660224	0.648618	
-0.102765	0.975873	0.785694	
-0.208534	0.966027	0.877319	
-0.143721	0.860033	0.841612	
-0.10341	0.960236	0.912939	
-0.00643767	0.847524	0.748532	
0.103438	0.745916	0.728223	
0.00376155	0.753357	0.785071	
0.0014459	0.786307	0.671061	
0	0.5	0.9	
0.0374329	0.572928	1	
0.0704482	0.504988	0.928155	
0.0321461	0.626308	0.873516	
0.233424	0.783671	1	
0.175884	0.803375	0.889741	
0.259634	0.890927	1	
0.248837	0.902557	0.889756	
-0.323338	0.935684	0.5	
-0.323338	1.06432	0.5	
-0.397525	1	0.5	
-0.351178	0.986498	0.65	
0.5	1	0.7	
0.348128	1.05074	0.719677	
0.38174	0.996023	0.618569	
0.402785	0.956541	0.723347	
0.495293	0.931554	0.931403	
0.478555	0.855138	0.921652	
0.417242	0.878937	1	
0.36821	0.862229	0.899925	
-0.386476	0.682767	0.909527	
-0.309811	0.742372	1	
-0.278183	0.659732	1	
-0.313556	0.75907	0.879554	
0.267628	1.19145	0.824346	
0.13567	1.10909	0.864428	
0.188892	1.15001	0.759985	
0.230545	1.11436	0.899122	
0.0831122	1.10495	0.740369	
0.188892	1.15001	0.759985	
0.13567	1.10909	0.864428	
0.107062	1.02445	0.792092	
-0.152694	0.523886	0.59754	
-0.115668	0.660224	0.648618	
-0.0833019	0.506988	0.655211	
-0.0201375	0.611237	0.611421	
0.267628	1.19145	0.824346	
0.13567	1.10909	0.864428	
0.230545	1.11436	0.899122	
0.193121	1.21116	0.891371	
-0.217395	0.789549	1	
-0.121993	0.814118	1	
-0.11576	0.747665	0.899003	
-0.228331	0.826788	0.903124	
0.176777	1.17678	0.5	
0.157632	1.10533	0.5	
0.23097	1.09567	0.5	
0.201501	1.05838	0.584156	
0.163502	1.02984	0.5	
0.157632	1.10533	0.5	
0.12042	1.06036	0.636718	
0.201501	1.05838	0.584156	
-0.315029	0.611726	0.579193	
-0.281585	0.718415	0.5	
-0.386831	0.6832	0.604097	
-0.245183	0.701709	0.623779	
0.242822	1.43708	0.652991	
0.153328	1.47591	0.59237	
0.235698	1.44096	0.568569	
0.122935	1.34062	0.641539	
0.0854243	1.49265	0.751403	
0.0991769	1.35538	0.76662	
0.0814864	1.49332	0.847681	
0.00695298	1.40388	0.759796	
0.174678	0.531505	0.682891	
0.115192	0.637967	0.754396	
0.166834	0.675675	0.635152	
0.0872942	0.606698	0.613217	
0.316847	1.38679	0.698616	
0.380873	1.32394	0.652261	
0.247079	1.26952	0.713352	
0.302151	1.24532	0.611118	
-0.176777	0.823223	0.5	
-0.157632	0.894674	0.5	
-0.18639	0.799846	0.604991	
-0.105125	0.905315	0.589497	
0.436762	1.24339	0.596938	
0.469721	1.17135	0.661666	
0.428195	1.25817	0.701755	
0.358556	1.12901	0.622438	
0.318292	0.91002	0.672643	
0.348128	1.05074	0.719677	
0.38174	0.996023	0.618569	
0.286804	1.05056	0.632278	
-0.0537386	1.25516	1	
-0.0896492	1.16615	1	
-0.149858	1.24003	1	
-0.082655	1.28145	0.901959	
0.0152702	0.660767	1	
0.097631	0.704268	1	
0.118763	0.611014	1	
0.0321461	0.626308	0.873516	
0.100521	1.20361	1	
0.00512645	1.18472	1	
0.0372834	1.27178	1	
0.0921027	1.22053	0.879559	
-0.206133	0.729722	0.836828	
-0.11576	0.747665	0.899003	
-0.143721	0.860033	0.841612	
-0.228331	0.826788	0.903124	
-0.117202	1.0938	0.5	
-0.23097	1.09567	0.5	
-0.177191	1.03636	0.5	
-0.124649	1.04531	0.594053	
-0.0833019	1.49301	0.655211	
-0.0927842	1.36919	0.612233	
-0.0698146	1.4951	0.5724	
0.0232779	1.38849	0.611701	
9.40847e-05	1.04509	0.800768	
-0.0551398	1.05013	0.899099	
0.0803871	1.00814	0.885647	
0.0362445	1.10288	0.900124	
0.166518	0.870941	1	
0.259634	0.890927	1	
0.175884	0.803375	0.889741	
0.248837	0.902557	0.889756	
0.337852	1.21393	0.901789	
0.369343	1.17686	0.815886	
0.267628	1.19145	0.824346	
0.278791	1.29194	0.808109	
-0.00643767	0.847524	0.748532	
-0.0830296	0.764069	0.733505	
-0.0840558	0.819296	0.633477	
0.0014459	0.786307	0.671061	
0.316847	1.38679	0.698616	
0.317233	1.38648	0.590473	
0.380873	1.32394	0.652261	
0.302151	1.24532	0.611118	
0.028723	1.17517	0.5	
0.0868435	1.13736	0.5	
0.0956709	1.23097	0.5	
0.0261041	1.21709	0.59722	
0.348128	1.05074	0.719677	
0.240959	1.14173	0.663655	
0.358556	1.12901	0.622438	
0.286804	1.05056	0.632278	
-0.32134	0.844606	0.681688	
-0.297014	0.758037	0.771096	
-0.194345	0.772916	0.709268	
-0.221068	0.864025	0.764044	
0.247057	0.565302	0.749501	
0.216076	0.69962	0.805486	
0.316847	0.613208	0.801384	
0.253474	0.699951	0.70471	
0.374193	1.33163	0.834643	
0.376757	1.32872	0.746468	
0.4284	1.25782	0.795024	
0.278791	1.29194	0.808109	
-0.121053	1.20203	0.750792	
-0.147604	1.13485	0.630599	
-0.197777	1.1209	0.753033	
-0.206572	1.20934	0.689284	
0	1.5	0.6	
-0.0698146	1.4951	0.5724	
8.18872e-17	1.39822	0.5	
0.0232779	1.38849	0.611701	
-0.167464	1.47112	0.699894	
-0.0833019	1.49301	0.655211	
-0.0867584	1.36717	0.731965	
-0.0927842	1.36919	0.612233	
-0.386847	1.31678	0.604131	
-0.280403	1.2804	0.5	
-0.314941	1.38835	0.579801	
-0.28145	1.24879	0.622796	
-0.183156	0.725887	0.5	
-0.064316	0.676662	0.5	
-0.0956709	0.76903	0.5	
-0.0421997	0.724204	0.59801	
-0.494668	0.927177	0.573541	
-0.409849	0.918476	0.5	
-0.397525	1	0.5	
-0.377424	0.892421	0.60103	
0.216076	0.69962	0.805486	
0.091716	0.737167	0.833117	
0.115192	0.637967	0.754396	
0.160008	0.641459	0.892261	
0.075477	0.809328	0.60941	
-0.00979043	0.90873	0.615519	
0.101275	0.91604	0.653562	
0.0631871	0.946434	0.577068	
0.5	1	0.6	
0.495293	1.06845	0.568597	
0.398221	1	0.5	
0.38174	0.996023	0.618569	
0.0814864	0.506685	0.652319	
0.0854243	0.507351	0.748597	
0.174678	0.531505	0.682891	
0.115192	0.637967	0.754396	
0.0807477	0.506563	0.845776	
0	0.5	0.8	
0.0321461	0.626308	0.873516	
-0.000498869	0.611892	0.760268	
-0.297014	0.758037	0.771096	
-0.313556	0.75907	0.879554	
-0.206133	0.729722	0.836828	
-0.228331	0.826788	0.903124	
-0.0810399	0.506611	0.85285	
0	0.5	0.8	
-0.0977967	0.509657	0.758774	
-0.000498869	0.611892	0.760268	
0.0956709	0.76903	0.5	
0.0344957	0.828097	0.5	
0	0.75	0.5	
0.075477	0.809328	0.60941	
0.152126	0.632735	0.5	
0.166834	0.675675	0.635152	
0.064316	0.676662	0.5	
0.0872942	0.606698	0.613217	
-0.171627	1.46962	0.839884	
-0.243302	1.43681	0.906373	
-0.258315	1.4281	0.803104	
-0.159358	1.32099	0.830937	
0.302677	1.24769	1	
0.195163	1.21982	1	
0.262414	1.28412	0.908895	
0.193121	1.21116	0.891371	
0.490343	0.902203	0.758774	
0.493389	0.91896	0.85285	
0.5	1	0.8	
0.402785	0.956541	0.723347	
-0.495012	1.07045	0.928155	
-0.5	1	0.9	
-0.493438	1.08074	0.845784	
-0.385003	0.984343	0.895239	
-0.117202	1.0938	0.5	
-0.147604	1.13485	0.630599	
-0.23097	1.09567	0.5	
-0.124649	1.04531	0.594053	
-0.217299	1.45031	0.645888	
-0.152637	1.47613	0.597671	
-0.167464	1.47112	0.699894	
-0.0927842	1.36919	0.612233	
-0.0218546	0.89013	0.5	
-0.00979043	0.90873	0.615519	
0.0634445	0.898618	0.5	
0.0631871	0.946434	0.577068	
0.490343	1.0978	0.741226	
0.348128	1.05074	0.719677	
0.5	1	0.7	
0.402785	0.956541	0.723347	
0.0868435	1.13736	0.5	
0.125807	1.18828	0.618322	
0.0956709	1.23097	0.5	
0.0261041	1.21709	0.59722	
-0.444497	1.22896	0.591906	
-0.347453	1.23216	0.5	
-0.386847	1.31678	0.604131	
-0.28145	1.24879	0.622796	
-0.153466	0.725651	1	
-0.11576	0.747665	0.899003	
-0.142163	0.63573	0.89494	
-0.231903	0.663623	0.918546	
0.267628	1.19145	0.824346	
0.369343	1.17686	0.815886	
0.333887	1.18738	0.72436	
0.278791	1.29194	0.808109	
-0.274113	1.18316	0.5	
-0.176777	1.17678	0.5	
-0.183156	1.27411	0.5	
-0.28145	1.24879	0.622796	
0.134677	1.30158	1	
0.195163	1.21982	1	
0.100521	1.20361	1	
0.193121	1.21116	0.891371	
0.0704482	0.504988	0.928155	
0.153328	0.52409	0.90763	
0.0807477	0.506563	0.845776	
0.0321461	0.626308	0.873516	
0.226913	1.05511	1	
0.198196	0.963699	1	
0.13371	1.03748	1	
0.215886	1.00836	0.878507	
0.201148	1.36807	1	
0.228991	1.44448	0.908099	
0.277785	1.41573	1	
0.272282	1.33178	1	
0.360576	0.998064	1	
0.326547	1.07249	1	
0.422937	1.04242	1	
0.39915	0.990133	0.906414	
-0.308389	0.85948	0.835633	
-0.297014	0.758037	0.771096	
-0.32134	0.844606	0.681688	
-0.221068	0.864025	0.764044	
0	1.25	0.5	
-0.064316	1.32334	0.5	
-0.0956709	1.23097	0.5	
-0.106349	1.24066	0.613882	
-0.0815241	0.590151	0.5	
-0.152694	0.523886	0.59754	
-0.0698189	0.504899	0.572379	
-0.0201375	0.611237	0.611421	
-0.41072	1.12459	1	
-0.348481	1.09787	1	
-0.40408	1.03727	1	
-0.366596	1.14153	0.904615	
0.0372834	1.27178	1	
0.134677	1.30158	1	
0.100521	1.20361	1	
0.0921027	1.22053	0.879559	
-0.0840558	0.819296	0.633477	
-0.0830296	0.764069	0.733505	
-0.0421997	0.724204	0.59801	
0.0014459	0.786307	0.671061	
0.075477	0.809328	0.60941	
-0.0421997	0.724204	0.59801	
0.0309435	0.691773	0.673181	
0.0014459	0.786307	0.671061	
-0.284603	1.13833	0.684978	
-0.28145	1.24879	0.622796	
-0.271071	1.28122	0.731982	
-0.206572	1.20934	0.689284	
0.257371	1.14566	1	
0.331919	1.15546	1	
0.326547	1.07249	1	
0.230545	1.11436	0.899122	
0.197542	0.7915	0.711395	
0.290856	0.760973	0.624503	
0.328874	0.804808	0.729739	
0.253474	0.699951	0.70471	
0.331919	1.15546	1	
0.394936	1.1198	1	
0.326547	1.07249	1	
0.356074	1.09276	0.865831	
-0.0218546	0.89013	0.5	
0.0165433	0.957567	0.5	
-0.0773947	0.947213	0.5	
-0.00979043	0.90873	0.615519	
-0.152694	0.523886	0.59754	
-0.168043	0.529084	0.699874	
-0.0833019	0.506988	0.655211	
-0.115668	0.660224	0.648618	
0.493389	0.91896	0.85285	
0.478555	0.855138	0.921652	
0.495293	0.931554	0.931403	
0.36821	0.862229	0.899925	
0.0152702	0.660767	1	
0.0321461	0.626308	0.873516	
-0.0444138	0.583252	1	
-0.0283413	0.698633	0.90895	
0.157632	1.10533	0.5	
0.0691997	1.04586	0.5	
0.163502	1.02984	0.5	
0.12042	1.06036	0.636718	
-0.102765	0.975873	0.785694	
-0.117533	0.874656	0.729651	
-0.0808186	0.989298	0.663479	
-0.0365827	0.936141	0.729399	
0.134677	1.30158	1	
0.0645888	1.34627	1	
0.122568	1.39751	1	
0.0835299	1.37795	0.884613	
-0.0698146	1.4951	0.5724	
-0.0815241	1.40985	0.5	
8.18872e-17	1.39822	0.5	
0.0232779	1.38849	0.611701	
-0.171627	1.46962	0.839884	
-0.258315	1.4281	0.803104	
-0.19416	1.46076	0.765941	
-0.159358	1.32099	0.830937	
-0.250247	1.23307	1	
-0.182108	1.31839	1	
-0.149858	1.24003	1	
-0.254431	1.30452	0.892066	
0.185939	0.963014	0.5	
0.214567	0.972198	0.625898	
0.25	1	0.5	
0.201501	1.05838	0.584156	
-0.218034	1.05414	1	
-0.31121	1.03591	1	
-0.279278	1.1257	1	
-0.2429	1.12372	0.891069	
0.436762	1.24339	0.596938	
0.369516	1.15306	0.5	
0.478555	1.14486	0.578348	
0.358556	1.12901	0.622438	
0.232161	0.652547	0.5	
0.152126	0.632735	0.5	
0.228991	0.555519	0.591901	
0.166834	0.675675	0.635152	
-0.0258184	0.833057	1	
0.0383625	0.760787	1	
-0.0183257	0.793213	0.875792	
0.0761281	0.822015	0.902396	
-0.284603	1.13833	0.684978	
-0.197777	1.1209	0.753033	
-0.147604	1.13485	0.630599	
-0.206572	1.20934	0.689284	
0.0152702	0.660767	1	
0.0374329	0.572928	1	
-0.0444138	0.583252	1	
0.0321461	0.626308	0.873516	
0.097631	0.704268	1	
0.0152702	0.660767	1	
0.0383625	0.760787	1	
-0.0283413	0.698633	0.90895	
-0.440961	0.764302	0.931431	
-0.376173	0.802719	1	
-0.386476	0.682767	0.909527	
-0.313556	0.75907	0.879554	
-0.159358	1.32099	0.830937	
-0.0111034	1.32302	0.823352	
-0.0684719	1.38599	0.898819	
-0.082655	1.28145	0.901959	
0.183156	1.27411	0.5	
0.152393	1.36791	0.5	
0.122935	1.34062	0.641539	
0.197701	1.26759	0.618397	
0.0728232	0.505332	0.573541	
-3.15026e-17	0.601779	0.5	
-0.0201375	0.611237	0.611421	
0.0872942	0.606698	0.613217	
0.166518	0.870941	1	
0.259634	0.890927	1	
0.233424	0.783671	1	
0.175884	0.803375	0.889741	
-0.323938	0.619127	0.847739	
-0.297014	0.758037	0.771096	
-0.386792	0.683153	0.801384	
-0.313556	0.75907	0.879554	
0.219433	0.887973	0.783321	
0.175884	0.803375	0.889741	
0.287428	0.80533	0.842537	
0.248837	0.902557	0.889756	
-0.0690617	1.49521	0.93079	
0	1.5	0.9	
-0.0411619	1.43035	1	
-0.0684719	1.38599	0.898819	
0.278087	0.721913	0.5	
0.274113	0.816844	0.5	
0.183156	0.725887	0.5	
0.290856	0.760973	0.624503	
0.5	1	0.6	
0.398221	1	0.5	
0.495101	0.930181	0.572379	
0.38174	0.996023	0.618569	
-0.183156	0.725887	0.5	
-0.281585	0.718415	0.5	
-0.245183	0.701709	0.623779	
-0.18639	0.799846	0.604991	
0.183156	1.27411	0.5	
0.152393	1.36791	0.5	
0.064316	1.32334	0.5	
0.122935	1.34062	0.641539	
0.0728232	0.505332	0.573541	
-3.15026e-17	0.601779	0.5	
0	0.5	0.6	
-0.0201375	0.611237	0.611421	
-0.280403	1.2804	0.5	
-0.183156	1.27411	0.5	
-0.232161	1.34745	0.5	
-0.28145	1.24879	0.622796	
-0.323938	0.619127	0.847739	
-0.328716	0.623243	0.753532	
-0.386792	0.683153	0.801384	
-0.297014	0.758037	0.771096	
0.0375767	1.01852	1	
-0.0551398	1.05013	0.899099	
-0.0267938	1.0921	1	
0.0362445	1.10288	0.900124	
-0.171353	0.530279	0.838334	
-0.258165	0.571805	0.798245	
-0.243391	0.563238	0.903062	
-0.142163	0.63573	0.89494	
0.0807477	0.506563	0.845776	
0.153328	0.52409	0.90763	
0.168734	0.529332	0.798219	
0.160008	0.641459	0.892261	
0.470916	0.831957	0.699874	
0.328874	0.804808	0.729739	
0.460548	0.805333	0.76567	
0.382077	0.87532	0.792977	
-0.386533	1.31716	0.700258	
-0.28145	1.24879	0.622796	
-0.332191	1.3737	0.665943	
-0.271071	1.28122	0.731982	
-0.171353	0.530279	0.838334	
-0.194667	0.539452	0.76567	
-0.258165	0.571805	0.798245	
-0.172711	0.659579	0.756944	
-0.0979281	1.49032	0.75908	
0	1.5	0.8	
-0.0811073	1.49338	0.853007	
0.00695298	1.40388	0.759796	
0.316847	1.38679	0.698616	
0.247079	1.26952	0.713352	
0.376757	1.32872	0.746468	
0.278791	1.29194	0.808109	
-0.323338	0.935684	0.5	
-0.351178	0.986498	0.65	
-0.397525	1	0.5	
-0.377424	0.892421	0.60103	
0.153328	1.47591	0.59237	
0.0704482	1.49501	0.571845	
0.0815241	1.40985	0.5	
0.0232779	1.38849	0.611701	
-0.40408	1.03727	1	
-0.427161	0.957142	1	
-0.5	1	0.9	
-0.385003	0.984343	0.895239	
0.409849	1.08152	0.5	
0.495293	1.06845	0.568597	
0.478555	1.14486	0.578348	
0.358556	1.12901	0.622438	
-0.176777	1.17678	0.5	
-0.117202	1.0938	0.5	
-0.107214	1.16612	0.5	
-0.147604	1.13485	0.630599	
0.5	1	0.8	
0.490343	1.0978	0.741226	
0.5	1	0.7	
0.402785	0.956541	0.723347	
0.153328	1.47591	0.59237	
0.168734	1.47067	0.701781	
0.0807477	1.49344	0.654224	
0.122935	1.34062	0.641539	
0.174678	0.531505	0.682891	
0.166834	0.675675	0.635152	
0.228991	0.555519	0.591901	
0.0872942	0.606698	0.613217	
0.323338	1.06432	0.5	
0.38174	0.996023	0.618569	
0.358556	1.12901	0.622438	
0.286804	1.05056	0.632278	
0.316847	1.38679	0.698616	
0.380873	1.32394	0.652261	
0.376757	1.32872	0.746468	
0.247079	1.26952	0.713352	
-0.47591	1.15333	0.907619	
-0.495012	1.07045	0.928155	
-0.493438	1.08074	0.845784	
-0.366596	1.14153	0.904615	
-0.317197	0.613495	0.931175	
-0.323938	0.619127	0.847739	
-0.313556	0.75907	0.879554	
-0.231903	0.663623	0.918546	
0.318292	0.91002	0.672643	
0.214567	0.972198	0.625898	
0.215224	0.853148	0.609812	
0.190918	0.90269	0.690758	
0.091716	0.737167	0.833117	
0.216076	0.69962	0.805486	
0.115192	0.637967	0.754396	
0.103438	0.745916	0.728223	
-0.183156	0.725887	0.5	
-0.232161	0.652547	0.5	
-0.152126	0.632735	0.5	
-0.245183	0.701709	0.623779	
0.347453	0.767839	0.5	
0.290856	0.760973	0.624503	
0.388274	0.684971	0.579193	
0.366244	0.831981	0.604187	
0.247079	1.26952	0.713352	
0.278791	1.29194	0.808109	
0.316847	1.38679	0.698616	
0.202645	1.34448	0.765823	
-0.243302	1.43681	0.906373	
-0.208232	1.3886	1	
-0.265836	1.3303	1	
-0.254431	1.30452	0.892066	
-0.0218546	0.89013	0.5	
-0.00979043	0.90873	0.615519	
-0.0773947	0.947213	0.5	
-0.105125	0.905315	0.589497	
-0.0833019	1.49301	0.655211	
0	1.5	0.6	
0	1.5	0.7	
0.0232779	1.38849	0.611701	
0.174678	1.4685	0.817109	
0.0814864	1.49332	0.847681	
0.0854243	1.49265	0.751403	
0.0991769	1.35538	0.76662	
-0.309811	0.742372	1	
-0.313556	0.75907	0.879554	
-0.233276	0.710046	1	
-0.231903	0.663623	0.918546	
-0.0698146	1.4951	0.5724	
-0.0927842	1.36919	0.612233	
-0.0815241	1.40985	0.5	
0.0232779	1.38849	0.611701	
0.153328	1.47591	0.59237	
0.0807477	1.49344	0.654224	
0.0704482	1.49501	0.571845	
0.0232779	1.38849	0.611701	
-0.152694	0.523886	0.59754	
-0.0833019	0.506988	0.655211	
-0.0698189	0.504899	0.572379	
-0.0201375	0.611237	0.611421	
-0.176777	0.823223	0.5	
-0.23097	0.904329	0.5	
-0.274113	0.816844	0.5	
-0.18639	0.799846	0.604991	
0.476114	1.15269	0.90246	
0.470916	1.16804	0.800126	
0.356074	1.09276	0.865831	
0.369343	1.17686	0.815886	
0.5	1	0.9	
0.493012	1.0833	0.844789	
0.5	1	0.8	
0.39915	0.990133	0.906414	
0.274113	0.816844	0.5	
0.365104	0.848769	0.5	
0.323338	0.935684	0.5	
0.366244	0.831981	0.604187	
-0.492649	0.914576	0.748597	
-0.493437	0.919252	0.845776	
-0.470668	0.831266	0.798219	
-0.371949	0.959293	0.777377	
-0.191342	0.53806	1	
-0.194549	0.636025	1	
-0.125573	0.58604	1	
-0.142163	0.63573	0.89494	
-0.153466	0.725651	1	
-0.217395	0.789549	1	
-0.121993	0.814118	1	
-0.11576	0.747665	0.899003	
0.259634	0.890927	1	
0.36821	0.862229	0.899925	
0.301328	0.82727	1	
0.248837	0.902557	0.889756	
0.287428	0.80533	0.842537	
0.175884	0.803375	0.889741	
0.216076	0.69962	0.805486	
0.248978	0.726366	0.903842	
-0.0830296	0.764069	0.733505	
0.00376155	0.753357	0.785071	
0.0309435	0.691773	0.673181	
0.0014459	0.786307	0.671061	
0.428195	1.25817	0.701755	
0.333887	1.18738	0.72436	
0.380873	1.32394	0.652261	
0.302151	1.24532	0.611118	
-0.182108	1.31839	1	
-0.104053	1.31415	1	
-0.149858	1.24003	1	
-0.082655	1.28145	0.901959	
0.183156	0.725887	0.5	
0.064316	0.676662	0.5	
0.152126	0.632735	0.5	
0.166834	0.675675	0.635152	
0.176777	0.823223	0.5	
0.23097	0.904329	0.5	
0.141405	0.904892	0.5	
0.215224	0.853148	0.609812	
-0.0111034	1.32302	0.823352	
0.0835299	1.37795	0.884613	
0.0991769	1.35538	0.76662	
0.00695298	1.40388	0.759796	
-0.429162	1.25655	0.668732	
-0.386847	1.31678	0.604131	
-0.386533	1.31716	0.700258	
-0.28145	1.24879	0.622796	
0.215886	1.00836	0.878507	
0.262314	1.07918	0.800995	
0.13567	1.10909	0.864428	
0.230545	1.11436	0.899122	
0.322164	0.745112	1	
0.386505	0.682803	0.931175	
0.261819	0.680973	1	
0.248978	0.726366	0.903842	
0.262314	1.07918	0.800995	
0.188892	1.15001	0.759985	
0.13567	1.10909	0.864428	
0.230545	1.11436	0.899122	
0.174678	1.4685	0.817109	
0.0991769	1.35538	0.76662	
0.168734	1.47067	0.701781	
0.202645	1.34448	0.765823	
-0.33007	1.27363	1	
-0.317937	1.3859	0.934362	
-0.265836	1.3303	1	
-0.254431	1.30452	0.892066	
0.316847	1.38679	0.698616	
0.278791	1.29194	0.808109	
0.317206	1.3865	0.799678	
0.202645	1.34448	0.765823	
0.5	1	0.6	
0.493389	1.08104	0.64715	
0.495293	1.06845	0.568597	
0.38174	0.996023	0.618569	
0.302677	1.24769	1	
0.257371	1.14566	1	
0.195163	1.21982	1	
0.193121	1.21116	0.891371	
-0.493437	0.919252	0.845776	
-0.5	1	0.8	
-0.5	1	0.9	
-0.385003	0.984343	0.895239	
-0.0979281	1.49032	0.75908	
-0.0833019	1.49301	0.655211	
0	1.5	0.7	
-0.0867584	1.36717	0.731965	
0.175091	0.697234	1	
0.206639	0.624902	1	
0.160008	0.641459	0.892261	
0.248978	0.726366	0.903842	
-0.5	1	0.7	
-0.5	1	0.8	
-0.492649	0.914576	0.748597	
-0.371949	0.959293	0.777377	
-0.122575	1.07331	1	
-0.0551398	1.05013	0.899099	
-0.0585581	0.999611	1	
-0.10341	0.960236	0.912939	
0.369516	1.15306	0.5	
0.274113	1.18316	0.5	
0.358556	1.12901	0.622438	
0.302151	1.24532	0.611118	
-0.191342	0.53806	1	
-0.125573	0.58604	1	
-0.144862	0.521445	0.921652	
-0.142163	0.63573	0.89494	
0.0165433	0.957567	0.5	
0.0631871	0.946434	0.577068	
0.0691997	1.04586	0.5	
-0.0230921	1.05776	0.595963	
0.376757	1.32872	0.746468	
0.428195	1.25817	0.701755	
0.4284	1.25782	0.795024	
0.333887	1.18738	0.72436	
-0.176777	1.17678	0.5	
-0.23097	1.09567	0.5	
-0.117202	1.0938	0.5	
-0.147604	1.13485	0.630599	
0.287378	0.983941	1	
0.344935	0.908506	1	
0.259634	0.890927	1	
0.248837	0.902557	0.889756	
-0.386559	1.31713	0.911838	
-0.386405	1.31732	0.798513	
-0.324048	1.38078	0.849851	
-0.254431	1.30452	0.892066	
0.287378	0.983941	1	
0.198196	0.963699	1	
0.226913	1.05511	1	
0.215886	1.00836	0.878507	
0.134677	1.30158	1	
0.214716	1.29378	1	
0.195163	1.21982	1	
0.193121	1.21116	0.891371	
-0.176777	0.823223	0.5	
-0.0892911	0.866366	0.5	
-0.157632	0.894674	0.5	
-0.105125	0.905315	0.589497	
0.261819	0.680973	1	
0.386505	0.682803	0.931175	
0.317233	0.613524	0.909527	
0.248978	0.726366	0.903842	
0.228991	1.44448	0.908099	
0.122568	1.39751	1	
0.201148	1.36807	1	
0.191342	1.46194	1	
0.267628	1.19145	0.824346	
0.176308	1.30549	0.856004	
0.193121	1.21116	0.891371	
0.278791	1.29194	0.808109	
-0.256028	1.42948	0.708421	
-0.3284	1.37703	0.756783	
-0.332191	1.3737	0.665943	
-0.271071	1.28122	0.731982	
0.439458	0.761512	0.575692	
0.347453	0.767839	0.5	
0.388274	0.684971	0.579193	
0.366244	0.831981	0.604187	
0.337852	1.21393	0.901789	
0.262414	1.28412	0.908895	
0.267628	1.19145	0.824346	
0.193121	1.21116	0.891371	
-0.427161	0.957142	1	
-0.345102	0.953927	1	
-0.396617	0.880856	1	
-0.385003	0.984343	0.895239	
0.183156	1.27411	0.5	
0.0956709	1.23097	0.5	
0.125807	1.18828	0.618322	
0.197701	1.26759	0.618397	
0.0376698	1.41981	1	
0.0728232	1.49467	0.926459	
0.122568	1.39751	1	
0.0835299	1.37795	0.884613	
0.0807477	0.506563	0.845776	
0.0854243	0.507351	0.748597	
0	0.5	0.8	
-0.000498869	0.611892	0.760268	
0.118763	0.611014	1	
0.0374329	0.572928	1	
0.0152702	0.660767	1	
0.0321461	0.626308	0.873516	
0.495293	1.06845	0.568597	
0.409849	1.08152	0.5	
0.398221	1	0.5	
0.38174	0.996023	0.618569	
0.166834	0.675675	0.635152	
0.115192	0.637967	0.754396	
0.0309435	0.691773	0.673181	
0.0872942	0.606698	0.613217	
-0.154491	0.98059	1	
-0.186081	0.888066	1	
-0.208534	0.966027	0.877319	
-0.10341	0.960236	0.912939	
0.388274	0.684971	0.579193	
0.374193	0.668368	0.665357	
0.415735	0.722215	0.634138	
0.290856	0.760973	0.624503	
-0.0979281	1.49032	0.75908	
-0.0867584	1.36717	0.731965	
0	1.5	0.7	
0.00695298	1.40388	0.759796	
-0.47067	1.16873	0.798201	
-0.47591	1.15333	0.907619	
-0.493438	1.08074	0.845784	
-0.366596	1.14153	0.904615	
0.242822	0.562922	0.847009	
0.235698	0.559039	0.931431	
0.317233	0.613524	0.909527	
0.160008	0.641459	0.892261	
-0.437078	0.757178	0.847009	
-0.386792	0.683153	0.801384	
-0.434698	0.752943	0.749501	
-0.297014	0.758037	0.771096	
0.176777	1.17678	0.5	
0.183156	1.27411	0.5	
0.0956709	1.23097	0.5	
0.125807	1.18828	0.618322	
-0.149858	1.24003	1	
-0.0896492	1.16615	1	
-0.185909	1.14844	1	
-0.14568	1.20044	0.877353	
0.267628	1.19145	0.824346	
0.337852	1.21393	0.901789	
0.356074	1.09276	0.865831	
0.369343	1.17686	0.815886	
0.476114	1.15269	0.90246	
0.470916	1.16804	0.800126	
0.493012	1.0833	0.844789	
0.356074	1.09276	0.865831	
0.386505	1.3172	0.568825	
0.317233	1.38648	0.590473	
0.281092	1.28109	0.5	
0.302151	1.24532	0.611118	
0.259634	0.890927	1	
0.344935	0.908506	1	
0.301328	0.82727	1	
0.36821	0.862229	0.899925	
-0.142163	0.63573	0.89494	
-0.11576	0.747665	0.899003	
-0.206133	0.729722	0.836828	
-0.231903	0.663623	0.918546	
0.0814864	0.506685	0.652319	
0	0.5	0.6	
0	0.5	0.7	
-0.0201375	0.611237	0.611421	
0.233424	0.783671	1	
0.175091	0.697234	1	
0.175884	0.803375	0.889741	
0.248978	0.726366	0.903842	
-0.415735	0.722215	1	
-0.440961	0.764302	0.931431	
-0.376173	0.802719	1	
-0.386476	0.682767	0.909527	
0.174678	0.531505	0.682891	
0.25658	0.570854	0.66876	
0.228991	0.555519	0.591901	
0.166834	0.675675	0.635152	
-0.495012	1.07045	0.928155	
-0.47591	1.15333	0.907619	
-0.41072	1.12459	1	
-0.366596	1.14153	0.904615	
0.201148	1.36807	1	
0.272282	1.33178	1	
0.214716	1.29378	1	
0.262414	1.28412	0.908895	
0.388274	0.684971	0.579193	
0.3168	0.613169	0.604097	
0.374193	0.668368	0.665357	
0.290856	0.760973	0.624503	
-0.323338	1.06432	0.5	
-0.25	1	0.5	
-0.23097	1.09567	0.5	
-0.218908	1.02882	0.620926	
0.240959	1.14173	0.663655	
0.247079	1.26952	0.713352	
0.333887	1.18738	0.72436	
0.302151	1.24532	0.611118	
0.146853	0.522052	0.584008	
0.174678	0.531505	0.682891	
0.228991	0.555519	0.591901	
0.0872942	0.606698	0.613217	
-0.308389	0.85948	0.835633	
-0.313556	0.75907	0.879554	
-0.297014	0.758037	0.771096	
-0.228331	0.826788	0.903124	
0.132272	0.778577	1	
0.233424	0.783671	1	
0.175091	0.697234	1	
0.175884	0.803375	0.889741	
0.267628	1.19145	0.824346	
0.188892	1.15001	0.759985	
0.262314	1.07918	0.800995	
0.230545	1.11436	0.899122	
0	1.5	0.9	
0.0814864	1.49332	0.847681	
0.0728232	1.49467	0.926459	
0.0835299	1.37795	0.884613	
0	0.5	0.9	
0.0807477	0.506563	0.845776	
0	0.5	0.8	
0.0321461	0.626308	0.873516	
0.317206	0.613502	0.700322	
0.247057	0.565302	0.749501	
0.316847	0.613208	0.801384	
0.253474	0.699951	0.70471	
0.175091	0.697234	1	
0.261819	0.680973	1	
0.206639	0.624902	1	
0.248978	0.726366	0.903842	
-0.5	1	1	
-0.40408	1.03727	1	
-0.427161	0.957142	1	
-0.5	1	0.9	
0.247057	1.4347	0.750499	
0.242822	1.43708	0.652991	
0.316847	1.38679	0.698616	
0.202645	1.34448	0.765823	
0.176777	1.17678	0.5	
0.0868435	1.13736	0.5	
0.157632	1.10533	0.5	
0.125807	1.18828	0.618322	
0.240959	1.14173	0.663655	
0.333887	1.18738	0.72436	
0.358556	1.12901	0.622438	
0.302151	1.24532	0.611118	
0.388274	1.31503	0.920807	
0.272282	1.33178	1	
0.3168	1.38683	0.895903	
0.262414	1.28412	0.908895	
0.476114	1.15269	0.90246	
0.493012	1.0833	0.844789	
0.495101	1.06982	0.927621	
0.356074	1.09276	0.865831	
0.493389	0.91896	0.85285	
0.469721	0.828647	0.838334	
0.36821	0.862229	0.899925	
0.382077	0.87532	0.792977	
-0.152126	0.632735	0.5	
-0.0815241	0.590151	0.5	
-0.064316	0.676662	0.5	
-0.115668	0.660224	0.648618	
0.3168	0.613169	0.604097	
0.25658	0.570854	0.66876	
0.317206	0.613502	0.700322	
0.253474	0.699951	0.70471	
0.46194	1.19134	1	
0.439458	1.23849	0.924308	
0.476114	1.15269	0.90246	
0.378521	1.20232	1	
8.18872e-17	1.39822	0.5	
0.0704482	1.49501	0.571845	
0	1.5	0.6	
0.0232779	1.38849	0.611701	
0.168734	0.529332	0.798219	
0.0854243	0.507351	0.748597	
0.0807477	0.506563	0.845776	
0.115192	0.637967	0.754396	
-0.386559	1.31713	0.911838	
-0.317937	1.3859	0.934362	
-0.33007	1.27363	1	
-0.254431	1.30452	0.892066	
0.267628	1.19145	0.824346	
0.356074	1.09276	0.865831	
0.262314	1.07918	0.800995	
0.369343	1.17686	0.815886	
0.476114	1.15269	0.90246	
0.394936	1.1198	1	
0.46194	1.19134	1	
0.378521	1.20232	1	
0.450285	1.21736	0.855302	
0.337852	1.21393	0.901789	
0.415735	1.27779	0.865862	
0.369343	1.17686	0.815886	
0.206639	0.624902	1	
0.235698	0.559039	0.931431	
0.191342	0.53806	1	
0.118763	0.611014	1	
-0.0840558	0.819296	0.633477	
-0.18639	0.799846	0.604991	
-0.193736	0.903788	0.633349	
-0.105125	0.905315	0.589497	
0.0956709	1.23097	0.5	
0.0868435	1.13736	0.5	
0.176777	1.17678	0.5	
0.125807	1.18828	0.618322	
0.317233	0.613524	0.909527	
0.386505	0.682803	0.931175	
0.380873	0.676062	0.847739	
0.248978	0.726366	0.903842	
0.460548	0.805333	0.76567	
0.328874	0.804808	0.729739	
0.428195	0.741835	0.798245	
0.382077	0.87532	0.792977	
0.242822	1.43708	0.652991	
0.247057	1.4347	0.750499	
0.168734	1.47067	0.701781	
0.202645	1.34448	0.765823	
-0.315029	0.611726	0.579193	
-0.238488	0.560542	0.575692	
-0.232161	0.652547	0.5	
-0.245183	0.701709	0.623779	
0.476114	0.847306	0.59754	
0.450285	0.782644	0.644698	
0.470916	0.831957	0.699874	
0.366244	0.831981	0.604187	
0.388274	1.31503	0.920807	
0.302677	1.24769	1	
0.272282	1.33178	1	
0.262414	1.28412	0.908895	
-0.218034	1.05414	1	
-0.154491	0.98059	1	
-0.249134	0.962669	1	
-0.208534	0.966027	0.877319	
-0.386792	0.683153	0.801384	
-0.297014	0.758037	0.771096	
-0.437078	0.757178	0.847009	
-0.313556	0.75907	0.879554	
0.267628	1.19145	0.824346	
0.262314	1.07918	0.800995	
0.356074	1.09276	0.865831	
0.230545	1.11436	0.899122	
0.274113	1.18316	0.5	
0.302151	1.24532	0.611118	
0.281092	1.28109	0.5	
0.197701	1.26759	0.618397	
-0.317937	1.3859	0.934362	
-0.243302	1.43681	0.906373	
-0.265836	1.3303	1	
-0.254431	1.30452	0.892066	
0.493389	0.91896	0.85285	
0.5	1	0.9	
0.5	1	0.8	
0.39915	0.990133	0.906414	
0	0.5	0.6	
-0.0201375	0.611237	0.611421	
0.0814864	0.506685	0.652319	
0.0872942	0.606698	0.613217	
0.262414	1.28412	0.908895	
0.193121	1.21116	0.891371	
0.176308	1.30549	0.856004	
0.278791	1.29194	0.808109	
-0.0258184	0.833057	1	
0.0383625	0.760787	1	
-0.0578538	0.743596	1	
-0.0183257	0.793213	0.875792	
0.233424	0.783671	1	
0.301328	0.82727	1	
0.322164	0.745112	1	
0.248978	0.726366	0.903842	
0.0309435	0.691773	0.673181	
0.115192	0.637967	0.754396	
0.166834	0.675675	0.635152	
0.103438	0.745916	0.728223	
-0.0815241	0.590151	0.5	
-0.064316	0.676662	0.5	
-0.115668	0.660224	0.648618	
-0.0201375	0.611237	0.611421	
-0.386476	0.682767	0.909527	
-0.278183	0.659732	1	
-0.353553	0.646447	1	
-0.317197	0.613495	0.931175	
0.4284	0.742176	0.704976	
0.376757	0.671284	0.753532	
0.428195	0.741835	0.798245	
0.328874	0.804808	0.729739	
-0.468473	1.17474	0.682816	
-0.47067	1.16873	0.798201	
-0.492656	1.08538	0.748652	
-0.355776	1.16297	0.774979	
0.267628	1.19145	0.824346	
0.333887	1.18738	0.72436	
0.247079	1.26952	0.713352	
0.278791	1.29194	0.808109	
0.235698	0.559039	0.931431	
0.118763	0.611014	1	
0.206639	0.624902	1	
0.160008	0.641459	0.892261	
0.153328	1.47591	0.59237	
0.242822	1.43708	0.652991	
0.168734	1.47067	0.701781	
0.122935	1.34062	0.641539	
-0.363339	0.8495	0.5	
-0.274113	0.816844	0.5	
-0.323338	0.935684	0.5	
-0.377424	0.892421	0.60103	
0.259634	0.890927	1	
0.344935	0.908506	1	
0.36821	0.862229	0.899925	
0.248837	0.902557	0.889756	
0.197542	0.7915	0.711395	
0.105164	0.85062	0.744059	
0.219433	0.887973	0.783321	
0.190918	0.90269	0.690758	
0.317206	1.3865	0.799678	
0.316847	1.38679	0.698616	
0.376757	1.32872	0.746468	
0.278791	1.29194	0.808109	
0.240959	1.14173	0.663655	
0.247079	1.26952	0.713352	
0.302151	1.24532	0.611118	
0.197701	1.26759	0.618397	
-0.40408	1.03727	1	
-0.5	1	0.9	
-0.495012	1.07045	0.928155	
-0.385003	0.984343	0.895239	
0.274113	1.18316	0.5	
0.323338	1.06432	0.5	
0.369516	1.15306	0.5	
0.358556	1.12901	0.622438	
-0.0698189	0.504899	0.572379	
0	0.5	0.6	
-3.15026e-17	0.601779	0.5	
-0.0201375	0.611237	0.611421	
0.3168	1.38683	0.895903	
0.277785	1.41573	1	
0.228991	1.44448	0.908099	
0.272282	1.33178	1	
0.323338	1.06432	0.5	
0.409849	1.08152	0.5	
0.358556	1.12901	0.622438	
0.38174	0.996023	0.618569	
-0.386476	0.682767	0.909527	
-0.376173	0.802719	1	
-0.309811	0.742372	1	
-0.313556	0.75907	0.879554	
0.5	1	0.7	
0.493389	1.08104	0.64715	
0.5	1	0.6	
0.38174	0.996023	0.618569	
0.470916	0.831957	0.699874	
0.4284	0.742176	0.704976	
0.460548	0.805333	0.76567	
0.328874	0.804808	0.729739	
0.176777	1.17678	0.5	
0.183156	1.27411	0.5	
0.125807	1.18828	0.618322	
0.197701	1.26759	0.618397	
-0.168043	0.529084	0.699874	
-0.257824	0.5716	0.704976	
-0.194667	0.539452	0.76567	
-0.172711	0.659579	0.756944	
-0.386405	1.31732	0.798513	
-0.437035	1.2429	0.847369	
-0.434718	1.24702	0.749442	
-0.355776	1.16297	0.774979	
0.102037	0.944747	1	
0.0375767	1.01852	1	
0.13371	1.03748	1	
0.0803871	1.00814	0.885647	
0.122568	1.39751	1	
0.228991	1.44448	0.908099	
0.146853	1.47795	0.915992	
0.191342	1.46194	1	
0.0309435	0.691773	0.673181	
0.103438	0.745916	0.728223	
0.075477	0.809328	0.60941	
0.0014459	0.786307	0.671061	
-0.0585581	0.999611	1	
0.00587698	0.925804	1	
-0.0902369	0.906851	1	
-0.10341	0.960236	0.912939	
0.3168	1.38683	0.895903	
0.25658	1.42915	0.83124	
0.317206	1.3865	0.799678	
0.278791	1.29194	0.808109	
-0.386476	0.682767	0.909527	
-0.317197	0.613495	0.931175	
-0.323938	0.619127	0.847739	
-0.313556	0.75907	0.879554	
0.100521	1.20361	1	
0.195163	1.21982	1	
0.16533	1.13018	1	
0.193121	1.21116	0.891371	
0.316847	0.613208	0.801384	
0.376757	0.671284	0.753532	
0.317206	0.613502	0.700322	
0.253474	0.699951	0.70471	
-0.122575	1.07331	1	
-0.0585581	0.999611	1	
-0.154491	0.98059	1	
-0.10341	0.960236	0.912939	
0.5	1	0.9	
0.495101	1.06982	0.927621	
0.493012	1.0833	0.844789	
0.39915	0.990133	0.906414	
0.0728232	1.49467	0.926459	
0.146853	1.47795	0.915992	
0.122568	1.39751	1	
0.0835299	1.37795	0.884613	
-0.115668	0.660224	0.648618	
-0.0201375	0.611237	0.611421	
-0.064316	0.676662	0.5	
-0.0421997	0.724204	0.59801	
0.25	1	0.5	
0.286804	1.05056	0.632278	
0.323338	1.06432	0.5	
0.201501	1.05838	0.584156	
0.317206	0.613502	0.700322	
0.374193	0.668368	0.665357	
0.3168	0.613169	0.604097	
0.253474	0.699951	0.70471	
0.247057	0.565302	0.749501	
0.242822	0.562922	0.847009	
0.316847	0.613208	0.801384	
0.216076	0.69962	0.805486	
-0.208232	1.3886	1	
-0.182108	1.31839	1	
-0.265836	1.3303	1	
-0.254431	1.30452	0.892066	
0.0815241	1.40985	0.5	
0.064316	1.32334	0.5	
0.122935	1.34062	0.641539	
0.0232779	1.38849	0.611701	
0.388274	0.684971	0.579193	
0.347453	0.767839	0.5	
0.278087	0.721913	0.5	
0.290856	0.760973	0.624503	
0.409849	0.918476	0.5	
0.495101	0.930181	0.572379	
0.398221	1	0.5	
0.38174	0.996023	0.618569	
0.323338	1.06432	0.5	
0.286804	1.05056	0.632278	
0.23097	1.09567	0.5	
0.201501	1.05838	0.584156	
-0.296764	0.859492	1	
-0.309811	0.742372	1	
-0.376173	0.802719	1	
-0.313556	0.75907	0.879554	
0.0807477	1.49344	0.654224	
0.0854243	1.49265	0.751403	
0	1.5	0.7	
0.00695298	1.40388	0.759796	
0.166518	0.870941	1	
0.175884	0.803375	0.889741	
0.132272	0.778577	1	
0.0761281	0.822015	0.902396	
-0.064316	1.32334	0.5	
0.064316	1.32334	0.5	
8.18872e-17	1.39822	0.5	
0.0232779	1.38849	0.611701	
-0.0267938	1.0921	1	
0.0375767	1.01852	1	
-0.0585581	0.999611	1	
-0.0551398	1.05013	0.899099	
0	0.5	1	
0	0.5	0.9	
-0.0444138	0.583252	1	
0.0374329	0.572928	1	
-0.274113	1.18316	0.5	
-0.183156	1.27411	0.5	
-0.280403	1.2804	0.5	
-0.28145	1.24879	0.622796	
-0.25	1	0.5	
-0.177191	1.03636	0.5	
-0.23097	1.09567	0.5	
-0.218908	1.02882	0.620926	
-0.0915272	0.659988	1	
-0.142163	0.63573	0.89494	
-0.153466	0.725651	1	
-0.11576	0.747665	0.899003	
-0.0578538	0.743596	1	
-0.0183257	0.793213	0.875792	
0.0383625	0.760787	1	
-0.0283413	0.698633	0.90895	
0.267628	1.19145	0.824346	
0.193121	1.21116	0.891371	
0.262414	1.28412	0.908895	
0.278791	1.29194	0.808109	
0.318292	0.91002	0.672643	
0.38174	0.996023	0.618569	
0.348128	1.05074	0.719677	
0.402785	0.956541	0.723347	
0.064316	1.32334	0.5	
0.152393	1.36791	0.5	
0.0815241	1.40985	0.5	
0.122935	1.34062	0.641539	
-0.280403	1.2804	0.5	
-0.386847	1.31678	0.604131	
-0.347453	1.23216	0.5	
-0.28145	1.24879	0.622796	
-0.0808186	0.989298	0.663479	
-0.00979043	0.90873	0.615519	
0.030532	1.00082	0.661954	
-0.0365827	0.936141	0.729399	
0.37256	0.810612	1	
0.417242	0.878937	1	
0.478555	0.855138	0.921652	
0.36821	0.862229	0.899925	
0.235698	0.559039	0.931431	
0.206639	0.624902	1	
0.277785	0.584265	1	
0.317233	0.613524	0.909527	
-0.309811	0.742372	1	
-0.233276	0.710046	1	
-0.278183	0.659732	1	
-0.231903	0.663623	0.918546	
-0.309811	0.742372	1	
-0.313556	0.75907	0.879554	
-0.296764	0.859492	1	
-0.228331	0.826788	0.903124	
-0.142163	0.63573	0.89494	
-0.11576	0.747665	0.899003	
-0.0915272	0.659988	1	
-0.0283413	0.698633	0.90895	
-0.477948	0.853147	0.584008	
-0.444481	0.771009	0.591901	
-0.363339	0.8495	0.5	
-0.377424	0.892421	0.60103	
-0.0258184	0.833057	1	
0.0703509	0.851998	1	
0.0383625	0.760787	1	
0.0761281	0.822015	0.902396	
-0.114443	1.01484	0.5	
-0.177191	1.03636	0.5	
-0.157632	0.968645	0.5	
-0.124649	1.04531	0.594053	
-0.064316	1.32334	0.5	
-0.183156	1.27411	0.5	
-0.0956709	1.23097	0.5	
-0.106349	1.24066	0.613882	
-0.5	1	0.9	
-0.427161	0.957142	1	
-0.495012	0.929552	0.928155	
-0.385003	0.984343	0.895239	
0.0728232	0.505332	0.573541	
0.0815241	0.590151	0.5	
-3.15026e-17	0.601779	0.5	
0.0872942	0.606698	0.613217	
-0.386847	1.31678	0.604131	
-0.314941	1.38835	0.579801	
-0.332191	1.3737	0.665943	
-0.28145	1.24879	0.622796	
-0.437035	1.2429	0.847369	
-0.47067	1.16873	0.798201	
-0.355776	1.16297	0.774979	
-0.366596	1.14153	0.904615	
-0.183156	1.27411	0.5	
-0.176777	1.17678	0.5	
-0.0956709	1.23097	0.5	
-0.106349	1.24066	0.613882	
0.16533	1.13018	1	
0.257371	1.14566	1	
0.230545	1.11436	0.899122	
0.193121	1.21116	0.891371	
0.176777	1.17678	0.5	
0.274113	1.18316	0.5	
0.183156	1.27411	0.5	
0.197701	1.26759	0.618397	
0.317206	0.613502	0.700322	
0.25658	0.570854	0.66876	
0.247057	0.565302	0.749501	
0.253474	0.699951	0.70471	
0.287378	0.983941	1	
0.259634	0.890927	1	
0.198196	0.963699	1	
0.248837	0.902557	0.889756	
-0.064316	0.676662	0.5	
-0.0201375	0.611237	0.611421	
0.064316	0.676662	0.5	
-0.0421997	0.724204	0.59801	
0.476114	1.15269	0.90246	
0.450285	1.21736	0.855302	
0.470916	1.16804	0.800126	
0.369343	1.17686	0.815886	
0.460548	1.19467	0.73433	
0.428195	1.25817	0.701755	
0.469721	1.17135	0.661666	
0.333887	1.18738	0.72436	
0.168734	1.47067	0.701781	
0.174678	1.4685	0.817109	
0.0854243	1.49265	0.751403	
0.0991769	1.35538	0.76662	
-0.167464	1.47112	0.699894	
-0.152637	1.47613	0.597671	
-0.0833019	1.49301	0.655211	
-0.0927842	1.36919	0.612233	
-3.15026e-17	0.601779	0.5	
0.064316	0.676662	0.5	
-0.064316	0.676662	0.5	
-0.0201375	0.611237	0.611421	
-0.323338	1.06432	0.5	
-0.409849	1.08152	0.5	
-0.397525	1	0.5	
-0.378892	1.09874	0.625908	
-0.332191	1.3737	0.665943	
-0.386533	1.31716	0.700258	
-0.386847	1.31678	0.604131	
-0.28145	1.24879	0.622796	
0.174678	1.4685	0.817109	
0.168734	1.47067	0.701781	
0.247057	1.4347	0.750499	
0.202645	1.34448	0.765823	
0.0309435	0.691773	0.673181	
-0.0201375	0.611237	0.611421	
-0.115668	0.660224	0.648618	
-0.0421997	0.724204	0.59801	
0.415735	0.722215	1	
0.386505	0.682803	0.931175	
0.322164	0.745112	1	
0.436762	0.756609	0.903062	
0.5	1	0.6	
0.495101	0.930181	0.572379	
0.493012	0.916698	0.655211	
0.38174	0.996023	0.618569	
-0.243302	1.43681	0.906373	
-0.324048	1.38078	0.849851	
-0.258315	1.4281	0.803104	
-0.254431	1.30452	0.892066	
0.25658	1.42915	0.83124	
0.317206	1.3865	0.799678	
0.278791	1.29194	0.808109	
0.202645	1.34448	0.765823	
-0.258165	0.571805	0.798245	
-0.323938	0.619127	0.847739	
-0.243391	0.563238	0.903062	
-0.231903	0.663623	0.918546	
0.378521	1.20232	1	
0.415735	1.27779	1	
0.439458	1.23849	0.924308	
0.337852	1.21393	0.901789	
-3.15026e-17	0.601779	0.5	
0.064316	0.676662	0.5	
-0.0201375	0.611237	0.611421	
0.0872942	0.606698	0.613217	
-0.0183257	0.793213	0.875792	
-0.0706186	0.688282	0.818117	
0.00376155	0.753357	0.785071	
-0.0283413	0.698633	0.90895	
0.0376698	1.41981	1	
-0.0411619	1.43035	1	
0	1.5	1	
0	1.5	0.9	
-0.492649	0.914576	0.748597	
-0.5	1	0.8	
-0.493437	0.919252	0.845776	
-0.371949	0.959293	0.777377	
-0.183156	0.725887	0.5	
-0.274113	0.816844	0.5	
-0.281585	0.718415	0.5	
-0.18639	0.799846	0.604991	
0.323338	1.06432	0.5	
0.323338	0.935684	0.5	
0.398221	1	0.5	
0.38174	0.996023	0.618569	
0.428195	1.25817	0.701755	
0.380873	1.32394	0.652261	
0.436762	1.24339	0.596938	
0.302151	1.24532	0.611118	
0.436762	0.756609	0.903062	
0.322164	0.745112	1	
0.415735	0.722215	1	
0.37256	0.810612	1	
0.317233	0.613524	0.909527	
0.206639	0.624902	1	
0.277785	0.584265	1	
0.261819	0.680973	1	
0.358556	1.12901	0.622438	
0.38174	0.996023	0.618569	
0.348128	1.05074	0.719677	
0.286804	1.05056	0.632278	
0.267628	1.19145	0.824346	
0.262414	1.28412	0.908895	
0.337852	1.21393	0.901789	
0.278791	1.29194	0.808109	
-0.0369856	0.814061	0.5	
-0.0956709	0.76903	0.5	
0	0.75	0.5	
-0.0421997	0.724204	0.59801	
-0.386498	0.682794	0.700322	
-0.386792	0.683153	0.801384	
-0.328716	0.623243	0.753532	
-0.297014	0.758037	0.771096	
-0.167464	1.47112	0.699894	
-0.0833019	1.49301	0.655211	
-0.0979281	1.49032	0.75908	
-0.0867584	1.36717	0.731965	
-0.386476	0.682767	0.909527	
-0.376173	0.802719	1	
-0.415735	0.722215	1	
-0.309811	0.742372	1	
-0.144862	0.521445	0.921652	
-0.0810399	0.506611	0.85285	
-0.171353	0.530279	0.838334	
-0.142163	0.63573	0.89494	
0.5	1	0.7	
0.5	1	0.6	
0.493012	0.916698	0.655211	
0.38174	0.996023	0.618569	
0.0956709	0.76903	0.5	
0.103403	0.84471	0.5	
0.0344957	0.828097	0.5	
0.075477	0.809328	0.60941	
0.353553	0.646447	0.5	
0.388274	0.684971	0.579193	
0.278087	0.721913	0.5	
0.3168	0.613169	0.604097	
-0.0411619	1.43035	1	
-0.119808	1.39485	1	
-0.0690617	1.49521	0.93079	
-0.0684719	1.38599	0.898819	
-0.153466	0.725651	1	
-0.142163	0.63573	0.89494	
-0.194549	0.636025	1	
-0.231903	0.663623	0.918546	
0.064316	1.32334	0.5	
0	1.25	0.5	
0.0956709	1.23097	0.5	
0.0261041	1.21709	0.59722	
-0.243391	0.563238	0.903062	
-0.194549	0.636025	1	
-0.191342	0.53806	1	
-0.142163	0.63573	0.89494	
0.183156	1.27411	0.5	
0.232161	1.34745	0.5	
0.152393	1.36791	0.5	
0.197701	1.26759	0.618397	
-0.444497	1.22896	0.591906	
-0.468473	1.17474	0.682816	
-0.477722	1.14759	0.583558	
-0.378892	1.09874	0.625908	
0.388274	1.31503	0.920807	
0.337852	1.21393	0.901789	
0.302677	1.24769	1	
0.262414	1.28412	0.908895	
0.0645888	1.34627	1	
0.0376698	1.41981	1	
0.122568	1.39751	1	
0.0835299	1.37795	0.884613	
0.25	1	0.5	
0.323338	1.06432	0.5	
0.23097	1.09567	0.5	
0.201501	1.05838	0.584156	
0.0728232	0.505332	0.573541	
-0.0201375	0.611237	0.611421	
0	0.5	0.6	
0.0872942	0.606698	0.613217	
0.470916	0.831957	0.699874	
0.382077	0.87532	0.792977	
0.490343	0.902203	0.758774	
0.402785	0.956541	0.723347	
0	0.5	0.9	
0.0704482	0.504988	0.928155	
0.0807477	0.506563	0.845776	
0.0321461	0.626308	0.873516	
0.360576	0.998064	1	
0.421425	0.957658	1	
0.344935	0.908506	1	
0.39915	0.990133	0.906414	
0.323338	0.935684	0.5	
0.365104	0.848769	0.5	
0.409849	0.918476	0.5	
0.366244	0.831981	0.604187	
0.183156	1.27411	0.5	
0.274113	1.18316	0.5	
0.281092	1.28109	0.5	
0.197701	1.26759	0.618397	
0.261819	0.680973	1	
0.353553	0.646447	1	
0.317233	0.613524	0.909527	
0.386505	0.682803	0.931175	
-0.185909	1.14844	1	
-0.279278	1.1257	1	
-0.250247	1.23307	1	
-0.2429	1.12372	0.891069	
-0.278183	0.659732	1	
-0.309811	0.742372	1	
-0.386476	0.682767	0.909527	
-0.353553	0.646447	1	
-0.353553	1.35355	0.5	
-0.280403	1.2804	0.5	
-0.314941	1.38835	0.579801	
-0.386847	1.31678	0.604131	
0.5	1	0.9	
0.421425	0.957658	1	
0.5	1	1	
0.39915	0.990133	0.906414	
0.4284	1.25782	0.795024	
0.333887	1.18738	0.72436	
0.460548	1.19467	0.73433	
0.369343	1.17686	0.815886	
0.16533	1.13018	1	
0.195163	1.21982	1	
0.257371	1.14566	1	
0.193121	1.21116	0.891371	
0.174678	1.4685	0.817109	
0.146853	1.47795	0.915992	
0.0814864	1.49332	0.847681	
0.0835299	1.37795	0.884613	
0.369516	1.15306	0.5	
0.347453	1.23216	0.5	
0.274113	1.18316	0.5	
0.302151	1.24532	0.611118	
-0.180037	1.30947	0.668767	
-0.271071	1.28122	0.731982	
-0.28145	1.24879	0.622796	
-0.206572	1.20934	0.689284	
-0.386792	0.683153	0.801384	
-0.386498	0.682794	0.700322	
-0.434698	0.752943	0.749501	
-0.297014	0.758037	0.771096	
0.421425	0.957658	1	
0.422937	1.04242	1	
0.5	1	1	
0.39915	0.990133	0.906414	
-0.309811	0.742372	1	
-0.296764	0.859492	1	
-0.217395	0.789549	1	
-0.228331	0.826788	0.903124	
-0.104053	1.31415	1	
-0.0684719	1.38599	0.898819	
-0.0261261	1.3467	1	
-0.082655	1.28145	0.901959	
-0.243391	0.563238	0.903062	
-0.191342	0.53806	1	
-0.144862	0.521445	0.921652	
-0.142163	0.63573	0.89494	
0.439458	1.23849	0.924308	
0.415735	1.27779	0.865862	
0.450285	1.21736	0.855302	
0.337852	1.21393	0.901789	
-0.315029	0.611726	0.579193	
-0.281585	0.718415	0.5	
-0.353553	0.646447	0.5	
-0.386831	0.6832	0.604097	
0.166518	0.870941	1	
0.132272	0.778577	1	
0.0703509	0.851998	1	
0.0761281	0.822015	0.902396	
-0.477722	1.14759	0.583558	
-0.409849	1.08152	0.5	
-0.363339	1.1505	0.5	
-0.378892	1.09874	0.625908	
-0.0578538	0.743596	1	
-0.11576	0.747665	0.899003	
-0.0183257	0.793213	0.875792	
-0.0283413	0.698633	0.90895	
0.374193	1.33163	0.834643	
0.262414	1.28412	0.908895	
0.3168	1.38683	0.895903	
0.278791	1.29194	0.808109	
0.369516	1.15306	0.5	
0.409849	1.08152	0.5	
0.478555	1.14486	0.578348	
0.358556	1.12901	0.622438	
-0.19416	1.46076	0.765941	
-0.167464	1.47112	0.699894	
-0.0979281	1.49032	0.75908	
-0.0867584	1.36717	0.731965	
0.247057	0.565302	0.749501	
0.174678	0.531505	0.682891	
0.168734	0.529332	0.798219	
0.115192	0.637967	0.754396	
-0.217395	0.789549	1	
-0.186081	0.888066	1	
-0.121993	0.814118	1	
-0.228331	0.826788	0.903124	
0.493389	1.08104	0.64715	
0.469721	1.17135	0.661666	
0.478555	1.14486	0.578348	
0.358556	1.12901	0.622438	
-0.0218546	0.89013	0.5	
0.0165433	0.957567	0.5	
-0.00979043	0.90873	0.615519	
0.0631871	0.946434	0.577068	
0.00512645	1.18472	1	
0.0692432	1.11129	1	
-0.0267938	1.0921	1	
0.0362445	1.10288	0.900124	
0.450285	0.782644	0.644698	
0.439458	0.761512	0.575692	
0.415735	0.722215	0.634138	
0.366244	0.831981	0.604187	
0.302677	1.24769	1	
0.331919	1.15546	1	
0.257371	1.14566	1	
0.337852	1.21393	0.901789	
0.5	1	0.7	
0.38174	0.996023	0.618569	
0.493012	0.916698	0.655211	
0.402785	0.956541	0.723347	
0.353553	0.646447	1	
0.261819	0.680973	1	
0.322164	0.745112	1	
0.386505	0.682803	0.931175	
0.376757	0.671284	0.753532	
0.374193	0.668368	0.665357	
0.317206	0.613502	0.700322	
0.253474	0.699951	0.70471	
-0.0706186	0.688282	0.818117	
-0.11576	0.747665	0.899003	
-0.142163	0.63573	0.89494	
-0.0283413	0.698633	0.90895	
0.436762	0.756609	0.903062	
0.37256	0.810612	1	
0.478555	0.855138	0.921652	
0.36821	0.862229	0.899925	
0.388274	1.31503	0.920807	
0.3168	1.38683	0.895903	
0.374193	1.33163	0.834643	
0.262414	1.28412	0.908895	
-0.281585	0.718415	0.5	
-0.315029	0.611726	0.579193	
-0.232161	0.652547	0.5	
-0.245183	0.701709	0.623779	
0.166518	0.870941	1	
0.198196	0.963699	1	
0.259634	0.890927	1	
0.248837	0.902557	0.889756	
-0.238625	1.43938	0.576642	
-0.151231	1.3651	0.5	
-0.191342	1.46194	0.5	
-0.152637	1.47613	0.597671	
0.185939	0.963014	0.5	
0.25	1	0.5	
0.163502	1.02984	0.5	
0.201501	1.05838	0.584156	
0.421425	0.957658	1	
0.5	1	0.9	
0.495293	0.931554	0.931403	
0.39915	0.990133	0.906414	
-0.154491	0.98059	1	
-0.186081	0.888066	1	
-0.249134	0.962669	1	
-0.208534	0.966027	0.877319	
-0.40408	1.03727	1	
-0.5	1	1	
-0.495012	1.07045	0.928155	
-0.5	1	0.9	
-0.440961	1.2357	0.931396	
-0.41072	1.12459	1	
-0.47591	1.15333	0.907619	
-0.366596	1.14153	0.904615	
-0.47591	0.846672	0.90763	
-0.440961	0.764302	0.931431	
-0.376173	0.802719	1	
-0.46194	0.808658	1	
-0.0915272	0.659988	1	
0.0152702	0.660767	1	
-0.0444138	0.583252	1	
-0.0283413	0.698633	0.90895	
0.478555	1.14486	0.578348	
0.436762	1.24339	0.596938	
0.46194	1.19134	0.5	
0.369516	1.15306	0.5	
0.4284	0.742176	0.704976	
0.428195	0.741835	0.798245	
0.460548	0.805333	0.76567	
0.328874	0.804808	0.729739	
0.0692432	1.11129	1	
0.0375767	1.01852	1	
-0.0267938	1.0921	1	
0.0362445	1.10288	0.900124	
0.272282	1.33178	1	
0.388274	1.31503	0.920807	
0.3168	1.38683	0.895903	
0.353553	1.35355	1	
0.409849	0.918476	0.5	
0.365104	0.848769	0.5	
0.476114	0.847306	0.59754	
0.366244	0.831981	0.604187	
-0.47591	0.846672	0.90763	
-0.376173	0.802719	1	
-0.396617	0.880856	1	
-0.46194	0.808658	1	
0.478555	0.855138	0.921652	
0.493389	0.91896	0.85285	
0.469721	0.828647	0.838334	
0.36821	0.862229	0.899925	
0.46194	0.808658	1	
0.478555	0.855138	0.921652	
0.37256	0.810612	1	
0.417242	0.878937	1	
0.326547	1.07249	1	
0.226913	1.05511	1	
0.257371	1.14566	1	
0.230545	1.11436	0.899122	
0	0.5	0.9	
-0.0684459	0.504707	0.931403	
0	0.5	1	
-0.0444138	0.583252	1	
-0.152694	0.523886	0.59754	
-0.152126	0.632735	0.5	
-0.191342	0.53806	0.5	
-0.238488	0.560542	0.575692	
0.0309435	0.691773	0.673181	
0.00376155	0.753357	0.785071	
0.103438	0.745916	0.728223	
0.0014459	0.786307	0.671061	
-0.0706186	0.688282	0.818117	
-0.0183257	0.793213	0.875792	
-0.11576	0.747665	0.899003	
-0.0283413	0.698633	0.90895	
0.0807477	1.49344	0.654224	
0	1.5	0.7	
0	1.5	0.6	
0.0232779	1.38849	0.611701	
-0.14499	1.47852	0.92371	
-0.171627	1.46962	0.839884	
-0.0811073	1.49338	0.853007	
-0.0684719	1.38599	0.898819	
0.5	1	0.9	
0.5	1	1	
0.422937	1.04242	1	
0.39915	0.990133	0.906414	
-0.0218546	0.89013	0.5	
0.0634445	0.898618	0.5	
0.0165433	0.957567	0.5	
0.0631871	0.946434	0.577068	
-0.415735	1.27779	1	
-0.386559	1.31713	0.911838	
-0.33007	1.27363	1	
-0.440961	1.2357	0.931396	
-0.315029	0.611726	0.579193	
-0.386831	0.6832	0.604097	
-0.331632	0.625807	0.665357	
-0.245183	0.701709	0.623779	
0.153328	0.52409	0.90763	
0.191342	0.53806	1	
0.235698	0.559039	0.931431	
0.118763	0.611014	1	
-0.477948	0.853147	0.584008	
-0.468495	0.825322	0.682891	
-0.444481	0.771009	0.591901	
-0.377424	0.892421	0.60103	
-0.440961	1.2357	0.931396	
-0.357396	1.18789	1	
-0.41072	1.12459	1	
-0.366596	1.14153	0.904615	
0.101275	0.91604	0.653562	
-0.00979043	0.90873	0.615519	
0.030532	1.00082	0.661954	
0.0631871	0.946434	0.577068	
0.247057	1.4347	0.750499	
0.316847	1.38679	0.698616	
0.317206	1.3865	0.799678	
0.202645	1.34448	0.765823	
-0.151231	1.3651	0.5	
-0.0815241	1.40985	0.5	
-0.152637	1.47613	0.597671	
-0.0927842	1.36919	0.612233	
-0.353553	1.35355	1	
-0.265836	1.3303	1	
-0.33007	1.27363	1	
-0.317937	1.3859	0.934362	
-0.495208	1.06906	0.569036	
-0.5	1	0.6	
-0.5	1	0.5	
-0.397525	1	0.5	
0.0165433	0.957567	0.5	
0.0691997	1.04586	0.5	
-0.0427935	1.02817	0.5	
-0.0230921	1.05776	0.595963	
0.469721	0.828647	0.838334	
0.460548	0.805333	0.76567	
0.428195	0.741835	0.798245	
0.382077	0.87532	0.792977	
-0.397525	1	0.5	
-0.5	1	0.6	
-0.5	1	0.5	
-0.494668	0.927177	0.573541	
0.495293	1.06845	0.568597	
0.5	1	0.5	
0.5	1	0.6	
0.398221	1	0.5	
0.235698	0.559039	0.931431	
0.153328	0.52409	0.90763	
0.118763	0.611014	1	
0.160008	0.641459	0.892261	
-0.0956709	0.76903	0.5	
-0.176777	0.823223	0.5	
-0.183156	0.725887	0.5	
-0.18639	0.799846	0.604991	
0	0.5	0.7	
0	0.5	0.6	
-0.0833019	0.506988	0.655211	
-0.0201375	0.611237	0.611421	
-3.15026e-17	0.601779	0.5	
0	0.5	0.5	
0.0728232	0.505332	0.573541	
0	0.5	0.6	
0	1.5	0.6	
8.18872e-17	1.39822	0.5	
0	1.5	0.5	
0.0704482	1.49501	0.571845	
-0.47591	1.15333	0.907619	
-0.440961	1.2357	0.931396	
-0.46194	1.19134	1	
-0.41072	1.12459	1	
0.5	1	1	
0.495293	0.931554	0.931403	
0.421425	0.957658	1	
0.5	1	0.9	
-0.117202	1.0938	0.5	
0.000305103	1.09462	0.5	
-0.0392044	1.16291	0.5	
-0.0230921	1.05776	0.595963	
0.272282	1.33178	1	
0.302677	1.24769	1	
0.388274	1.31503	0.920807	
0.353553	1.35355	1	
0	0.5	0.5	
-3.15026e-17	0.601779	0.5	
-0.0698189	0.504899	0.572379	
0	0.5	0.6	
0.5	1	0.6	
0.5	1	0.5	
0.495101	0.930181	0.572379	
0.398221	1	0.5	
-0.0698146	1.4951	0.5724	
8.18872e-17	1.39822	0.5	
0	1.5	0.5	
0	1.5	0.6	
0.428195	1.25817	0.701755	
0.460548	1.19467	0.73433	
0.4284	1.25782	0.795024	
0.333887	1.18738	0.72436	
-0.00643767	0.847524	0.748532	
0.00376155	0.753357	0.785071	
-0.0830296	0.764069	0.733505	
0.0014459	0.786307	0.671061	
0.0704482	1.49501	0.571845	
8.18872e-17	1.39822	0.5	
0.0815241	1.40985	0.5	
0.0232779	1.38849	0.611701	
-0.444481	0.771009	0.591901	
-0.363339	0.8495	0.5	
-0.46194	0.808658	0.5	
-0.477948	0.853147	0.584008	
-0.265836	1.3303	1	
-0.250247	1.23307	1	
-0.33007	1.27363	1	
-0.254431	1.30452	0.892066	
-0.194667	0.539452	0.76567	
-0.257824	0.5716	0.704976	
-0.258165	0.571805	0.798245	
-0.172711	0.659579	0.756944	
0	1.5	0.8	
0.0854243	1.49265	0.751403	
0.0814864	1.49332	0.847681	
0.00695298	1.40388	0.759796	
-0.243391	0.563238	0.903062	
-0.194549	0.636025	1	
-0.142163	0.63573	0.89494	
-0.231903	0.663623	0.918546	
0.388274	1.31503	0.920807	
0.439458	1.23849	0.924308	
0.415735	1.27779	1	
0.337852	1.21393	0.901789	
-0.277785	0.584265	0.634138	
-0.315029	0.611726	0.579193	
-0.331632	0.625807	0.665357	
-0.245183	0.701709	0.623779	
-0.477722	1.14759	0.583558	
-0.363339	1.1505	0.5	
-0.46194	1.19134	0.5	
-0.444497	1.22896	0.591906	
-0.0811073	1.49338	0.853007	
0	1.5	0.9	
-0.0690617	1.49521	0.93079	
-0.0684719	1.38599	0.898819	
-0.477722	1.14759	0.583558	
-0.495208	1.06906	0.569036	
-0.409849	1.08152	0.5	
-0.378892	1.09874	0.625908	
-0.119808	1.39485	1	
-0.0690617	1.49521	0.93079	
-0.0975452	1.49039	1	
-0.0411619	1.43035	1	
-0.153466	0.725651	1	
-0.0915272	0.659988	1	
-0.194549	0.636025	1	
-0.142163	0.63573	0.89494	
0.353553	1.35355	0.5	
0.281092	1.28109	0.5	
0.386505	1.3172	0.568825	
0.317233	1.38648	0.590473	
-0.064316	0.676662	0.5	
0.064316	0.676662	0.5	
0	0.75	0.5	
-0.0421997	0.724204	0.59801	
0.323338	1.06432	0.5	
0.398221	1	0.5	
0.409849	1.08152	0.5	
0.38174	0.996023	0.618569	
0.0815241	0.590151	0.5	
0.146853	0.522052	0.584008	
0.152126	0.632735	0.5	
0.0872942	0.606698	0.613217	
-0.386559	1.31713	0.911838	
-0.353553	1.35355	1	
-0.33007	1.27363	1	
-0.317937	1.3859	0.934362	
0.4284	1.25782	0.795024	
0.450285	1.21736	0.855302	
0.415735	1.27779	0.865862	
0.369343	1.17686	0.815886	
-0.493437	0.919252	0.845776	
-0.5	1	0.9	
-0.495012	0.929552	0.928155	
-0.385003	0.984343	0.895239	
0.232161	0.652547	0.5	
0.183156	0.725887	0.5	
0.152126	0.632735	0.5	
0.166834	0.675675	0.635152	
-0.386405	1.31732	0.798513	
-0.386533	1.31716	0.700258	
-0.3284	1.37703	0.756783	
-0.271071	1.28122	0.731982	
0.214716	1.29378	1	
0.262414	1.28412	0.908895	
0.195163	1.21982	1	
0.193121	1.21116	0.891371	
-0.0392044	1.16291	0.5	
0.028723	1.17517	0.5	
0	1.25	0.5	
0.0261041	1.21709	0.59722	
-3.15026e-17	0.601779	0.5	
-0.0815241	0.590151	0.5	
-0.0698189	0.504899	0.572379	
-0.0201375	0.611237	0.611421	
-0.357396	1.18789	1	
-0.415735	1.27779	1	
-0.33007	1.27363	1	
-0.440961	1.2357	0.931396	
-0.437035	1.2429	0.847369	
-0.47591	1.15333	0.907619	
-0.47067	1.16873	0.798201	
-0.366596	1.14153	0.904615	
-0.154491	0.98059	1	
-0.0902369	0.906851	1	
-0.186081	0.888066	1	
-0.10341	0.960236	0.912939	
0.5	1	0.9	
0.422937	1.04242	1	
0.495101	1.06982	0.927621	
0.39915	0.990133	0.906414	
0.274113	0.816844	0.5	
0.290856	0.760973	0.624503	
0.347453	0.767839	0.5	
0.366244	0.831981	0.604187	
-0.31121	1.03591	1	
-0.345102	0.953927	1	
-0.40408	1.03727	1	
-0.385003	0.984343	0.895239	
0.146853	0.522052	0.584008	
0.228991	0.555519	0.591901	
0.191342	0.53806	0.5	
0.152126	0.632735	0.5	
0.439458	0.761512	0.575692	
0.46194	0.808658	0.5	
0.365104	0.848769	0.5	
0.366244	0.831981	0.604187	
-0.0267938	1.0921	1	
-0.0585581	0.999611	1	
-0.122575	1.07331	1	
-0.0551398	1.05013	0.899099	
-0.14499	1.47852	0.92371	
-0.0690617	1.49521	0.93079	
-0.119808	1.39485	1	
-0.0684719	1.38599	0.898819	
0.469721	1.17135	0.661666	
0.436762	1.24339	0.596938	
0.478555	1.14486	0.578348	
0.358556	1.12901	0.622438	
0.0728232	0.505332	0.573541	
0	0.5	0.6	
0.0814864	0.506685	0.652319	
0.0872942	0.606698	0.613217	
-0.386476	0.682767	0.909527	
-0.323938	0.619127	0.847739	
-0.386792	0.683153	0.801384	
-0.313556	0.75907	0.879554	
-0.46194	1.19134	1	
-0.440961	1.2357	0.931396	
-0.357396	1.18789	1	
-0.41072	1.12459	1	
0.46194	0.808658	1	
0.478555	0.855138	0.921652	
0.436762	0.756609	0.903062	
0.37256	0.810612	1	
-0.104053	1.31415	1	
-0.0261261	1.3467	1	
-0.0537386	1.25516	1	
-0.082655	1.28145	0.901959	
0.233424	0.783671	1	
0.132272	0.778577	1	
0.166518	0.870941	1	
0.175884	0.803375	0.889741	
0.476114	0.847306	0.59754	
0.365104	0.848769	0.5	
0.46194	0.808658	0.5	
0.366244	0.831981	0.604187	
0.0376698	1.41981	1	
0.122568	1.39751	1	
0.0728232	1.49467	0.926459	
0.0975452	1.49039	1	
-0.493315	0.918514	0.652319	
-0.468495	0.825322	0.682891	
-0.477948	0.853147	0.584008	
-0.377424	0.892421	0.60103	
-0.274113	0.816844	0.5	
-0.183156	0.725887	0.5	
-0.176777	0.823223	0.5	
-0.18639	0.799846	0.604991	
-0.0977967	0.509657	0.758774	
0	0.5	0.8	
0	0.5	0.7	
-0.000498869	0.611892	0.760268	
0.439458	0.761512	0.575692	
0.476114	0.847306	0.59754	
0.46194	0.808658	0.5	
0.366244	0.831981	0.604187	
-0.434718	1.24702	0.749442	
-0.47067	1.16873	0.798201	
-0.468473	1.17474	0.682816	
-0.355776	1.16297	0.774979	
0.386505	1.3172	0.568825	
0.380873	1.32394	0.652261	
0.317233	1.38648	0.590473	
0.302151	1.24532	0.611118	
0.168734	0.529332	0.798219	
0.174678	0.531505	0.682891	
0.0854243	0.507351	0.748597	
0.115192	0.637967	0.754396	
-0.0537386	1.25516	1	
-0.149858	1.24003	1	
-0.104053	1.31415	1	
-0.082655	1.28145	0.901959	
-0.5	1	1	
-0.427161	0.957142	1	
-0.495012	0.929552	0.928155	
-0.5	1	0.9	
-0.233276	0.710046	1	
-0.153466	0.725651	1	
-0.194549	0.636025	1	
-0.231903	0.663623	0.918546	
-0.0578538	0.743596	1	
-0.0915272	0.659988	1	
-0.11576	0.747665	0.899003	
-0.0283413	0.698633	0.90895	
0.347453	1.23216	0.5	
0.436762	1.24339	0.596938	
0.386505	1.3172	0.568825	
0.302151	1.24532	0.611118	
-0.386533	1.31716	0.700258	
-0.332191	1.3737	0.665943	
-0.3284	1.37703	0.756783	
-0.271071	1.28122	0.731982	
0.470916	0.831957	0.699874	
0.490343	0.902203	0.758774	
0.493012	0.916698	0.655211	
0.402785	0.956541	0.723347	
0.495293	0.931554	0.931403	
0.5	1	0.9	
0.493389	0.91896	0.85285	
0.39915	0.990133	0.906414	
0.278087	0.721913	0.5	
0.232161	0.652547	0.5	
0.353553	0.646447	0.5	
0.3168	0.613169	0.604097	
0.175091	0.697234	1	
0.118763	0.611014	1	
0.097631	0.704268	1	
0.160008	0.641459	0.892261	
-0.265836	1.3303	1	
-0.182108	1.31839	1	
-0.250247	1.23307	1	
-0.254431	1.30452	0.892066	
0.0956709	1.23097	0.5	
0	1.25	0.5	
0.028723	1.17517	0.5	
0.0261041	1.21709	0.59722	
-0.0261261	1.3467	1	
-0.104053	1.31415	1	
-0.119808	1.39485	1	
-0.0684719	1.38599	0.898819	
-0.477722	1.14759	0.583558	
-0.493066	1.08298	0.651653	
-0.495208	1.06906	0.569036	
-0.378892	1.09874	0.625908	
-0.0698146	1.4951	0.5724	
-0.152637	1.47613	0.597671	
-0.0815241	1.40985	0.5	
-0.0927842	1.36919	0.612233	
0.365104	0.848769	0.5	
0.347453	0.767839	0.5	
0.439458	0.761512	0.575692	
0.366244	0.831981	0.604187	
-0.280403	1.2804	0.5	
-0.353553	1.35355	0.5	
-0.347453	1.23216	0.5	
-0.386847	1.31678	0.604131	
-0.0578538	0.743596	1	
-0.0915272	0.659988	1	
-0.153466	0.725651	1	
-0.11576	0.747665	0.899003	
-0.427161	0.957142	1	
-0.396617	0.880856	1	
-0.490393	0.902455	1	
-0.495012	0.929552	0.928155	
0.323338	0.935684	0.5	
0.409849	0.918476	0.5	
0.398221	1	0.5	
0.38174	0.996023	0.618569	
-0.347453	0.767839	0.5	
-0.353553	0.646447	0.5	
-0.281585	0.718415	0.5	
-0.386831	0.6832	0.604097	
0.191342	1.46194	0.5	
0.235698	1.44096	0.568569	
0.153328	1.47591	0.59237	
0.152393	1.36791	0.5	
-0.218034	1.05414	1	
-0.279278	1.1257	1	
-0.185909	1.14844	1	
-0.2429	1.12372	0.891069	
0.122568	1.39751	1	
0.0728232	1.49467	0.926459	
0.0975452	1.49039	1	
0.146853	1.47795	0.915992	
0.0975452	0.509607	1	
0.0374329	0.572928	1	
0.118763	0.611014	1	
0.0704482	0.504988	0.928155	
0.388274	1.31503	0.920807	
0.415735	1.27779	0.865862	
0.439458	1.23849	0.924308	
0.337852	1.21393	0.901789	
0.176777	0.823223	0.5	
0.274113	0.816844	0.5	
0.23097	0.904329	0.5	
0.215224	0.853148	0.609812	
-0.0411619	1.43035	1	
-0.0690617	1.49521	0.93079	
0	1.5	1	
0	1.5	0.9	
-0.125573	0.58604	1	
-0.194549	0.636025	1	
-0.0915272	0.659988	1	
-0.142163	0.63573	0.89494	
0.174678	1.4685	0.817109	
0.247057	1.4347	0.750499	
0.25658	1.42915	0.83124	
0.202645	1.34448	0.765823	
-0.409849	0.918476	0.5	
-0.323338	0.935684	0.5	
-0.397525	1	0.5	
-0.377424	0.892421	0.60103	
0.281092	1.28109	0.5	
0.232161	1.34745	0.5	
0.183156	1.27411	0.5	
0.197701	1.26759	0.618397	
-0.0444138	0.583252	1	
-0.125573	0.58604	1	
-0.0684459	0.504707	0.931403	
-0.0975452	0.509607	1	
0.0383625	0.760787	1	
0.0703509	0.851998	1	
0.132272	0.778577	1	
0.0761281	0.822015	0.902396	
0.5	1	1	
0.5	1	0.9	
0.422937	1.04242	1	
0.495101	1.06982	0.927621	
0.490393	1.09755	1	
0.495101	1.06982	0.927621	
0.394936	1.1198	1	
0.476114	1.15269	0.90246	
0.0807477	1.49344	0.654224	
0	1.5	0.6	
0.0704482	1.49501	0.571845	
0.0232779	1.38849	0.611701	
0.0728232	1.49467	0.926459	
0.0376698	1.41981	1	
0	1.5	1	
0	1.5	0.9	
-0.0892911	0.866366	0.5	
-0.0218546	0.89013	0.5	
-0.0773947	0.947213	0.5	
-0.105125	0.905315	0.589497	
0.168734	0.529332	0.798219	
0.153328	0.52409	0.90763	
0.242822	0.562922	0.847009	
0.160008	0.641459	0.892261	
-0.0833019	1.49301	0.655211	
-0.152637	1.47613	0.597671	
-0.0698146	1.4951	0.5724	
-0.0927842	1.36919	0.612233	
-3.15026e-17	0.601779	0.5	
0.0815241	0.590151	0.5	
0.064316	0.676662	0.5	
0.0872942	0.606698	0.613217	
-0.0833019	0.506988	0.655211	
0	0.5	0.6	
-0.0698189	0.504899	0.572379	
-0.0201375	0.611237	0.611421	
0.470916	0.831957	0.699874	
0.460548	0.805333	0.76567	
0.490343	0.902203	0.758774	
0.382077	0.87532	0.792977	
0.0814864	1.49332	0.847681	
0.146853	1.47795	0.915992	
0.0728232	1.49467	0.926459	
0.0835299	1.37795	0.884613	
0	0.5	1	
0	0.5	0.9	
0.0374329	0.572928	1	
0.0704482	0.504988	0.928155	
0.369516	1.15306	0.5	
0.323338	1.06432	0.5	
0.409849	1.08152	0.5	
0.358556	1.12901	0.622438	
-0.477722	1.14759	0.583558	
-0.468473	1.17474	0.682816	
-0.493066	1.08298	0.651653	
-0.378892	1.09874	0.625908	
-0.440961	0.764302	0.931431	
-0.386476	0.682767	0.909527	
-0.437078	0.757178	0.847009	
-0.313556	0.75907	0.879554	
0.386505	1.3172	0.568825	
0.281092	1.28109	0.5	
0.347453	1.23216	0.5	
0.302151	1.24532	0.611118	
0.301328	0.82727	1	
0.344935	0.908506	1	
0.37256	0.810612	1	
0.36821	0.862229	0.899925	
-0.363339	0.8495	0.5	
-0.409849	0.918476	0.5	
-0.477948	0.853147	0.584008	
-0.377424	0.892421	0.60103	
-0.40408	1.03727	1	
-0.345102	0.953927	1	
-0.427161	0.957142	1	
-0.385003	0.984343	0.895239	
-0.0427935	1.02817	0.5	
-0.117202	1.0938	0.5	
-0.124649	1.04531	0.594053	
-0.0230921	1.05776	0.595963	
0.436762	1.24339	0.596938	
0.347453	1.23216	0.5	
0.46194	1.19134	0.5	
0.369516	1.15306	0.5	
0.490343	0.902203	0.758774	
0.469721	0.828647	0.838334	
0.493389	0.91896	0.85285	
0.382077	0.87532	0.792977	
-0.0690617	1.49521	0.93079	
-0.0975452	1.49039	1	
-0.14499	1.47852	0.92371	
-0.119808	1.39485	1	
0.417242	0.878937	1	
0.490393	0.902455	1	
0.495293	0.931554	0.931403	
0.421425	0.957658	1	
-0.490393	1.09755	1	
-0.495012	1.07045	0.928155	
-0.41072	1.12459	1	
-0.40408	1.03727	1	
-0.0411619	1.43035	1	
-0.0261261	1.3467	1	
-0.119808	1.39485	1	
-0.0684719	1.38599	0.898819	
-0.153466	0.725651	1	
-0.121993	0.814118	1	
-0.0578538	0.743596	1	
-0.11576	0.747665	0.899003	
0.374193	1.33163	0.834643	
0.3168	1.38683	0.895903	
0.317206	1.3865	0.799678	
0.278791	1.29194	0.808109	
-0.117202	1.0938	0.5	
-0.114443	1.01484	0.5	
-0.0427935	1.02817	0.5	
-0.124649	1.04531	0.594053	
0.495101	1.06982	0.927621	
0.394936	1.1198	1	
0.422937	1.04242	1	
0.490393	1.09755	1	
0.386505	1.3172	0.568825	
0.436762	1.24339	0.596938	
0.380873	1.32394	0.652261	
0.302151	1.24532	0.611118	
-0.47591	1.15333	0.907619	
-0.437035	1.2429	0.847369	
-0.440961	1.2357	0.931396	
-0.366596	1.14153	0.904615	
-0.151231	1.3651	0.5	
-0.0815241	1.40985	0.5	
-0.191342	1.46194	0.5	
-0.152637	1.47613	0.597671	
0.476114	0.847306	0.59754	
0.409849	0.918476	0.5	
0.46194	0.808658	0.5	
0.365104	0.848769	0.5	
0	0.5	0.8	
0.0854243	0.507351	0.748597	
0	0.5	0.7	
-0.000498869	0.611892	0.760268	
0.344935	0.908506	1	
0.417242	0.878937	1	
0.37256	0.810612	1	
0.36821	0.862229	0.899925	
0.146853	0.522052	0.584008	
0.0814864	0.506685	0.652319	
0.174678	0.531505	0.682891	
0.0872942	0.606698	0.613217	
-0.0815241	0.590151	0.5	
-0.152126	0.632735	0.5	
-0.191342	0.53806	0.5	
-0.152694	0.523886	0.59754	
-0.317937	1.3859	0.934362	
-0.324048	1.38078	0.849851	
-0.243302	1.43681	0.906373	
-0.254431	1.30452	0.892066	
-0.386476	0.682767	0.909527	
-0.386792	0.683153	0.801384	
-0.437078	0.757178	0.847009	
-0.313556	0.75907	0.879554	
-0.217395	0.789549	1	
-0.296764	0.859492	1	
-0.186081	0.888066	1	
-0.228331	0.826788	0.903124	
0.141405	0.904892	0.5	
0.106675	0.966314	0.5	
0.0634445	0.898618	0.5	
0.0631871	0.946434	0.577068	
0.118763	0.611014	1	
0.153328	0.52409	0.90763	
0.0975452	0.509607	1	
0.0704482	0.504988	0.928155	
-0.14499	1.47852	0.92371	
-0.0811073	1.49338	0.853007	
-0.0690617	1.49521	0.93079	
-0.0684719	1.38599	0.898819	
-0.415735	1.27779	0.5	
-0.444497	1.22896	0.591906	
-0.347453	1.23216	0.5	
-0.386847	1.31678	0.604131	
-0.386559	1.31713	0.911838	
-0.324048	1.38078	0.849851	
-0.317937	1.3859	0.934362	
-0.254431	1.30452	0.892066	
-0.347453	0.767839	0.5	
-0.415735	0.722215	0.5	
-0.386831	0.6832	0.604097	
-0.444481	0.771009	0.591901	
0.232161	0.652547	0.5	
0.228991	0.555519	0.591901	
0.277785	0.584265	0.5	
0.3168	0.613169	0.604097	
-0.274113	1.18316	0.5	
-0.280403	1.2804	0.5	
-0.347453	1.23216	0.5	
-0.28145	1.24879	0.622796	
0.25658	1.42915	0.83124	
0.247057	1.4347	0.750499	
0.317206	1.3865	0.799678	
0.202645	1.34448	0.765823	
0.274113	0.816844	0.5	
0.278087	0.721913	0.5	
0.347453	0.767839	0.5	
0.290856	0.760973	0.624503	
0	1.5	0.8	
-0.0979281	1.49032	0.75908	
0	1.5	0.7	
0.00695298	1.40388	0.759796	
-0.281585	0.718415	0.5	
-0.232161	0.652547	0.5	
-0.183156	0.725887	0.5	
-0.245183	0.701709	0.623779	
0.206639	0.624902	1	
0.118763	0.611014	1	
0.175091	0.697234	1	
0.160008	0.641459	0.892261	
-0.396617	0.880856	1	
-0.490393	0.902455	1	
-0.495012	0.929552	0.928155	
-0.47591	0.846672	0.90763	
-0.409849	1.08152	0.5	
-0.323338	1.06432	0.5	
-0.363339	1.1505	0.5	
-0.378892	1.09874	0.625908	
-0.494668	0.927177	0.573541	
-0.493315	0.918514	0.652319	
-0.477948	0.853147	0.584008	
-0.377424	0.892421	0.60103	
-0.444497	1.22896	0.591906	
-0.363339	1.1505	0.5	
-0.46194	1.19134	0.5	
-0.347453	1.23216	0.5	
-0.347453	0.767839	0.5	
-0.363339	0.8495	0.5	
-0.46194	0.808658	0.5	
-0.444481	0.771009	0.591901	
0.302677	1.24769	1	
0.195163	1.21982	1	
0.214716	1.29378	1	
0.262414	1.28412	0.908895	
-0.0773947	0.947213	0.5	
-0.157632	0.968645	0.5	
-0.157632	0.894674	0.5	
-0.105125	0.905315	0.589497	
0.152126	0.632735	0.5	
0.228991	0.555519	0.591901	
0.191342	0.53806	0.5	
0.232161	0.652547	0.5	
-0.243391	0.563238	0.903062	
-0.144862	0.521445	0.921652	
-0.171353	0.530279	0.838334	
-0.142163	0.63573	0.89494	
-0.243391	0.563238	0.903062	
-0.277785	0.584265	1	
-0.194549	0.636025	1	
-0.231903	0.663623	0.918546	
0.353553	1.35355	0.5	
0.281092	1.28109	0.5	
0.317233	1.38648	0.590473	
0.232161	1.34745	0.5	
0.469721	0.828647	0.838334	
0.436762	0.756609	0.903062	
0.478555	0.855138	0.921652	
0.36821	0.862229	0.899925	
0.257371	1.14566	1	
0.226913	1.05511	1	
0.16533	1.13018	1	
0.230545	1.11436	0.899122	
-0.0975452	0.509607	1	
-0.125573	0.58604	1	
-0.0684459	0.504707	0.931403	
-0.144862	0.521445	0.921652	
-0.437035	1.2429	0.847369	
-0.47067	1.16873	0.798201	
-0.434718	1.24702	0.749442	
-0.355776	1.16297	0.774979	
-0.409849	0.918476	0.5	
-0.46194	0.808658	0.5	
-0.363339	0.8495	0.5	
-0.477948	0.853147	0.584008	
0.0815241	1.40985	0.5	
0.191342	1.46194	0.5	
0.153328	1.47591	0.59237	
0.152393	1.36791	0.5	
0.317206	1.3865	0.799678	
0.376757	1.32872	0.746468	
0.374193	1.33163	0.834643	
0.278791	1.29194	0.808109	
0.106675	0.966314	0.5	
0.0691997	1.04586	0.5	
0.0165433	0.957567	0.5	
0.0631871	0.946434	0.577068	
-0.397525	1	0.5	
-0.5	1	0.5	
-0.409849	0.918476	0.5	
-0.494668	0.927177	0.573541	
-0.0427935	1.02817	0.5	
0.000305103	1.09462	0.5	
-0.117202	1.0938	0.5	
-0.0230921	1.05776	0.595963	
0.0815241	0.590151	0.5	
0.152126	0.632735	0.5	
0.064316	0.676662	0.5	
0.0872942	0.606698	0.613217	
-0.363339	1.1505	0.5	
-0.46194	1.19134	0.5	
-0.409849	1.08152	0.5	
-0.477722	1.14759	0.583558	
0.233424	0.783671	1	
0.261819	0.680973	1	
0.175091	0.697234	1	
0.248978	0.726366	0.903842	
0.46194	1.19134	1	
0.490393	1.09755	1	
0.394936	1.1198	1	
0.476114	1.15269	0.90246	
0	0.5	0.5	
-3.15026e-17	0.601779	0.5	
0.0728232	0.505332	0.573541	
0.0815241	0.590151	0.5	
-0.357396	1.18789	1	
-0.279278	1.1257	1	
-0.348481	1.09787	1	
-0.366596	1.14153	0.904615	
-0.277785	0.584265	1	
-0.317197	0.613495	0.931175	
-0.278183	0.659732	1	
-0.231903	0.663623	0.918546	
0.302677	1.24769	1	
0.378521	1.20232	1	
0.331919	1.15546	1	
0.337852	1.21393	0.901789	
-0.0585581	0.999611	1	
-0.0902369	0.906851	1	
-0.154491	0.98059	1	
-0.10341	0.960236	0.912939	
0.146853	0.522052	0.584008	
0.191342	0.53806	0.5	
0.0815241	0.590151	0.5	
0.152126	0.632735	0.5	
-0.278183	0.659732	1	
-0.194549	0.636025	1	
-0.277785	0.584265	1	
-0.231903	0.663623	0.918546	
0.4284	1.25782	0.795024	
0.460548	1.19467	0.73433	
0.470916	1.16804	0.800126	
0.369343	1.17686	0.815886	
-0.47591	1.15333	0.907619	
-0.490393	1.09755	1	
-0.495012	1.07045	0.928155	
-0.41072	1.12459	1	
-0.0578538	0.743596	1	
0.0383625	0.760787	1	
0.0152702	0.660767	1	
-0.0283413	0.698633	0.90895	
0.0728232	0.505332	0.573541	
0.146853	0.522052	0.584008	
0.0815241	0.590151	0.5	
0.0872942	0.606698	0.613217	
-0.238625	1.43938	0.576642	
-0.277785	1.41573	0.5	
-0.232161	1.34745	0.5	
-0.314941	1.38835	0.579801	
0.153328	0.52409	0.90763	
0.235698	0.559039	0.931431	
0.242822	0.562922	0.847009	
0.160008	0.641459	0.892261	
0	1.5	0.5	
-0.0815241	1.40985	0.5	
8.18872e-17	1.39822	0.5	
-0.0698146	1.4951	0.5724	
0.409849	0.918476	0.5	
0.495101	0.930181	0.572379	
0.5	1	0.5	
0.398221	1	0.5	
-3.15026e-17	0.601779	0.5	
-0.0815241	0.590151	0.5	
0	0.5	0.5	
-0.0698189	0.504899	0.572379	
0.25	1	0.5	
0.23097	1.09567	0.5	
0.163502	1.02984	0.5	
0.201501	1.05838	0.584156	
0.0704482	1.49501	0.571845	
8.18872e-17	1.39822	0.5	
0	1.5	0.5	
0.0815241	1.40985	0.5	
-0.151231	1.3651	0.5	
-0.191342	1.46194	0.5	
-0.232161	1.34745	0.5	
-0.238625	1.43938	0.576642	
0.274113	0.816844	0.5	
0.347453	0.767839	0.5	
0.365104	0.848769	0.5	
0.366244	0.831981	0.604187	
-0.494668	0.927177	0.573541	
-0.477948	0.853147	0.584008	
-0.409849	0.918476	0.5	
-0.377424	0.892421	0.60103	
0.146853	1.47795	0.915992	
0.0975452	1.49039	1	
0.122568	1.39751	1	
0.191342	1.46194	1	
-0.177191	1.03636	0.5	
-0.114443	1.01484	0.5	
-0.117202	1.0938	0.5	
-0.124649	1.04531	0.594053	
0.365104	0.848769	0.5	
0.46194	0.808658	0.5	
0.439458	0.761512	0.575692	
0.347453	0.767839	0.5	
-0.5	1	0.5	
-0.409849	1.08152	0.5	
-0.495208	1.06906	0.569036	
-0.397525	1	0.5	
-0.347453	1.23216	0.5	
-0.353553	1.35355	0.5	
-0.415735	1.27779	0.5	
-0.386847	1.31678	0.604131	
0.232161	0.652547	0.5	
0.277785	0.584265	0.5	
0.353553	0.646447	0.5	
0.3168	0.613169	0.604097	
-0.347453	0.767839	0.5	
-0.415735	0.722215	0.5	
-0.353553	0.646447	0.5	
-0.386831	0.6832	0.604097	
0.278087	0.721913	0.5	
0.388274	0.684971	0.579193	
0.353553	0.646447	0.5	
0.347453	0.767839	0.5	
0.450285	0.782644	0.644698	
0.476114	0.847306	0.59754	
0.439458	0.761512	0.575692	
0.366244	0.831981	0.604187	
-0.243391	0.563238	0.903062	
-0.323938	0.619127	0.847739	
-0.317197	0.613495	0.931175	
-0.231903	0.663623	0.918546	
-0.232161	0.652547	0.5	
-0.191342	0.53806	0.5	
-0.152126	0.632735	0.5	
-0.238488	0.560542	0.575692	
0.495293	1.06845	0.568597	
0.409849	1.08152	0.5	
0.5	1	0.5	
0.398221	1	0.5	
0.261819	0.680973	1	
0.233424	0.783671	1	
0.322164	0.745112	1	
0.248978	0.726366	0.903842	
-0.415735	0.722215	1	
-0.386476	0.682767	0.909527	
-0.309811	0.742372	1	
-0.353553	0.646447	1	
0.347453	1.23216	0.5	
0.46194	1.19134	0.5	
0.415735	1.27779	0.5	
0.436762	1.24339	0.596938	
-0.353553	1.35355	0.5	
-0.280403	1.2804	0.5	
-0.232161	1.34745	0.5	
-0.314941	1.38835	0.579801	
-0.243391	0.563238	0.903062	
-0.277785	0.584265	1	
-0.191342	0.53806	1	
-0.194549	0.636025	1	
0.490393	0.902455	1	
0.495293	0.931554	0.931403	
0.478555	0.855138	0.921652	
0.417242	0.878937	1	
0.0815241	1.40985	0.5	
8.18872e-17	1.39822	0.5	
0.064316	1.32334	0.5	
0.0232779	1.38849	0.611701	
0.415735	1.27779	0.5	
0.386505	1.3172	0.568825	
0.347453	1.23216	0.5	
0.436762	1.24339	0.596938	
0.353553	0.646447	1	
0.317233	0.613524	0.909527	
0.277785	0.584265	1	
0.261819	0.680973	1	
-0.0815241	0.590151	0.5	
-3.15026e-17	0.601779	0.5	
-0.064316	0.676662	0.5	
-0.0201375	0.611237	0.611421	
-0.315029	0.611726	0.579193	
-0.353553	0.646447	0.5	
-0.281585	0.718415	0.5	
-0.232161	0.652547	0.5	
-0.277785	0.584265	1	
-0.243391	0.563238	0.903062	
-0.317197	0.613495	0.931175	
-0.231903	0.663623	0.918546	
-0.0956709	0.76903	0.5	
-0.064316	0.676662	0.5	
0	0.75	0.5	
-0.0421997	0.724204	0.59801	
-0.0427935	1.02817	0.5	
0.0691997	1.04586	0.5	
0.000305103	1.09462	0.5	
-0.0230921	1.05776	0.595963	
-0.396617	0.880856	1	
-0.490393	0.902455	1	
-0.47591	0.846672	0.90763	
-0.46194	0.808658	1	
-0.0975452	1.49039	0.5	
-0.0815241	1.40985	0.5	
-0.0698146	1.4951	0.5724	
-0.152637	1.47613	0.597671	
0.490393	0.902455	0.5	
0.495101	0.930181	0.572379	
0.409849	0.918476	0.5	
0.476114	0.847306	0.59754	
-0.0975452	0.509607	0.5	
-0.0815241	0.590151	0.5	
-0.152694	0.523886	0.59754	
-0.0698189	0.504899	0.572379	
0.388274	0.684971	0.579193	
0.439458	0.761512	0.575692	
0.415735	0.722215	0.5	
0.347453	0.767839	0.5	
-0.232161	0.652547	0.5	
-0.315029	0.611726	0.579193	
-0.277785	0.584265	0.5	
-0.238488	0.560542	0.575692	
0.191342	0.53806	1	
0.153328	0.52409	0.90763	
0.0975452	0.509607	1	
0.118763	0.611014	1	
0.415735	0.722215	1	
0.46194	0.808658	1	
0.436762	0.756609	0.903062	
0.37256	0.810612	1	
0.360576	0.998064	1	
0.422937	1.04242	1	
0.421425	0.957658	1	
0.39915	0.990133	0.906414	
0.469721	0.828647	0.838334	
0.490343	0.902203	0.758774	
0.460548	0.805333	0.76567	
0.382077	0.87532	0.792977	
0.277785	1.41573	0.5	
0.317233	1.38648	0.590473	
0.235698	1.44096	0.568569	
0.232161	1.34745	0.5	
0.201148	1.36807	1	
0.228991	1.44448	0.908099	
0.191342	1.46194	1	
0.277785	1.41573	1	
-0.0815241	1.40985	0.5	
-0.0975452	1.49039	0.5	
-0.191342	1.46194	0.5	
-0.152637	1.47613	0.597671	
-0.0815241	0.590151	0.5	
-0.191342	0.53806	0.5	
-0.0975452	0.509607	0.5	
-0.152694	0.523886	0.59754	
0.409849	0.918476	0.5	
0.46194	0.808658	0.5	
0.490393	0.902455	0.5	
0.476114	0.847306	0.59754	
0.450285	1.21736	0.855302	
0.4284	1.25782	0.795024	
0.470916	1.16804	0.800126	
0.369343	1.17686	0.815886	
0.490343	0.902203	0.758774	
0.5	1	0.8	
0.5	1	0.7	
0.402785	0.956541	0.723347	
-0.495208	1.06906	0.569036	
-0.409849	1.08152	0.5	
-0.490393	1.09755	0.5	
-0.477722	1.14759	0.583558	
0.415735	1.27779	1	
0.388274	1.31503	0.920807	
0.302677	1.24769	1	
0.353553	1.35355	1	
-0.0773947	0.947213	0.5	
-0.157632	0.894674	0.5	
-0.0892911	0.866366	0.5	
-0.105125	0.905315	0.589497	
-0.495012	1.07045	0.928155	
-0.490393	1.09755	1	
-0.5	1	1	
-0.40408	1.03727	1	
0.409849	1.08152	0.5	
0.478555	1.14486	0.578348	
0.46194	1.19134	0.5	
0.369516	1.15306	0.5	
0.0975452	1.49039	0.5	
0.153328	1.47591	0.59237	
0.0704482	1.49501	0.571845	
0.0815241	1.40985	0.5	
-0.409849	1.08152	0.5	
-0.46194	1.19134	0.5	
-0.490393	1.09755	0.5	
-0.477722	1.14759	0.583558	
-0.0578538	0.743596	1	
0.0152702	0.660767	1	
-0.0915272	0.659988	1	
-0.0283413	0.698633	0.90895	
0.3168	1.38683	0.895903	
0.277785	1.41573	1	
0.272282	1.33178	1	
0.353553	1.35355	1	
0.490343	0.902203	0.758774	
0.5	1	0.7	
0.493012	0.916698	0.655211	
0.402785	0.956541	0.723347	
0.0975452	1.49039	0.5	
0.191342	1.46194	0.5	
0.153328	1.47591	0.59237	
0.0815241	1.40985	0.5	
-0.191342	1.46194	0.5	
-0.277785	1.41573	0.5	
-0.232161	1.34745	0.5	
-0.238625	1.43938	0.576642	
-0.444497	1.22896	0.591906	
-0.46194	1.19134	0.5	
-0.415735	1.27779	0.5	
-0.347453	1.23216	0.5	
-0.347453	0.767839	0.5	
-0.46194	0.808658	0.5	
-0.415735	0.722215	0.5	
-0.444481	0.771009	0.591901	
0.228991	0.555519	0.591901	
0.277785	0.584265	0.5	
0.191342	0.53806	0.5	
0.232161	0.652547	0.5	
0.386505	1.3172	0.568825	
0.281092	1.28109	0.5	
0.353553	1.35355	0.5	
0.347453	1.23216	0.5	
0	1.5	0.8	
0	1.5	0.7	
0.0854243	1.49265	0.751403	
0.00695298	1.40388	0.759796	
0.214716	1.29378	1	
0.272282	1.33178	1	
0.302677	1.24769	1	
0.262414	1.28412	0.908895	
0.152393	1.36791	0.5	
0.191342	1.46194	0.5	
0.235698	1.44096	0.568569	
0.232161	1.34745	0.5	
-0.348481	1.09787	1	
-0.41072	1.12459	1	
-0.357396	1.18789	1	
-0.366596	1.14153	0.904615	
-0.277785	1.41573	0.5	
-0.353553	1.35355	0.5	
-0.232161	1.34745	0.5	
-0.314941	1.38835	0.579801	
-0.47591	1.15333	0.907619	
-0.46194	1.19134	1	
-0.490393	1.09755	1	
-0.41072	1.12459	1	
0.317233	1.38648	0.590473	
0.277785	1.41573	0.5	
0.353553	1.35355	0.5	
0.232161	1.34745	0.5	
0.0975452	0.509607	0.5	
0.191342	0.53806	0.5	
0.0815241	0.590151	0.5	
0.146853	0.522052	0.584008	
-0.409849	0.918476	0.5	
-0.490393	0.902455	0.5	
-0.46194	0.808658	0.5	
-0.477948	0.853147	0.584008	
-0.0444138	0.583252	1	
-0.0684459	0.504707	0.931403	
0	0.5	1	
-0.0975452	0.509607	1	
0.347453	1.23216	0.5	
0.281092	1.28109	0.5	
0.274113	1.18316	0.5	
0.302151	1.24532	0.611118	
0.0728232	1.49467	0.926459	
0	1.5	1	
0.0376698	1.41981	1	
0.0975452	1.49039	1	
-0.151231	1.3651	0.5	
-0.064316	1.32334	0.5	
-0.0815241	1.40985	0.5	
-0.0927842	1.36919	0.612233	
0.0814864	0.506685	0.652319	
0.146853	0.522052	0.584008	
0.0728232	0.505332	0.573541	
0.0872942	0.606698	0.613217	
0.5	1	1	
0.495293	0.931554	0.931403	
0.490393	0.902455	1	
0.421425	0.957658	1	
0.46194	0.808658	0.5	
0.415735	0.722215	0.5	
0.439458	0.761512	0.575692	
0.347453	0.767839	0.5	
-0.232161	0.652547	0.5	
-0.277785	0.584265	0.5	
-0.191342	0.53806	0.5	
-0.238488	0.560542	0.575692	
-0.490393	1.09755	0.5	
-0.5	1	0.5	
-0.409849	1.08152	0.5	
-0.495208	1.06906	0.569036	
-0.386559	1.31713	0.911838	
-0.33007	1.27363	1	
-0.353553	1.35355	1	
-0.415735	1.27779	1	
0.415735	0.722215	0.5	
0.353553	0.646447	0.5	
0.388274	0.684971	0.579193	
0.347453	0.767839	0.5	
-0.277785	0.584265	0.5	
-0.353553	0.646447	0.5	
-0.315029	0.611726	0.579193	
-0.232161	0.652547	0.5	
0.0815241	0.590151	0.5	
0.0728232	0.505332	0.573541	
0.0975452	0.509607	0.5	
0.146853	0.522052	0.584008	
-0.409849	0.918476	0.5	
-0.490393	0.902455	0.5	
-0.477948	0.853147	0.584008	
-0.494668	0.927177	0.573541	
0.386505	0.682803	0.931175	
0.322164	0.745112	1	
0.353553	0.646447	1	
0.415735	0.722215	1	
-0.277785	1.41573	1	
-0.191342	1.46194	1	
-0.208232	1.3886	1	
-0.243302	1.43681	0.906373	
-0.357396	1.18789	1	
-0.415735	1.27779	1	
-0.440961	1.2357	0.931396	
-0.46194	1.19134	1	
-0.0975452	1.49039	1	
-0.191342	1.46194	1	
-0.14499	1.47852	0.92371	
-0.119808	1.39485	1	
0.0728232	0.505332	0.573541	
0.0975452	0.509607	0.5	
0	0.5	0.5	
0.0815241	0.590151	0.5	
-0.5	1	0.5	
-0.490393	0.902455	0.5	
-0.409849	0.918476	0.5	
-0.494668	0.927177	0.573541	
0.0704482	1.49501	0.571845	
0	1.5	0.5	
0.0975452	1.49039	0.5	
0.0815241	1.40985	0.5	
-0.194549	0.636025	1	
-0.278183	0.659732	1	
-0.233276	0.710046	1	
-0.231903	0.663623	0.918546	
-0.0815241	0.590151	0.5	
-0.0975452	0.509607	0.5	
0	0.5	0.5	
-0.0698189	0.504899	0.572379	
0.495101	0.930181	0.572379	
0.5	1	0.5	
0.490393	0.902455	0.5	
0.409849	0.918476	0.5	
-0.0815241	1.40985	0.5	
0	1.5	0.5	
-0.0975452	1.49039	0.5	
-0.0698146	1.4951	0.5724	
0	1.5	1	
-0.0975452	1.49039	1	
-0.0690617	1.49521	0.93079	
-0.0411619	1.43035	1	
0.163502	1.02984	0.5	
0.23097	1.09567	0.5	
0.157632	1.10533	0.5	
0.201501	1.05838	0.584156	
-0.5	1	1	
-0.427161	0.957142	1	
-0.490393	0.902455	1	
-0.495012	0.929552	0.928155	
0.409849	1.08152	0.5	
0.5	1	0.5	
0.490393	1.09755	0.5	
0.495293	1.06845	0.568597	
0.0165433	0.957567	0.5	
0.0634445	0.898618	0.5	
0.106675	0.966314	0.5	
0.0631871	0.946434	0.577068	
0.386505	1.3172	0.568825	
0.353553	1.35355	0.5	
0.415735	1.27779	0.5	
0.347453	1.23216	0.5	
0.46194	1.19134	0.5	
0.490393	1.09755	0.5	
0.478555	1.14486	0.578348	
0.409849	1.08152	0.5	
0.490393	1.09755	0.5	
0.478555	1.14486	0.578348	
0.409849	1.08152	0.5	
0.495293	1.06845	0.568597	
0.0374329	0.572928	1	
0.0975452	0.509607	1	
0	0.5	1	
0.0704482	0.504988	0.928155	
-0.144862	0.521445	0.921652	
-0.0975452	0.509607	1	
-0.125573	0.58604	1	
-0.191342	0.53806	1	
0.478555	0.855138	0.921652	
0.46194	0.808658	1	
0.490393	0.902455	1	
0.417242	0.878937	1	
0.191342	1.46194	0.5	
0.277785	1.41573	0.5	
0.235698	1.44096	0.568569	
0.232161	1.34745	0.5	
0.495101	1.06982	0.927621	
0.422937	1.04242	1	
0.5	1	1	
0.490393	1.09755	1	
0.191342	0.53806	1	
0.235698	0.559039	0.931431	
0.206639	0.624902	1	
0.277785	0.584265	1	
0.378521	1.20232	1	
0.46194	1.19134	1	
0.439458	1.23849	0.924308	
0.415735	1.27779	1	
-0.363339	0.8495	0.5	
-0.323338	0.935684	0.5	
-0.409849	0.918476	0.5	
-0.377424	0.892421	0.60103	
-0.353553	1.35355	1	
-0.265836	1.3303	1	
-0.317937	1.3859	0.934362	
-0.277785	1.41573	1	
-0.46194	0.808658	1	
-0.440961	0.764302	0.931431	
-0.376173	0.802719	1	
-0.415735	0.722215	1	
-0.278183	0.659732	1	
-0.353553	0.646447	1	
-0.317197	0.613495	0.931175	
-0.277785	0.584265	1	
-0.0684719	1.38599	0.898819	
-0.208232	1.3886	1	
-0.182108	1.31839	1	
-0.119808	1.39485	1	
-0.0684719	1.38599	0.898819	
-0.182108	1.31839	1	
-0.208232	1.3886	1	
-0.159358	1.32099	0.830937	
0.075477	0.809328	0.60941	
0.141405	0.904892	0.5	
0.0631871	0.946434	0.577068	
0.101275	0.91604	0.653562	
0.075477	0.809328	0.60941	
0.0631871	0.946434	0.577068	
0.141405	0.904892	0.5	
0.103403	0.84471	0.5	
0.198196	0.963699	1	
0.0803871	1.00814	0.885647	
0.114269	0.8976	0.845027	
0.102037	0.944747	1	
0.114269	0.8976	0.845027	
0.0803871	1.00814	0.885647	
0.198196	0.963699	1	
0.215886	1.00836	0.878507	
0.106675	0.966314	0.5	
0.214567	0.972198	0.625898	
0.141405	0.904892	0.5	
0.185939	0.963014	0.5	
0.141405	0.904892	0.5	
0.214567	0.972198	0.625898	
0.106675	0.966314	0.5	
0.0631871	0.946434	0.577068	
-0.217356	0.549715	0.644698	
-0.172711	0.659579	0.756944	
-0.245183	0.701709	0.623779	
-0.257824	0.5716	0.704976	
-0.245183	0.701709	0.623779	
-0.172711	0.659579	0.756944	
-0.217356	0.549715	0.644698	
-0.115668	0.660224	0.648618	
0.188892	1.15001	0.759985	
0.176308	1.30549	0.856004	
0.247079	1.26952	0.713352	
0.11795	1.23142	0.740012	
0.188892	1.15001	0.759985	
0.247079	1.26952	0.713352	
0.176308	1.30549	0.856004	
0.267628	1.19145	0.824346	
-0.243302	1.43681	0.906373	
-0.119808	1.39485	1	
-0.191342	1.46194	1	
-0.208232	1.3886	1	
-0.191342	1.46194	1	
-0.119808	1.39485	1	
-0.243302	1.43681	0.906373	
-0.14499	1.47852	0.92371	
-0.218908	1.02882	0.620926	
-0.323338	0.935684	0.5	
-0.323338	1.06432	0.5	
-0.25	1	0.5	
-0.218908	1.02882	0.620926	
-0.323338	1.06432	0.5	
-0.323338	0.935684	0.5	
-0.351178	0.986498	0.65	
-0.249134	0.962669	1	
-0.385003	0.984343	0.895239	
-0.308389	0.85948	0.835633	
-0.345102	0.953927	1	
-0.308389	0.85948	0.835633	
-0.385003	0.984343	0.895239	
-0.249134	0.962669	1	
-0.208534	0.966027	0.877319	
-0.378892	1.09874	0.625908	
-0.5	1	0.7	
-0.5	1	0.6	
-0.351178	0.986498	0.65	
-0.378892	1.09874	0.625908	
-0.5	1	0.6	
-0.5	1	0.7	
-0.493066	1.08298	0.651653	
-0.0230921	1.05776	0.595963	
-0.105125	0.905315	0.589497	
-0.124649	1.04531	0.594053	
-0.0773947	0.947213	0.5	
-0.0230921	1.05776	0.595963	
-0.124649	1.04531	0.594053	
-0.105125	0.905315	0.589497	
-0.0808186	0.989298	0.663479	
-0.355776	1.16297	0.774979	
-0.386533	1.31716	0.700258	
-0.386405	1.31732	0.798513	
-0.271071	1.28122	0.731982	
-0.355776	1.16297	0.774979	
-0.386405	1.31732	0.798513	
-0.386533	1.31716	0.700258	
-0.434718	1.24702	0.749442	
-0.33007	1.27363	1	
-0.440961	1.2357	0.931396	
-0.366596	1.14153	0.904615	
-0.357396	1.18789	1	
-0.366596	1.14153	0.904615	
-0.440961	1.2357	0.931396	
-0.33007	1.27363	1	
-0.386559	1.31713	0.911838	
0.197701	1.26759	0.618397	
0.316847	1.38679	0.698616	
0.302151	1.24532	0.611118	
0.317233	1.38648	0.590473	
0.197701	1.26759	0.618397	
0.302151	1.24532	0.611118	
0.316847	1.38679	0.698616	
0.247079	1.26952	0.713352	
-0.243302	1.43681	0.906373	
-0.0684719	1.38599	0.898819	
-0.171627	1.46962	0.839884	
-0.14499	1.47852	0.92371	
-0.171627	1.46962	0.839884	
-0.0684719	1.38599	0.898819	
-0.243302	1.43681	0.906373	
-0.159358	1.32099	0.830937	
0.201501	1.05838	0.584156	
0.185939	0.963014	0.5	
0.106675	0.966314	0.5	
0.163502	1.02984	0.5	
0.201501	1.05838	0.584156	
0.106675	0.966314	0.5	
0.185939	0.963014	0.5	
0.214567	0.972198	0.625898	
0.115192	0.637967	0.754396	
0.25658	0.570854	0.66876	
0.253474	0.699951	0.70471	
0.247057	0.565302	0.749501	
0.115192	0.637967	0.754396	
0.253474	0.699951	0.70471	
0.25658	0.570854	0.66876	
0.166834	0.675675	0.635152	
-0.366596	1.14153	0.904615	
-0.31121	1.03591	1	
-0.385003	0.984343	0.895239	
-0.328139	1.06792	0.838021	
-0.366596	1.14153	0.904615	
-0.385003	0.984343	0.895239	
-0.31121	1.03591	1	
-0.348481	1.09787	1	
0.366244	0.831981	0.604187	
0.402785	0.956541	0.723347	
0.38174	0.996023	0.618569	
0.318292	0.91002	0.672643	
0.38174	0.996023	0.618569	
0.402785	0.956541	0.723347	
0.366244	0.831981	0.604187	
0.493012	0.916698	0.655211	
0.166834	0.675675	0.635152	
0.278087	0.721913	0.5	
0.3168	0.613169	0.604097	
0.232161	0.652547	0.5	
0.166834	0.675675	0.635152	
0.3168	0.613169	0.604097	
0.278087	0.721913	0.5	
0.290856	0.760973	0.624503	
0.278791	1.29194	0.808109	
0.415735	1.27779	0.865862	
0.262414	1.28412	0.908895	
0.337852	1.21393	0.901789	
0.278791	1.29194	0.808109	
0.262414	1.28412	0.908895	
0.415735	1.27779	0.865862	
0.374193	1.33163	0.834643	
0.388274	1.31503	0.920807	
0.262414	1.28412	0.908895	
0.415735	1.27779	0.865862	
0.337852	1.21393	0.901789	
0.388274	1.31503	0.920807	
0.415735	1.27779	0.865862	
0.262414	1.28412	0.908895	
0.374193	1.33163	0.834643	
0.330142	0.959051	0.83873	
0.493389	0.91896	0.85285	
0.36821	0.862229	0.899925	
0.382077	0.87532	0.792977	
0.330142	0.959051	0.83873	
0.36821	0.862229	0.899925	
0.493389	0.91896	0.85285	
0.39915	0.990133	0.906414	
-0.0365827	0.936141	0.729399	
-0.0840558	0.819296	0.633477	
-0.105125	0.905315	0.589497	
-0.00979043	0.90873	0.615519	
-0.0365827	0.936141	0.729399	
-0.105125	0.905315	0.589497	
-0.0840558	0.819296	0.633477	
-0.117533	0.874656	0.729651	
0.0362445	1.10288	0.900124	
0.100521	1.20361	1	
0.13567	1.10909	0.864428	
0.0921027	1.22053	0.879559	
0.0362445	1.10288	0.900124	
0.13567	1.10909	0.864428	
0.100521	1.20361	1	
0.0692432	1.11129	1	
0.16533	1.13018	1	
0.13567	1.10909	0.864428	
0.100521	1.20361	1	
0.0921027	1.22053	0.879559	
0.16533	1.13018	1	
0.100521	1.20361	1	
0.13567	1.10909	0.864428	
0.0692432	1.11129	1	
-0.355776	1.16297	0.774979	
-0.493438	1.08074	0.845784	
-0.366596	1.14153	0.904615	
-0.47067	1.16873	0.798201	
-0.355776	1.16297	0.774979	
-0.366596	1.14153	0.904615	
-0.493438	1.08074	0.845784	
-0.328139	1.06792	0.838021	
-0.18639	0.799846	0.604991	
-0.0892911	0.866366	0.5	
-0.0956709	0.76903	0.5	
-0.176777	0.823223	0.5	
-0.18639	0.799846	0.604991	
-0.0956709	0.76903	0.5	
-0.0892911	0.866366	0.5	
-0.0840558	0.819296	0.633477	
0.0261041	1.21709	0.59722	
0.0232779	1.38849	0.611701	
0	1.25	0.5	
-0.0146393	1.2919	0.660146	
0.0261041	1.21709	0.59722	
0	1.25	0.5	
0.0232779	1.38849	0.611701	
0.064316	1.32334	0.5	
-0.143721	0.860033	0.841612	
-0.11576	0.747665	0.899003	
-0.0902369	0.906851	1	
-0.121993	0.814118	1	
-0.143721	0.860033	0.841612	
-0.0902369	0.906851	1	
-0.11576	0.747665	0.899003	
-0.0183257	0.793213	0.875792	
-0.0258184	0.833057	1	
-0.0902369	0.906851	1	
-0.11576	0.747665	0.899003	
-0.121993	0.814118	1	
-0.0258184	0.833057	1	
-0.11576	0.747665	0.899003	
-0.0902369	0.906851	1	
-0.0183257	0.793213	0.875792	
0.286804	1.05056	0.632278	
0.323338	0.935684	0.5	
0.323338	1.06432	0.5	
0.38174	0.996023	0.618569	
0.286804	1.05056	0.632278	
0.323338	1.06432	0.5	
0.323338	0.935684	0.5	
0.25	1	0.5	
0.262414	1.28412	0.908895	
0.25658	1.42915	0.83124	
0.228991	1.44448	0.908099	
0.3168	1.38683	0.895903	
0.262414	1.28412	0.908895	
0.228991	1.44448	0.908099	
0.25658	1.42915	0.83124	
0.176308	1.30549	0.856004	
0.39915	0.990133	0.906414	
0.417242	0.878937	1	
0.344935	0.908506	1	
0.36821	0.862229	0.899925	
0.39915	0.990133	0.906414	
0.344935	0.908506	1	
0.417242	0.878937	1	
0.421425	0.957658	1	
0.366244	0.831981	0.604187	
0.4284	0.742176	0.704976	
0.470916	0.831957	0.699874	
0.328874	0.804808	0.729739	
0.366244	0.831981	0.604187	
0.470916	0.831957	0.699874	
0.4284	0.742176	0.704976	
0.450285	0.782644	0.644698	
-0.0230921	1.05776	0.595963	
-0.0933205	1.08542	0.735608	
0.030532	1.00082	0.661954	
-0.00475677	1.13123	0.664793	
-0.0230921	1.05776	0.595963	
0.030532	1.00082	0.661954	
-0.0933205	1.08542	0.735608	
-0.0808186	0.989298	0.663479	
-0.157632	0.894674	0.5	
-0.18639	0.799846	0.604991	
-0.23097	0.904329	0.5	
-0.176777	0.823223	0.5	
-0.23097	0.904329	0.5	
-0.18639	0.799846	0.604991	
-0.157632	0.894674	0.5	
-0.193736	0.903788	0.633349	
0.242822	0.562922	0.847009	
0.115192	0.637967	0.754396	
0.247057	0.565302	0.749501	
0.168734	0.529332	0.798219	
0.247057	0.565302	0.749501	
0.115192	0.637967	0.754396	
0.242822	0.562922	0.847009	
0.216076	0.69962	0.805486	
0.0362445	1.10288	0.900124	
0.13371	1.03748	1	
0.0375767	1.01852	1	
0.0803871	1.00814	0.885647	
0.0362445	1.10288	0.900124	
0.0375767	1.01852	1	
0.13371	1.03748	1	
0.0692432	1.11129	1	
0.272282	1.33178	1	
0.228991	1.44448	0.908099	
0.262414	1.28412	0.908895	
0.201148	1.36807	1	
0.272282	1.33178	1	
0.262414	1.28412	0.908895	
0.228991	1.44448	0.908099	
0.3168	1.38683	0.895903	
-0.183156	1.27411	0.5	
-0.0927842	1.36919	0.612233	
-0.064316	1.32334	0.5	
-0.151231	1.3651	0.5	
-0.064316	1.32334	0.5	
-0.0927842	1.36919	0.612233	
-0.183156	1.27411	0.5	
-0.106349	1.24066	0.613882	
-0.243302	1.43681	0.906373	
-0.265836	1.3303	1	
-0.277785	1.41573	1	
-0.317937	1.3859	0.934362	
-0.243302	1.43681	0.906373	
-0.277785	1.41573	1	
-0.265836	1.3303	1	
-0.208232	1.3886	1	
0.302151	1.24532	0.611118	
0.369516	1.15306	0.5	
0.436762	1.24339	0.596938	
0.358556	1.12901	0.622438	
0.302151	1.24532	0.611118	
0.436762	1.24339	0.596938	
0.369516	1.15306	0.5	
0.347453	1.23216	0.5	
0.0232779	1.38849	0.611701	
-0.0815241	1.40985	0.5	
-0.064316	1.32334	0.5	
-0.0927842	1.36919	0.612233	
0.0232779	1.38849	0.611701	
-0.064316	1.32334	0.5	
-0.0815241	1.40985	0.5	
8.18872e-17	1.39822	0.5	
-0.206133	0.729722	0.836828	
-0.228331	0.826788	0.903124	
-0.233276	0.710046	1	
-0.217395	0.789549	1	
-0.206133	0.729722	0.836828	
-0.233276	0.710046	1	
-0.228331	0.826788	0.903124	
-0.313556	0.75907	0.879554	
-0.309811	0.742372	1	
-0.233276	0.710046	1	
-0.228331	0.826788	0.903124	
-0.217395	0.789549	1	
-0.309811	0.742372	1	
-0.228331	0.826788	0.903124	
-0.233276	0.710046	1	
-0.313556	0.75907	0.879554	
0.415735	1.27779	1	
0.337852	1.21393	0.901789	
0.302677	1.24769	1	
0.388274	1.31503	0.920807	
0.302677	1.24769	1	
0.337852	1.21393	0.901789	
0.415735	1.27779	1	
0.378521	1.20232	1	
CELLS 4255 21275
4	0	1	2	3	
4	4	5	6	7	
4	8	9	10	11	
4	12	13	14	15	
4	16	17	18	19	
4	20	21	22	23	
4	24	25	26	27	
4	28	29	30	31	
4	32	33	34	35	
4	36	37	38	39	
4	40	41	42	43	
4	44	45	46	47	
4	48	49	50	51	
4	52	53	54	55	
4	56	57	58	59	
4	60	61	62	63	
4	64	65	66	67	
4	68	69	70	71	
4	72	73	74	75	
4	76	77	78	79	
4	80	81	82	83	
4	84	85	86	87	
4	88	89	90	91	
4	92	93	94	95	
4	96	97	98	99	
4	100	101	102	103	
4	104	105	106	107	
4	108	109	110	111	
4	112	113	114	115	
4	116	117	118	119	
4	120	121	122	123	
4	124	125	126	127	
4	128	129	130	131	
4	132	133	134	135	
4	136	137	138	139	
4	140	141	142	143	
4	144	145	146	147	
4	148	149	150	151	
4	152	153	154	155	
4	156	157	158	159	
4	160	161	162	163	
4	164	165	166	167	
4	168	169	170	171	
4	172	173	174	175	
4	176	177	178	179	
4	180	181	182	183	
4	184	185	186	187	
4	188	189	190	191	
4	192	193	194	195	
4	196	197	198	199	
4	200	201	202	203	
4	204	205	206	207	
4	208	209	210	211	
4	212	213	214	215	
4	216	217	218	219	
4	220	221	222	223	
4	224	225	226	227	
4	228	229	230	231	
4	232	233	234	235	
4	236	237	238	239	
4	240	241	242	243	
4	244	245	246	247	
4	248	249	250	251	
4	252	253	254	255	
4	256	257	258	259	
4	260	261	262	263	
4	264	265	266	267	
4	268	269	270	271	
4	272	273	274	275	
4	276	277	278	279	
4	280	281	282	283	
4	284	285	286	287	
4	288	289	290	291	
4	292	293	294	295	
4	296	297	298	299	
4	300	301	302	303	
4	304	305	306	307	
4	308	309	310	311	
4	312	313	314	315	
4	316	317	318	319	
4	320	321	322	323	
4	324	325	326	327	
4	328	329	330	331	
4	332	333	334	335	
4	336	337	338	339	
4	340	341	342	343	
4	344	345	346	347	
4	348	349	350	351	
4	352	353	354	355	
4	356	357	358	359	
4	360	361	362	363	
4	364	365	366	367	
4	368	369	370	371	
4	372	373	374	375	
4	376	377	378	379	
4	380	381	382	383	
4	384	385	386	387	
4	388	389	390	391	
4	392	393	394	395	
4	396	397	398	399	
4	400	401	402	403	
4	404	405	406	407	
4	408	409	410	411	
4	412	413	414	415	
4	416	417	418	419	
4	420	421	422	423	
4	424	425	426	427	
4	428	429	430	431	
4	432	433	434	435	
4	436	437	438	439	
4	440	441	442	443	
4	444	445	446	447	
4	448	449	450	451	
4	452	453	454	455	
4	456	457	458	459	
4	460	461	462	463	
4	464	465	466	467	
4	468	469	470	471	
4	472	473	474	475	
4	476	477	478	479	
4	480	481	482	483	
4	484	485	486	487	
4	488	489	490	491	
4	492	493	494	495	
4	496	497	498	499	
4	500	501	502	503	
4	504	505	506	507	
4	508	509	510	511	
4	512	513	514	515	
4	516	517	518	519	
4	520	521	522	523	
4	524	525	526	527	
4	528	529	530	531	
4	532	533	534	535	
4	536	537	538	539	
4	540	541	542	543	
4	544	545	546	547	
4	548	549	550	551	
4	552	553	554	555	
4	556	557	558	559	
4	560	561	562	563	
4	564	565	566	567	
4	568	569	570	571	
4	572	573	574	575	
4	576	577	578	579	
4	580	581	582	583	
4	584	585	586	587	
4	588	589	590	591	
4	592	593	594	595	
4	596	597	598	599	
4	600	601	602	603	
4	604	605	606	607	
4	608	609	610	611	
4	612	613	614	615	
4	616	617	618	619	
4	620	621	622	623	
4	624	625	626	627	
4	628	629	630	631	
4	632	633	634	635	
4	636	637	638	639	
4	640	641	642	643	
4	644	645	646	647	
4	648	649	650	651	
4	652	653	654	655	
4	656	657	658	659	
4	660	661	662	663	
4	664	665	666	667	
4	668	669	670	671	
4	672	673	674	675	
4	676	677	678	679	
4	680	681	682	683	
4	684	685	686	687	
4	688	689	690	691	
4	692	693	694	695	
4	696	697	698	699	
4	700	701	702	703	
4	704	705	706	707	
4	708	709	710	711	
4	712	713	714	715	
4	716	717	718	719	
4	720	721	722	723	
4	724	725	726	727	
4	728	729	730	731	
4	732	733	734	735	
4	736	737	738	739	
4	740	741	742	743	
4	744	745	746	747	
4	748	749	750	751	
4	752	753	754	755	
4	756	757	758	759	
4	760	761	762	763	
4	764	765	766	767	
4	768	769	770	771	
4	772	773	774	775	
4	776	777	778	779	
4	780	781	782	783	
4	784	785	786	787	
4	788	789	790	791	
4	792	793	794	795	
4	796	797	798	799	
4	800	801	802	803	
4	804	805	806	807	
4	808	809	810	811	
4	812	813	814	815	
4	816	817	818	819	
4	820	821	822	823	
4	824	825	826	827	
4	828	829	830	831	
4	832	833	834	835	
4	836	837	838	839	
4	840	841	842	843	
4	844	845	846	847	
4	848	849	850	851	
4	852	853	854	855	
4	856	857	858	859	
4	860	861	862	863	
4	864	865	866	867	
4	868	869	870	871	
4	872	873	874	875	
4	876	877	878	879	
4	880	881	882	883	
4	884	885	886	887	
4	888	889	890	891	
4	892	893	894	895	
4	896	897	898	899	
4	900	901	902	903	
4	904	905	906	907	
4	908	909	910	911	
4	912	913	914	915	
4	916	917	918	919	
4	920	921	922	923	
4	924	925	926	927	
4	928	929	930	931	
4	932	933	934	935	
4	936	937	938	939	
4	940	941	942	943	
4	944	945	946	947	
4	948	949	950	951	
4	952	953	954	955	
4	956	957	958	959	
4	960	961	962	963	
4	964	965	966	967	
4	968	969	970	971	
4	972	973	974	975	
4	976	977	978	979	
4	980	981	982	983	
4	984	985	986	987	
4	988	989	990	991	
4	992	993	994	995	
4	996	997	998	999	
4	1000	1001	1002	1003	
4	1004	1005	1006	1007	
4	1008	1009	1010	1011	
4	1012	1013	1014	1015	
4	1016	1017	1018	1019	
4	1020	1021	1022	1023	
4	1024	1025	1026	1027	
4	1028	1029	1030	1031	
4	1032	1033	1034	1035	
4	1036	1037	1038	1039	
4	1040	1041	1042	1043	
4	1044	1045	1046	1047	
4	1048	1049	1050	1051	
4	1052	1053	1054	1055	
4	1056	1057	1058	1059	
4	1060	1061	1062	1063	
4	1064	1065	1066	1067	
4	1068	1069	1070	1071	
4	1072	1073	1074	1075	
4	1076	1077	1078	1079	
4	1080	1081	1082	1083	
4	1084	1085	1086	1087	
4	1088	1089	1090	1091	
4	1092	1093	1094	1095	
4	1096	1097	1098	1099	
4	1100	1101	1102	1103	
4	1104	1105	1106	1107	
4	1108	1109	1110	1111	
4	1112	1113	1114	1115	
4	1116	1117	1118	1119	
4	1120	1121	1122	1123	
4	1124	1125	1126	1127	
4	1128	1129	1130	1131	
4	1132	1133	1134	1135	
4	1136	1137	1138	1139	
4	1140	1141	1142	1143	
4	1144	1145	1146	1147	
4	1148	1149	1150	1151	
4	1152	1153	1154	1155	
4	1156	1157	1158	1159	
4	1160	1161	1162	1163	
4	1164	1165	1166	1167	
4	1168	1169	1170	1171	
4	1172	1173	1174	1175	
4	1176	1177	1178	1179	
4	1180	1181	1182	1183	
4	1184	1185	1186	1187	
4	1188	1189	1190	1191	
4	1192	1193	1194	1195	
4	1196	1197	1198	1199	
4	1200	1201	1202	1203	
4	1204	1205	1206	1207	
4	1208	1209	1210	1211	
4	1212	1213	1214	1215	
4	1216	1217	1218	1219	
4	1220	1221	1222	1223	
4	1224	1225	1226	1227	
4	1228	1229	1230	1231	
4	1232	1233	1234	1235	
4	1236	1237	1238	1239	
4	1240	1241	1242	1243	
4	1244	1245	1246	1247	
4	1248	1249	1250	1251	
4	1252	1253	1254	1255	
4	1256	1257	1258	1259	
4	1260	1261	1262	1263	
4	1264	1265	1266	1267	
4	1268	1269	1270	1271	
4	1272	1273	1274	1275	
4	1276	1277	1278	1279	
4	1280	1281	1282	1283	
4	1284	1285	1286	1287	
4	1288	1289	1290	1291	
4	1292	1293	1294	1295	
4	1296	1297	1298	1299	
4	1300	1301	1302	1303	
4	1304	1305	1306	1307	
4	1308	1309	1310	1311	
4	1312	1313	1314	1315	
4	1316	1317	1318	1319	
4	1320	1321	1322	1323	
4	1324	1325	1326	1327	
4	1328	1329	1330	1331	
4	1332	1333	1334	1335	
4	1336	1337	1338	1339	
4	1340	1341	1342	1343	
4	1344	1345	1346	1347	
4	1348	1349	1350	1351	
4	1352	1353	1354	1355	
4	1356	1357	1358	1359	
4	1360	1361	1362	1363	
4	1364	1365	1366	1367	
4	1368	1369	1370	1371	
4	1372	1373	1374	1375	
4	1376	1377	1378	1379	
4	1380	1381	1382	1383	
4	1384	1385	1386	1387	
4	1388	1389	1390	1391	
4	1392	1393	1394	1395	
4	1396	1397	1398	1399	
4	1400	1401	1402	1403	
4	1404	1405	1406	1407	
4	1408	1409	1410	1411	
4	1412	1413	1414	1415	
4	1416	1417	1418	1419	
4	1420	1421	1422	1423	
4	1424	1425	1426	1427	
4	1428	1429	1430	1431	
4	1432	1433	1434	1435	
4	1436	1437	1438	1439	
4	1440	1441	1442	1443	
4	1444	1445	1446	1447	
4	1448	1449	1450	1451	
4	1452	1453	1454	1455	
4	1456	1457	1458	1459	
4	1460	1461	1462	1463	
4	1464	1465	1466	1467	
4	1468	1469	1470	1471	
4	1472	1473	1474	1475	
4	1476	1477	1478	1479	
4	1480	1481	1482	1483	
4	1484	1485	1486	1487	
4	1488	1489	1490	1491	
4	1492	1493	1494	1495	
4	1496	1497	1498	1499	
4	1500	1501	1502	1503	
4	1504	1505	1506	1507	
4	1508	1509	1510	1511	
4	1512	1513	1514	1515	
4	1516	1517	1518	1519	
4	1520	1521	1522	1523	
4	1524	1525	1526	1527	
4	1528	1529	1530	1531	
4	1532	1533	1534	1535	
4	1536	1537	1538	1539	
4	1540	1541	1542	1543	
4	1544	1545	1546	1547	
4	1548	1549	1550	1551	
4	1552	1553	1554	1555	
4	1556	1557	1558	1559	
4	1560	1561	1562	1563	
4	1564	1565	1566	1567	
4	1568	1569	1570	1571	
4	1572	1573	1574	1575	
4	1576	1577	1578	1579	
4	1580	1581	1582	1583	
4	1584	1585	1586	1587	
4	1588	1589	1590	1591	
4	1592	1593	1594	1595	
4	1596	1597	1598	1599	
4	1600	1601	1602	1603	
4	1604	1605	1606	1607	
4	1608	1609	1610	1611	
4	1612	1613	1614	1615	
4	1616	1617	1618	1619	
4	1620	1621	1622	1623	
4	1624	1625	1626	1627	
4	1628	1629	1630	1631	
4	1632	1633	1634	1635	
4	1636	1637	1638	1639	
4	1640	1641	1642	1643	
4	1644	1645	1646	1647	
4	1648	1649	1650	1651	
4	1652	1653	1654	1655	
4	1656	1657	1658	1659	
4	1660	1661	1662	1663	
4	1664	1665	1666	1667	
4	1668	1669	1670	1671	
4	1672	1673	1674	1675	
4	1676	1677	1678	1679	
4	1680	1681	1682	1683	
4	1684	1685	1686	1687	
4	1688	1689	1690	1691	
4	1692	1693	1694	1695	
4	1696	1697	1698	1699	
4	1700	1701	1702	1703	
4	1704	1705	1706	1707	
4	1708	1709	1710	1711	
4	1712	1713	1714	1715	
4	1716	1717	1718	1719	
4	1720	1721	1722	1723	
4	1724	1725	1726	1727	
4	1728	1729	1730	1731	
4	1732	1733	1734	1735	
4	1736	1737	1738	1739	
4	1740	1741	1742	1743	
4	1744	1745	1746	1747	
4	1748	1749	1750	1751	
4	1752	1753	1754	1755	
4	1756	1757	1758	1759	
4	1760	1761	1762	1763	
4	1764	1765	1766	1767	
4	1768	1769	1770	1771	
4	1772	1773	1774	1775	
4	1776	1777	1778	1779	
4	1780	1781	1782	1783	
4	1784	1785	1786	1787	
4	1788	1789	1790	1791	
4	1792	1793	1794	1795	
4	1796	1797	1798	1799	
4	1800	1801	1802	1803	
4	1804	1805	1806	1807	
4	1808	1809	1810	1811	
4	1812	1813	1814	1815	
4	1816	1817	1818	1819	
4	1820	1821	1822	1823	
4	1824	1825	1826	1827	
4	1828	1829	1830	1831	
4	1832	1833	1834	1835	
4	1836	1837	1838	1839	
4	1840	1841	1842	1843	
4	1844	1845	1846	1847	
4	1848	1849	1850	1851	
4	1852	1853	1854	1855	
4	1856	1857	1858	1859	
4	1860	1861	1862	1863	
4	1864	1865	1866	1867	
4	1868	1869	1870	1871	
4	1872	1873	1874	1875	
4	1876	1877	1878	1879	
4	1880	1881	1882	1883	
4	1884	1885	1886	1887	
4	1888	1889	1890	1891	
4	1892	1893	1894	1895	
4	1896	1897	1898	1899	
4	1900	1901	1902	1903	
4	1904	1905	1906	1907	
4	1908	1909	1910	1911	
4	1912	1913	1914	1915	
4	1916	1917	1918	1919	
4	1920	1921	1922	1923	
4	1924	1925	1926	1927	
4	1928	1929	1930	1931	
4	1932	1933	1934	1935	
4	1936	1937	1938	1939	
4	1940	1941	1942	1943	
4	1944	1945	1946	1947	
4	1948	1949	1950	1951	
4	1952	1953	1954	1955	
4	1956	1957	1958	1959	
4	1960	1961	1962	1963	
4	1964	1965	1966	1967	
4	1968	1969	1970	1971	
4	1972	1973	1974	1975	
4	1976	1977	1978	1979	
4	1980	1981	1982	1983	
4	1984	1985	1986	1987	
4	1988	1989	1990	1991	
4	1992	1993	1994	1995	
4	1996	1997	1998	1999	
4	2000	2001	2002	2003	
4	2004	2005	2006	2007	
4	2008	2009	2010	2011	
4	2012	2013	2014	2015	
4	2016	2017	2018	2019	
4	2020	2021	2022	2023	
4	2024	2025	2026	2027	
4	2028	2029	2030	2031	
4	2032	2033	2034	2035	
4	2036	2037	2038	2039	
4	2040	2041	2042	2043	
4	2044	2045	2046	2047	
4	2048	2049	2050	2051	
4	2052	2053	2054	2055	
4	2056	2057	2058	2059	
4	2060	2061	2062	2063	
4	2064	2065	2066	2067	
4	2068	2069	2070	2071	
4	2072	2073	2074	2075	
4	2076	2077	2078	2079	
4	2080	2081	2082	2083	
4	2084	2085	2086	2087	
4	2088	2089	2090	2091	
4	2092	2093	2094	2095	
4	2096	2097	2098	2099	
4	2100	2101	2102	2103	
4	2104	2105	2106	2107	
4	2108	2109	2110	2111	
4	2112	2113	2114	2115	
4	2116	2117	2118	2119	
4	2120	2121	2122	2123	
4	2124	2125	2126	2127	
4	2128	2129	2130	2131	
4	2132	2133	2134	2135	
4	2136	2137	2138	2139	
4	2140	2141	2142	2143	
4	2144	2145	2146	2147	
4	2148	2149	2150	2151	
4	2152	2153	2154	2155	
4	2156	2157	2158	2159	
4	2160	2161	2162	2163	
4	2164	2165	2166	2167	
4	2168	2169	2170	2171	
4	2172	2173	2174	2175	
4	2176	2177	2178	2179	
4	2180	2181	2182	2183	
4	2184	2185	2186	2187	
4	2188	2189	2190	2191	
4	2192	2193	2194	2195	
4	2196	2197	2198	2199	
4	2200	2201	2202	2203	
4	2204	2205	2206	2207	
4	2208	2209	2210	2211	
4	2212	2213	2214	2215	
4	2216	2217	2218	2219	
4	2220	2221	2222	2223	
4	2224	2225	2226	2227	
4	2228	2229	2230	2231	
4	2232	2233	2234	2235	
4	2236	2237	2238	2239	
4	2240	2241	2242	2243	
4	2244	2245	2246	2247	
4	2248	2249	2250	2251	
4	2252	2253	2254	2255	
4	2256	2257	2258	2259	
4	2260	2261	2262	2263	
4	2264	2265	2266	2267	
4	2268	2269	2270	2271	
4	2272	2273	2274	2275	
4	2276	2277	2278	2279	
4	2280	2281	2282	2283	
4	2284	2285	2286	2287	
4	2288	2289	2290	2291	
4	2292	2293	2294	2295	
4	2296	2297	2298	2299	
4	2300	2301	2302	2303	
4	2304	2305	2306	2307	
4	2308	2309	2310	2311	
4	2312	2313	2314	2315	
4	2316	2317	2318	2319	
4	2320	2321	2322	2323	
4	2324	2325	2326	2327	
4	2328	2329	2330	2331	
4	2332	2333	2334	2335	
4	2336	2337	2338	2339	
4	2340	2341	2342	2343	
4	2344	2345	2346	2347	
4	2348	2349	2350	2351	
4	2352	2353	2354	2355	
4	2356	2357	2358	2359	
4	2360	2361	2362	2363	
4	2364	2365	2366	2367	
4	2368	2369	2370	2371	
4	2372	2373	2374	2375	
4	2376	2377	2378	2379	
4	2380	2381	2382	2383	
4	2384	2385	2386	2387	
4	2388	2389	2390	2391	
4	2392	2393	2394	2395	
4	2396	2397	2398	2399	
4	2400	2401	2402	2403	
4	2404	2405	2406	2407	
4	2408	2409	2410	2411	
4	2412	2413	2414	2415	
4	2416	2417	2418	2419	
4	2420	2421	2422	2423	
4	2424	2425	2426	2427	
4	2428	2429	2430	2431	
4	2432	2433	2434	2435	
4	2436	2437	2438	2439	
4	2440	2441	2442	2443	
4	2444	2445	2446	2447	
4	2448	2449	2450	2451	
4	2452	2453	2454	2455	
4	2456	2457	2458	2459	
4	2460	2461	2462	2463	
4	2464	2465	2466	2467	
4	2468	2469	2470	2471	
4	2472	2473	2474	2475	
4	2476	2477	2478	2479	
4	2480	2481	2482	2483	
4	2484	2485	2486	2487	
4	2488	2489	2490	2491	
4	2492	2493	2494	2495	
4	2496	2497	2498	2499	
4	2500	2501	2502	2503	
4	2504	2505	2506	2507	
4	2508	2509	2510	2511	
4	2512	2513	2514	2515	
4	2516	2517	2518	2519	
4	2520	2521	2522	2523	
4	2524	2525	2526	2527	
4	2528	2529	2530	2531	
4	2532	2533	2534	2535	
4	2536	2537	2538	2539	
4	2540	2541	2542	2543	
4	2544	2545	2546	2547	
4	2548	2549	2550	2551	
4	2552	2553	2554	2555	
4	2556	2557	2558	2559	
4	2560	2561	2562	2563	
4	2564	2565	2566	2567	
4	2568	2569	2570	2571	
4	2572	2573	2574	2575	
4	2576	2577	2578	2579	
4	2580	2581	2582	2583	
4	2584	2585	2586	2587	
4	2588	2589	2590	2591	
4	2592	2593	2594	2595	
4	2596	2597	2598	2599	
4	2600	2601	2602	2603	
4	2604	2605	2606	2607	
4	2608	2609	2610	2611	
4	2612	2613	2614	2615	
4	2616	2617	2618	2619	
4	2620	2621	2622	2623	
4	2624	2625	2626	2627	
4	2628	2629	2630	2631	
4	2632	2633	2634	2635	
4	2636	2637	2638	2639	
4	2640	2641	2642	2643	
4	2644	2645	2646	2647	
4	2648	2649	2650	2651	
4	2652	2653	2654	2655	
4	2656	2657	2658	2659	
4	2660	2661	2662	2663	
4	2664	2665	2666	2667	
4	2668	2669	2670	2671	
4	2672	2673	2674	2675	
4	2676	2677	2678	2679	
4	2680	2681	2682	2683	
4	2684	2685	2686	2687	
4	2688	2689	2690	2691	
4	2692	2693	2694	2695	
4	2696	2697	2698	2699	
4	2700	2701	2702	2703	
4	2704	2705	2706	2707	
4	2708	2709	2710	2711	
4	2712	2713	2714	2715	
4	2716	2717	2718	2719	
4	2720	2721	2722	2723	
4	2724	2725	2726	2727	
4	2728	2729	2730	2731	
4	2732	2733	2734	2735	
4	2736	2737	2738	2739	
4	2740	2741	2742	2743	
4	2744	2745	2746	2747	
4	2748	2749	2750	2751	
4	2752	2753	2754	2755	
4	2756	2757	2758	2759	
4	2760	2761	2762	2763	
4	2764	2765	2766	2767	
4	2768	2769	2770	2771	
4	2772	2773	2774	2775	
4	2776	2777	2778	2779	
4	2780	2781	2782	2783	
4	2784	2785	2786	2787	
4	2788	2789	2790	2791	
4	2792	2793	2794	2795	
4	2796	2797	2798	2799	
4	2800	2801	2802	2803	
4	2804	2805	2806	2807	
4	2808	2809	2810	2811	
4	2812	2813	2814	2815	
4	2816	2817	2818	2819	
4	2820	2821	2822	2823	
4	2824	2825	2826	2827	
4	2828	2829	2830	2831	
4	2832	2833	2834	2835	
4	2836	2837	2838	2839	
4	2840	2841	2842	2843	
4	2844	2845	2846	2847	
4	2848	2849	2850	2851	
4	2852	2853	2854	2855	
4	2856	2857	2858	2859	
4	2860	2861	2862	2863	
4	2864	2865	2866	2867	
4	2868	2869	2870	2871	
4	2872	2873	2874	2875	
4	2876	2877	2878	2879	
4	2880	2881	2882	2883	
4	2884	2885	2886	2887	
4	2888	2889	2890	2891	
4	2892	2893	2894	2895	
4	2896	2897	2898	2899	
4	2900	2901	2902	2903	
4	2904	2905	2906	2907	
4	2908	2909	2910	2911	
4	2912	2913	2914	2915	
4	2916	2917	2918	2919	
4	2920	2921	2922	2923	
4	2924	2925	2926	2927	
4	2928	2929	2930	2931	
4	2932	2933	2934	2935	
4	2936	2937	2938	2939	
4	2940	2941	2942	2943	
4	2944	2945	2946	2947	
4	2948	2949	2950	2951	
4	2952	2953	2954	2955	
4	2956	2957	2958	2959	
4	2960	2961	2962	2963	
4	2964	2965	2966	2967	
4	2968	2969	2970	2971	
4	2972	2973	2974	2975	
4	2976	2977	2978	2979	
4	2980	2981	2982	2983	
4	2984	2985	2986	2987	
4	2988	2989	2990	2991	
4	2992	2993	2994	2995	
4	2996	2997	2998	2999	
4	3000	3001	3002	3003	
4	3004	3005	3006	3007	
4	3008	3009	3010	3011	
4	3012	3013	3014	3015	
4	3016	3017	3018	3019	
4	3020	3021	3022	3023	
4	3024	3025	3026	3027	
4	3028	3029	3030	3031	
4	3032	3033	3034	3035	
4	3036	3037	3038	3039	
4	3040	3041	3042	3043	
4	3044	3045	3046	3047	
4	3048	3049	3050	3051	
4	3052	3053	3054	3055	
4	3056	3057	3058	3059	
4	3060	3061	3062	3063	
4	3064	3065	3066	3067	
4	3068	3069	3070	3071	
4	3072	3073	3074	3075	
4	3076	3077	3078	3079	
4	3080	3081	3082	3083	
4	3084	3085	3086	3087	
4	3088	3089	3090	3091	
4	3092	3093	3094	3095	
4	3096	3097	3098	3099	
4	3100	3101	3102	3103	
4	3104	3105	3106	3107	
4	3108	3109	3110	3111	
4	3112	3113	3114	3115	
4	3116	3117	3118	3119	
4	3120	3121	3122	3123	
4	3124	3125	3126	3127	
4	3128	3129	3130	3131	
4	3132	3133	3134	3135	
4	3136	3137	3138	3139	
4	3140	3141	3142	3143	
4	3144	3145	3146	3147	
4	3148	3149	3150	3151	
4	3152	3153	3154	3155	
4	3156	3157	3158	3159	
4	3160	3161	3162	3163	
4	3164	3165	3166	3167	
4	3168	3169	3170	3171	
4	3172	3173	3174	3175	
4	3176	3177	3178	3179	
4	3180	3181	3182	3183	
4	3184	3185	3186	3187	
4	3188	3189	3190	3191	
4	3192	3193	3194	3195	
4	3196	3197	3198	3199	
4	3200	3201	3202	3203	
4	3204	3205	3206	3207	
4	3208	3209	3210	3211	
4	3212	3213	3214	3215	
4	3216	3217	3218	3219	
4	3220	3221	3222	3223	
4	3224	3225	3226	3227	
4	3228	3229	3230	3231	
4	3232	3233	3234	3235	
4	3236	3237	3238	3239	
4	3240	3241	3242	3243	
4	3244	3245	3246	3247	
4	3248	3249	3250	3251	
4	3252	3253	3254	3255	
4	3256	3257	3258	3259	
4	3260	3261	3262	3263	
4	3264	3265	3266	3267	
4	3268	3269	3270	3271	
4	3272	3273	3274	3275	
4	3276	3277	3278	3279	
4	3280	3281	3282	3283	
4	3284	3285	3286	3287	
4	3288	3289	3290	3291	
4	3292	3293	3294	3295	
4	3296	3297	3298	3299	
4	3300	3301	3302	3303	
4	3304	3305	3306	3307	
4	3308	3309	3310	3311	
4	3312	3313	3314	3315	
4	3316	3317	3318	3319	
4	3320	3321	3322	3323	
4	3324	3325	3326	3327	
4	3328	3329	3330	3331	
4	3332	3333	3334	3335	
4	3336	3337	3338	3339	
4	3340	3341	3342	3343	
4	3344	3345	3346	3347	
4	3348	3349	3350	3351	
4	3352	3353	3354	3355	
4	3356	3357	3358	3359	
4	3360	3361	3362	3363	
4	3364	3365	3366	3367	
4	3368	3369	3370	3371	
4	3372	3373	3374	3375	
4	3376	3377	3378	3379	
4	3380	3381	3382	3383	
4	3384	3385	3386	3387	
4	3388	3389	3390	3391	
4	3392	3393	3394	3395	
4	3396	3397	3398	3399	
4	3400	3401	3402	3403	
4	3404	3405	3406	3407	
4	3408	3409	3410	3411	
4	3412	3413	3414	3415	
4	3416	3417	3418	3419	
4	3420	3421	3422	3423	
4	3424	3425	3426	3427	
4	3428	3429	3430	3431	
4	3432	3433	3434	3435	
4	3436	3437	3438	3439	
4	3440	3441	3442	3443	
4	3444	3445	3446	3447	
4	3448	3449	3450	3451	
4	3452	3453	3454	3455	
4	3456	3457	3458	3459	
4	3460	3461	3462	3463	
4	3464	3465	3466	3467	
4	3468	3469	3470	3471	
4	3472	3473	3474	3475	
4	3476	3477	3478	3479	
4	3480	3481	3482	3483	
4	3484	3485	3486	3487	
4	3488	3489	3490	3491	
4	3492	3493	3494	3495	
4	3496	3497	3498	3499	
4	3500	3501	3502	3503	
4	3504	3505	3506	3507	
4	3508	3509	3510	3511	
4	3512	3513	3514	3515	
4	3516	3517	3518	3519	
4	3520	3521	3522	3523	
4	3524	3525	3526	3527	
4	3528	3529	3530	3531	
4	3532	3533	3534	3535	
4	3536	3537	3538	3539	
4	3540	3541	3542	3543	
4	3544	3545	3546	3547	
4	3548	3549	3550	3551	
4	3552	3553	3554	3555	
4	3556	3557	3558	3559	
4	3560	3561	3562	3563	
4	3564	3565	3566	3567	
4	3568	3569	3570	3571	
4	3572	3573	3574	3575	
4	3576	3577	3578	3579	
4	3580	3581	3582	3583	
4	3584	3585	3586	3587	
4	3588	3589	3590	3591	
4	3592	3593	3594	3595	
4	3596	3597	3598	3599	
4	3600	3601	3602	3603	
4	3604	3605	3606	3607	
4	3608	3609	3610	3611	
4	3612	3613	3614	3615	
4	3616	3617	3618	3619	
4	3620	3621	3622	3623	
4	3624	3625	3626	3627	
4	3628	3629	3630	3631	
4	3632	3633	3634	3635	
4	3636	3637	3638	3639	
4	3640	3641	3642	3643	
4	3644	3645	3646	3647	
4	3648	3649	3650	3651	
4	3652	3653	3654	3655	
4	3656	3657	3658	3659	
4	3660	3661	3662	3663	
4	3664	3665	3666	3667	
4	3668	3669	3670	3671	
4	3672	3673	3674	3675	
4	3676	3677	3678	3679	
4	3680	3681	3682	3683	
4	3684	3685	3686	3687	
4	3688	3689	3690	3691	
4	3692	3693	3694	3695	
4	3696	3697	3698	3699	
4	3700	3701	3702	3703	
4	3704	3705	3706	3707	
4	3708	3709	3710	3711	
4	3712	3713	3714	3715	
4	3716	3717	3718	3719	
4	3720	3721	3722	3723	
4	3724	3725	3726	3727	
4	3728	3729	3730	3731	
4	3732	3733	3734	3735	
4	3736	3737	3738	3739	
4	3740	3741	3742	3743	
4	3744	3745	3746	3747	
4	3748	3749	3750	3751	
4	3752	3753	3754	3755	
4	3756	3757	3758	3759	
4	3760	3761	3762	3763	
4	3764	3765	3766	3767	
4	3768	3769	3770	3771	
4	3772	3773	3774	3775	
4	3776	3777	3778	3779	
4	3780	3781	3782	3783	
4	3784	3785	3786	3787	
4	3788	3789	3790	3791	
4	3792	3793	3794	3795	
4	3796	3797	3798	3799	
4	3800	3801	3802	3803	
4	3804	3805	3806	3807	
4	3808	3809	3810	3811	
4	3812	3813	3814	3815	
4	3816	3817	3818	3819	
4	3820	3821	3822	3823	
4	3824	3825	3826	3827	
4	3828	3829	3830	3831	
4	3832	3833	3834	3835	
4	3836	3837	3838	3839	
4	3840	3841	3842	3843	
4	3844	3845	3846	3847	
4	3848	3849	3850	3851	
4	3852	3853	3854	3855	
4	3856	3857	3858	3859	
4	3860	3861	3862	3863	
4	3864	3865	3866	3867	
4	3868	3869	3870	3871	
4	3872	3873	3874	3875	
4	3876	3877	3878	3879	
4	3880	3881	3882	3883	
4	3884	3885	3886	3887	
4	3888	3889	3890	3891	
4	3892	3893	3894	3895	
4	3896	3897	3898	3899	
4	3900	3901	3902	3903	
4	3904	3905	3906	3907	
4	3908	3909	3910	3911	
4	3912	3913	3914	3915	
4	3916	3917	3918	3919	
4	3920	3921	3922	3923	
4	3924	3925	3926	3927	
4	3928	3929	3930	3931	
4	3932	3933	3934	3935	
4	3936	3937	3938	3939	
4	3940	3941	3942	3943	
4	3944	3945	3946	3947	
4	3948	3949	3950	3951	
4	3952	3953	3954	3955	
4	3956	3957	3958	3959	
4	3960	3961	3962	3963	
4	3964	3965	3966	3967	
4	3968	3969	3970	3971	
4	3972	3973	3974	3975	
4	3976	3977	3978	3979	
4	3980	3981	3982	3983	
4	3984	3985	3986	3987	
4	3988	3989	3990	3991	
4	3992	3993	3994	3995	
4	3996	3997	3998	3999	
4	4000	4001	4002	4003	
4	4004	4005	4006	4007	
4	4008	4009	4010	4011	
4	4012	4013	4014	4015	
4	4016	4017	4018	4019	
4	4020	4021	4022	4023	
4	4024	4025	4026	4027	
4	4028	4029	4030	4031	
4	4032	4033	4034	4035	
4	4036	4037	4038	4039	
4	4040	4041	4042	4043	
4	4044	4045	4046	4047	
4	4048	4049	4050	4051	
4	4052	4053	4054	4055	
4	4056	4057	4058	4059	
4	4060	4061	4062	4063	
4	4064	4065	4066	4067	
4	4068	4069	4070	4071	
4	4072	4073	4074	4075	
4	4076	4077	4078	4079	
4	4080	4081	4082	4083	
4	4084	4085	4086	4087	
4	4088	4089	4090	4091	
4	4092	4093	4094	4095	
4	4096	4097	4098	4099	
4	4100	4101	4102	4103	
4	4104	4105	4106	4107	
4	4108	4109	4110	4111	
4	4112	4113	4114	4115	
4	4116	4117	4118	4119	
4	4120	4121	4122	4123	
4	4124	4125	4126	4127	
4	4128	4129	4130	4131	
4	4132	4133	4134	4135	
4	4136	4137	4138	4139	
4	4140	4141	4142	4143	
4	4144	4145	4146	4147	
4	4148	4149	4150	4151	
4	4152	4153	4154	4155	
4	4156	4157	4158	4159	
4	4160	4161	4162	4163	
4	4164	4165	4166	4167	
4	4168	4169	4170	4171	
4	4172	4173	4174	4175	
4	4176	4177	4178	4179	
4	4180	4181	4182	4183	
4	4184	4185	4186	4187	
4	4188	4189	4190	4191	
4	4192	4193	4194	4195	
4	4196	4197	4198	4199	
4	4200	4201	4202	4203	
4	4204	4205	4206	4207	
4	4208	4209	4210	4211	
4	4212	4213	4214	4215	
4	4216	4217	4218	4219	
4	4220	4221	4222	4223	
4	4224	4225	4226	4227	
4	4228	4229	4230	4231	
4	4232	4233	4234	4235	
4	4236	4237	4238	4239	
4	4240	4241	4242	4243	
4	4244	4245	4246	4247	
4	4248	4249	4250	4251	
4	4252	4253	4254	4255	
4	4256	4257	4258	4259	
4	4260	4261	4262	4263	
4	4264	4265	4266	4267	
4	4268	4269	4270	4271	
4	4272	4273	4274	4275	
4	4276	4277	4278	4279	
4	4280	4281	4282	4283	
4	4284	4285	4286	4287	
4	4288	4289	4290	4291	
4	4292	4293	4294	4295	
4	4296	4297	4298	4299	
4	4300	4301	4302	4303	
4	4304	4305	4306	4307	
4	4308	4309	4310	4311	
4	4312	4313	4314	4315	
4	4316	4317	4318	4319	
4	4320	4321	4322	4323	
4	4324	4325	4326	4327	
4	4328	4329	4330	4331	
4	4332	4333	4334	4335	
4	4336	4337	4338	4339	
4	4340	4341	4342	4343	
4	4344	4345	4346	4347	
4	4348	4349	4350	4351	
4	4352	4353	4354	4355	
4	4356	4357	4358	4359	
4	4360	4361	4362	4363	
4	4364	4365	4366	4367	
4	4368	4369	4370	4371	
4	4372	4373	4374	4375	
4	4376	4377	4378	4379	
4	4380	4381	4382	4383	
4	4384	4385	4386	4387	
4	4388	4389	4390	4391	
4	4392	4393	4394	4395	
4	4396	4397	4398	4399	
4	4400	4401	4402	4403	
4	4404	4405	4406	4407	
4	4408	4409	4410	4411	
4	4412	4413	4414	4415	
4	4416	4417	4418	4419	
4	4420	4421	4422	4423	
4	4424	4425	4426	4427	
4	4428	4429	4430	4431	
4	4432	4433	4434	4435	
4	4436	4437	4438	4439	
4	4440	4441	4442	4443	
4	4444	4445	4446	4447	
4	4448	4449	4450	4451	
4	4452	4453	4454	4455	
4	4456	4457	4458	4459	
4	4460	4461	4462	4463	
4	4464	4465	4466	4467	
4	4468	4469	4470	4471	
4	4472	4473	4474	4475	
4	4476	4477	4478	4479	
4	4480	4481	4482	4483	
4	4484	4485	4486	4487	
4	4488	4489	4490	4491	
4	4492	4493	4494	4495	
4	4496	4497	4498	4499	
4	4500	4501	4502	4503	
4	4504	4505	4506	4507	
4	4508	4509	4510	4511	
4	4512	4513	4514	4515	
4	4516	4517	4518	4519	
4	4520	4521	4522	4523	
4	4524	4525	4526	4527	
4	4528	4529	4530	4531	
4	4532	4533	4534	4535	
4	4536	4537	4538	4539	
4	4540	4541	4542	4543	
4	4544	4545	4546	4547	
4	4548	4549	4550	4551	
4	4552	4553	4554	4555	
4	4556	4557	4558	4559	
4	4560	4561	4562	4563	
4	4564	4565	4566	4567	
4	4568	4569	4570	4571	
4	4572	4573	4574	4575	
4	4576	4577	4578	4579	
4	4580	4581	4582	4583	
4	4584	4585	4586	4587	
4	4588	4589	4590	4591	
4	4592	4593	4594	4595	
4	4596	4597	4598	4599	
4	4600	4601	4602	4603	
4	4604	4605	4606	4607	
4	4608	4609	4610	4611	
4	4612	4613	4614	4615	
4	4616	4617	4618	4619	
4	4620	4621	4622	4623	
4	4624	4625	4626	4627	
4	4628	4629	4630	4631	
4	4632	4633	4634	4635	
4	4636	4637	4638	4639	
4	4640	4641	4642	4643	
4	4644	4645	4646	4647	
4	4648	4649	4650	4651	
4	4652	4653	4654	4655	
4	4656	4657	4658	4659	
4	4660	4661	4662	4663	
4	4664	4665	4666	4667	
4	4668	4669	4670	4671	
4	4672	4673	4674	4675	
4	4676	4677	4678	4679	
4	4680	4681	4682	4683	
4	4684	4685	4686	4687	
4	4688	4689	4690	4691	
4	4692	4693	4694	4695	
4	4696	4697	4698	4699	
4	4700	4701	4702	4703	
4	4704	4705	4706	4707	
4	4708	4709	4710	4711	
4	4712	4713	4714	4715	
4	4716	4717	4718	4719	
4	4720	4721	4722	4723	
4	4724	4725	4726	4727	
4	4728	4729	4730	4731	
4	4732	4733	4734	4735	
4	4736	4737	4738	4739	
4	4740	4741	4742	4743	
4	4744	4745	4746	4747	
4	4748	4749	4750	4751	
4	4752	4753	4754	4755	
4	4756	4757	4758	4759	
4	4760	4761	4762	4763	
4	4764	4765	4766	4767	
4	4768	4769	4770	4771	
4	4772	4773	4774	4775	
4	4776	4777	4778	4779	
4	4780	4781	4782	4783	
4	4784	4785	4786	4787	
4	4788	4789	4790	4791	
4	4792	4793	4794	4795	
4	4796	4797	4798	4799	
4	4800	4801	4802	4803	
4	4804	4805	4806	4807	
4	4808	4809	4810	4811	
4	4812	4813	4814	4815	
4	4816	4817	4818	4819	
4	4820	4821	4822	4823	
4	4824	4825	4826	4827	
4	4828	4829	4830	4831	
4	4832	4833	4834	4835	
4	4836	4837	4838	4839	
4	4840	4841	4842	4843	
4	4844	4845	4846	4847	
4	4848	4849	4850	4851	
4	4852	4853	4854	4855	
4	4856	4857	4858	4859	
4	4860	4861	4862	4863	
4	4864	4865	4866	4867	
4	4868	4869	4870	4871	
4	4872	4873	4874	4875	
4	4876	4877	4878	4879	
4	4880	4881	4882	4883	
4	4884	4885	4886	4887	
4	4888	4889	4890	4891	
4	4892	4893	4894	4895	
4	4896	4897	4898	4899	
4	4900	4901	4902	4903	
4	4904	4905	4906	4907	
4	4908	4909	4910	4911	
4	4912	4913	4914	4915	
4	4916	4917	4918	4919	
4	4920	4921	4922	4923	
4	4924	4925	4926	4927	
4	4928	4929	4930	4931	
4	4932	4933	4934	4935	
4	4936	4937	4938	4939	
4	4940	4941	4942	4943	
4	4944	4945	4946	4947	
4	4948	4949	4950	4951	
4	4952	4953	4954	4955	
4	4956	4957	4958	4959	
4	4960	4961	4962	4963	
4	4964	4965	4966	4967	
4	4968	4969	4970	4971	
4	4972	4973	4974	4975	
4	4976	4977	4978	4979	
4	4980	4981	4982	4983	
4	4984	4985	4986	4987	
4	4988	4989	4990	4991	
4	4992	4993	4994	4995	
4	4996	4997	4998	4999	
4	5000	5001	5002	5003	
4	5004	5005	5006	5007	
4	5008	5009	5010	5011	
4	5012	5013	5014	5015	
4	5016	5017	5018	5019	
4	5020	5021	5022	5023	
4	5024	5025	5026	5027	
4	5028	5029	5030	5031	
4	5032	5033	5034	5035	
4	5036	5037	5038	5039	
4	5040	5041	5042	5043	
4	5044	5045	5046	5047	
4	5048	5049	5050	5051	
4	5052	5053	5054	5055	
4	5056	5057	5058	5059	
4	5060	5061	5062	5063	
4	5064	5065	5066	5067	
4	5068	5069	5070	5071	
4	5072	5073	5074	5075	
4	5076	5077	5078	5079	
4	5080	5081	5082	5083	
4	5084	5085	5086	5087	
4	5088	5089	5090	5091	
4	5092	5093	5094	5095	
4	5096	5097	5098	5099	
4	5100	5101	5102	5103	
4	5104	5105	5106	5107	
4	5108	5109	5110	5111	
4	5112	5113	5114	5115	
4	5116	5117	5118	5119	
4	5120	5121	5122	5123	
4	5124	5125	5126	5127	
4	5128	5129	5130	5131	
4	5132	5133	5134	5135	
4	5136	5137	5138	5139	
4	5140	5141	5142	5143	
4	5144	5145	5146	5147	
4	5148	5149	5150	5151	
4	5152	5153	5154	5155	
4	5156	5157	5158	5159	
4	5160	5161	5162	5163	
4	5164	5165	5166	5167	
4	5168	5169	5170	5171	
4	5172	5173	5174	5175	
4	5176	5177	5178	5179	
4	5180	5181	5182	5183	
4	5184	5185	5186	5187	
4	5188	5189	5190	5191	
4	5192	5193	5194	5195	
4	5196	5197	5198	5199	
4	5200	5201	5202	5203	
4	5204	5205	5206	5207	
4	5208	5209	5210	5211	
4	5212	5213	5214	5215	
4	5216	5217	5218	5219	
4	5220	5221	5222	5223	
4	5224	5225	5226	5227	
4	5228	5229	5230	5231	
4	5232	5233	5234	5235	
4	5236	5237	5238	5239	
4	5240	5241	5242	5243	
4	5244	5245	5246	5247	
4	5248	5249	5250	5251	
4	5252	5253	5254	5255	
4	5256	5257	5258	5259	
4	5260	5261	5262	5263	
4	5264	5265	5266	5267	
4	5268	5269	5270	5271	
4	5272	5273	5274	5275	
4	5276	5277	5278	5279	
4	5280	5281	5282	5283	
4	5284	5285	5286	5287	
4	5288	5289	5290	5291	
4	5292	5293	5294	5295	
4	5296	5297	5298	5299	
4	5300	5301	5302	5303	
4	5304	5305	5306	5307	
4	5308	5309	5310	5311	
4	5312	5313	5314	5315	
4	5316	5317	5318	5319	
4	5320	5321	5322	5323	
4	5324	5325	5326	5327	
4	5328	5329	5330	5331	
4	5332	5333	5334	5335	
4	5336	5337	5338	5339	
4	5340	5341	5342	5343	
4	5344	5345	5346	5347	
4	5348	5349	5350	5351	
4	5352	5353	5354	5355	
4	5356	5357	5358	5359	
4	5360	5361	5362	5363	
4	5364	5365	5366	5367	
4	5368	5369	5370	5371	
4	5372	5373	5374	5375	
4	5376	5377	5378	5379	
4	5380	5381	5382	5383	
4	5384	5385	5386	5387	
4	5388	5389	5390	5391	
4	5392	5393	5394	5395	
4	5396	5397	5398	5399	
4	5400	5401	5402	5403	
4	5404	5405	5406	5407	
4	5408	5409	5410	5411	
4	5412	5413	5414	5415	
4	5416	5417	5418	5419	
4	5420	5421	5422	5423	
4	5424	5425	5426	5427	
4	5428	5429	5430	5431	
4	5432	5433	5434	5435	
4	5436	5437	5438	5439	
4	5440	5441	5442	5443	
4	5444	5445	5446	5447	
4	5448	5449	5450	5451	
4	5452	5453	5454	5455	
4	5456	5457	5458	5459	
4	5460	5461	5462	5463	
4	5464	5465	5466	5467	
4	5468	5469	5470	5471	
4	5472	5473	5474	5475	
4	5476	5477	5478	5479	
4	5480	5481	5482	5483	
4	5484	5485	5486	5487	
4	5488	5489	5490	5491	
4	5492	5493	5494	5495	
4	5496	5497	5498	5499	
4	5500	5501	5502	5503	
4	5504	5505	5506	5507	
4	5508	5509	5510	5511	
4	5512	5513	5514	5515	
4	5516	5517	5518	5519	
4	5520	5521	5522	5523	
4	5524	5525	5526	5527	
4	5528	5529	5530	5531	
4	5532	5533	5534	5535	
4	5536	5537	5538	5539	
4	5540	5541	5542	5543	
4	5544	5545	5546	5547	
4	5548	5549	5550	5551	
4	5552	5553	5554	5555	
4	5556	5557	5558	5559	
4	5560	5561	5562	5563	
4	5564	5565	5566	5567	
4	5568	5569	5570	5571	
4	5572	5573	5574	5575	
4	5576	5577	5578	5579	
4	5580	5581	5582	5583	
4	5584	5585	5586	5587	
4	5588	5589	5590	5591	
4	5592	5593	5594	5595	
4	5596	5597	5598	5599	
4	5600	5601	5602	5603	
4	5604	5605	5606	5607	
4	5608	5609	5610	5611	
4	5612	5613	5614	5615	
4	5616	5617	5618	5619	
4	5620	5621	5622	5623	
4	5624	5625	5626	5627	
4	5628	5629	5630	5631	
4	5632	5633	5634	5635	
4	5636	5637	5638	5639	
4	5640	5641	5642	5643	
4	5644	5645	5646	5647	
4	5648	5649	5650	5651	
4	5652	5653	5654	5655	
4	5656	5657	5658	5659	
4	5660	5661	5662	5663	
4	5664	5665	5666	5667	
4	5668	5669	5670	5671	
4	5672	5673	5674	5675	
4	5676	5677	5678	5679	
4	5680	5681	5682	5683	
4	5684	5685	5686	5687	
4	5688	5689	5690	5691	
4	5692	5693	5694	5695	
4	5696	5697	5698	5699	
4	5700	5701	5702	5703	
4	5704	5705	5706	5707	
4	5708	5709	5710	5711	
4	5712	5713	5714	5715	
4	5716	5717	5718	5719	
4	5720	5721	5722	5723	
4	5724	5725	5726	5727	
4	5728	5729	5730	5731	
4	5732	5733	5734	5735	
4	5736	5737	5738	5739	
4	5740	5741	5742	5743	
4	5744	5745	5746	5747	
4	5748	5749	5750	5751	
4	5752	5753	5754	5755	
4	5756	5757	5758	5759	
4	5760	5761	5762	5763	
4	5764	5765	5766	5767	
4	5768	5769	5770	5771	
4	5772	5773	5774	5775	
4	5776	5777	5778	5779	
4	5780	5781	5782	5783	
4	5784	5785	5786	5787	
4	5788	5789	5790	5791	
4	5792	5793	5794	5795	
4	5796	5797	5798	5799	
4	5800	5801	5802	5803	
4	5804	5805	5806	5807	
4	5808	5809	5810	5811	
4	5812	5813	5814	5815	
4	5816	5817	5818	5819	
4	5820	5821	5822	5823	
4	5824	5825	5826	5827	
4	5828	5829	5830	5831	
4	5832	5833	5834	5835	
4	5836	5837	5838	5839	
4	5840	5841	5842	5843	
4	5844	5845	5846	5847	
4	5848	5849	5850	5851	
4	5852	5853	5854	5855	
4	5856	5857	5858	5859	
4	5860	5861	5862	5863	
4	5864	5865	5866	5867	
4	5868	5869	5870	5871	
4	5872	5873	5874	5875	
4	5876	5877	5878	5879	
4	5880	5881	5882	5883	
4	5884	5885	5886	5887	
4	5888	5889	5890	5891	
4	5892	5893	5894	5895	
4	5896	5897	5898	5899	
4	5900	5901	5902	5903	
4	5904	5905	5906	5907	
4	5908	5909	5910	5911	
4	5912	5913	5914	5915	
4	5916	5917	5918	5919	
4	5920	5921	5922	5923	
4	5924	5925	5926	5927	
4	5928	5929	5930	5931	
4	5932	5933	5934	5935	
4	5936	5937	5938	5939	
4	5940	5941	5942	5943	
4	5944	5945	5946	5947	
4	5948	5949	5950	5951	
4	5952	5953	5954	5955	
4	5956	5957	5958	5959	
4	5960	5961	5962	5963	
4	5964	5965	5966	5967	
4	5968	5969	5970	5971	
4	5972	5973	5974	5975	
4	5976	5977	5978	5979	
4	5980	5981	5982	5983	
4	5984	5985	5986	5987	
4	5988	5989	5990	5991	
4	5992	5993	5994	5995	
4	5996	5997	5998	5999	
4	6000	6001	6002	6003	
4	6004	6005	6006	6007	
4	6008	6009	6010	6011	
4	6012	6013	6014	6015	
4	6016	6017	6018	6019	
4	6020	6021	6022	6023	
4	6024	6025	6026	6027	
4	6028	6029	6030	6031	
4	6032	6033	6034	6035	
4	6036	6037	6038	6039	
4	6040	6041	6042	6043	
4	6044	6045	6046	6047	
4	6048	6049	6050	6051	
4	6052	6053	6054	6055	
4	6056	6057	6058	6059	
4	6060	6061	6062	6063	
4	6064	6065	6066	6067	
4	6068	6069	6070	6071	
4	6072	6073	6074	6075	
4	6076	6077	6078	6079	
4	6080	6081	6082	6083	
4	6084	6085	6086	6087	
4	6088	6089	6090	6091	
4	6092	6093	6094	6095	
4	6096	6097	6098	6099	
4	6100	6101	6102	6103	
4	6104	6105	6106	6107	
4	6108	6109	6110	6111	
4	6112	6113	6114	6115	
4	6116	6117	6118	6119	
4	6120	6121	6122	6123	
4	6124	6125	6126	6127	
4	6128	6129	6130	6131	
4	6132	6133	6134	6135	
4	6136	6137	6138	6139	
4	6140	6141	6142	6143	
4	6144	6145	6146	6147	
4	6148	6149	6150	6151	
4	6152	6153	6154	6155	
4	6156	6157	6158	6159	
4	6160	6161	6162	6163	
4	6164	6165	6166	6167	
4	6168	6169	6170	6171	
4	6172	6173	6174	6175	
4	6176	6177	6178	6179	
4	6180	6181	6182	6183	
4	6184	6185	6186	6187	
4	6188	6189	6190	6191	
4	6192	6193	6194	6195	
4	6196	6197	6198	6199	
4	6200	6201	6202	6203	
4	6204	6205	6206	6207	
4	6208	6209	6210	6211	
4	6212	6213	6214	6215	
4	6216	6217	6218	6219	
4	6220	6221	6222	6223	
4	6224	6225	6226	6227	
4	6228	6229	6230	6231	
4	6232	6233	6234	6235	
4	6236	6237	6238	6239	
4	6240	6241	6242	6243	
4	6244	6245	6246	6247	
4	6248	6249	6250	6251	
4	6252	6253	6254	6255	
4	6256	6257	6258	6259	
4	6260	6261	6262	6263	
4	6264	6265	6266	6267	
4	6268	6269	6270	6271	
4	6272	6273	6274	6275	
4	6276	6277	6278	6279	
4	6280	6281	6282	6283	
4	6284	6285	6286	6287	
4	6288	6289	6290	6291	
4	6292	6293	6294	6295	
4	6296	6297	6298	6299	
4	6300	6301	6302	6303	
4	6304	6305	6306	6307	
4	6308	6309	6310	6311	
4	6312	6313	6314	6315	
4	6316	6317	6318	6319	
4	6320	6321	6322	6323	
4	6324	6325	6326	6327	
4	6328	6329	6330	6331	
4	6332	6333	6334	6335	
4	6336	6337	6338	6339	
4	6340	6341	6342	6343	
4	6344	6345	6346	6347	
4	6348	6349	6350	6351	
4	6352	6353	6354	6355	
4	6356	6357	6358	6359	
4	6360	6361	6362	6363	
4	6364	6365	6366	6367	
4	6368	6369	6370	6371	
4	6372	6373	6374	6375	
4	6376	6377	6378	6379	
4	6380	6381	6382	6383	
4	6384	6385	6386	6387	
4	6388	6389	6390	6391	
4	6392	6393	6394	6395	
4	6396	6397	6398	6399	
4	6400	6401	6402	6403	
4	6404	6405	6406	6407	
4	6408	6409	6410	6411	
4	6412	6413	6414	6415	
4	6416	6417	6418	6419	
4	6420	6421	6422	6423	
4	6424	6425	6426	6427	
4	6428	6429	6430	6431	
4	6432	6433	6434	6435	
4	6436	6437	6438	6439	
4	6440	6441	6442	6443	
4	6444	6445	6446	6447	
4	6448	6449	6450	6451	
4	6452	6453	6454	6455	
4	6456	6457	6458	6459	
4	6460	6461	6462	6463	
4	6464	6465	6466	6467	
4	6468	6469	6470	6471	
4	6472	6473	6474	6475	
4	6476	6477	6478	6479	
4	6480	6481	6482	6483	
4	6484	6485	6486	6487	
4	6488	6489	6490	6491	
4	6492	6493	6494	6495	
4	6496	6497	6498	6499	
4	6500	6501	6502	6503	
4	6504	6505	6506	6507	
4	6508	6509	6510	6511	
4	6512	6513	6514	6515	
4	6516	6517	6518	6519	
4	6520	6521	6522	6523	
4	6524	6525	6526	6527	
4	6528	6529	6530	6531	
4	6532	6533	6534	6535	
4	6536	6537	6538	6539	
4	6540	6541	6542	6543	
4	6544	6545	6546	6547	
4	6548	6549	6550	6551	
4	6552	6553	6554	6555	
4	6556	6557	6558	6559	
4	6560	6561	6562	6563	
4	6564	6565	6566	6567	
4	6568	6569	6570	6571	
4	6572	6573	6574	6575	
4	6576	6577	6578	6579	
4	6580	6581	6582	6583	
4	6584	6585	6586	6587	
4	6588	6589	6590	6591	
4	6592	6593	6594	6595	
4	6596	6597	6598	6599	
4	6600	6601	6602	6603	
4	6604	6605	6606	6607	
4	6608	6609	6610	6611	
4	6612	6613	6614	6615	
4	6616	6617	6618	6619	
4	6620	6621	6622	6623	
4	6624	6625	6626	6627	
4	6628	6629	6630	6631	
4	6632	6633	6634	6635	
4	6636	6637	6638	6639	
4	6640	6641	6642	6643	
4	6644	6645	6646	6647	
4	6648	6649	6650	6651	
4	6652	6653	6654	6655	
4	6656	6657	6658	6659	
4	6660	6661	6662	6663	
4	6664	6665	6666	6667	
4	6668	6669	6670	6671	
4	6672	6673	6674	6675	
4	6676	6677	6678	6679	
4	6680	6681	6682	6683	
4	6684	6685	6686	6687	
4	6688	6689	6690	6691	
4	6692	6693	6694	6695	
4	6696	6697	6698	6699	
4	6700	6701	6702	6703	
4	6704	6705	6706	6707	
4	6708	6709	6710	6711	
4	6712	6713	6714	6715	
4	6716	6717	6718	6719	
4	6720	6721	6722	6723	
4	6724	6725	6726	6727	
4	6728	6729	6730	6731	
4	6732	6733	6734	6735	
4	6736	6737	6738	6739	
4	6740	6741	6742	6743	
4	6744	6745	6746	6747	
4	6748	6749	6750	6751	
4	6752	6753	6754	6755	
4	6756	6757	6758	6759	
4	6760	6761	6762	6763	
4	6764	6765	6766	6767	
4	6768	6769	6770	6771	
4	6772	6773	6774	6775	
4	6776	6777	6778	6779	
4	6780	6781	6782	6783	
4	6784	6785	6786	6787	
4	6788	6789	6790	6791	
4	6792	6793	6794	6795	
4	6796	6797	6798	6799	
4	6800	6801	6802	6803	
4	6804	6805	6806	6807	
4	6808	6809	6810	6811	
4	6812	6813	6814	6815	
4	6816	6817	6818	6819	
4	6820	6821	6822	6823	
4	6824	6825	6826	6827	
4	6828	6829	6830	6831	
4	6832	6833	6834	6835	
4	6836	6837	6838	6839	
4	6840	6841	6842	6843	
4	6844	6845	6846	6847	
4	6848	6849	6850	6851	
4	6852	6853	6854	6855	
4	6856	6857	6858	6859	
4	6860	6861	6862	6863	
4	6864	6865	6866	6867	
4	6868	6869	6870	6871	
4	6872	6873	6874	6875	
4	6876	6877	6878	6879	
4	6880	6881	6882	6883	
4	6884	6885	6886	6887	
4	6888	6889	6890	6891	
4	6892	6893	6894	6895	
4	6896	6897	6898	6899	
4	6900	6901	6902	6903	
4	6904	6905	6906	6907	
4	6908	6909	6910	6911	
4	6912	6913	6914	6915	
4	6916	6917	6918	6919	
4	6920	6921	6922	6923	
4	6924	6925	6926	6927	
4	6928	6929	6930	6931	
4	6932	6933	6934	6935	
4	6936	6937	6938	6939	
4	6940	6941	6942	6943	
4	6944	6945	6946	6947	
4	6948	6949	6950	6951	
4	6952	6953	6954	6955	
4	6956	6957	6958	6959	
4	6960	6961	6962	6963	
4	6964	6965	6966	6967	
4	6968	6969	6970	6971	
4	6972	6973	6974	6975	
4	6976	6977	6978	6979	
4	6980	6981	6982	6983	
4	6984	6985	6986	6987	
4	6988	6989	6990	6991	
4	6992	6993	6994	6995	
4	6996	6997	6998	6999	
4	7000	7001	7002	7003	
4	7004	7005	7006	7007	
4	7008	7009	7010	7011	
4	7012	7013	7014	7015	
4	7016	7017	7018	7019	
4	7020	7021	7022	7023	
4	7024	7025	7026	7027	
4	7028	7029	7030	7031	
4	7032	7033	7034	7035	
4	7036	7037	7038	7039	
4	7040	7041	7042	7043	
4	7044	7045	7046	7047	
4	7048	7049	7050	7051	
4	7052	7053	7054	7055	
4	7056	7057	7058	7059	
4	7060	7061	7062	7063	
4	7064	7065	7066	7067	
4	7068	7069	7070	7071	
4	7072	7073	7074	7075	
4	7076	7077	7078	7079	
4	7080	7081	7082	7083	
4	7084	7085	7086	7087	
4	7088	7089	7090	7091	
4	7092	7093	7094	7095	
4	7096	7097	7098	7099	
4	7100	7101	7102	7103	
4	7104	7105	7106	7107	
4	7108	7109	7110	7111	
4	7112	7113	7114	7115	
4	7116	7117	7118	7119	
4	7120	7121	7122	7123	
4	7124	7125	7126	7127	
4	7128	7129	7130	7131	
4	7132	7133	7134	7135	
4	7136	7137	7138	7139	
4	7140	7141	7142	7143	
4	7144	7145	7146	7147	
4	7148	7149	7150	7151	
4	7152	7153	7154	7155	
4	7156	7157	7158	7159	
4	7160	7161	7162	7163	
4	7164	7165	7166	7167	
4	7168	7169	7170	7171	
4	7172	7173	7174	7175	
4	7176	7177	7178	7179	
4	7180	7181	7182	7183	
4	7184	7185	7186	7187	
4	7188	7189	7190	7191	
4	7192	7193	7194	7195	
4	7196	7197	7198	7199	
4	7200	7201	7202	7203	
4	7204	7205	7206	7207	
4	7208	7209	7210	7211	
4	7212	7213	7214	7215	
4	7216	7217	7218	7219	
4	7220	7221	7222	7223	
4	7224	7225	7226	7227	
4	7228	7229	7230	7231	
4	7232	7233	7234	7235	
4	7236	7237	7238	7239	
4	7240	7241	7242	7243	
4	7244	7245	7246	7247	
4	7248	7249	7250	7251	
4	7252	7253	7254	7255	
4	7256	7257	7258	7259	
4	7260	7261	7262	7263	
4	7264	7265	7266	7267	
4	7268	7269	7270	7271	
4	7272	7273	7274	7275	
4	7276	7277	7278	7279	
4	7280	7281	7282	7283	
4	7284	7285	7286	7287	
4	7288	7289	7290	7291	
4	7292	7293	7294	7295	
4	7296	7297	7298	7299	
4	7300	7301	7302	7303	
4	7304	7305	7306	7307	
4	7308	7309	7310	7311	
4	7312	7313	7314	7315	
4	7316	7317	7318	7319	
4	7320	7321	7322	7323	
4	7324	7325	7326	7327	
4	7328	7329	7330	7331	
4	7332	7333	7334	7335	
4	7336	7337	7338	7339	
4	7340	7341	7342	7343	
4	7344	7345	7346	7347	
4	7348	7349	7350	7351	
4	7352	7353	7354	7355	
4	7356	7357	7358	7359	
4	7360	7361	7362	7363	
4	7364	7365	7366	7367	
4	7368	7369	7370	7371	
4	7372	7373	7374	7375	
4	7376	7377	7378	7379	
4	7380	7381	7382	7383	
4	7384	7385	7386	7387	
4	7388	7389	7390	7391	
4	7392	7393	7394	7395	
4	7396	7397	7398	7399	
4	7400	7401	7402	7403	
4	7404	7405	7406	7407	
4	7408	7409	7410	7411	
4	7412	7413	7414	7415	
4	7416	7417	7418	7419	
4	7420	7421	7422	7423	
4	7424	7425	7426	7427	
4	7428	7429	7430	7431	
4	7432	7433	7434	7435	
4	7436	7437	7438	7439	
4	7440	7441	7442	7443	
4	7444	7445	7446	7447	
4	7448	7449	7450	7451	
4	7452	7453	7454	7455	
4	7456	7457	7458	7459	
4	7460	7461	7462	7463	
4	7464	7465	7466	7467	
4	7468	7469	7470	7471	
4	7472	7473	7474	7475	
4	7476	7477	7478	7479	
4	7480	7481	7482	7483	
4	7484	7485	7486	7487	
4	7488	7489	7490	7491	
4	7492	7493	7494	7495	
4	7496	7497	7498	7499	
4	7500	7501	7502	7503	
4	7504	7505	7506	7507	
4	7508	7509	7510	7511	
4	7512	7513	7514	7515	
4	7516	7517	7518	7519	
4	7520	7521	7522	7523	
4	7524	7525	7526	7527	
4	7528	7529	7530	7531	
4	7532	7533	7534	7535	
4	7536	7537	7538	7539	
4	7540	7541	7542	7543	
4	7544	7545	7546	7547	
4	7548	7549	7550	7551	
4	7552	7553	7554	7555	
4	7556	7557	7558	7559	
4	7560	7561	7562	7563	
4	7564	7565	7566	7567	
4	7568	7569	7570	7571	
4	7572	7573	7574	7575	
4	7576	7577	7578	7579	
4	7580	7581	7582	7583	
4	7584	7585	7586	7587	
4	7588	7589	7590	7591	
4	7592	7593	7594	7595	
4	7596	7597	7598	7599	
4	7600	7601	7602	7603	
4	7604	7605	7606	7607	
4	7608	7609	7610	7611	
4	7612	7613	7614	7615	
4	7616	7617	7618	7619	
4	7620	7621	7622	7623	
4	7624	7625	7626	7627	
4	7628	7629	7630	7631	
4	7632	7633	7634	7635	
4	7636	7637	7638	7639	
4	7640	7641	7642	7643	
4	7644	7645	7646	7647	
4	7648	7649	7650	7651	
4	7652	7653	7654	7655	
4	7656	7657	7658	7659	
4	7660	7661	7662	7663	
4	7664	7665	7666	7667	
4	7668	7669	7670	7671	
4	7672	7673	7674	7675	
4	7676	7677	7678	7679	
4	7680	7681	7682	7683	
4	7684	7685	7686	7687	
4	7688	7689	7690	7691	
4	7692	7693	7694	7695	
4	7696	7697	7698	7699	
4	7700	7701	7702	7703	
4	7704	7705	7706	7707	
4	7708	7709	7710	7711	
4	7712	7713	7714	7715	
4	7716	7717	7718	7719	
4	7720	7721	7722	7723	
4	7724	7725	7726	7727	
4	7728	7729	7730	7731	
4	7732	7733	7734	7735	
4	7736	7737	7738	7739	
4	7740	7741	7742	7743	
4	7744	7745	7746	7747	
4	7748	7749	7750	7751	
4	7752	7753	7754	7755	
4	7756	7757	7758	7759	
4	7760	7761	7762	7763	
4	7764	7765	7766	7767	
4	7768	7769	7770	7771	
4	7772	7773	7774	7775	
4	7776	7777	7778	7779	
4	7780	7781	7782	7783	
4	7784	7785	7786	7787	
4	7788	7789	7790	7791	
4	7792	7793	7794	7795	
4	7796	7797	7798	7799	
4	7800	7801	7802	7803	
4	7804	7805	7806	7807	
4	7808	7809	7810	7811	
4	7812	7813	7814	7815	
4	7816	7817	7818	7819	
4	7820	7821	7822	7823	
4	7824	7825	7826	7827	
4	7828	7829	7830	7831	
4	7832	7833	7834	7835	
4	7836	7837	7838	7839	
4	7840	7841	7842	7843	
4	7844	7845	7846	7847	
4	7848	7849	7850	7851	
4	7852	7853	7854	7855	
4	7856	7857	7858	7859	
4	7860	7861	7862	7863	
4	7864	7865	7866	7867	
4	7868	7869	7870	7871	
4	7872	7873	7874	7875	
4	7876	7877	7878	7879	
4	7880	7881	7882	7883	
4	7884	7885	7886	7887	
4	7888	7889	7890	7891	
4	7892	7893	7894	7895	
4	7896	7897	7898	7899	
4	7900	7901	7902	7903	
4	7904	7905	7906	7907	
4	7908	7909	7910	7911	
4	7912	7913	7914	7915	
4	7916	7917	7918	7919	
4	7920	7921	7922	7923	
4	7924	7925	7926	7927	
4	7928	7929	7930	7931	
4	7932	7933	7934	7935	
4	7936	7937	7938	7939	
4	7940	7941	7942	7943	
4	7944	7945	7946	7947	
4	7948	7949	7950	7951	
4	7952	7953	7954	7955	
4	7956	7957	7958	7959	
4	7960	7961	7962	7963	
4	7964	7965	7966	7967	
4	7968	7969	7970	7971	
4	7972	7973	7974	7975	
4	7976	7977	7978	7979	
4	7980	7981	7982	7983	
4	7984	7985	7986	7987	
4	7988	7989	7990	7991	
4	7992	7993	7994	7995	
4	7996	7997	7998	7999	
4	8000	8001	8002	8003	
4	8004	8005	8006	8007	
4	8008	8009	8010	8011	
4	8012	8013	8014	8015	
4	8016	8017	8018	8019	
4	8020	8021	8022	8023	
4	8024	8025	8026	8027	
4	8028	8029	8030	8031	
4	8032	8033	8034	8035	
4	8036	8037	8038	8039	
4	8040	8041	8042	8043	
4	8044	8045	8046	8047	
4	8048	8049	8050	8051	
4	8052	8053	8054	8055	
4	8056	8057	8058	8059	
4	8060	8061	8062	8063	
4	8064	8065	8066	8067	
4	8068	8069	8070	8071	
4	8072	8073	8074	8075	
4	8076	8077	8078	8079	
4	8080	8081	8082	8083	
4	8084	8085	8086	8087	
4	8088	8089	8090	8091	
4	8092	8093	8094	8095	
4	8096	8097	8098	8099	
4	8100	8101	8102	8103	
4	8104	8105	8106	8107	
4	8108	8109	8110	8111	
4	8112	8113	8114	8115	
4	8116	8117	8118	8119	
4	8120	8121	8122	8123	
4	8124	8125	8126	8127	
4	8128	8129	8130	8131	
4	8132	8133	8134	8135	
4	8136	8137	8138	8139	
4	8140	8141	8142	8143	
4	8144	8145	8146	8147	
4	8148	8149	8150	8151	
4	8152	8153	8154	8155	
4	8156	8157	8158	8159	
4	8160	8161	8162	8163	
4	8164	8165	8166	8167	
4	8168	8169	8170	8171	
4	8172	8173	8174	8175	
4	8176	8177	8178	8179	
4	8180	8181	8182	8183	
4	8184	8185	8186	8187	
4	8188	8189	8190	8191	
4	8192	8193	8194	8195	
4	8196	8197	8198	8199	
4	8200	8201	8202	8203	
4	8204	8205	8206	8207	
4	8208	8209	8210	8211	
4	8212	8213	8214	8215	
4	8216	8217	8218	8219	
4	8220	8221	8222	8223	
4	8224	8225	8226	8227	
4	8228	8229	8230	8231	
4	8232	8233	8234	8235	
4	8236	8237	8238	8239	
4	8240	8241	8242	8243	
4	8244	8245	8246	8247	
4	8248	8249	8250	8251	
4	8252	8253	8254	8255	
4	8256	8257	8258	8259	
4	8260	8261	8262	8263	
4	8264	8265	8266	8267	
4	8268	8269	8270	8271	
4	8272	8273	8274	8275	
4	8276	8277	8278	8279	
4	8280	8281	8282	8283	
4	8284	8285	8286	8287	
4	8288	8289	8290	8291	
4	8292	8293	8294	8295	
4	8296	8297	8298	8299	
4	8300	8301	8302	8303	
4	8304	8305	8306	8307	
4	8308	8309	8310	8311	
4	8312	8313	8314	8315	
4	8316	8317	8318	8319	
4	8320	8321	8322	8323	
4	8324	8325	8326	8327	
4	8328	8329	8330	8331	
4	8332	8333	8334	8335	
4	8336	8337	8338	8339	
4	8340	8341	8342	8343	
4	8344	8345	8346	8347	
4	8348	8349	8350	8351	
4	8352	8353	8354	8355	
4	8356	8357	8358	8359	
4	8360	8361	8362	8363	
4	8364	8365	8366	8367	
4	8368	8369	8370	8371	
4	8372	8373	8374	8375	
4	8376	8377	8378	8379	
4	8380	8381	8382	8383	
4	8384	8385	8386	8387	
4	8388	8389	8390	8391	
4	8392	8393	8394	8395	
4	8396	8397	8398	8399	
4	8400	8401	8402	8403	
4	8404	8405	8406	8407	
4	8408	8409	8410	8411	
4	8412	8413	8414	8415	
4	8416	8417	8418	8419	
4	8420	8421	8422	8423	
4	8424	8425	8426	8427	
4	8428	8429	8430	8431	
4	8432	8433	8434	8435	
4	8436	8437	8438	8439	
4	8440	8441	8442	8443	
4	8444	8445	8446	8447	
4	8448	8449	8450	8451	
4	8452	8453	8454	8455	
4	8456	8457	8458	8459	
4	8460	8461	8462	8463	
4	8464	8465	8466	8467	
4	8468	8469	8470	8471	
4	8472	8473	8474	8475	
4	8476	8477	8478	8479	
4	8480	8481	8482	8483	
4	8484	8485	8486	8487	
4	8488	8489	8490	8491	
4	8492	8493	8494	8495	
4	8496	8497	8498	8499	
4	8500	8501	8502	8503	
4	8504	8505	8506	8507	
4	8508	8509	8510	8511	
4	8512	8513	8514	8515	
4	8516	8517	8518	8519	
4	8520	8521	8522	8523	
4	8524	8525	8526	8527	
4	8528	8529	8530	8531	
4	8532	8533	8534	8535	
4	8536	8537	8538	8539	
4	8540	8541	8542	8543	
4	8544	8545	8546	8547	
4	8548	8549	8550	8551	
4	8552	8553	8554	8555	
4	8556	8557	8558	8559	
4	8560	8561	8562	8563	
4	8564	8565	8566	8567	
4	8568	8569	8570	8571	
4	8572	8573	8574	8575	
4	8576	8577	8578	8579	
4	8580	8581	8582	8583	
4	8584	8585	8586	8587	
4	8588	8589	8590	8591	
4	8592	8593	8594	8595	
4	8596	8597	8598	8599	
4	8600	8601	8602	8603	
4	8604	8605	8606	8607	
4	8608	8609	8610	8611	
4	8612	8613	8614	8615	
4	8616	8617	8618	8619	
4	8620	8621	8622	8623	
4	8624	8625	8626	8627	
4	8628	8629	8630	8631	
4	8632	8633	8634	8635	
4	8636	8637	8638	8639	
4	8640	8641	8642	8643	
4	8644	8645	8646	8647	
4	8648	8649	8650	8651	
4	8652	8653	8654	8655	
4	8656	8657	8658	8659	
4	8660	8661	8662	8663	
4	8664	8665	8666	8667	
4	8668	8669	8670	8671	
4	8672	8673	8674	8675	
4	8676	8677	8678	8679	
4	8680	8681	8682	8683	
4	8684	8685	8686	8687	
4	8688	8689	8690	8691	
4	8692	8693	8694	8695	
4	8696	8697	8698	8699	
4	8700	8701	8702	8703	
4	8704	8705	8706	8707	
4	8708	8709	8710	8711	
4	8712	8713	8714	8715	
4	8716	8717	8718	8719	
4	8720	8721	8722	8723	
4	8724	8725	8726	8727	
4	8728	8729	8730	8731	
4	8732	8733	8734	8735	
4	8736	8737	8738	8739	
4	8740	8741	8742	8743	
4	8744	8745	8746	8747	
4	8748	8749	8750	8751	
4	8752	8753	8754	8755	
4	8756	8757	8758	8759	
4	8760	8761	8762	8763	
4	8764	8765	8766	8767	
4	8768	8769	8770	8771	
4	8772	8773	8774	8775	
4	8776	8777	8778	8779	
4	8780	8781	8782	8783	
4	8784	8785	8786	8787	
4	8788	8789	8790	8791	
4	8792	8793	8794	8795	
4	8796	8797	8798	8799	
4	8800	8801	8802	8803	
4	8804	8805	8806	8807	
4	8808	8809	8810	8811	
4	8812	8813	8814	8815	
4	8816	8817	8818	8819	
4	8820	8821	8822	8823	
4	8824	8825	8826	8827	
4	8828	8829	8830	8831	
4	8832	8833	8834	8835	
4	8836	8837	8838	8839	
4	8840	8841	8842	8843	
4	8844	8845	8846	8847	
4	8848	8849	8850	8851	
4	8852	8853	8854	8855	
4	8856	8857	8858	8859	
4	8860	8861	8862	8863	
4	8864	8865	8866	8867	
4	8868	8869	8870	8871	
4	8872	8873	8874	8875	
4	8876	8877	8878	8879	
4	8880	8881	8882	8883	
4	8884	8885	8886	8887	
4	8888	8889	8890	8891	
4	8892	8893	8894	8895	
4	8896	8897	8898	8899	
4	8900	8901	8902	8903	
4	8904	8905	8906	8907	
4	8908	8909	8910	8911	
4	8912	8913	8914	8915	
4	8916	8917	8918	8919	
4	8920	8921	8922	8923	
4	8924	8925	8926	8927	
4	8928	8929	8930	8931	
4	8932	8933	8934	8935	
4	8936	8937	8938	8939	
4	8940	8941	8942	8943	
4	8944	8945	8946	8947	
4	8948	8949	8950	8951	
4	8952	8953	8954	8955	
4	8956	8957	8958	8959	
4	8960	8961	8962	8963	
4	8964	8965	8966	8967	
4	8968	8969	8970	8971	
4	8972	8973	8974	8975	
4	8976	8977	8978	8979	
4	8980	8981	8982	8983	
4	8984	8985	8986	8987	
4	8988	8989	8990	8991	
4	8992	8993	8994	8995	
4	8996	8997	8998	8999	
4	9000	9001	9002	9003	
4	9004	9005	9006	9007	
4	9008	9009	9010	9011	
4	9012	9013	9014	9015	
4	9016	9017	9018	9019	
4	9020	9021	9022	9023	
4	9024	9025	9026	9027	
4	9028	9029	9030	9031	
4	9032	9033	9034	9035	
4	9036	9037	9038	9039	
4	9040	9041	9042	9043	
4	9044	9045	9046	9047	
4	9048	9049	9050	9051	
4	9052	9053	9054	9055	
4	9056	9057	9058	9059	
4	9060	9061	9062	9063	
4	9064	9065	9066	9067	
4	9068	9069	9070	9071	
4	9072	9073	9074	9075	
4	9076	9077	9078	9079	
4	9080	9081	9082	9083	
4	9084	9085	9086	9087	
4	9088	9089	9090	9091	
4	9092	9093	9094	9095	
4	9096	9097	9098	9099	
4	9100	9101	9102	9103	
4	9104	9105	9106	9107	
4	9108	9109	9110	9111	
4	9112	9113	9114	9115	
4	9116	9117	9118	9119	
4	9120	9121	9122	9123	
4	9124	9125	9126	9127	
4	9128	9129	9130	9131	
4	9132	9133	9134	9135	
4	9136	9137	9138	9139	
4	9140	9141	9142	9143	
4	9144	9145	9146	9147	
4	9148	9149	9150	9151	
4	9152	9153	9154	9155	
4	9156	9157	9158	9159	
4	9160	9161	9162	9163	
4	9164	9165	9166	9167	
4	9168	9169	9170	9171	
4	9172	9173	9174	9175	
4	9176	9177	9178	9179	
4	9180	9181	9182	9183	
4	9184	9185	9186	9187	
4	9188	9189	9190	9191	
4	9192	9193	9194	9195	
4	9196	9197	9198	9199	
4	9200	9201	9202	9203	
4	9204	9205	9206	9207	
4	9208	9209	9210	9211	
4	9212	9213	9214	9215	
4	9216	9217	9218	9219	
4	9220	9221	9222	9223	
4	9224	9225	9226	9227	
4	9228	9229	9230	9231	
4	9232	9233	9234	9235	
4	9236	9237	9238	9239	
4	9240	9241	9242	9243	
4	9244	9245	9246	9247	
4	9248	9249	9250	9251	
4	9252	9253	9254	9255	
4	9256	9257	9258	9259	
4	9260	9261	9262	9263	
4	9264	9265	9266	9267	
4	9268	9269	9270	9271	
4	9272	9273	9274	9275	
4	9276	9277	9278	9279	
4	9280	9281	9282	9283	
4	9284	9285	9286	9287	
4	9288	9289	9290	9291	
4	9292	9293	9294	9295	
4	9296	9297	9298	9299	
4	9300	9301	9302	9303	
4	9304	9305	9306	9307	
4	9308	9309	9310	9311	
4	9312	9313	9314	9315	
4	9316	9317	9318	9319	
4	9320	9321	9322	9323	
4	9324	9325	9326	9327	
4	9328	9329	9330	9331	
4	9332	9333	9334	9335	
4	9336	9337	9338	9339	
4	9340	9341	9342	9343	
4	9344	9345	9346	9347	
4	9348	9349	9350	9351	
4	9352	9353	9354	9355	
4	9356	9357	9358	9359	
4	9360	9361	9362	9363	
4	9364	9365	9366	9367	
4	9368	9369	9370	9371	
4	9372	9373	9374	9375	
4	9376	9377	9378	9379	
4	9380	9381	9382	9383	
4	9384	9385	9386	9387	
4	9388	9389	9390	9391	
4	9392	9393	9394	9395	
4	9396	9397	9398	9399	
4	9400	9401	9402	9403	
4	9404	9405	9406	9407	
4	9408	9409	9410	9411	
4	9412	9413	9414	9415	
4	9416	9417	9418	9419	
4	9420	9421	9422	9423	
4	9424	9425	9426	9427	
4	9428	9429	9430	9431	
4	9432	9433	9434	9435	
4	9436	9437	9438	9439	
4	9440	9441	9442	9443	
4	9444	9445	9446	9447	
4	9448	9449	9450	9451	
4	9452	9453	9454	9455	
4	9456	9457	9458	9459	
4	9460	9461	9462	9463	
4	9464	9465	9466	9467	
4	9468	9469	9470	9471	
4	9472	9473	9474	9475	
4	9476	9477	9478	9479	
4	9480	9481	9482	9483	
4	9484	9485	9486	9487	
4	9488	9489	9490	9491	
4	9492	9493	9494	9495	
4	9496	9497	9498	9499	
4	9500	9501	9502	9503	
4	9504	9505	9506	9507	
4	9508	9509	9510	9511	
4	9512	9513	9514	9515	
4	9516	9517	9518	9519	
4	9520	9521	9522	9523	
4	9524	9525	9526	9527	
4	9528	9529	9530	9531	
4	9532	9533	9534	9535	
4	9536	9537	9538	9539	
4	9540	9541	9542	9543	
4	9544	9545	9546	9547	
4	9548	9549	9550	9551	
4	9552	9553	9554	9555	
4	9556	9557	9558	9559	
4	9560	9561	9562	9563	
4	9564	9565	9566	9567	
4	9568	9569	9570	9571	
4	9572	9573	9574	9575	
4	9576	9577	9578	9579	
4	9580	9581	9582	9583	
4	9584	9585	9586	9587	
4	9588	9589	9590	9591	
4	9592	9593	9594	9595	
4	9596	9597	9598	9599	
4	9600	9601	9602	9603	
4	9604	9605	9606	9607	
4	9608	9609	9610	9611	
4	9612	9613	9614	9615	
4	9616	9617	9618	9619	
4	9620	9621	9622	9623	
4	9624	9625	9626	9627	
4	9628	9629	9630	9631	
4	9632	9633	9634	9635	
4	9636	9637	9638	9639	
4	9640	9641	9642	9643	
4	9644	9645	9646	9647	
4	9648	9649	9650	9651	
4	9652	9653	9654	9655	
4	9656	9657	9658	9659	
4	9660	9661	9662	9663	
4	9664	9665	9666	9667	
4	9668	9669	9670	9671	
4	9672	9673	9674	9675	
4	9676	9677	9678	9679	
4	9680	9681	9682	9683	
4	9684	9685	9686	9687	
4	9688	9689	9690	9691	
4	9692	9693	9694	9695	
4	9696	9697	9698	9699	
4	9700	9701	9702	9703	
4	9704	9705	9706	9707	
4	9708	9709	9710	9711	
4	9712	9713	9714	9715	
4	9716	9717	9718	9719	
4	9720	9721	9722	9723	
4	9724	9725	9726	9727	
4	9728	9729	9730	9731	
4	9732	9733	9734	9735	
4	9736	9737	9738	9739	
4	9740	9741	9742	9743	
4	9744	9745	9746	9747	
4	9748	9749	9750	9751	
4	9752	9753	9754	9755	
4	9756	9757	9758	9759	
4	9760	9761	9762	9763	
4	9764	9765	9766	9767	
4	9768	9769	9770	9771	
4	9772	9773	9774	9775	
4	9776	9777	9778	9779	
4	9780	9781	9782	9783	
4	9784	9785	9786	9787	
4	9788	9789	9790	9791	
4	9792	9793	9794	9795	
4	9796	9797	9798	9799	
4	9800	9801	9802	9803	
4	9804	9805	9806	9807	
4	9808	9809	9810	9811	
4	9812	9813	9814	9815	
4	9816	9817	9818	9819	
4	9820	9821	9822	9823	
4	9824	9825	9826	9827	
4	9828	9829	9830	9831	
4	9832	9833	9834	9835	
4	9836	9837	9838	9839	
4	9840	9841	9842	9843	
4	9844	9845	9846	9847	
4	9848	9849	9850	9851	
4	9852	9853	9854	9855	
4	9856	9857	9858	9859	
4	9860	9861	9862	9863	
4	9864	9865	9866	9867	
4	9868	9869	9870	9871	
4	9872	9873	9874	9875	
4	9876	9877	9878	9879	
4	9880	9881	9882	9883	
4	9884	9885	9886	9887	
4	9888	9889	9890	9891	
4	9892	9893	9894	9895	
4	9896	9897	9898	9899	
4	9900	9901	9902	9903	
4	9904	9905	9906	9907	
4	9908	9909	9910	9911	
4	9912	9913	9914	9915	
4	9916	9917	9918	9919	
4	9920	9921	9922	9923	
4	9924	9925	9926	9927	
4	9928	9929	9930	9931	
4	9932	9933	9934	9935	
4	9936	9937	9938	9939	
4	9940	9941	9942	9943	
4	9944	9945	9946	9947	
4	9948	9949	9950	9951	
4	9952	9953	9954	9955	
4	9956	9957	9958	9959	
4	9960	9961	9962	9963	
4	9964	9965	9966	9967	
4	9968	9969	9970	9971	
4	9972	9973	9974	9975	
4	9976	9977	9978	9979	
4	9980	9981	9982	9983	
4	9984	9985	9986	9987	
4	9988	9989	9990	9991	
4	9992	9993	9994	9995	
4	9996	9997	9998	9999	
4	10000	10001	10002	10003	
4	10004	10005	10006	10007	
4	10008	10009	10010	10011	
4	10012	10013	10014	10015	
4	10016	10017	10018	10019	
4	10020	10021	10022	10023	
4	10024	10025	10026	10027	
4	10028	10029	10030	10031	
4	10032	10033	10034	10035	
4	10036	10037	10038	10039	
4	10040	10041	10042	10043	
4	10044	10045	10046	10047	
4	10048	10049	10050	10051	
4	10052	10053	10054	10055	
4	10056	10057	10058	10059	
4	10060	10061	10062	10063	
4	10064	10065	10066	10067	
4	10068	10069	10070	10071	
4	10072	10073	10074	10075	
4	10076	10077	10078	10079	
4	10080	10081	10082	10083	
4	10084	10085	10086	10087	
4	10088	10089	10090	10091	
4	10092	10093	10094	10095	
4	10096	10097	10098	10099	
4	10100	10101	10102	10103	
4	10104	10105	10106	10107	
4	10108	10109	10110	10111	
4	10112	10113	10114	10115	
4	10116	10117	10118	10119	
4	10120	10121	10122	10123	
4	10124	10125	10126	10127	
4	10128	10129	10130	10131	
4	10132	10133	10134	10135	
4	10136	10137	10138	10139	
4	10140	10141	10142	10143	
4	10144	10145	10146	10147	
4	10148	10149	10150	10151	
4	10152	10153	10154	10155	
4	10156	10157	10158	10159	
4	10160	10161	10162	10163	
4	10164	10165	10166	10167	
4	10168	10169	10170	10171	
4	10172	10173	10174	10175	
4	10176	10177	10178	10179	
4	10180	10181	10182	10183	
4	10184	10185	10186	10187	
4	10188	10189	10190	10191	
4	10192	10193	10194	10195	
4	10196	10197	10198	10199	
4	10200	10201	10202	10203	
4	10204	10205	10206	10207	
4	10208	10209	10210	10211	
4	10212	10213	10214	10215	
4	10216	10217	10218	10219	
4	10220	10221	10222	10223	
4	10224	10225	10226	10227	
4	10228	10229	10230	10231	
4	10232	10233	10234	10235	
4	10236	10237	10238	10239	
4	10240	10241	10242	10243	
4	10244	10245	10246	10247	
4	10248	10249	10250	10251	
4	10252	10253	10254	10255	
4	10256	10257	10258	10259	
4	10260	10261	10262	10263	
4	10264	10265	10266	10267	
4	10268	10269	10270	10271	
4	10272	10273	10274	10275	
4	10276	10277	10278	10279	
4	10280	10281	10282	10283	
4	10284	10285	10286	10287	
4	10288	10289	10290	10291	
4	10292	10293	10294	10295	
4	10296	10297	10298	10299	
4	10300	10301	10302	10303	
4	10304	10305	10306	10307	
4	10308	10309	10310	10311	
4	10312	10313	10314	10315	
4	10316	10317	10318	10319	
4	10320	10321	10322	10323	
4	10324	10325	10326	10327	
4	10328	10329	10330	10331	
4	10332	10333	10334	10335	
4	10336	10337	10338	10339	
4	10340	10341	10342	10343	
4	10344	10345	10346	10347	
4	10348	10349	10350	10351	
4	10352	10353	10354	10355	
4	10356	10357	10358	10359	
4	10360	10361	10362	10363	
4	10364	10365	10366	10367	
4	10368	10369	10370	10371	
4	10372	10373	10374	10375	
4	10376	10377	10378	10379	
4	10380	10381	10382	10383	
4	10384	10385	10386	10387	
4	10388	10389	10390	10391	
4	10392	10393	10394	10395	
4	10396	10397	10398	10399	
4	10400	10401	10402	10403	
4	10404	10405	10406	10407	
4	10408	10409	10410	10411	
4	10412	10413	10414	10415	
4	10416	10417	10418	10419	
4	10420	10421	10422	10423	
4	10424	10425	10426	10427	
4	10428	10429	10430	10431	
4	10432	10433	10434	10435	
4	10436	10437	10438	10439	
4	10440	10441	10442	10443	
4	10444	10445	10446	10447	
4	10448	10449	10450	10451	
4	10452	10453	10454	10455	
4	10456	10457	10458	10459	
4	10460	10461	10462	10463	
4	10464	10465	10466	10467	
4	10468	10469	10470	10471	
4	10472	10473	10474	10475	
4	10476	10477	10478	10479	
4	10480	10481	10482	10483	
4	10484	10485	10486	10487	
4	10488	10489	10490	10491	
4	10492	10493	10494	10495	
4	10496	10497	10498	10499	
4	10500	10501	10502	10503	
4	10504	10505	10506	10507	
4	10508	10509	10510	10511	
4	10512	10513	10514	10515	
4	10516	10517	10518	10519	
4	10520	10521	10522	10523	
4	10524	10525	10526	10527	
4	10528	10529	10530	10531	
4	10532	10533	10534	10535	
4	10536	10537	10538	10539	
4	10540	10541	10542	10543	
4	10544	10545	10546	10547	
4	10548	10549	10550	10551	
4	10552	10553	10554	10555	
4	10556	10557	10558	10559	
4	10560	10561	10562	10563	
4	10564	10565	10566	10567	
4	10568	10569	10570	10571	
4	10572	10573	10574	10575	
4	10576	10577	10578	10579	
4	10580	10581	10582	10583	
4	10584	10585	10586	10587	
4	10588	10589	10590	10591	
4	10592	10593	10594	10595	
4	10596	10597	10598	10599	
4	10600	10601	10602	10603	
4	10604	10605	10606	10607	
4	10608	10609	10610	10611	
4	10612	10613	10614	10615	
4	10616	10617	10618	10619	
4	10620	10621	10622	10623	
4	10624	10625	10626	10627	
4	10628	10629	10630	10631	
4	10632	10633	10634	10635	
4	10636	10637	10638	10639	
4	10640	10641	10642	10643	
4	10644	10645	10646	10647	
4	10648	10649	10650	10651	
4	10652	10653	10654	10655	
4	10656	10657	10658	10659	
4	10660	10661	10662	10663	
4	10664	10665	10666	10667	
4	10668	10669	10670	10671	
4	10672	10673	10674	10675	
4	10676	10677	10678	10679	
4	10680	10681	10682	10683	
4	10684	10685	10686	10687	
4	10688	10689	10690	10691	
4	10692	10693	10694	10695	
4	10696	10697	10698	10699	
4	10700	10701	10702	10703	
4	10704	10705	10706	10707	
4	10708	10709	10710	10711	
4	10712	10713	10714	10715	
4	10716	10717	10718	10719	
4	10720	10721	10722	10723	
4	10724	10725	10726	10727	
4	10728	10729	10730	10731	
4	10732	10733	10734	10735	
4	10736	10737	10738	10739	
4	10740	10741	10742	10743	
4	10744	10745	10746	10747	
4	10748	10749	10750	10751	
4	10752	10753	10754	10755	
4	10756	10757	10758	10759	
4	10760	10761	10762	10763	
4	10764	10765	10766	10767	
4	10768	10769	10770	10771	
4	10772	10773	10774	10775	
4	10776	10777	10778	10779	
4	10780	10781	10782	10783	
4	10784	10785	10786	10787	
4	10788	10789	10790	10791	
4	10792	10793	10794	10795	
4	10796	10797	10798	10799	
4	10800	10801	10802	10803	
4	10804	10805	10806	10807	
4	10808	10809	10810	10811	
4	10812	10813	10814	10815	
4	10816	10817	10818	10819	
4	10820	10821	10822	10823	
4	10824	10825	10826	10827	
4	10828	10829	10830	10831	
4	10832	10833	10834	10835	
4	10836	10837	10838	10839	
4	10840	10841	10842	10843	
4	10844	10845	10846	10847	
4	10848	10849	10850	10851	
4	10852	10853	10854	10855	
4	10856	10857	10858	10859	
4	10860	10861	10862	10863	
4	10864	10865	10866	10867	
4	10868	10869	10870	10871	
4	10872	10873	10874	10875	
4	10876	10877	10878	10879	
4	10880	10881	10882	10883	
4	10884	10885	10886	10887	
4	10888	10889	10890	10891	
4	10892	10893	10894	10895	
4	10896	10897	10898	10899	
4	10900	10901	10902	10903	
4	10904	10905	10906	10907	
4	10908	10909	10910	10911	
4	10912	10913	10914	10915	
4	10916	10917	10918	10919	
4	10920	10921	10922	10923	
4	10924	10925	10926	10927	
4	10928	10929	10930	10931	
4	10932	10933	10934	10935	
4	10936	10937	10938	10939	
4	10940	10941	10942	10943	
4	10944	10945	10946	10947	
4	10948	10949	10950	10951	
4	10952	10953	10954	10955	
4	10956	10957	10958	10959	
4	10960	10961	10962	10963	
4	10964	10965	10966	10967	
4	10968	10969	10970	10971	
4	10972	10973	10974	10975	
4	10976	10977	10978	10979	
4	10980	10981	10982	10983	
4	10984	10985	10986	10987	
4	10988	10989	10990	10991	
4	10992	10993	10994	10995	
4	10996	10997	10998	10999	
4	11000	11001	11002	11003	
4	11004	11005	11006	11007	
4	11008	11009	11010	11011	
4	11012	11013	11014	11015	
4	11016	11017	11018	11019	
4	11020	11021	11022	11023	
4	11024	11025	11026	11027	
4	11028	11029	11030	11031	
4	11032	11033	11034	11035	
4	11036	11037	11038	11039	
4	11040	11041	11042	11043	
4	11044	11045	11046	11047	
4	11048	11049	11050	11051	
4	11052	11053	11054	11055	
4	11056	11057	11058	11059	
4	11060	11061	11062	11063	
4	11064	11065	11066	11067	
4	11068	11069	11070	11071	
4	11072	11073	11074	11075	
4	11076	11077	11078	11079	
4	11080	11081	11082	11083	
4	11084	11085	11086	11087	
4	11088	11089	11090	11091	
4	11092	11093	11094	11095	
4	11096	11097	11098	11099	
4	11100	11101	11102	11103	
4	11104	11105	11106	11107	
4	11108	11109	11110	11111	
4	11112	11113	11114	11115	
4	11116	11117	11118	11119	
4	11120	11121	11122	11123	
4	11124	11125	11126	11127	
4	11128	11129	11130	11131	
4	11132	11133	11134	11135	
4	11136	11137	11138	11139	
4	11140	11141	11142	11143	
4	11144	11145	11146	11147	
4	11148	11149	11150	11151	
4	11152	11153	11154	11155	
4	11156	11157	11158	11159	
4	11160	11161	11162	11163	
4	11164	11165	11166	11167	
4	11168	11169	11170	11171	
4	11172	11173	11174	11175	
4	11176	11177	11178	11179	
4	11180	11181	11182	11183	
4	11184	11185	11186	11187	
4	11188	11189	11190	11191	
4	11192	11193	11194	11195	
4	11196	11197	11198	11199	
4	11200	11201	11202	11203	
4	11204	11205	11206	11207	
4	11208	11209	11210	11211	
4	11212	11213	11214	11215	
4	11216	11217	11218	11219	
4	11220	11221	11222	11223	
4	11224	11225	11226	11227	
4	11228	11229	11230	11231	
4	11232	11233	11234	11235	
4	11236	11237	11238	11239	
4	11240	11241	11242	11243	
4	11244	11245	11246	11247	
4	11248	11249	11250	11251	
4	11252	11253	11254	11255	
4	11256	11257	11258	11259	
4	11260	11261	11262	11263	
4	11264	11265	11266	11267	
4	11268	11269	11270	11271	
4	11272	11273	11274	11275	
4	11276	11277	11278	11279	
4	11280	11281	11282	11283	
4	11284	11285	11286	11287	
4	11288	11289	11290	11291	
4	11292	11293	11294	11295	
4	11296	11297	11298	11299	
4	11300	11301	11302	11303	
4	11304	11305	11306	11307	
4	11308	11309	11310	11311	
4	11312	11313	11314	11315	
4	11316	11317	11318	11319	
4	11320	11321	11322	11323	
4	11324	11325	11326	11327	
4	11328	11329	11330	11331	
4	11332	11333	11334	11335	
4	11336	11337	11338	11339	
4	11340	11341	11342	11343	
4	11344	11345	11346	11347	
4	11348	11349	11350	11351	
4	11352	11353	11354	11355	
4	11356	11357	11358	11359	
4	11360	11361	11362	11363	
4	11364	11365	11366	11367	
4	11368	11369	11370	11371	
4	11372	11373	11374	11375	
4	11376	11377	11378	11379	
4	11380	11381	11382	11383	
4	11384	11385	11386	11387	
4	11388	11389	11390	11391	
4	11392	11393	11394	11395	
4	11396	11397	11398	11399	
4	11400	11401	11402	11403	
4	11404	11405	11406	11407	
4	11408	11409	11410	11411	
4	11412	11413	11414	11415	
4	11416	11417	11418	11419	
4	11420	11421	11422	11423	
4	11424	11425	11426	11427	
4	11428	11429	11430	11431	
4	11432	11433	11434	11435	
4	11436	11437	11438	11439	
4	11440	11441	11442	11443	
4	11444	11445	11446	11447	
4	11448	11449	11450	11451	
4	11452	11453	11454	11455	
4	11456	11457	11458	11459	
4	11460	11461	11462	11463	
4	11464	11465	11466	11467	
4	11468	11469	11470	11471	
4	11472	11473	11474	11475	
4	11476	11477	11478	11479	
4	11480	11481	11482	11483	
4	11484	11485	11486	11487	
4	11488	11489	11490	11491	
4	11492	11493	11494	11495	
4	11496	11497	11498	11499	
4	11500	11501	11502	11503	
4	11504	11505	11506	11507	
4	11508	11509	11510	11511	
4	11512	11513	11514	11515	
4	11516	11517	11518	11519	
4	11520	11521	11522	11523	
4	11524	11525	11526	11527	
4	11528	11529	11530	11531	
4	11532	11533	11534	11535	
4	11536	11537	11538	11539	
4	11540	11541	11542	11543	
4	11544	11545	11546	11547	
4	11548	11549	11550	11551	
4	11552	11553	11554	11555	
4	11556	11557	11558	11559	
4	11560	11561	11562	11563	
4	11564	11565	11566	11567	
4	11568	11569	11570	11571	
4	11572	11573	11574	11575	
4	11576	11577	11578	11579	
4	11580	11581	11582	11583	
4	11584	11585	11586	11587	
4	11588	11589	11590	11591	
4	11592	11593	11594	11595	
4	11596	11597	11598	11599	
4	11600	11601	11602	11603	
4	11604	11605	11606	11607	
4	11608	11609	11610	11611	
4	11612	11613	11614	11615	
4	11616	11617	11618	11619	
4	11620	11621	11622	11623	
4	11624	11625	11626	11627	
4	11628	11629	11630	11631	
4	11632	11633	11634	11635	
4	11636	11637	11638	11639	
4	11640	11641	11642	11643	
4	11644	11645	11646	11647	
4	11648	11649	11650	11651	
4	11652	11653	11654	11655	
4	11656	11657	11658	11659	
4	11660	11661	11662	11663	
4	11664	11665	11666	11667	
4	11668	11669	11670	11671	
4	11672	11673	11674	11675	
4	11676	11677	11678	11679	
4	11680	11681	11682	11683	
4	11684	11685	11686	11687	
4	11688	11689	11690	11691	
4	11692	11693	11694	11695	
4	11696	11697	11698	11699	
4	11700	11701	11702	11703	
4	11704	11705	11706	11707	
4	11708	11709	11710	11711	
4	11712	11713	11714	11715	
4	11716	11717	11718	11719	
4	11720	11721	11722	11723	
4	11724	11725	11726	11727	
4	11728	11729	11730	11731	
4	11732	11733	11734	11735	
4	11736	11737	11738	11739	
4	11740	11741	11742	11743	
4	11744	11745	11746	11747	
4	11748	11749	11750	11751	
4	11752	11753	11754	11755	
4	11756	11757	11758	11759	
4	11760	11761	11762	11763	
4	11764	11765	11766	11767	
4	11768	11769	11770	11771	
4	11772	11773	11774	11775	
4	11776	11777	11778	11779	
4	11780	11781	11782	11783	
4	11784	11785	11786	11787	
4	11788	11789	11790	11791	
4	11792	11793	11794	11795	
4	11796	11797	11798	11799	
4	11800	11801	11802	11803	
4	11804	11805	11806	11807	
4	11808	11809	11810	11811	
4	11812	11813	11814	11815	
4	11816	11817	11818	11819	
4	11820	11821	11822	11823	
4	11824	11825	11826	11827	
4	11828	11829	11830	11831	
4	11832	11833	11834	11835	
4	11836	11837	11838	11839	
4	11840	11841	11842	11843	
4	11844	11845	11846	11847	
4	11848	11849	11850	11851	
4	11852	11853	11854	11855	
4	11856	11857	11858	11859	
4	11860	11861	11862	11863	
4	11864	11865	11866	11867	
4	11868	11869	11870	11871	
4	11872	11873	11874	11875	
4	11876	11877	11878	11879	
4	11880	11881	11882	11883	
4	11884	11885	11886	11887	
4	11888	11889	11890	11891	
4	11892	11893	11894	11895	
4	11896	11897	11898	11899	
4	11900	11901	11902	11903	
4	11904	11905	11906	11907	
4	11908	11909	11910	11911	
4	11912	11913	11914	11915	
4	11916	11917	11918	11919	
4	11920	11921	11922	11923	
4	11924	11925	11926	11927	
4	11928	11929	11930	11931	
4	11932	11933	11934	11935	
4	11936	11937	11938	11939	
4	11940	11941	11942	11943	
4	11944	11945	11946	11947	
4	11948	11949	11950	11951	
4	11952	11953	11954	11955	
4	11956	11957	11958	11959	
4	11960	11961	11962	11963	
4	11964	11965	11966	11967	
4	11968	11969	11970	11971	
4	11972	11973	11974	11975	
4	11976	11977	11978	11979	
4	11980	11981	11982	11983	
4	11984	11985	11986	11987	
4	11988	11989	11990	11991	
4	11992	11993	11994	11995	
4	11996	11997	11998	11999	
4	12000	12001	12002	12003	
4	12004	12005	12006	12007	
4	12008	12009	12010	12011	
4	12012	12013	12014	12015	
4	12016	12017	12018	12019	
4	12020	12021	12022	12023	
4	12024	12025	12026	12027	
4	12028	12029	12030	12031	
4	12032	12033	12034	12035	
4	12036	12037	12038	12039	
4	12040	12041	12042	12043	
4	12044	12045	12046	12047	
4	12048	12049	12050	12051	
4	12052	12053	12054	12055	
4	12056	12057	12058	12059	
4	12060	12061	12062	12063	
4	12064	12065	12066	12067	
4	12068	12069	12070	12071	
4	12072	12073	12074	12075	
4	12076	12077	12078	12079	
4	12080	12081	12082	12083	
4	12084	12085	12086	12087	
4	12088	12089	12090	12091	
4	12092	12093	12094	12095	
4	12096	12097	12098	12099	
4	12100	12101	12102	12103	
4	12104	12105	12106	12107	
4	12108	12109	12110	12111	
4	12112	12113	12114	12115	
4	12116	12117	12118	12119	
4	12120	12121	12122	12123	
4	12124	12125	12126	12127	
4	12128	12129	12130	12131	
4	12132	12133	12134	12135	
4	12136	12137	12138	12139	
4	12140	12141	12142	12143	
4	12144	12145	12146	12147	
4	12148	12149	12150	12151	
4	12152	12153	12154	12155	
4	12156	12157	12158	12159	
4	12160	12161	12162	12163	
4	12164	12165	12166	12167	
4	12168	12169	12170	12171	
4	12172	12173	12174	12175	
4	12176	12177	12178	12179	
4	12180	12181	12182	12183	
4	12184	12185	12186	12187	
4	12188	12189	12190	12191	
4	12192	12193	12194	12195	
4	12196	12197	12198	12199	
4	12200	12201	12202	12203	
4	12204	12205	12206	12207	
4	12208	12209	12210	12211	
4	12212	12213	12214	12215	
4	12216	12217	12218	12219	
4	12220	12221	12222	12223	
4	12224	12225	12226	12227	
4	12228	12229	12230	12231	
4	12232	12233	12234	12235	
4	12236	12237	12238	12239	
4	12240	12241	12242	12243	
4	12244	12245	12246	12247	
4	12248	12249	12250	12251	
4	12252	12253	12254	12255	
4	12256	12257	12258	12259	
4	12260	12261	12262	12263	
4	12264	12265	12266	12267	
4	12268	12269	12270	12271	
4	12272	12273	12274	12275	
4	12276	12277	12278	12279	
4	12280	12281	12282	12283	
4	12284	12285	12286	12287	
4	12288	12289	12290	12291	
4	12292	12293	12294	12295	
4	12296	12297	12298	12299	
4	12300	12301	12302	12303	
4	12304	12305	12306	12307	
4	12308	12309	12310	12311	
4	12312	12313	12314	12315	
4	12316	12317	12318	12319	
4	12320	12321	12322	12323	
4	12324	12325	12326	12327	
4	12328	12329	12330	12331	
4	12332	12333	12334	12335	
4	12336	12337	12338	12339	
4	12340	12341	12342	12343	
4	12344	12345	12346	12347	
4	12348	12349	12350	12351	
4	12352	12353	12354	12355	
4	12356	12357	12358	12359	
4	12360	12361	12362	12363	
4	12364	12365	12366	12367	
4	12368	12369	12370	12371	
4	12372	12373	12374	12375	
4	12376	12377	12378	12379	
4	12380	12381	12382	12383	
4	12384	12385	12386	12387	
4	12388	12389	12390	12391	
4	12392	12393	12394	12395	
4	12396	12397	12398	12399	
4	12400	12401	12402	12403	
4	12404	12405	12406	12407	
4	12408	12409	12410	12411	
4	12412	12413	12414	12415	
4	12416	12417	12418	12419	
4	12420	12421	12422	12423	
4	12424	12425	12426	12427	
4	12428	12429	12430	12431	
4	12432	12433	12434	12435	
4	12436	12437	12438	12439	
4	12440	12441	12442	12443	
4	12444	12445	12446	12447	
4	12448	12449	12450	12451	
4	12452	12453	12454	12455	
4	12456	12457	12458	12459	
4	12460	12461	12462	12463	
4	12464	12465	12466	12467	
4	12468	12469	12470	12471	
4	12472	12473	12474	12475	
4	12476	12477	12478	12479	
4	12480	12481	12482	12483	
4	12484	12485	12486	12487	
4	12488	12489	12490	12491	
4	12492	12493	12494	12495	
4	12496	12497	12498	12499	
4	12500	12501	12502	12503	
4	12504	12505	12506	12507	
4	12508	12509	12510	12511	
4	12512	12513	12514	12515	
4	12516	12517	12518	12519	
4	12520	12521	12522	12523	
4	12524	12525	12526	12527	
4	12528	12529	12530	12531	
4	12532	12533	12534	12535	
4	12536	12537	12538	12539	
4	12540	12541	12542	12543	
4	12544	12545	12546	12547	
4	12548	12549	12550	12551	
4	12552	12553	12554	12555	
4	12556	12557	12558	12559	
4	12560	12561	12562	12563	
4	12564	12565	12566	12567	
4	12568	12569	12570	12571	
4	12572	12573	12574	12575	
4	12576	12577	12578	12579	
4	12580	12581	12582	12583	
4	12584	12585	12586	12587	
4	12588	12589	12590	12591	
4	12592	12593	12594	12595	
4	12596	12597	12598	12599	
4	12600	12601	12602	12603	
4	12604	12605	12606	12607	
4	12608	12609	12610	12611	
4	12612	12613	12614	12615	
4	12616	12617	12618	12619	
4	12620	12621	12622	12623	
4	12624	12625	12626	12627	
4	12628	12629	12630	12631	
4	12632	12633	12634	12635	
4	12636	12637	12638	12639	
4	12640	12641	12642	12643	
4	12644	12645	12646	12647	
4	12648	12649	12650	12651	
4	12652	12653	12654	12655	
4	12656	12657	12658	12659	
4	12660	12661	12662	12663	
4	12664	12665	12666	12667	
4	12668	12669	12670	12671	
4	12672	12673	12674	12675	
4	12676	12677	12678	12679	
4	12680	12681	12682	12683	
4	12684	12685	12686	12687	
4	12688	12689	12690	12691	
4	12692	12693	12694	12695	
4	12696	12697	12698	12699	
4	12700	12701	12702	12703	
4	12704	12705	12706	12707	
4	12708	12709	12710	12711	
4	12712	12713	12714	12715	
4	12716	12717	12718	12719	
4	12720	12721	12722	12723	
4	12724	12725	12726	12727	
4	12728	12729	12730	12731	
4	12732	12733	12734	12735	
4	12736	12737	12738	12739	
4	12740	12741	12742	12743	
4	12744	12745	12746	12747	
4	12748	12749	12750	12751	
4	12752	12753	12754	12755	
4	12756	12757	12758	12759	
4	12760	12761	12762	12763	
4	12764	12765	12766	12767	
4	12768	12769	12770	12771	
4	12772	12773	12774	12775	
4	12776	12777	12778	12779	
4	12780	12781	12782	12783	
4	12784	12785	12786	12787	
4	12788	12789	12790	12791	
4	12792	12793	12794	12795	
4	12796	12797	12798	12799	
4	12800	12801	12802	12803	
4	12804	12805	12806	12807	
4	12808	12809	12810	12811	
4	12812	12813	12814	12815	
4	12816	12817	12818	12819	
4	12820	12821	12822	12823	
4	12824	12825	12826	12827	
4	12828	12829	12830	12831	
4	12832	12833	12834	12835	
4	12836	12837	12838	12839	
4	12840	12841	12842	12843	
4	12844	12845	12846	12847	
4	12848	12849	12850	12851	
4	12852	12853	12854	12855	
4	12856	12857	12858	12859	
4	12860	12861	12862	12863	
4	12864	12865	12866	12867	
4	12868	12869	12870	12871	
4	12872	12873	12874	12875	
4	12876	12877	12878	12879	
4	12880	12881	12882	12883	
4	12884	12885	12886	12887	
4	12888	12889	12890	12891	
4	12892	12893	12894	12895	
4	12896	12897	12898	12899	
4	12900	12901	12902	12903	
4	12904	12905	12906	12907	
4	12908	12909	12910	12911	
4	12912	12913	12914	12915	
4	12916	12917	12918	12919	
4	12920	12921	12922	12923	
4	12924	12925	12926	12927	
4	12928	12929	12930	12931	
4	12932	12933	12934	12935	
4	12936	12937	12938	12939	
4	12940	12941	12942	12943	
4	12944	12945	12946	12947	
4	12948	12949	12950	12951	
4	12952	12953	12954	12955	
4	12956	12957	12958	12959	
4	12960	12961	12962	12963	
4	12964	12965	12966	12967	
4	12968	12969	12970	12971	
4	12972	12973	12974	12975	
4	12976	12977	12978	12979	
4	12980	12981	12982	12983	
4	12984	12985	12986	12987	
4	12988	12989	12990	12991	
4	12992	12993	12994	12995	
4	12996	12997	12998	12999	
4	13000	13001	13002	13003	
4	13004	13005	13006	13007	
4	13008	13009	13010	13011	
4	13012	13013	13014	13015	
4	13016	13017	13018	13019	
4	13020	13021	13022	13023	
4	13024	13025	13026	13027	
4	13028	13029	13030	13031	
4	13032	13033	13034	13035	
4	13036	13037	13038	13039	
4	13040	13041	13042	13043	
4	13044	13045	13046	13047	
4	13048	13049	13050	13051	
4	13052	13053	13054	13055	
4	13056	13057	13058	13059	
4	13060	13061	13062	13063	
4	13064	13065	13066	13067	
4	13068	13069	13070	13071	
4	13072	13073	13074	13075	
4	13076	13077	13078	13079	
4	13080	13081	13082	13083	
4	13084	13085	13086	13087	
4	13088	13089	13090	13091	
4	13092	13093	13094	13095	
4	13096	13097	13098	13099	
4	13100	13101	13102	13103	
4	13104	13105	13106	13107	
4	13108	13109	13110	13111	
4	13112	13113	13114	13115	
4	13116	13117	13118	13119	
4	13120	13121	13122	13123	
4	13124	13125	13126	13127	
4	13128	13129	13130	13131	
4	13132	13133	13134	13135	
4	13136	13137	13138	13139	
4	13140	13141	13142	13143	
4	13144	13145	13146	13147	
4	13148	13149	13150	13151	
4	13152	13153	13154	13155	
4	13156	13157	13158	13159	
4	13160	13161	13162	13163	
4	13164	13165	13166	13167	
4	13168	13169	13170	13171	
4	13172	13173	13174	13175	
4	13176	13177	13178	13179	
4	13180	13181	13182	13183	
4	13184	13185	13186	13187	
4	13188	13189	13190	13191	
4	13192	13193	13194	13195	
4	13196	13197	13198	13199	
4	13200	13201	13202	13203	
4	13204	13205	13206	13207	
4	13208	13209	13210	13211	
4	13212	13213	13214	13215	
4	13216	13217	13218	13219	
4	13220	13221	13222	13223	
4	13224	13225	13226	13227	
4	13228	13229	13230	13231	
4	13232	13233	13234	13235	
4	13236	13237	13238	13239	
4	13240	13241	13242	13243	
4	13244	13245	13246	13247	
4	13248	13249	13250	13251	
4	13252	13253	13254	13255	
4	13256	13257	13258	13259	
4	13260	13261	13262	13263	
4	13264	13265	13266	13267	
4	13268	13269	13270	13271	
4	13272	13273	13274	13275	
4	13276	13277	13278	13279	
4	13280	13281	13282	13283	
4	13284	13285	13286	13287	
4	13288	13289	13290	13291	
4	13292	13293	13294	13295	
4	13296	13297	13298	13299	
4	13300	13301	13302	13303	
4	13304	13305	13306	13307	
4	13308	13309	13310	13311	
4	13312	13313	13314	13315	
4	13316	13317	13318	13319	
4	13320	13321	13322	13323	
4	13324	13325	13326	13327	
4	13328	13329	13330	13331	
4	13332	13333	13334	13335	
4	13336	13337	13338	13339	
4	13340	13341	13342	13343	
4	13344	13345	13346	13347	
4	13348	13349	13350	13351	
4	13352	13353	13354	13355	
4	13356	13357	13358	13359	
4	13360	13361	13362	13363	
4	13364	13365	13366	13367	
4	13368	13369	13370	13371	
4	13372	13373	13374	13375	
4	13376	13377	13378	13379	
4	13380	13381	13382	13383	
4	13384	13385	13386	13387	
4	13388	13389	13390	13391	
4	13392	13393	13394	13395	
4	13396	13397	13398	13399	
4	13400	13401	13402	13403	
4	13404	13405	13406	13407	
4	13408	13409	13410	13411	
4	13412	13413	13414	13415	
4	13416	13417	13418	13419	
4	13420	13421	13422	13423	
4	13424	13425	13426	13427	
4	13428	13429	13430	13431	
4	13432	13433	13434	13435	
4	13436	13437	13438	13439	
4	13440	13441	13442	13443	
4	13444	13445	13446	13447	
4	13448	13449	13450	13451	
4	13452	13453	13454	13455	
4	13456	13457	13458	13459	
4	13460	13461	13462	13463	
4	13464	13465	13466	13467	
4	13468	13469	13470	13471	
4	13472	13473	13474	13475	
4	13476	13477	13478	13479	
4	13480	13481	13482	13483	
4	13484	13485	13486	13487	
4	13488	13489	13490	13491	
4	13492	13493	13494	13495	
4	13496	13497	13498	13499	
4	13500	13501	13502	13503	
4	13504	13505	13506	13507	
4	13508	13509	13510	13511	
4	13512	13513	13514	13515	
4	13516	13517	13518	13519	
4	13520	13521	13522	13523	
4	13524	13525	13526	13527	
4	13528	13529	13530	13531	
4	13532	13533	13534	13535	
4	13536	13537	13538	13539	
4	13540	13541	13542	13543	
4	13544	13545	13546	13547	
4	13548	13549	13550	13551	
4	13552	13553	13554	13555	
4	13556	13557	13558	13559	
4	13560	13561	13562	13563	
4	13564	13565	13566	13567	
4	13568	13569	13570	13571	
4	13572	13573	13574	13575	
4	13576	13577	13578	13579	
4	13580	13581	13582	13583	
4	13584	13585	13586	13587	
4	13588	13589	13590	13591	
4	13592	13593	13594	13595	
4	13596	13597	13598	13599	
4	13600	13601	13602	13603	
4	13604	13605	13606	13607	
4	13608	13609	13610	13611	
4	13612	13613	13614	13615	
4	13616	13617	13618	13619	
4	13620	13621	13622	13623	
4	13624	13625	13626	13627	
4	13628	13629	13630	13631	
4	13632	13633	13634	13635	
4	13636	13637	13638	13639	
4	13640	13641	13642	13643	
4	13644	13645	13646	13647	
4	13648	13649	13650	13651	
4	13652	13653	13654	13655	
4	13656	13657	13658	13659	
4	13660	13661	13662	13663	
4	13664	13665	13666	13667	
4	13668	13669	13670	13671	
4	13672	13673	13674	13675	
4	13676	13677	13678	13679	
4	13680	13681	13682	13683	
4	13684	13685	13686	13687	
4	13688	13689	13690	13691	
4	13692	13693	13694	13695	
4	13696	13697	13698	13699	
4	13700	13701	13702	13703	
4	13704	13705	13706	13707	
4	13708	13709	13710	13711	
4	13712	13713	13714	13715	
4	13716	13717	13718	13719	
4	13720	13721	13722	13723	
4	13724	13725	13726	13727	
4	13728	13729	13730	13731	
4	13732	13733	13734	13735	
4	13736	13737	13738	13739	
4	13740	13741	13742	13743	
4	13744	13745	13746	13747	
4	13748	13749	13750	13751	
4	13752	13753	13754	13755	
4	13756	13757	13758	13759	
4	13760	13761	13762	13763	
4	13764	13765	13766	13767	
4	13768	13769	13770	13771	
4	13772	13773	13774	13775	
4	13776	13777	13778	13779	
4	13780	13781	13782	13783	
4	13784	13785	13786	13787	
4	13788	13789	13790	13791	
4	13792	13793	13794	13795	
4	13796	13797	13798	13799	
4	13800	13801	13802	13803	
4	13804	13805	13806	13807	
4	13808	13809	13810	13811	
4	13812	13813	13814	13815	
4	13816	13817	13818	13819	
4	13820	13821	13822	13823	
4	13824	13825	13826	13827	
4	13828	13829	13830	13831	
4	13832	13833	13834	13835	
4	13836	13837	13838	13839	
4	13840	13841	13842	13843	
4	13844	13845	13846	13847	
4	13848	13849	13850	13851	
4	13852	13853	13854	13855	
4	13856	13857	13858	13859	
4	13860	13861	13862	13863	
4	13864	13865	13866	13867	
4	13868	13869	13870	13871	
4	13872	13873	13874	13875	
4	13876	13877	13878	13879	
4	13880	13881	13882	13883	
4	13884	13885	13886	13887	
4	13888	13889	13890	13891	
4	13892	13893	13894	13895	
4	13896	13897	13898	13899	
4	13900	13901	13902	13903	
4	13904	13905	13906	13907	
4	13908	13909	13910	13911	
4	13912	13913	13914	13915	
4	13916	13917	13918	13919	
4	13920	13921	13922	13923	
4	13924	13925	13926	13927	
4	13928	13929	13930	13931	
4	13932	13933	13934	13935	
4	13936	13937	13938	13939	
4	13940	13941	13942	13943	
4	13944	13945	13946	13947	
4	13948	13949	13950	13951	
4	13952	13953	13954	13955	
4	13956	13957	13958	13959	
4	13960	13961	13962	13963	
4	13964	13965	13966	13967	
4	13968	13969	13970	13971	
4	13972	13973	13974	13975	
4	13976	13977	13978	13979	
4	13980	13981	13982	13983	
4	13984	13985	13986	13987	
4	13988	13989	13990	13991	
4	13992	13993	13994	13995	
4	13996	13997	13998	13999	
4	14000	14001	14002	14003	
4	14004	14005	14006	14007	
4	14008	14009	14010	14011	
4	14012	14013	14014	14015	
4	14016	14017	14018	14019	
4	14020	14021	14022	14023	
4	14024	14025	14026	14027	
4	14028	14029	14030	14031	
4	14032	14033	14034	14035	
4	14036	14037	14038	14039	
4	14040	14041	14042	14043	
4	14044	14045	14046	14047	
4	14048	14049	14050	14051	
4	14052	14053	14054	14055	
4	14056	14057	14058	14059	
4	14060	14061	14062	14063	
4	14064	14065	14066	14067	
4	14068	14069	14070	14071	
4	14072	14073	14074	14075	
4	14076	14077	14078	14079	
4	14080	14081	14082	14083	
4	14084	14085	14086	14087	
4	14088	14089	14090	14091	
4	14092	14093	14094	14095	
4	14096	14097	14098	14099	
4	14100	14101	14102	14103	
4	14104	14105	14106	14107	
4	14108	14109	14110	14111	
4	14112	14113	14114	14115	
4	14116	14117	14118	14119	
4	14120	14121	14122	14123	
4	14124	14125	14126	14127	
4	14128	14129	14130	14131	
4	14132	14133	14134	14135	
4	14136	14137	14138	14139	
4	14140	14141	14142	14143	
4	14144	14145	14146	14147	
4	14148	14149	14150	14151	
4	14152	14153	14154	14155	
4	14156	14157	14158	14159	
4	14160	14161	14162	14163	
4	14164	14165	14166	14167	
4	14168	14169	14170	14171	
4	14172	14173	14174	14175	
4	14176	14177	14178	14179	
4	14180	14181	14182	14183	
4	14184	14185	14186	14187	
4	14188	14189	14190	14191	
4	14192	14193	14194	14195	
4	14196	14197	14198	14199	
4	14200	14201	14202	14203	
4	14204	14205	14206	14207	
4	14208	14209	14210	14211	
4	14212	14213	14214	14215	
4	14216	14217	14218	14219	
4	14220	14221	14222	14223	
4	14224	14225	14226	14227	
4	14228	14229	14230	14231	
4	14232	14233	14234	14235	
4	14236	14237	14238	14239	
4	14240	14241	14242	14243	
4	14244	14245	14246	14247	
4	14248	14249	14250	14251	
4	14252	14253	14254	14255	
4	14256	14257	14258	14259	
4	14260	14261	14262	14263	
4	14264	14265	14266	14267	
4	14268	14269	14270	14271	
4	14272	14273	14274	14275	
4	14276	14277	14278	14279	
4	14280	14281	14282	14283	
4	14284	14285	14286	14287	
4	14288	14289	14290	14291	
4	14292	14293	14294	14295	
4	14296	14297	14298	14299	
4	14300	14301	14302	14303	
4	14304	14305	14306	14307	
4	14308	14309	14310	14311	
4	14312	14313	14314	14315	
4	14316	14317	14318	14319	
4	14320	14321	14322	14323	
4	14324	14325	14326	14327	
4	14328	14329	14330	14331	
4	14332	14333	14334	14335	
4	14336	14337	14338	14339	
4	14340	14341	14342	14343	
4	14344	14345	14346	14347	
4	14348	14349	14350	14351	
4	14352	14353	14354	14355	
4	14356	14357	14358	14359	
4	14360	14361	14362	14363	
4	14364	14365	14366	14367	
4	14368	14369	14370	14371	
4	14372	14373	14374	14375	
4	14376	14377	14378	14379	
4	14380	14381	14382	14383	
4	14384	14385	14386	14387	
4	14388	14389	14390	14391	
4	14392	14393	14394	14395	
4	14396	14397	14398	14399	
4	14400	14401	14402	14403	
4	14404	14405	14406	14407	
4	14408	14409	14410	14411	
4	14412	14413	14414	14415	
4	14416	14417	14418	14419	
4	14420	14421	14422	14423	
4	14424	14425	14426	14427	
4	14428	14429	14430	14431	
4	14432	14433	14434	14435	
4	14436	14437	14438	14439	
4	14440	14441	14442	14443	
4	14444	14445	14446	14447	
4	14448	14449	14450	14451	
4	14452	14453	14454	14455	
4	14456	14457	14458	14459	
4	14460	14461	14462	14463	
4	14464	14465	14466	14467	
4	14468	14469	14470	14471	
4	14472	14473	14474	14475	
4	14476	14477	14478	14479	
4	14480	14481	14482	14483	
4	14484	14485	14486	14487	
4	14488	14489	14490	14491	
4	14492	14493	14494	14495	
4	14496	14497	14498	14499	
4	14500	14501	14502	14503	
4	14504	14505	14506	14507	
4	14508	14509	14510	14511	
4	14512	14513	14514	14515	
4	14516	14517	14518	14519	
4	14520	14521	14522	14523	
4	14524	14525	14526	14527	
4	14528	14529	14530	14531	
4	14532	14533	14534	14535	
4	14536	14537	14538	14539	
4	14540	14541	14542	14543	
4	14544	14545	14546	14547	
4	14548	14549	14550	14551	
4	14552	14553	14554	14555	
4	14556	14557	14558	14559	
4	14560	14561	14562	14563	
4	14564	14565	14566	14567	
4	14568	14569	14570	14571	
4	14572	14573	14574	14575	
4	14576	14577	14578	14579	
4	14580	14581	14582	14583	
4	14584	14585	14586	14587	
4	14588	14589	14590	14591	
4	14592	14593	14594	14595	
4	14596	14597	14598	14599	
4	14600	14601	14602	14603	
4	14604	14605	14606	14607	
4	14608	14609	14610	14611	
4	14612	14613	14614	14615	
4	14616	14617	14618	14619	
4	14620	14621	14622	14623	
4	14624	14625	14626	14627	
4	14628	14629	14630	14631	
4	14632	14633	14634	14635	
4	14636	14637	14638	14639	
4	14640	14641	14642	14643	
4	14644	14645	14646	14647	
4	14648	14649	14650	14651	
4	14652	14653	14654	14655	
4	14656	14657	14658	14659	
4	14660	14661	14662	14663	
4	14664	14665	14666	14667	
4	14668	14669	14670	14671	
4	14672	14673	14674	14675	
4	14676	14677	14678	14679	
4	14680	14681	14682	14683	
4	14684	14685	14686	14687	
4	14688	14689	14690	14691	
4	14692	14693	14694	14695	
4	14696	14697	14698	14699	
4	14700	14701	14702	14703	
4	14704	14705	14706	14707	
4	14708	14709	14710	14711	
4	14712	14713	14714	14715	
4	14716	14717	14718	14719	
4	14720	14721	14722	14723	
4	14724	14725	14726	14727	
4	14728	14729	14730	14731	
4	14732	14733	14734	14735	
4	14736	14737	14738	14739	
4	14740	14741	14742	14743	
4	14744	14745	14746	14747	
4	14748	14749	14750	14751	
4	14752	14753	14754	14755	
4	14756	14757	14758	14759	
4	14760	14761	14762	14763	
4	14764	14765	14766	14767	
4	14768	14769	14770	14771	
4	14772	14773	14774	14775	
4	14776	14777	14778	14779	
4	14780	14781	14782	14783	
4	14784	14785	14786	14787	
4	14788	14789	14790	14791	
4	14792	14793	14794	14795	
4	14796	14797	14798	14799	
4	14800	14801	14802	14803	
4	14804	14805	14806	14807	
4	14808	14809	14810	14811	
4	14812	14813	14814	14815	
4	14816	14817	14818	14819	
4	14820	14821	14822	14823	
4	14824	14825	14826	14827	
4	14828	14829	14830	14831	
4	14832	14833	14834	14835	
4	14836	14837	14838	14839	
4	14840	14841	14842	14843	
4	14844	14845	14846	14847	
4	14848	14849	14850	14851	
4	14852	14853	14854	14855	
4	14856	14857	14858	14859	
4	14860	14861	14862	14863	
4	14864	14865	14866	14867	
4	14868	14869	14870	14871	
4	14872	14873	14874	14875	
4	14876	14877	14878	14879	
4	14880	14881	14882	14883	
4	14884	14885	14886	14887	
4	14888	14889	14890	14891	
4	14892	14893	14894	14895	
4	14896	14897	14898	14899	
4	14900	14901	14902	14903	
4	14904	14905	14906	14907	
4	14908	14909	14910	14911	
4	14912	14913	14914	14915	
4	14916	14917	14918	14919	
4	14920	14921	14922	14923	
4	14924	14925	14926	14927	
4	14928	14929	14930	14931	
4	14932	14933	14934	14935	
4	14936	14937	14938	14939	
4	14940	14941	14942	14943	
4	14944	14945	14946	14947	
4	14948	14949	14950	14951	
4	14952	14953	14954	14955	
4	14956	14957	14958	14959	
4	14960	14961	14962	14963	
4	14964	14965	14966	14967	
4	14968	14969	14970	14971	
4	14972	14973	14974	14975	
4	14976	14977	14978	14979	
4	14980	14981	14982	14983	
4	14984	14985	14986	14987	
4	14988	14989	14990	14991	
4	14992	14993	14994	14995	
4	14996	14997	14998	14999	
4	15000	15001	15002	15003	
4	15004	15005	15006	15007	
4	15008	15009	15010	15011	
4	15012	15013	15014	15015	
4	15016	15017	15018	15019	
4	15020	15021	15022	15023	
4	15024	15025	15026	15027	
4	15028	15029	15030	15031	
4	15032	15033	15034	15035	
4	15036	15037	15038	15039	
4	15040	15041	15042	15043	
4	15044	15045	15046	15047	
4	15048	15049	15050	15051	
4	15052	15053	15054	15055	
4	15056	15057	15058	15059	
4	15060	15061	15062	15063	
4	15064	15065	15066	15067	
4	15068	15069	15070	15071	
4	15072	15073	15074	15075	
4	15076	15077	15078	15079	
4	15080	15081	15082	15083	
4	15084	15085	15086	15087	
4	15088	15089	15090	15091	
4	15092	15093	15094	15095	
4	15096	15097	15098	15099	
4	15100	15101	15102	15103	
4	15104	15105	15106	15107	
4	15108	15109	15110	15111	
4	15112	15113	15114	15115	
4	15116	15117	15118	15119	
4	15120	15121	15122	15123	
4	15124	15125	15126	15127	
4	15128	15129	15130	15131	
4	15132	15133	15134	15135	
4	15136	15137	15138	15139	
4	15140	15141	15142	15143	
4	15144	15145	15146	15147	
4	15148	15149	15150	15151	
4	15152	15153	15154	15155	
4	15156	15157	15158	15159	
4	15160	15161	15162	15163	
4	15164	15165	15166	15167	
4	15168	15169	15170	15171	
4	15172	15173	15174	15175	
4	15176	15177	15178	15179	
4	15180	15181	15182	15183	
4	15184	15185	15186	15187	
4	15188	15189	15190	15191	
4	15192	15193	15194	15195	
4	15196	15197	15198	15199	
4	15200	15201	15202	15203	
4	15204	15205	15206	15207	
4	15208	15209	15210	15211	
4	15212	15213	15214	15215	
4	15216	15217	15218	15219	
4	15220	15221	15222	15223	
4	15224	15225	15226	15227	
4	15228	15229	15230	15231	
4	15232	15233	15234	15235	
4	15236	15237	15238	15239	
4	15240	15241	15242	15243	
4	15244	15245	15246	15247	
4	15248	15249	15250	15251	
4	15252	15253	15254	15255	
4	15256	15257	15258	15259	
4	15260	15261	15262	15263	
4	15264	15265	15266	15267	
4	15268	15269	15270	15271	
4	15272	15273	15274	15275	
4	15276	15277	15278	15279	
4	15280	15281	15282	15283	
4	15284	15285	15286	15287	
4	15288	15289	15290	15291	
4	15292	15293	15294	15295	
4	15296	15297	15298	15299	
4	15300	15301	15302	15303	
4	15304	15305	15306	15307	
4	15308	15309	15310	15311	
4	15312	15313	15314	15315	
4	15316	15317	15318	15319	
4	15320	15321	15322	15323	
4	15324	15325	15326	15327	
4	15328	15329	15330	15331	
4	15332	15333	15334	15335	
4	15336	15337	15338	15339	
4	15340	15341	15342	15343	
4	15344	15345	15346	15347	
4	15348	15349	15350	15351	
4	15352	15353	15354	15355	
4	15356	15357	15358	15359	
4	15360	15361	15362	15363	
4	15364	15365	15366	15367	
4	15368	15369	15370	15371	
4	15372	15373	15374	15375	
4	15376	15377	15378	15379	
4	15380	15381	15382	15383	
4	15384	15385	15386	15387	
4	15388	15389	15390	15391	
4	15392	15393	15394	15395	
4	15396	15397	15398	15399	
4	15400	15401	15402	15403	
4	15404	15405	15406	15407	
4	15408	15409	15410	15411	
4	15412	15413	15414	15415	
4	15416	15417	15418	15419	
4	15420	15421	15422	15423	
4	15424	15425	15426	15427	
4	15428	15429	15430	15431	
4	15432	15433	15434	15435	
4	15436	15437	15438	15439	
4	15440	15441	15442	15443	
4	15444	15445	15446	15447	
4	15448	15449	15450	15451	
4	15452	15453	15454	15455	
4	15456	15457	15458	15459	
4	15460	15461	15462	15463	
4	15464	15465	15466	15467	
4	15468	15469	15470	15471	
4	15472	15473	15474	15475	
4	15476	15477	15478	15479	
4	15480	15481	15482	15483	
4	15484	15485	15486	15487	
4	15488	15489	15490	15491	
4	15492	15493	15494	15495	
4	15496	15497	15498	15499	
4	15500	15501	15502	15503	
4	15504	15505	15506	15507	
4	15508	15509	15510	15511	
4	15512	15513	15514	15515	
4	15516	15517	15518	15519	
4	15520	15521	15522	15523	
4	15524	15525	15526	15527	
4	15528	15529	15530	15531	
4	15532	15533	15534	15535	
4	15536	15537	15538	15539	
4	15540	15541	15542	15543	
4	15544	15545	15546	15547	
4	15548	15549	15550	15551	
4	15552	15553	15554	15555	
4	15556	15557	15558	15559	
4	15560	15561	15562	15563	
4	15564	15565	15566	15567	
4	15568	15569	15570	15571	
4	15572	15573	15574	15575	
4	15576	15577	15578	15579	
4	15580	15581	15582	15583	
4	15584	15585	15586	15587	
4	15588	15589	15590	15591	
4	15592	15593	15594	15595	
4	15596	15597	15598	15599	
4	15600	15601	15602	15603	
4	15604	15605	15606	15607	
4	15608	15609	15610	15611	
4	15612	15613	15614	15615	
4	15616	15617	15618	15619	
4	15620	15621	15622	15623	
4	15624	15625	15626	15627	
4	15628	15629	15630	15631	
4	15632	15633	15634	15635	
4	15636	15637	15638	15639	
4	15640	15641	15642	15643	
4	15644	15645	15646	15647	
4	15648	15649	15650	15651	
4	15652	15653	15654	15655	
4	15656	15657	15658	15659	
4	15660	15661	15662	15663	
4	15664	15665	15666	15667	
4	15668	15669	15670	15671	
4	15672	15673	15674	15675	
4	15676	15677	15678	15679	
4	15680	15681	15682	15683	
4	15684	15685	15686	15687	
4	15688	15689	15690	15691	
4	15692	15693	15694	15695	
4	15696	15697	15698	15699	
4	15700	15701	15702	15703	
4	15704	15705	15706	15707	
4	15708	15709	15710	15711	
4	15712	15713	15714	15715	
4	15716	15717	15718	15719	
4	15720	15721	15722	15723	
4	15724	15725	15726	15727	
4	15728	15729	15730	15731	
4	15732	15733	15734	15735	
4	15736	15737	15738	15739	
4	15740	15741	15742	15743	
4	15744	15745	15746	15747	
4	15748	15749	15750	15751	
4	15752	15753	15754	15755	
4	15756	15757	15758	15759	
4	15760	15761	15762	15763	
4	15764	15765	15766	15767	
4	15768	15769	15770	15771	
4	15772	15773	15774	15775	
4	15776	15777	15778	15779	
4	15780	15781	15782	15783	
4	15784	15785	15786	15787	
4	15788	15789	15790	15791	
4	15792	15793	15794	15795	
4	15796	15797	15798	15799	
4	15800	15801	15802	15803	
4	15804	15805	15806	15807	
4	15808	15809	15810	15811	
4	15812	15813	15814	15815	
4	15816	15817	15818	15819	
4	15820	15821	15822	15823	
4	15824	15825	15826	15827	
4	15828	15829	15830	15831	
4	15832	15833	15834	15835	
4	15836	15837	15838	15839	
4	15840	15841	15842	15843	
4	15844	15845	15846	15847	
4	15848	15849	15850	15851	
4	15852	15853	15854	15855	
4	15856	15857	15858	15859	
4	15860	15861	15862	15863	
4	15864	15865	15866	15867	
4	15868	15869	15870	15871	
4	15872	15873	15874	15875	
4	15876	15877	15878	15879	
4	15880	15881	15882	15883	
4	15884	15885	15886	15887	
4	15888	15889	15890	15891	
4	15892	15893	15894	15895	
4	15896	15897	15898	15899	
4	15900	15901	15902	15903	
4	15904	15905	15906	15907	
4	15908	15909	15910	15911	
4	15912	15913	15914	15915	
4	15916	15917	15918	15919	
4	15920	15921	15922	15923	
4	15924	15925	15926	15927	
4	15928	15929	15930	15931	
4	15932	15933	15934	15935	
4	15936	15937	15938	15939	
4	15940	15941	15942	15943	
4	15944	15945	15946	15947	
4	15948	15949	15950	15951	
4	15952	15953	15954	15955	
4	15956	15957	15958	15959	
4	15960	15961	15962	15963	
4	15964	15965	15966	15967	
4	15968	15969	15970	15971	
4	15972	15973	15974	15975	
4	15976	15977	15978	15979	
4	15980	15981	15982	15983	
4	15984	15985	15986	15987	
4	15988	15989	15990	15991	
4	15992	15993	15994	15995	
4	15996	15997	15998	15999	
4	16000	16001	16002	16003	
4	16004	16005	16006	16007	
4	16008	16009	16010	16011	
4	16012	16013	16014	16015	
4	16016	16017	16018	16019	
4	16020	16021	16022	16023	
4	16024	16025	16026	16027	
4	16028	16029	16030	16031	
4	16032	16033	16034	16035	
4	16036	16037	16038	16039	
4	16040	16041	16042	16043	
4	16044	16045	16046	16047	
4	16048	16049	16050	16051	
4	16052	16053	16054	16055	
4	16056	16057	16058	16059	
4	16060	16061	16062	16063	
4	16064	16065	16066	16067	
4	16068	16069	16070	16071	
4	16072	16073	16074	16075	
4	16076	16077	16078	16079	
4	16080	16081	16082	16083	
4	16084	16085	16086	16087	
4	16088	16089	16090	16091	
4	16092	16093	16094	16095	
4	16096	16097	16098	16099	
4	16100	16101	16102	16103	
4	16104	16105	16106	16107	
4	16108	16109	16110	16111	
4	16112	16113	16114	16115	
4	16116	16117	16118	16119	
4	16120	16121	16122	16123	
4	16124	16125	16126	16127	
4	16128	16129	16130	16131	
4	16132	16133	16134	16135	
4	16136	16137	16138	16139	
4	16140	16141	16142	16143	
4	16144	16145	16146	16147	
4	16148	16149	16150	16151	
4	16152	16153	16154	16155	
4	16156	16157	16158	16159	
4	16160	16161	16162	16163	
4	16164	16165	16166	16167	
4	16168	16169	16170	16171	
4	16172	16173	16174	16175	
4	16176	16177	16178	16179	
4	16180	16181	16182	16183	
4	16184	16185	16186	16187	
4	16188	16189	16190	16191	
4	16192	16193	16194	16195	
4	16196	16197	16198	16199	
4	16200	16201	16202	16203	
4	16204	16205	16206	16207	
4	16208	16209	16210	16211	
4	16212	16213	16214	16215	
4	16216	16217	16218	16219	
4	16220	16221	16222	16223	
4	16224	16225	16226	16227	
4	16228	16229	16230	16231	
4	16232	16233	16234	16235	
4	16236	16237	16238	16239	
4	16240	16241	16242	16243	
4	16244	16245	16246	16247	
4	16248	16249	16250	16251	
4	16252	16253	16254	16255	
4	16256	16257	16258	16259	
4	16260	16261	16262	16263	
4	16264	16265	16266	16267	
4	16268	16269	16270	16271	
4	16272	16273	16274	16275	
4	16276	16277	16278	16279	
4	16280	16281	16282	16283	
4	16284	16285	16286	16287	
4	16288	16289	16290	16291	
4	16292	16293	16294	16295	
4	16296	16297	16298	16299	
4	16300	16301	16302	16303	
4	16304	16305	16306	16307	
4	16308	16309	16310	16311	
4	16312	16313	16314	16315	
4	16316	16317	16318	16319	
4	16320	16321	16322	16323	
4	16324	16325	16326	16327	
4	16328	16329	16330	16331	
4	16332	16333	16334	16335	
4	16336	16337	16338	16339	
4	16340	16341	16342	16343	
4	16344	16345	16346	16347	
4	16348	16349	16350	16351	
4	16352	16353	16354	16355	
4	16356	16357	16358	16359	
4	16360	16361	16362	16363	
4	16364	16365	16366	16367	
4	16368	16369	16370	16371	
4	16372	16373	16374	16375	
4	16376	16377	16378	16379	
4	16380	16381	16382	16383	
4	16384	16385	16386	16387	
4	16388	16389	16390	16391	
4	16392	16393	16394	16395	
4	16396	16397	16398	16399	
4	16400	16401	16402	16403	
4	16404	16405	16406	16407	
4	16408	16409	16410	16411	
4	16412	16413	16414	16415	
4	16416	16417	16418	16419	
4	16420	16421	16422	16423	
4	16424	16425	16426	16427	
4	16428	16429	16430	16431	
4	16432	16433	16434	16435	
4	16436	16437	16438	16439	
4	16440	16441	16442	16443	
4	16444	16445	16446	16447	
4	16448	16449	16450	16451	
4	16452	16453	16454	16455	
4	16456	16457	16458	16459	
4	16460	16461	16462	16463	
4	16464	16465	16466	16467	
4	16468	16469	16470	16471	
4	16472	16473	16474	16475	
4	16476	16477	16478	16479	
4	16480	16481	16482	16483	
4	16484	16485	16486	16487	
4	16488	16489	16490	16491	
4	16492	16493	16494	16495	
4	16496	16497	16498	16499	
4	16500	16501	16502	16503	
4	16504	16505	16506	16507	
4	16508	16509	16510	16511	
4	16512	16513	16514	16515	
4	16516	16517	16518	16519	
4	16520	16521	16522	16523	
4	16524	16525	16526	16527	
4	16528	16529	16530	16531	
4	16532	16533	16534	16535	
4	16536	16537	16538	16539	
4	16540	16541	16542	16543	
4	16544	16545	16546	16547	
4	16548	16549	16550	16551	
4	16552	16553	16554	16555	
4	16556	16557	16558	16559	
4	16560	16561	16562	16563	
4	16564	16565	16566	16567	
4	16568	16569	16570	16571	
4	16572	16573	16574	16575	
4	16576	16577	16578	16579	
4	16580	16581	16582	16583	
4	16584	16585	16586	16587	
4	16588	16589	16590	16591	
4	16592	16593	16594	16595	
4	16596	16597	16598	16599	
4	16600	16601	16602	16603	
4	16604	16605	16606	16607	
4	16608	16609	16610	16611	
4	16612	16613	16614	16615	
4	16616	16617	16618	16619	
4	16620	16621	16622	16623	
4	16624	16625	16626	16627	
4	16628	16629	16630	16631	
4	16632	16633	16634	16635	
4	16636	16637	16638	16639	
4	16640	16641	16642	16643	
4	16644	16645	16646	16647	
4	16648	16649	16650	16651	
4	16652	16653	16654	16655	
4	16656	16657	16658	16659	
4	16660	16661	16662	16663	
4	16664	16665	16666	16667	
4	16668	16669	16670	16671	
4	16672	16673	16674	16675	
4	16676	16677	16678	16679	
4	16680	16681	16682	16683	
4	16684	16685	16686	16687	
4	16688	16689	16690	16691	
4	16692	16693	16694	16695	
4	16696	16697	16698	16699	
4	16700	16701	16702	16703	
4	16704	16705	16706	16707	
4	16708	16709	16710	16711	
4	16712	16713	16714	16715	
4	16716	16717	16718	16719	
4	16720	16721	16722	16723	
4	16724	16725	16726	16727	
4	16728	16729	16730	16731	
4	16732	16733	16734	16735	
4	16736	16737	16738	16739	
4	16740	16741	16742	16743	
4	16744	16745	16746	16747	
4	16748	16749	16750	16751	
4	16752	16753	16754	16755	
4	16756	16757	16758	16759	
4	16760	16761	16762	16763	
4	16764	16765	16766	16767	
4	16768	16769	16770	16771	
4	16772	16773	16774	16775	
4	16776	16777	16778	16779	
4	16780	16781	16782	16783	
4	16784	16785	16786	16787	
4	16788	16789	16790	16791	
4	16792	16793	16794	16795	
4	16796	16797	16798	16799	
4	16800	16801	16802	16803	
4	16804	16805	16806	16807	
4	16808	16809	16810	16811	
4	16812	16813	16814	16815	
4	16816	16817	16818	16819	
4	16820	16821	16822	16823	
4	16824	16825	16826	16827	
4	16828	16829	16830	16831	
4	16832	16833	16834	16835	
4	16836	16837	16838	16839	
4	16840	16841	16842	16843	
4	16844	16845	16846	16847	
4	16848	16849	16850	16851	
4	16852	16853	16854	16855	
4	16856	16857	16858	16859	
4	16860	16861	16862	16863	
4	16864	16865	16866	16867	
4	16868	16869	16870	16871	
4	16872	16873	16874	16875	
4	16876	16877	16878	16879	
4	16880	16881	16882	16883	
4	16884	16885	16886	16887	
4	16888	16889	16890	16891	
4	16892	16893	16894	16895	
4	16896	16897	16898	16899	
4	16900	16901	16902	16903	
4	16904	16905	16906	16907	
4	16908	16909	16910	16911	
4	16912	16913	16914	16915	
4	16916	16917	16918	16919	
4	16920	16921	16922	16923	
4	16924	16925	16926	16927	
4	16928	16929	16930	16931	
4	16932	16933	16934	16935	
4	16936	16937	16938	16939	
4	16940	16941	16942	16943	
4	16944	16945	16946	16947	
4	16948	16949	16950	16951	
4	16952	16953	16954	16955	
4	16956	16957	16958	16959	
4	16960	16961	16962	16963	
4	16964	16965	16966	16967	
4	16968	16969	16970	16971	
4	16972	16973	16974	16975	
4	16976	16977	16978	16979	
4	16980	16981	16982	16983	
4	16984	16985	16986	16987	
4	16988	16989	16990	16991	
4	16992	16993	16994	16995	
4	16996	16997	16998	16999	
4	17000	17001	17002	17003	
4	17004	17005	17006	17007	
4	17008	17009	17010	17011	
4	17012	17013	17014	17015	
4	17016	17017	17018	17019	
CELL_TYPES 4255
10
10
10
10
10
10
10
10
10
10
10
10
10
10
10
10
10
10
10
10
10
10
10
10
10
10
10
10
10
10
10
10
10
10
10
10
10
10
10
10
10
10
10
10
10
10
10
10
10
10
10
10
10
10
10
10
10
10
10
10
10
10
10
10
10
10
10
10
10
10
10
10
10
10
10
10
10
10
10
10
10
10
10
10
10
10
10
10
10
10
10
10
10
10
10
10
10
10
10
10
10
10
10
10
10
10
10
10
10
10
10
10
10
10
10
10
10
10
10
10
10
10
10
10
10
10
10
10
10
10
10
10
10
10
10
10
10
10
10
10
10
10
10
10
10
10
10
10
10
10
10
10
10
10
10
10
10
10
10
10
10
10
10
10
10
10
10
10
10
10
10
10
10
10
10
10
10
10
10
10
10
10
10
10
10
10
10
10
10
10
10
10
10
10
10
10
10
10
10
10
10
10
10
10
10
10
10
10
10
10
10
10
10
10
10
10
10
10
10
10
10
10
10
10
10
10
10
10
10
10
10
10
10
10
10
10
10
10
10
10
10
10
10
10
10
10
10
10
10
10
10
10
10
10
10
10
10
10
10
10
10
10
10
10
10
10
10
10
10
10
10
10
10
10
10
10
10
10
10
10
10
10
10
10
10
10
10
10
10
10
10
10
10
10
10
10
10
10
10
10
10
10
10
10
10
10
10
10
10
10
10
10
10
10
10
10
10
10
10
10
10
10
10
10
10
10
10
10
10
10
10
10
10
10
10
10
10
10
10
10
10
10
10
10
10
10
10
10
10
10
10
10
10
10
10
10
10
10
10
10
10
10
10
10
10
10
10
10
10
10
10
10
10
10
10
10
10
10
10
10
10
10
10
10
10
10
10
10
10
10
10
10
10
10
10
10
10
10
10
10
10
10
10
10
10
10
10
10
10
10
10
10
10
10
10
10
10
10
10
10
10
10
10
10
10
10
10
10
10
10
10
10
10
10
10
10
10
10
10
10
10
10
10
10
10
10
10
10
10
10
10
10
10
10
10
10
10
10
10
10
10
10
10
10
10
10
10
10
10
10
10
10
10
10
10
10
10
10
10
10
10
10
10
10
10
10
10
10
10
10
10
10
10
10
10
10
10
10
10
10
10
10
10
10
10
10
10
10
10
10
10
10
10
10
10
10
10
10
10
10
10
10
10
10
10
10
10
10
10
10
10
10
10
10
10
10
10
10
10
10
10
10
10
10
10
10
10
10
10
10
10
10
10
10
10
10
10
10
10
10
10
10
10
10
10
10
10
10
10
10
10
10
10
10
10
10
10
10
10
10
10
10
10
10
10
10
10
10
10
10
10
10
10
10
10
10
10
10
10
10
10
10
10
10
10
10
10
10
10
10
10
10
10
10
10
10
10
10
10
10
10
10
10
10
10
10
10
10
10
10
10
10
10
10
10
10
10
10
10
10
10
10
10
10
10
10
10
10
10
10
10
10
10
10
10
10
10
10
10
10
10
10
10
10
10
10
10
10
10
10
10
10
10
10
10
10
10
10
10
10
10
10
10
10
10
10
10
10
10
10
10
10
10
10
10
10
10
10
10
10
10
10
10
10
10
10
10
10
10
10
10
10
10
10
10
10
10
10
10
10
10
10
10
10
10
10
10
10
10
10
10
10
10
10
10
10
10
10
10
10
10
10
10
10
10
10
10
10
10
10
10
10
10
10
10
10
10
10
10
10
10
10
10
10
10
10
10
10
10
10
10
10
10
10
10
10
10
10
10
10
10
10
10
10
10
10
10
10
10
10
10
10
10
10
10
10
10
10
10
10
10
10
10
10
10
10
10
10
10
10
10
10
10
10
10
10
10
10
10
10
10
10
10
10
10
10
10
10
10
10
10
10
10
10
10
10
10
10
10
10
10
10
10
10
10
10
10
10
10
10
10
10
10
10
10
10
10
10
10
10
10
10
10
10
10
10
10
10
10
10
10
10
10
10
10
10
10
10
10
10
10
10
10
10
10
10
10
10
10
10
10
10
10
10
10
10
10
10
10
10
10
10
10
10
10
10
10
10
10
10
10
10
10
10
10
10
10
10
10
10
10
10
10
10
10
10
10
10
10
10
10
10
10
10
10
10
10
10
10
10
10
10
10
10
10
10
10
10
10
10
10
10
10
10
10
10
10
10
10
10
10
10
10
10
10
10
10
10
10
10
10
10
10
10
10
10
10
10
10
10
10
10
10
10
10
10
10
10
10
10
10
10
10
10
10
10
10
10
10
10
10
10
10
10
10
10
10
10
10
10
10
10
10
10
10
10
10
10
10
10
10
10
10
10
10
10
10
10
10
10
10
10
10
10
10
10
10
10
10
10
10
10
10
10
10
10
10
10
10
10
10
10
10
10
10
10
10
10
10
10
10
10
10
10
10
10
10
10
10
10
10
10
10
10
10
10
10
10
10
10
10
10
10
10
10
10
10
10
10
10
10
10
10
10
10
10
10
10
10
10
10
10
10
10
10
10
10
10
10
10
10
10
10
10
10
10
10
10
10
10
10
10
10
10
10
10
10
10
10
10
10
10
10
10
10
10
10
10
10
10
10
10
10
10
10
10
10
10
10
10
10
10
10
10
10
10
10
10
10
10
10
10
10
10
10
10
10
10
10
10
10
10
10
10
10
10
10
10
10
10
10
10
10
10
10
10
10
10
10
10
10
10
10
10
10
10
10
10
10
10
10
10
10
10
10
10
10
10
10
10
10
10
10
10
10
10
10
10
10
10
10
10
10
10
10
10
10
10
10
10
10
10
10
10
10
10
10
10
10
10
10
10
10
10
10
10
10
10
10
10
10
10
10
10
10
10
10
10
10
10
10
10
10
10
10
10
10
10
10
10
10
10
10
10
10
10
10
10
10
10
10
10
10
10
10
10
10
10
10
10
10
10
10
10
10
10
10
10
10
10
10
10
10
10
10
10
10
10
10
10
10
10
10
10
10
10
10
10
10
10
10
10
10
10
10
10
10
10
10
10
10
10
10
10
10
10
10
10
10
10
10
10
10
10
10
10
10
10
10
10
10
10
10
10
10
10
10
10
10
10
10
10
10
10
10
10
10
10
10
10
10
10
10
10
10
10
10
10
10
10
10
10
10
10
10
10
10
10
10
10
10
10
10
10
10
10
10
10
10
10
10
10
10
10
10
10
10
10
10
10
10
10
10
10
10
10
10
10
10
10
10
10
10
10
10
10
10
10
10
10
10
10
10
10
10
10
10
10
10
10
10
10
10
10
10
10
10
10
10
10
10
10
10
10
10
10
10
10
10
10
10
10
10
10
10
10
10
10
10
10
10
10
10
10
10
10
10
10
10
10
10
10
10
10
10
10
10
10
10
10
10
10
10
10
10
10
10
10
10
10
10
10
10
10
10
10
10
10
10
10
10
10
10
10
10
10
10
10
10
10
10
10
10
10
10
10
10
10
10
10
10
10
10
10
10
10
10
10
10
10
10
10
10
10
10
10
10
10
10
10
10
10
10
10
10
10
10
10
10
10
10
10
10
10
10
10
10
10
10
10
10
10
10
10
10
10
10
10
10
10
10
10
10
10
10
10
10
10
10
10
10
10
10
10
10
10
10
10
10
10
10
10
10
10
10
10
10
10
10
10
10
10
10
10
10
10
10
10
10
10
10
10
10
10
10
10
10
10
10
10
10
10
10
10
10
10
10
10
10
10
10
10
10
10
10
10
10
10
10
10
10
10
10
10
10
10
10
10
10
10
10
10
10
10
10
10
10
10
10
10
10
10
10
10
10
10
10
10
10
10
10
10
10
10
10
10
10
10
10
10
10
10
10
10
10
10
10
10
10
10
10
10
10
10
10
10
10
10
10
10
10
10
10
10
10
10
10
10
10
10
10
10
10
10
10
10
10
10
10
10
10
10
10
10
10
10
10
10
10
10
10
10
10
10
10
10
10
10
10
10
10
10
10
10
10
10
10
10
10
10
10
10
10
10
10
10
10
10
10
10
10
10
10
10
10
10
10
10
10
10
10
10
10
10
10
10
10
10
10
10
10
10
10
10
10
10
10
10
10
10
10
10
10
10
10
10
10
10
10
10
10
10
10
10
10
10
10
10
10
10
10
10
10
10
10
10
10
10
10
10
10
10
10
10
10
10
10
10
10
10
10
10
10
10
10
10
10
10
10
10
10
10
10
10
10
10
10
10
10
10
10
10
10
10
10
10
10
10
10
10
10
10
10
10
10
10
10
10
10
10
10
10
10
10
10
10
10
10
10
10
10
10
10
10
10
10
10
10
10
10
10
10
10
10
10
10
10
10
10
10
10
10
10
10
10
10
10
10
10
10
10
10
10
10
10
10
10
10
10
10
10
10
10
10
10
10
10
10
10
10
10
10
10
10
10
10
10
10
10
10
10
10
10
10
10
10
10
10
10
10
10
10
10
10
10
10
10
10
10
10
10
10
10
10
10
10
10
10
10
10
10
10
10
10
10
10
10
10
10
10
10
10
10
10
10
10
10
10
10
10
10
10
10
10
10
10
10
10
10
10
10
10
10
10
10
10
10
10
10
10
10
10
10
10
10
10
10
10
10
10
10
10
10
10
10
10
10
10
10
10
10
10
10
10
10
10
10
10
10
10
10
10
10
10
10
10
10
10
10
10
10
10
10
10
10
10
10
10
10
10
10
10
10
10
10
10
10
10
10
10
10
10
10
10
10
10
10
10
10
10
10
10
10
10
10
10
10
10
10
10
10
10
10
10
10
10
10
10
10
10
10
10
10
10
10
10
10
10
10
10
10
10
10
10
10
10
10
10
10
10
10
10
10
10
10
10
10
10
10
10
10
10
10
10
10
10
10
10
10
10
10
10
10
10
10
10
10
10
10
10
10
10
10
10
10
10
10
10
10
10
10
10
10
10
10
10
10
10
10
10
10
10
10
10
10
10
10
10
10
10
10
10
10
10
10
10
10
10
10
10
10
10
10
10
10
10
10
10
10
10
10
10
10
10
10
10
10
10
10
10
10
10
10
10
10
10
10
10
10
10
10
10
10
10
10
10
10
10
10
10
10
10
10
10
10
10
10
10
10
10
10
10
10
10
10
10
10
10
10
10
10
10
10
10
10
10
10
10
10
10
10
10
10
10
10
10
10
10
10
10
10
10
10
10
10
10
10
10
10
10
10
10
10
10
10
10
10
10
10
10
10
10
10
10
10
10
10
10
10
10
10
10
10
10
10
10
10
10
10
10
10
10
10
10
10
10
10
10
10
10
10
10
10
10
10
10
10
10
10
10
10
10
10
10
10
10
10
10
10
10
10
10
10
10
10
10
10
10
10
10
10
10
10
10
10
10
10
10
10
10
10
10
10
10
10
10
10
10
10
10
10
10
10
10
10
10
10
10
10
10
10
10
10
10
10
10
10
10
10
10
10
10
10
10
10
10
10
10
10
10
10
10
10
10
10
10
10
10
10
10
10
10
10
10
10
10
10
10
10
10
10
10
10
10
10
10
10
10
10
10
10
10
10
10
10
10
10
10
10
10
10
10
10
10
10
10
10
10
10
10
10
10
10
10
10
10
10
10
10
10
10
10
10
10
10
10
10
10
10
10
10
10
10
10
10
10
10
10
10
10
10
10
10
10
10
10
10
10
10
10
10
10
10
10
10
10
10
10
10
10
10
10
10
10
10
10
10
10
10
10
10
10
10
10
10
10
10
10
10
10
10
10
10
10
10
10
10
10
10
10
10
10
10
10
10
10
10
10
10
10
10
10
10
10
10
10
10
10
10
10
10
10
10
10
10
10
10
10
10
10
10
10
10
10
10
10
10
10
10
10
10
10
10
10
10
10
10
10
10
10
10
10
10
10
10
10
10
10
10
10
10
10
10
10
10
10
10
10
10
10
10
10
10
10
10
10
10
10
10
10
10
10
10
10
10
10
10
10
10
10
10
10
10
10
10
10
10
10
10
10
10
10
10
10
10
10
10
10
10
10
10
10
10
10
10
10
10
10
10
10
10
10
10
10
10
10
10
10
10
10
10
10
10
10
10
10
10
10
10
10
10
10
10
10
10
10
10
10
10
10
10
10
10
10
10
10
10
10
10
10
10
10
10
10
10
10
10
10
10
10
10
10
10
10
10
10
10
10
10
10
10
10
10
10
10
10
10
10
10
10
10
10
10
10
10
10
10
10
10
10
10
10
10
10
10
10
10
10
10
10
10
10
10
10
10
10
10
10
10
10
10
10
10
10
10
10
10
10
10
10
10
10
10
10
10
10
10
10
10
10
10
10
10
10
10
10
10
10
10
10
10
10
10
10
10
10
10
10
10
10
10
10
10
10
10
10
10
10
10
10
10
10
10
10
10
10
10
10
10
10
10
10
10
10
10
10
10
10
10
10
10
10
10
10
10
10
10
10
10
10
10
10
10
10
10
10
10
10
10
10
10
10
10
10
10
10
10
10
10
10
10
10
10
10
10
10
10
10
10
10
10
10
10
10
10
10
10
10
10
10
10
10
10
10
10
10
10
10
10
10
10
10
10
10
10
10
10
10
10
10
10
10
10
10
10
10
10
10
10
10
10
10
10
10
10
10
10
10
10
10
10
10
10
10
10
10
10
10
10
10
10
10
10
10
10
10
10
10
10
10
10
10
10
10
10
10
10
10
10
10
10
10
10
10
10
10
10
10
10
10
10
10
10
10
10
10
10
10
10
10
10
10
10
10
10
10
10
10
10
10
10
10
10
10
10
10
10
10
10
10
10
10
10
10
10
10
10
10
10
10
10
10
10
10
10
10
10
10
10
10
10
10
10
10
10
10
10
10
10
10
10
10
10
10
10
10
10
10
10
10
10
10
10
10
10
10
10
10
10
10
10
10
10
10
10
10
10
10
10
10
10
10
10
10
10
10
10
10
10
10
10
10
10
10
10
10
10
10
10
10
10
10
10
10
10
10
10
10
10
10
10
10
10
10
10
10
10
10
10
10
10
10
10
10
10
10
10
10
10
10
10
10
10
10
10
10
10
10
10
10
10
10
10
10
10
10
10
10
10
10
10
10
10
10
10
10
10
10
10
10
10
10
10
10
10
10
10
10
10
10
10
10
10
10
10
10
10
10
10
10
10
10
10
10
10
10
10
10
10
10
10
10
10
10
10
10
10
10
10
10
10
10
10
10
10
10
10
10
10
10
10
10
10
10
10
10
10
10
10
10
10
10
10
10
10
10
10
10
10
10
10
10
10
10
10
10
10
10
10
10
10
10
10
10
10
10
10
10
10
10
10
10
10
10
10
10
10
10
10
10
10
10
10
10
10
10
10
10
10
10
10
10
10
10
10
10
10
10
10
10
10
10
10
10
10
10
10
10
10
10
10
10
10
10
10
10
10
10
10
10
10
10
10
10
10
10
10
10
10
10
10
10
10
10
10
10
10
10
10
10
10
10
10
10
10
10
10
10
10
10
10
10
10
10
10
10
10
10
10
10
10
10
10
10
10
10
10
10
10
10
10
10
10
10
10
10
10
10
10
10
10
10
10
10
10
10
10
10
10
10
10
10
10
10
10
10
10
10
10
10
10
10
10
10
10
10
10
10
10
10
10
10
10
10
10
10
10
10
10
10
10
10
10
10
10
10
10
10
10
10
10
10
10
10
10
10
10
10
10
10
10
10
10
10
10
10
10
10
10
10
10
10
10
10
10
10
10
10
10
10
10
10
10
10
10
10
10
10
10
10
10
10
10
10
10
10
10
10
10
10
10
10
10
10
10
10
10
10
10
10
10
10
10
10
10
10
10
10
10
10
10
10
10
10
10
10
10
10
10
10
10
10
10
10
10
10
10
10
10
10
10
10
10
10
10
10
10
10
10
10
10
10
10
10
10
10
10
10
10
10
10
10
10
10
10
10
10
10
10
10
10
10
10
10
10
10
10
10
10
10
10
10
10
10
10
10
10
10
10
10
10
10
10
10
10
10
10
10
10
10
10
10
10
10
10
10
10
10
10
10
10
10
10
10
10
10
10
10
10
10
10
10
10
10
10
10
10
10
10
10
10
10
10
10
10
10
10
10
10
10
10
10
10
10
10
10
10
10
10
10
10
10
10
10
10
10
10
10
10
10
10
10
10
10
10
10
10
10
10
10
10
10
10
10
10
10
10
10
10
10
10
10
10
10
10
10
10
10
10
10
10
10
10
10
10
10
10
10
10
10
10
10
10
10
10
10
10
10
10
10
10
10
10
10
10
10
10
10
10
10
10
10
10
10
10
10
10
10
10
10
10
10
10
10
10
10
10
10
10
10
10
10
10
10
10
10
10
10
10
10
10
10
10
10
10
10
10
10
10
10
10
10
10
10
10
10
10
10
10
10
10
10
10
10
10
10
10
10
10
10
10
10
10
10
10
10
10
10
10
10
10
10
10
10
10
10
10
10
10
10
10
10
10
10
10
10
10
10
10
10
10
10
10
10
10
10
10
10
10
10
10
10
10
10
10
10
10
10
10
10
10
10
10
10
10
10
10
10
10
10
10
10
10
10
10
10
10
10
10
10
10
10
10
10
10
10
10
10
10
10
10
10
10
10
10
10
10
10
10
10
10
10
10
10
10
10
10
10
10
10
10
10
10
10
10
10
10
10
10
10
10
10
10
10
10
10
10
10
10
10
10
10
10
10
10
10
10
10
10
10
10
10
10
10
10
10
10
10
10
10
10
10
10
10
10
10
10
10
10
10
10
10
10
10
10
10
10
10
10
10
10
10
10
10
10
10
10
10
10
10
10
10
10
10
10
10
10
10
10
10
10
10
10
10
10
10
10
10
10
10
10
10
10
10
10
10
10
10
10
10
10
10
10
10
10
10
10
10
10
10
10
10
10
10
10
10
10
10
10
10
10
10
10
10
10
10
10
10
10
10
10
10
10
10
10
10
10
10
10
10
10
10
10
10
10
10
10
10
10
10
10
10
10
10
10
10
10
10
10
10
10
10
10
10
10
10
10
10
10
10
10
10
10
10
10
10
10
10
10
10
10
10
10
10
10
10
10
10
10
10
10
10
10
10
10
10
10
10
10
10
10
10
10
10
10
10
10
10
10
10
10
10
10
10
10
10
10
10
10
10
10
10
10
10
10
10
10
10
10
10
10
10
10
10
10
10
10
10
10
10
10
10
10
10
10
10
10
10
10
10
10
10
10
10
10
10
10
10
10
10
10
10
10
10
10
10
10
10
10
10
10
10
10
10
10
10
10
10
10
10
10
10
10
10
10
10
10
10
10
10
10
10
10
10
10
10
10
10
10
10
10
10
10
10
10
10
10
10
10
10
10
10
10
10
10
10
10
10
10
10
10
10
10
10
10
10
10
10
10
10
10
10
10
10
10
10
10
10
10
10
10
10
10
10
10
10
10
10
10
10
10
10
10
10
10
10
10
10
10
10
10
10
10
10
10
10
10
10
10
10
10
10
10
10
10
10
10
10
10
10
10
10
10
10
10
10
10
10
10
10
10
10
10
10
10
10
10
10
10
10
10
10
10
10
10
10
10
10
10
10
10
10
10
10
10
10
10
10
10
10
10
10
10
10
10
10
10
10
10
10
10
10
10
10
10
10
10
10
10
10
10
10
10
10
10
CELL_DATA 4255
POINT_DATA 17020
SCALARS Pressure float 
LOOKUP_TABLE default
4.41383 4.41383 4.41383 4.41383 2.84375 2.84375 2.84375 2.84375 4.07793 4.07793 4.07793 4.07793 6.01556 6.01556 6.01556 6.01556 4.56699 4.56699 4.56699 4.56699 3.42951 3.42951 3.42951 3.42951 7.90226 7.90226 7.90226 7.90226 6.18509 6.18509 6.18509 6.18509 2.141 2.141 2.141 2.141 5.24649 5.24649 5.24649 5.24649 3.98783 3.98783 3.98783 3.98783 5.21864 5.21864 5.21864 5.21864 4.02521 4.02521 4.02521 4.02521 3.48327 3.48327 3.48327 3.48327 7.93092 7.93092 7.93092 7.93092 5.85952 5.85952 5.85952 5.85952 5.04503 5.04503 5.04503 5.04503 8.63492 8.63492 8.63492 8.63492 3.3868 3.3868 3.3868 3.3868 1.84815 1.84815 1.84815 1.84815 5.49531 5.49531 5.49531 5.49531 7.95238 7.95238 7.95238 7.95238 6.89529 6.89529 6.89529 6.89529 9.39735 9.39735 9.39735 9.39735 7.89919 7.89919 7.89919 7.89919 6.50163 6.50163 6.50163 6.50163 5.06785 5.06785 5.06785 5.06785 3.82703 3.82703 3.82703 3.82703 9.43643 9.43643 9.43643 9.43643 8.71553 8.71553 8.71553 8.71553 5.94277 5.94277 5.94277 5.94277 5.84864 5.84864 5.84864 5.84864 3.42076 3.42076 3.42076 3.42076 4.62045 4.62045 4.62045 4.62045 8.54772 8.54772 8.54772 8.54772 8.47506 8.47506 8.47506 8.47506 6.32833 6.32833 6.32833 6.32833 7.95827 7.95827 7.95827 7.95827 5.78929 5.78929 5.78929 5.78929 2.08725 2.08725 2.08725 2.08725 3.31163 3.31163 3.31163 3.31163 3.676 3.676 3.676 3.676 2.61307 2.61307 2.61307 2.61307 4.96588 4.96588 4.96588 4.96588 8.5687 8.5687 8.5687 8.5687 5.39229 5.39229 5.39229 5.39229 3.05005 3.05005 3.05005 3.05005 8.73394 8.73394 8.73394 8.73394 6.00253 6.00253 6.00253 6.00253 4.22214 4.22214 4.22214 4.22214 6.79516 6.79516 6.79516 6.79516 1.37364 1.37364 1.37364 1.37364 6.96514 6.96514 6.96514 6.96514 2.27462 2.27462 2.27462 2.27462 3.87309 3.87309 3.87309 3.87309 5.16675 5.16675 5.16675 5.16675 5.96959 5.96959 5.96959 5.96959 7.64615 7.64615 7.64615 7.64615 4.867 4.867 4.867 4.867 7.76291 7.76291 7.76291 7.76291 6.40088 6.40088 6.40088 6.40088 3.43059 3.43059 3.43059 3.43059 4.55148 4.55148 4.55148 4.55148 4.23233 4.23233 4.23233 4.23233 5.96165 5.96165 5.96165 5.96165 7.79689 7.79689 7.79689 7.79689 3.80921 3.80921 3.80921 3.80921 3.6509 3.6509 3.6509 3.6509 4.82932 4.82932 4.82932 4.82932 4.41397 4.41397 4.41397 4.41397 4.06458 4.06458 4.06458 4.06458 4.1793 4.1793 4.1793 4.1793 7.0094 7.0094 7.0094 7.0094 5.49898 5.49898 5.49898 5.49898 8.85557 8.85557 8.85557 8.85557 8.02507 8.02507 8.02507 8.02507 3.08022 3.08022 3.08022 3.08022 5.89686 5.89686 5.89686 5.89686 4.90544 4.90544 4.90544 4.90544 3.55591 3.55591 3.55591 3.55591 3.61846 3.61846 3.61846 3.61846 8.67283 8.67283 8.67283 8.67283 2.45462 2.45462 2.45462 2.45462 3.46149 3.46149 3.46149 3.46149 3.94482 3.94482 3.94482 3.94482 2.83972 2.83972 2.83972 2.83972 4.12568 4.12568 4.12568 4.12568 9.36879 9.36879 9.36879 9.36879 6.49855 6.49855 6.49855 6.49855 1.2694 1.2694 1.2694 1.2694 3.71054 3.71054 3.71054 3.71054 9.37446 9.37446 9.37446 9.37446 7.95314 7.95314 7.95314 7.95314 5.05179 5.05179 5.05179 5.05179 7.99482 7.99482 7.99482 7.99482 6.13604 6.13604 6.13604 6.13604 8.86483 8.86483 8.86483 8.86483 3.15192 3.15192 3.15192 3.15192 8.2308 8.2308 8.2308 8.2308 4.87431 4.87431 4.87431 4.87431 5.30034 5.30034 5.30034 5.30034 8.36023 8.36023 8.36023 8.36023 1.81949 1.81949 1.81949 1.81949 4.14655 4.14655 4.14655 4.14655 1.87631 1.87631 1.87631 1.87631 5.92588 5.92588 5.92588 5.92588 8.71647 8.71647 8.71647 8.71647 8.63096 8.63096 8.63096 8.63096 6.92961 6.92961 6.92961 6.92961 5.68222 5.68222 5.68222 5.68222 2.92088 2.92088 2.92088 2.92088 3.91433 3.91433 3.91433 3.91433 5.14028 5.14028 5.14028 5.14028 6.79699 6.79699 6.79699 6.79699 3.86035 3.86035 3.86035 3.86035 1.72555 1.72555 1.72555 1.72555 4.31768 4.31768 4.31768 4.31768 4.12776 4.12776 4.12776 4.12776 4.76876 4.76876 4.76876 4.76876 5.1009 5.1009 5.1009 5.1009 5.67904 5.67904 5.67904 5.67904 6.04787 6.04787 6.04787 6.04787 6.90784 6.90784 6.90784 6.90784 9.59515 9.59515 9.59515 9.59515 8.10938 8.10938 8.10938 8.10938 0.57263 0.57263 0.57263 0.57263 6.23935 6.23935 6.23935 6.23935 3.97892 3.97892 3.97892 3.97892 4.05357 4.05357 4.05357 4.05357 2.0472 2.0472 2.0472 2.0472 6.31838 6.31838 6.31838 6.31838 8.33432 8.33432 8.33432 8.33432 5.65037 5.65037 5.65037 5.65037 3.08843 3.08843 3.08843 3.08843 8.01288 8.01288 8.01288 8.01288 4.29079 4.29079 4.29079 4.29079 4.28168 4.28168 4.28168 4.28168 6.52447 6.52447 6.52447 6.52447 7.74125 7.74125 7.74125 7.74125 4.10769 4.10769 4.10769 4.10769 4.81667 4.81667 4.81667 4.81667 4.67163 4.67163 4.67163 4.67163 6.28992 6.28992 6.28992 6.28992 3.34356 3.34356 3.34356 3.34356 3.42511 3.42511 3.42511 3.42511 8.7238 8.7238 8.7238 8.7238 5.55387 5.55387 5.55387 5.55387 1.71132 1.71132 1.71132 1.71132 1.30895 1.30895 1.30895 1.30895 6.83647 6.83647 6.83647 6.83647 5.63716 5.63716 5.63716 5.63716 1.67719 1.67719 1.67719 1.67719 3.42963 3.42963 3.42963 3.42963 6.1933 6.1933 6.1933 6.1933 4.05628 4.05628 4.05628 4.05628 2.05221 2.05221 2.05221 2.05221 9.41247 9.41247 9.41247 9.41247 8.72475 8.72475 8.72475 8.72475 3.38727 3.38727 3.38727 3.38727 4.39578 4.39578 4.39578 4.39578 1.98703 1.98703 1.98703 1.98703 6.55593 6.55593 6.55593 6.55593 4.95577 4.95577 4.95577 4.95577 8.12359 8.12359 8.12359 8.12359 2.7527 2.7527 2.7527 2.7527 3.84128 3.84128 3.84128 3.84128 3.78394 3.78394 3.78394 3.78394 6.14556 6.14556 6.14556 6.14556 7.43211 7.43211 7.43211 7.43211 1.87603 1.87603 1.87603 1.87603 1.21335 1.21335 1.21335 1.21335 4.47878 4.47878 4.47878 4.47878 4.75717 4.75717 4.75717 4.75717 7.01558 7.01558 7.01558 7.01558 3.15411 3.15411 3.15411 3.15411 2.496 2.496 2.496 2.496 8.12506 8.12506 8.12506 8.12506 8.05132 8.05132 8.05132 8.05132 5.80172 5.80172 5.80172 5.80172 5.44925 5.44925 5.44925 5.44925 6.68393 6.68393 6.68393 6.68393 5.92974 5.92974 5.92974 5.92974 3.29222 3.29222 3.29222 3.29222 6.88573 6.88573 6.88573 6.88573 5.77679 5.77679 5.77679 5.77679 4.52683 4.52683 4.52683 4.52683 7.90026 7.90026 7.90026 7.90026 6.13832 6.13832 6.13832 6.13832 8.71094 8.71094 8.71094 8.71094 4.09972 4.09972 4.09972 4.09972 4.2322 4.2322 4.2322 4.2322 4.07769 4.07769 4.07769 4.07769 1.3193 1.3193 1.3193 1.3193 3.14367 3.14367 3.14367 3.14367 6.29766 6.29766 6.29766 6.29766 3.14341 3.14341 3.14341 3.14341 4.04642 4.04642 4.04642 4.04642 0.442939 0.442939 0.442939 0.442939 6.87465 6.87465 6.87465 6.87465 2.40703 2.40703 2.40703 2.40703 7.92198 7.92198 7.92198 7.92198 8.68234 8.68234 8.68234 8.68234 2.91548 2.91548 2.91548 2.91548 9.00583 9.00583 9.00583 9.00583 2.83684 2.83684 2.83684 2.83684 5.90121 5.90121 5.90121 5.90121 1.5105 1.5105 1.5105 1.5105 3.65639 3.65639 3.65639 3.65639 3.35348 3.35348 3.35348 3.35348 5.63027 5.63027 5.63027 5.63027 6.66211 6.66211 6.66211 6.66211 2.64901 2.64901 2.64901 2.64901 7.93226 7.93226 7.93226 7.93226 7.99041 7.99041 7.99041 7.99041 3.87628 3.87628 3.87628 3.87628 2.12751 2.12751 2.12751 2.12751 5.31362 5.31362 5.31362 5.31362 7.91475 7.91475 7.91475 7.91475 6.86798 6.86798 6.86798 6.86798 6.29528 6.29528 6.29528 6.29528 1.70572 1.70572 1.70572 1.70572 8.47711 8.47711 8.47711 8.47711 0.580266 0.580266 0.580266 0.580266 8.56895 8.56895 8.56895 8.56895 5.26641 5.26641 5.26641 5.26641 1.59014 1.59014 1.59014 1.59014 8.31963 8.31963 8.31963 8.31963 3.49175 3.49175 3.49175 3.49175 6.12255 6.12255 6.12255 6.12255 9.45204 9.45204 9.45204 9.45204 1.75589 1.75589 1.75589 1.75589 4.36762 4.36762 4.36762 4.36762 3.21558 3.21558 3.21558 3.21558 3.85746 3.85746 3.85746 3.85746 2.49489 2.49489 2.49489 2.49489 6.35279 6.35279 6.35279 6.35279 5.6024 5.6024 5.6024 5.6024 1.43307 1.43307 1.43307 1.43307 7.18671 7.18671 7.18671 7.18671 4.01677 4.01677 4.01677 4.01677 6.1158 6.1158 6.1158 6.1158 4.0137 4.0137 4.0137 4.0137 6.6706 6.6706 6.6706 6.6706 2.75195 2.75195 2.75195 2.75195 3.14277 3.14277 3.14277 3.14277 8.59951 8.59951 8.59951 8.59951 5.31376 5.31376 5.31376 5.31376 5.55136 5.55136 5.55136 5.55136 8.84063 8.84063 8.84063 8.84063 4.25005 4.25005 4.25005 4.25005 9.12648 9.12648 9.12648 9.12648 3.01821 3.01821 3.01821 3.01821 4.43455 4.43455 4.43455 4.43455 3.06583 3.06583 3.06583 3.06583 3.74055 3.74055 3.74055 3.74055 6.09654 6.09654 6.09654 6.09654 8.94476 8.94476 8.94476 8.94476 1.6047 1.6047 1.6047 1.6047 5.78602 5.78602 5.78602 5.78602 3.58062 3.58062 3.58062 3.58062 7.05532 7.05532 7.05532 7.05532 8.5767 8.5767 8.5767 8.5767 6.23813 6.23813 6.23813 6.23813 7.826 7.826 7.826 7.826 4.89145 4.89145 4.89145 4.89145 4.27894 4.27894 4.27894 4.27894 6.55793 6.55793 6.55793 6.55793 1.9166 1.9166 1.9166 1.9166 5.57965 5.57965 5.57965 5.57965 6.72979 6.72979 6.72979 6.72979 8.83155 8.83155 8.83155 8.83155 7.87285 7.87285 7.87285 7.87285 9.54486 9.54486 9.54486 9.54486 8.93174 8.93174 8.93174 8.93174 7.01243 7.01243 7.01243 7.01243 5.48975 5.48975 5.48975 5.48975 8.7964 8.7964 8.7964 8.7964 4.31501 4.31501 4.31501 4.31501 6.62642 6.62642 6.62642 6.62642 8.83479 8.83479 8.83479 8.83479 8.02578 8.02578 8.02578 8.02578 2.36273 2.36273 2.36273 2.36273 7.932 7.932 7.932 7.932 2.22296 2.22296 2.22296 2.22296 8.15193 8.15193 8.15193 8.15193 6.17978 6.17978 6.17978 6.17978 4.32031 4.32031 4.32031 4.32031 4.27427 4.27427 4.27427 4.27427 8.00951 8.00951 8.00951 8.00951 8.23907 8.23907 8.23907 8.23907 3.86989 3.86989 3.86989 3.86989 8.00075 8.00075 8.00075 8.00075 6.38728 6.38728 6.38728 6.38728 7.47065 7.47065 7.47065 7.47065 4.32757 4.32757 4.32757 4.32757 2.51576 2.51576 2.51576 2.51576 8.80126 8.80126 8.80126 8.80126 5.18747 5.18747 5.18747 5.18747 1.01053 1.01053 1.01053 1.01053 8.28264 8.28264 8.28264 8.28264 6.52356 6.52356 6.52356 6.52356 6.07899 6.07899 6.07899 6.07899 9.59047 9.59047 9.59047 9.59047 8.13195 8.13195 8.13195 8.13195 2.99555 2.99555 2.99555 2.99555 6.24145 6.24145 6.24145 6.24145 6.93837 6.93837 6.93837 6.93837 6.47902 6.47902 6.47902 6.47902 6.377 6.377 6.377 6.377 2.23982 2.23982 2.23982 2.23982 8.6373 8.6373 8.6373 8.6373 1.51013 1.51013 1.51013 1.51013 0.98978 0.98978 0.98978 0.98978 2.11028 2.11028 2.11028 2.11028 6.02904 6.02904 6.02904 6.02904 6.85281 6.85281 6.85281 6.85281 9.60015 9.60015 9.60015 9.60015 4.52325 4.52325 4.52325 4.52325 5.94793 5.94793 5.94793 5.94793 8.04624 8.04624 8.04624 8.04624 3.13328 3.13328 3.13328 3.13328 5.88923 5.88923 5.88923 5.88923 7.43491 7.43491 7.43491 7.43491 8.83429 8.83429 8.83429 8.83429 5.89553 5.89553 5.89553 5.89553 8.68461 8.68461 8.68461 8.68461 3.81791 3.81791 3.81791 3.81791 7.45624 7.45624 7.45624 7.45624 9.44446 9.44446 9.44446 9.44446 7.36819 7.36819 7.36819 7.36819 8.87385 8.87385 8.87385 8.87385 6.72097 6.72097 6.72097 6.72097 5.93107 5.93107 5.93107 5.93107 3.9244 3.9244 3.9244 3.9244 8.60062 8.60062 8.60062 8.60062 2.96884 2.96884 2.96884 2.96884 3.88224 3.88224 3.88224 3.88224 7.8151 7.8151 7.8151 7.8151 1.66422 1.66422 1.66422 1.66422 4.18685 4.18685 4.18685 4.18685 7.20382 7.20382 7.20382 7.20382 1.73933 1.73933 1.73933 1.73933 0.469118 0.469118 0.469118 0.469118 1.7508 1.7508 1.7508 1.7508 4.58604 4.58604 4.58604 4.58604 3.71525 3.71525 3.71525 3.71525 1.22852 1.22852 1.22852 1.22852 8.15904 8.15904 8.15904 8.15904 8.92058 8.92058 8.92058 8.92058 6.50951 6.50951 6.50951 6.50951 6.10014 6.10014 6.10014 6.10014 5.66839 5.66839 5.66839 5.66839 8.92302 8.92302 8.92302 8.92302 0.988803 0.988803 0.988803 0.988803 8.1371 8.1371 8.1371 8.1371 5.0288 5.0288 5.0288 5.0288 9.45054 9.45054 9.45054 9.45054 6.52075 6.52075 6.52075 6.52075 6.77945 6.77945 6.77945 6.77945 6.86296 6.86296 6.86296 6.86296 1.84461 1.84461 1.84461 1.84461 0.996722 0.996722 0.996722 0.996722 6.28937 6.28937 6.28937 6.28937 6.99753 6.99753 6.99753 6.99753 6.90648 6.90648 6.90648 6.90648 2.31183 2.31183 2.31183 2.31183 7.86535 7.86535 7.86535 7.86535 7.27129 7.27129 7.27129 7.27129 8.73415 8.73415 8.73415 8.73415 1.25944 1.25944 1.25944 1.25944 4.78934 4.78934 4.78934 4.78934 4.11337 4.11337 4.11337 4.11337 3.94937 3.94937 3.94937 3.94937 6.28079 6.28079 6.28079 6.28079 5.7723 5.7723 5.7723 5.7723 6.38736 6.38736 6.38736 6.38736 2.31089 2.31089 2.31089 2.31089 7.39006 7.39006 7.39006 7.39006 6.37134 6.37134 6.37134 6.37134 8.75688 8.75688 8.75688 8.75688 3.33276 3.33276 3.33276 3.33276 8.984 8.984 8.984 8.984 7.92721 7.92721 7.92721 7.92721 3.11658 3.11658 3.11658 3.11658 5.7655 5.7655 5.7655 5.7655 1.96688 1.96688 1.96688 1.96688 3.32357 3.32357 3.32357 3.32357 5.19821 5.19821 5.19821 5.19821 8.0618 8.0618 8.0618 8.0618 2.36397 2.36397 2.36397 2.36397 7.88437 7.88437 7.88437 7.88437 3.03606 3.03606 3.03606 3.03606 6.01897 6.01897 6.01897 6.01897 6.90798 6.90798 6.90798 6.90798 8.8787 8.8787 8.8787 8.8787 5.78136 5.78136 5.78136 5.78136 3.95115 3.95115 3.95115 3.95115 9.59446 9.59446 9.59446 9.59446 2.94992 2.94992 2.94992 2.94992 8.25265 8.25265 8.25265 8.25265 8.773 8.773 8.773 8.773 4.72164 4.72164 4.72164 4.72164 8.99808 8.99808 8.99808 8.99808 3.68792 3.68792 3.68792 3.68792 1.71898 1.71898 1.71898 1.71898 1.02357 1.02357 1.02357 1.02357 1.91983 1.91983 1.91983 1.91983 6.52235 6.52235 6.52235 6.52235 7.79922 7.79922 7.79922 7.79922 8.74296 8.74296 8.74296 8.74296 5.48028 5.48028 5.48028 5.48028 9.55492 9.55492 9.55492 9.55492 8.00545 8.00545 8.00545 8.00545 5.52592 5.52592 5.52592 5.52592 8.93383 8.93383 8.93383 8.93383 6.88296 6.88296 6.88296 6.88296 1.73818 1.73818 1.73818 1.73818 4.79135 4.79135 4.79135 4.79135 3.21403 3.21403 3.21403 3.21403 6.31228 6.31228 6.31228 6.31228 6.02823 6.02823 6.02823 6.02823 9.55061 9.55061 9.55061 9.55061 8.13418 8.13418 8.13418 8.13418 8.84893 8.84893 8.84893 8.84893 1.07201 1.07201 1.07201 1.07201 7.1165 7.1165 7.1165 7.1165 4.79814 4.79814 4.79814 4.79814 2.64797 2.64797 2.64797 2.64797 2.76735 2.76735 2.76735 2.76735 3.13295 3.13295 3.13295 3.13295 3.63165 3.63165 3.63165 3.63165 2.33593 2.33593 2.33593 2.33593 8.2889 8.2889 8.2889 8.2889 6.16589 6.16589 6.16589 6.16589 1.57387 1.57387 1.57387 1.57387 8.62479 8.62479 8.62479 8.62479 1.84994 1.84994 1.84994 1.84994 7.94331 7.94331 7.94331 7.94331 8.2663 8.2663 8.2663 8.2663 5.9168 5.9168 5.9168 5.9168 2.05402 2.05402 2.05402 2.05402 3.08573 3.08573 3.08573 3.08573 5.39014 5.39014 5.39014 5.39014 7.23245 7.23245 7.23245 7.23245 6.87261 6.87261 6.87261 6.87261 5.37469 5.37469 5.37469 5.37469 5.34574 5.34574 5.34574 5.34574 3.09404 3.09404 3.09404 3.09404 6.96008 6.96008 6.96008 6.96008 6.28063 6.28063 6.28063 6.28063 6.9661 6.9661 6.9661 6.9661 9.55826 9.55826 9.55826 9.55826 2.56145 2.56145 2.56145 2.56145 1.16367 1.16367 1.16367 1.16367 8.0332 8.0332 8.0332 8.0332 7.59931 7.59931 7.59931 7.59931 7.57584 7.57584 7.57584 7.57584 8.91864 8.91864 8.91864 8.91864 6.21463 6.21463 6.21463 6.21463 7.02215 7.02215 7.02215 7.02215 8.02432 8.02432 8.02432 8.02432 8.81665 8.81665 8.81665 8.81665 6.96567 6.96567 6.96567 6.96567 8.25305 8.25305 8.25305 8.25305 4.60407 4.60407 4.60407 4.60407 7.95642 7.95642 7.95642 7.95642 6.29406 6.29406 6.29406 6.29406 8.85656 8.85656 8.85656 8.85656 5.2803 5.2803 5.2803 5.2803 8.01977 8.01977 8.01977 8.01977 7.43675 7.43675 7.43675 7.43675 7.86536 7.86536 7.86536 7.86536 5.57666 5.57666 5.57666 5.57666 6.2722 6.2722 6.2722 6.2722 1.85653 1.85653 1.85653 1.85653 8.2653 8.2653 8.2653 8.2653 6.42139 6.42139 6.42139 6.42139 1.26124 1.26124 1.26124 1.26124 6.88793 6.88793 6.88793 6.88793 9.4713 9.4713 9.4713 9.4713 4.7784 4.7784 4.7784 4.7784 4.50977 4.50977 4.50977 4.50977 3.97987 3.97987 3.97987 3.97987 4.05509 4.05509 4.05509 4.05509 5.53508 5.53508 5.53508 5.53508 8.16516 8.16516 8.16516 8.16516 6.55128 6.55128 6.55128 6.55128 8.12867 8.12867 8.12867 8.12867 8.2091 8.2091 8.2091 8.2091 7.23028 7.23028 7.23028 7.23028 3.64131 3.64131 3.64131 3.64131 3.69388 3.69388 3.69388 3.69388 2.80187 2.80187 2.80187 2.80187 8.17666 8.17666 8.17666 8.17666 5.42056 5.42056 5.42056 5.42056 1.97641 1.97641 1.97641 1.97641 6.26757 6.26757 6.26757 6.26757 8.34552 8.34552 8.34552 8.34552 6.99804 6.99804 6.99804 6.99804 5.28698 5.28698 5.28698 5.28698 1.09914 1.09914 1.09914 1.09914 3.12703 3.12703 3.12703 3.12703 4.74078 4.74078 4.74078 4.74078 0.967184 0.967184 0.967184 0.967184 5.83299 5.83299 5.83299 5.83299 3.93736 3.93736 3.93736 3.93736 8.83976 8.83976 8.83976 8.83976 6.8538 6.8538 6.8538 6.8538 4.91835 4.91835 4.91835 4.91835 5.42877 5.42877 5.42877 5.42877 6.29717 6.29717 6.29717 6.29717 1.925 1.925 1.925 1.925 7.43093 7.43093 7.43093 7.43093 1.87682 1.87682 1.87682 1.87682 8.96211 8.96211 8.96211 8.96211 8.78289 8.78289 8.78289 8.78289 2.01072 2.01072 2.01072 2.01072 8.37134 8.37134 8.37134 8.37134 7.3741 7.3741 7.3741 7.3741 1.99739 1.99739 1.99739 1.99739 3.58482 3.58482 3.58482 3.58482 5.91792 5.91792 5.91792 5.91792 7.94548 7.94548 7.94548 7.94548 1.04739 1.04739 1.04739 1.04739 1.62274 1.62274 1.62274 1.62274 3.06854 3.06854 3.06854 3.06854 7.9034 7.9034 7.9034 7.9034 4.30429 4.30429 4.30429 4.30429 9.01495 9.01495 9.01495 9.01495 4.39382 4.39382 4.39382 4.39382 8.93166 8.93166 8.93166 8.93166 1.03087 1.03087 1.03087 1.03087 6.10509 6.10509 6.10509 6.10509 0.507948 0.507948 0.507948 0.507948 8.79845 8.79845 8.79845 8.79845 1.2738 1.2738 1.2738 1.2738 6.84831 6.84831 6.84831 6.84831 8.83037 8.83037 8.83037 8.83037 6.71593 6.71593 6.71593 6.71593 7.06002 7.06002 7.06002 7.06002 3.9139 3.9139 3.9139 3.9139 0.480182 0.480182 0.480182 0.480182 1.12404 1.12404 1.12404 1.12404 1.81669 1.81669 1.81669 1.81669 8.88936 8.88936 8.88936 8.88936 8.75091 8.75091 8.75091 8.75091 7.70203 7.70203 7.70203 7.70203 4.96703 4.96703 4.96703 4.96703 1.16782 1.16782 1.16782 1.16782 9.00445 9.00445 9.00445 9.00445 0.437671 0.437671 0.437671 0.437671 1.1273 1.1273 1.1273 1.1273 0.458624 0.458624 0.458624 0.458624 9.55363 9.55363 9.55363 9.55363 8.18103 8.18103 8.18103 8.18103 9.58784 9.58784 9.58784 9.58784 7.46361 7.46361 7.46361 7.46361 0.50911 0.50911 0.50911 0.50911 1.83043 1.83043 1.83043 1.83043 3.2735 3.2735 3.2735 3.2735 1.89614 1.89614 1.89614 1.89614 1.2946 1.2946 1.2946 1.2946 2.7196 2.7196 2.7196 2.7196 3.66232 3.66232 3.66232 3.66232 1.96795 1.96795 1.96795 1.96795 4.04135 4.04135 4.04135 4.04135 0.313368 0.313368 0.313368 0.313368 4.69057 4.69057 4.69057 4.69057 5.15978 5.15978 5.15978 5.15978 6.25695 6.25695 6.25695 6.25695 1.19542 1.19542 1.19542 1.19542 8.03082 8.03082 8.03082 8.03082 0.939262 0.939262 0.939262 0.939262 3.60515 3.60515 3.60515 3.60515 8.74376 8.74376 8.74376 8.74376 3.48392 3.48392 3.48392 3.48392 4.31088 4.31088 4.31088 4.31088 4.21093 4.21093 4.21093 4.21093 9.52311 9.52311 9.52311 9.52311 2.84031 2.84031 2.84031 2.84031 5.25139 5.25139 5.25139 5.25139 6.11454 6.11454 6.11454 6.11454 8.93863 8.93863 8.93863 8.93863 6.30309 6.30309 6.30309 6.30309 8.89253 8.89253 8.89253 8.89253 6.5642 6.5642 6.5642 6.5642 6.52466 6.52466 6.52466 6.52466 6.40248 6.40248 6.40248 6.40248 7.18215 7.18215 7.18215 7.18215 2.35421 2.35421 2.35421 2.35421 9.45275 9.45275 9.45275 9.45275 1.85052 1.85052 1.85052 1.85052 3.16061 3.16061 3.16061 3.16061 8.91361 8.91361 8.91361 8.91361 4.89794 4.89794 4.89794 4.89794 7.51782 7.51782 7.51782 7.51782 6.816 6.816 6.816 6.816 6.19008 6.19008 6.19008 6.19008 4.32268 4.32268 4.32268 4.32268 7.2027 7.2027 7.2027 7.2027 8.87401 8.87401 8.87401 8.87401 8.10062 8.10062 8.10062 8.10062 2.84121 2.84121 2.84121 2.84121 5.74909 5.74909 5.74909 5.74909 9.61037 9.61037 9.61037 9.61037 6.35558 6.35558 6.35558 6.35558 1.92169 1.92169 1.92169 1.92169 8.26594 8.26594 8.26594 8.26594 5.28513 5.28513 5.28513 5.28513 5.35973 5.35973 5.35973 5.35973 4.71659 4.71659 4.71659 4.71659 8.79358 8.79358 8.79358 8.79358 6.50417 6.50417 6.50417 6.50417 1.19976 1.19976 1.19976 1.19976 2.00078 2.00078 2.00078 2.00078 8.15413 8.15413 8.15413 8.15413 0.404174 0.404174 0.404174 0.404174 1.94665 1.94665 1.94665 1.94665 4.48598 4.48598 4.48598 4.48598 2.34721 2.34721 2.34721 2.34721 3.17013 3.17013 3.17013 3.17013 6.63249 6.63249 6.63249 6.63249 3.86817 3.86817 3.86817 3.86817 3.58311 3.58311 3.58311 3.58311 0.9449 0.9449 0.9449 0.9449 3.94053 3.94053 3.94053 3.94053 9.50935 9.50935 9.50935 9.50935 4.02016 4.02016 4.02016 4.02016 5.15353 5.15353 5.15353 5.15353 9.01145 9.01145 9.01145 9.01145 2.51558 2.51558 2.51558 2.51558 6.80689 6.80689 6.80689 6.80689 5.72912 5.72912 5.72912 5.72912 8.80888 8.80888 8.80888 8.80888 1.08634 1.08634 1.08634 1.08634 6.27422 6.27422 6.27422 6.27422 4.37862 4.37862 4.37862 4.37862 1.74782 1.74782 1.74782 1.74782 7.10737 7.10737 7.10737 7.10737 6.51327 6.51327 6.51327 6.51327 4.70256 4.70256 4.70256 4.70256 2.75001 2.75001 2.75001 2.75001 8.7111 8.7111 8.7111 8.7111 8.49693 8.49693 8.49693 8.49693 3.34716 3.34716 3.34716 3.34716 3.89309 3.89309 3.89309 3.89309 1.74502 1.74502 1.74502 1.74502 2.79752 2.79752 2.79752 2.79752 3.75924 3.75924 3.75924 3.75924 8.05238 8.05238 8.05238 8.05238 1.12261 1.12261 1.12261 1.12261 5.01326 5.01326 5.01326 5.01326 0.426951 0.426951 0.426951 0.426951 8.40232 8.40232 8.40232 8.40232 1.08958 1.08958 1.08958 1.08958 2.93066 2.93066 2.93066 2.93066 3.43993 3.43993 3.43993 3.43993 1.06776 1.06776 1.06776 1.06776 3.7386 3.7386 3.7386 3.7386 7.34673 7.34673 7.34673 7.34673 8.20015 8.20015 8.20015 8.20015 1.20573 1.20573 1.20573 1.20573 3.87711 3.87711 3.87711 3.87711 2.78034 2.78034 2.78034 2.78034 4.28848 4.28848 4.28848 4.28848 3.5948 3.5948 3.5948 3.5948 8.8271 8.8271 8.8271 8.8271 3.14013 3.14013 3.14013 3.14013 1.94904 1.94904 1.94904 1.94904 8.94552 8.94552 8.94552 8.94552 8.23998 8.23998 8.23998 8.23998 6.11872 6.11872 6.11872 6.11872 0.894305 0.894305 0.894305 0.894305 3.04801 3.04801 3.04801 3.04801 1.96035 1.96035 1.96035 1.96035 0.39936 0.39936 0.39936 0.39936 9.55322 9.55322 9.55322 9.55322 7.03099 7.03099 7.03099 7.03099 8.78772 8.78772 8.78772 8.78772 4.13657 4.13657 4.13657 4.13657 2.30181 2.30181 2.30181 2.30181 6.15453 6.15453 6.15453 6.15453 5.90227 5.90227 5.90227 5.90227 5.06952 5.06952 5.06952 5.06952 4.88374 4.88374 4.88374 4.88374 2.51105 2.51105 2.51105 2.51105 5.18279 5.18279 5.18279 5.18279 1.1016 1.1016 1.1016 1.1016 8.77007 8.77007 8.77007 8.77007 7.05949 7.05949 7.05949 7.05949 3.1582 3.1582 3.1582 3.1582 5.57148 5.57148 5.57148 5.57148 4.27376 4.27376 4.27376 4.27376 1.75299 1.75299 1.75299 1.75299 3.79968 3.79968 3.79968 3.79968 7.01132 7.01132 7.01132 7.01132 4.09468 4.09468 4.09468 4.09468 6.2202 6.2202 6.2202 6.2202 7.35208 7.35208 7.35208 7.35208 9.51192 9.51192 9.51192 9.51192 3.14689 3.14689 3.14689 3.14689 3.81323 3.81323 3.81323 3.81323 3.6494 3.6494 3.6494 3.6494 3.17124 3.17124 3.17124 3.17124 8.17527 8.17527 8.17527 8.17527 2.94019 2.94019 2.94019 2.94019 7.97844 7.97844 7.97844 7.97844 6.08967 6.08967 6.08967 6.08967 8.79806 8.79806 8.79806 8.79806 5.05632 5.05632 5.05632 5.05632 4.63102 4.63102 4.63102 4.63102 4.40082 4.40082 4.40082 4.40082 5.26253 5.26253 5.26253 5.26253 1.07517 1.07517 1.07517 1.07517 6.23271 6.23271 6.23271 6.23271 8.8899 8.8899 8.8899 8.8899 1.26231 1.26231 1.26231 1.26231 1.824 1.824 1.824 1.824 6.58418 6.58418 6.58418 6.58418 9.17043 9.17043 9.17043 9.17043 8.13588 8.13588 8.13588 8.13588 1.08538 1.08538 1.08538 1.08538 9.12564 9.12564 9.12564 9.12564 1.71207 1.71207 1.71207 1.71207 1.68115 1.68115 1.68115 1.68115 3.86045 3.86045 3.86045 3.86045 8.37621 8.37621 8.37621 8.37621 7.1182 7.1182 7.1182 7.1182 3.84604 3.84604 3.84604 3.84604 0.432859 0.432859 0.432859 0.432859 6.47805 6.47805 6.47805 6.47805 1.04858 1.04858 1.04858 1.04858 3.81669 3.81669 3.81669 3.81669 2.43947 2.43947 2.43947 2.43947 1.33078 1.33078 1.33078 1.33078 6.14861 6.14861 6.14861 6.14861 3.40703 3.40703 3.40703 3.40703 1.17749 1.17749 1.17749 1.17749 6.90692 6.90692 6.90692 6.90692 4.80273 4.80273 4.80273 4.80273 6.10266 6.10266 6.10266 6.10266 3.65758 3.65758 3.65758 3.65758 6.82408 6.82408 6.82408 6.82408 4.33749 4.33749 4.33749 4.33749 6.74148 6.74148 6.74148 6.74148 1.21435 1.21435 1.21435 1.21435 3.47132 3.47132 3.47132 3.47132 6.07499 6.07499 6.07499 6.07499 4.09755 4.09755 4.09755 4.09755 0.965559 0.965559 0.965559 0.965559 6.95055 6.95055 6.95055 6.95055 2.74236 2.74236 2.74236 2.74236 8.78589 8.78589 8.78589 8.78589 6.9683 6.9683 6.9683 6.9683 7.13344 7.13344 7.13344 7.13344 2.63232 2.63232 2.63232 2.63232 6.04725 6.04725 6.04725 6.04725 7.55509 7.55509 7.55509 7.55509 8.32709 8.32709 8.32709 8.32709 3.83512 3.83512 3.83512 3.83512 1.49613 1.49613 1.49613 1.49613 3.52396 3.52396 3.52396 3.52396 6.60159 6.60159 6.60159 6.60159 6.93205 6.93205 6.93205 6.93205 5.33899 5.33899 5.33899 5.33899 8.2483 8.2483 8.2483 8.2483 1.15978 1.15978 1.15978 1.15978 8.93554 8.93554 8.93554 8.93554 0.299877 0.299877 0.299877 0.299877 9.54424 9.54424 9.54424 9.54424 5.93892 5.93892 5.93892 5.93892 2.56063 2.56063 2.56063 2.56063 3.43227 3.43227 3.43227 3.43227 3.43864 3.43864 3.43864 3.43864 4.01528 4.01528 4.01528 4.01528 8.21975 8.21975 8.21975 8.21975 7.06905 7.06905 7.06905 7.06905 5.07376 5.07376 5.07376 5.07376 5.667 5.667 5.667 5.667 6.917 6.917 6.917 6.917 7.76464 7.76464 7.76464 7.76464 0.511853 0.511853 0.511853 0.511853 3.46192 3.46192 3.46192 3.46192 7.97217 7.97217 7.97217 7.97217 7.07039 7.07039 7.07039 7.07039 6.32719 6.32719 6.32719 6.32719 7.99836 7.99836 7.99836 7.99836 5.47519 5.47519 5.47519 5.47519 5.30744 5.30744 5.30744 5.30744 2.87721 2.87721 2.87721 2.87721 3.65026 3.65026 3.65026 3.65026 8.45922 8.45922 8.45922 8.45922 4.20488 4.20488 4.20488 4.20488 6.86679 6.86679 6.86679 6.86679 8.6092 8.6092 8.6092 8.6092 5.29077 5.29077 5.29077 5.29077 3.21819 3.21819 3.21819 3.21819 5.42714 5.42714 5.42714 5.42714 2.08447 2.08447 2.08447 2.08447 1.65062 1.65062 1.65062 1.65062 5.04615 5.04615 5.04615 5.04615 3.15298 3.15298 3.15298 3.15298 7.22093 7.22093 7.22093 7.22093 2.0526 2.0526 2.0526 2.0526 2.21123 2.21123 2.21123 2.21123 6.47491 6.47491 6.47491 6.47491 2.10464 2.10464 2.10464 2.10464 6.44314 6.44314 6.44314 6.44314 8.8728 8.8728 8.8728 8.8728 7.43643 7.43643 7.43643 7.43643 8.98981 8.98981 8.98981 8.98981 5.4007 5.4007 5.4007 5.4007 8.16511 8.16511 8.16511 8.16511 8.40022 8.40022 8.40022 8.40022 6.50188 6.50188 6.50188 6.50188 9.58506 9.58506 9.58506 9.58506 9.02524 9.02524 9.02524 9.02524 1.05726 1.05726 1.05726 1.05726 8.07609 8.07609 8.07609 8.07609 6.34435 6.34435 6.34435 6.34435 8.04259 8.04259 8.04259 8.04259 3.754 3.754 3.754 3.754 4.08108 4.08108 4.08108 4.08108 5.83519 5.83519 5.83519 5.83519 3.18575 3.18575 3.18575 3.18575 7.51554 7.51554 7.51554 7.51554 6.54365 6.54365 6.54365 6.54365 5.05684 5.05684 5.05684 5.05684 8.67522 8.67522 8.67522 8.67522 8.70853 8.70853 8.70853 8.70853 5.63785 5.63785 5.63785 5.63785 5.61108 5.61108 5.61108 5.61108 0.466356 0.466356 0.466356 0.466356 0.913555 0.913555 0.913555 0.913555 9.59522 9.59522 9.59522 9.59522 7.03972 7.03972 7.03972 7.03972 8.97102 8.97102 8.97102 8.97102 4.77895 4.77895 4.77895 4.77895 1.86558 1.86558 1.86558 1.86558 9.03712 9.03712 9.03712 9.03712 3.12643 3.12643 3.12643 3.12643 5.61593 5.61593 5.61593 5.61593 2.09772 2.09772 2.09772 2.09772 1.30139 1.30139 1.30139 1.30139 1.87491 1.87491 1.87491 1.87491 6.92449 6.92449 6.92449 6.92449 4.81062 4.81062 4.81062 4.81062 4.87372 4.87372 4.87372 4.87372 8.32402 8.32402 8.32402 8.32402 1.15891 1.15891 1.15891 1.15891 5.18216 5.18216 5.18216 5.18216 6.02153 6.02153 6.02153 6.02153 1.26032 1.26032 1.26032 1.26032 7.30208 7.30208 7.30208 7.30208 9.64323 9.64323 9.64323 9.64323 8.33729 8.33729 8.33729 8.33729 9.45943 9.45943 9.45943 9.45943 5.29424 5.29424 5.29424 5.29424 9.06241 9.06241 9.06241 9.06241 5.77574 5.77574 5.77574 5.77574 1.19053 1.19053 1.19053 1.19053 2.09227 2.09227 2.09227 2.09227 1.06287 1.06287 1.06287 1.06287 8.1908 8.1908 8.1908 8.1908 4.01088 4.01088 4.01088 4.01088 4.65037 4.65037 4.65037 4.65037 9.55416 9.55416 9.55416 9.55416 4.0886 4.0886 4.0886 4.0886 2.14775 2.14775 2.14775 2.14775 4.20564 4.20564 4.20564 4.20564 0.436558 0.436558 0.436558 0.436558 5.38255 5.38255 5.38255 5.38255 1.66637 1.66637 1.66637 1.66637 3.55056 3.55056 3.55056 3.55056 3.22328 3.22328 3.22328 3.22328 6.89886 6.89886 6.89886 6.89886 9.49803 9.49803 9.49803 9.49803 9.51589 9.51589 9.51589 9.51589 4.73846 4.73846 4.73846 4.73846 7.20388 7.20388 7.20388 7.20388 6.99669 6.99669 6.99669 6.99669 9.59431 9.59431 9.59431 9.59431 5.46912 5.46912 5.46912 5.46912 6.15761 6.15761 6.15761 6.15761 3.43437 3.43437 3.43437 3.43437 1.26138 1.26138 1.26138 1.26138 2.30421 2.30421 2.30421 2.30421 8.24735 8.24735 8.24735 8.24735 8.9331 8.9331 8.9331 8.9331 6.7307 6.7307 6.7307 6.7307 2.75749 2.75749 2.75749 2.75749 0.451186 0.451186 0.451186 0.451186 2.34113 2.34113 2.34113 2.34113 6.55084 6.55084 6.55084 6.55084 1.75213 1.75213 1.75213 1.75213 4.92984 4.92984 4.92984 4.92984 3.34083 3.34083 3.34083 3.34083 1.31949 1.31949 1.31949 1.31949 2.15008 2.15008 2.15008 2.15008 6.55131 6.55131 6.55131 6.55131 8.69686 8.69686 8.69686 8.69686 5.54769 5.54769 5.54769 5.54769 8.96416 8.96416 8.96416 8.96416 1.28938 1.28938 1.28938 1.28938 7.66928 7.66928 7.66928 7.66928 9.62382 9.62382 9.62382 9.62382 3.59028 3.59028 3.59028 3.59028 1.43953 1.43953 1.43953 1.43953 1.34626 1.34626 1.34626 1.34626 1.00516 1.00516 1.00516 1.00516 3.25833 3.25833 3.25833 3.25833 0.554357 0.554357 0.554357 0.554357 4.49476 4.49476 4.49476 4.49476 9.63838 9.63838 9.63838 9.63838 2.94227 2.94227 2.94227 2.94227 0.607795 0.607795 0.607795 0.607795 6.30956 6.30956 6.30956 6.30956 6.25624 6.25624 6.25624 6.25624 0.971581 0.971581 0.971581 0.971581 2.52947 2.52947 2.52947 2.52947 5.19955 5.19955 5.19955 5.19955 4.40182 4.40182 4.40182 4.40182 8.81237 8.81237 8.81237 8.81237 3.76051 3.76051 3.76051 3.76051 5.75555 5.75555 5.75555 5.75555 4.12934 4.12934 4.12934 4.12934 4.3931 4.3931 4.3931 4.3931 2.64995 2.64995 2.64995 2.64995 7.23252 7.23252 7.23252 7.23252 7.94804 7.94804 7.94804 7.94804 0.457255 0.457255 0.457255 0.457255 1.70771 1.70771 1.70771 1.70771 4.57411 4.57411 4.57411 4.57411 9.54509 9.54509 9.54509 9.54509 3.27239 3.27239 3.27239 3.27239 2.77465 2.77465 2.77465 2.77465 4.29831 4.29831 4.29831 4.29831 1.83744 1.83744 1.83744 1.83744 1.12437 1.12437 1.12437 1.12437 5.75588 5.75588 5.75588 5.75588 8.89994 8.89994 8.89994 8.89994 5.37808 5.37808 5.37808 5.37808 7.09725 7.09725 7.09725 7.09725 1.97912 1.97912 1.97912 1.97912 7.31781 7.31781 7.31781 7.31781 0.381295 0.381295 0.381295 0.381295 4.62327 4.62327 4.62327 4.62327 7.00513 7.00513 7.00513 7.00513 7.27274 7.27274 7.27274 7.27274 0.441301 0.441301 0.441301 0.441301 3.69894 3.69894 3.69894 3.69894 2.082 2.082 2.082 2.082 3.50427 3.50427 3.50427 3.50427 9.45657 9.45657 9.45657 9.45657 9.58236 9.58236 9.58236 9.58236 2.74195 2.74195 2.74195 2.74195 1.87362 1.87362 1.87362 1.87362 4.17937 4.17937 4.17937 4.17937 7.40273 7.40273 7.40273 7.40273 1.38531 1.38531 1.38531 1.38531 8.93141 8.93141 8.93141 8.93141 0.407902 0.407902 0.407902 0.407902 6.53141 6.53141 6.53141 6.53141 8.76068 8.76068 8.76068 8.76068 3.2932 3.2932 3.2932 3.2932 6.58342 6.58342 6.58342 6.58342 8.56765 8.56765 8.56765 8.56765 3.71057 3.71057 3.71057 3.71057 9.59422 9.59422 9.59422 9.59422 0.366722 0.366722 0.366722 0.366722 2.72986 2.72986 2.72986 2.72986 8.59612 8.59612 8.59612 8.59612 1.52433 1.52433 1.52433 1.52433 1.42256 1.42256 1.42256 1.42256 7.28608 7.28608 7.28608 7.28608 7.99414 7.99414 7.99414 7.99414 2.8314 2.8314 2.8314 2.8314 2.1882 2.1882 2.1882 2.1882 2.35196 2.35196 2.35196 2.35196 1.84443 1.84443 1.84443 1.84443 7.09776 7.09776 7.09776 7.09776 3.13889 3.13889 3.13889 3.13889 4.15545 4.15545 4.15545 4.15545 8.02748 8.02748 8.02748 8.02748 8.11777 8.11777 8.11777 8.11777 2.57962 2.57962 2.57962 2.57962 5.80582 5.80582 5.80582 5.80582 0.820868 0.820868 0.820868 0.820868 3.07314 3.07314 3.07314 3.07314 3.79421 3.79421 3.79421 3.79421 0.925164 0.925164 0.925164 0.925164 1.82953 1.82953 1.82953 1.82953 7.81609 7.81609 7.81609 7.81609 1.08084 1.08084 1.08084 1.08084 2.2184 2.2184 2.2184 2.2184 9.48867 9.48867 9.48867 9.48867 6.99199 6.99199 6.99199 6.99199 5.81657 5.81657 5.81657 5.81657 4.99231 4.99231 4.99231 4.99231 1.29543 1.29543 1.29543 1.29543 3.5749 3.5749 3.5749 3.5749 7.19977 7.19977 7.19977 7.19977 1.58764 1.58764 1.58764 1.58764 4.80626 4.80626 4.80626 4.80626 4.72709 4.72709 4.72709 4.72709 7.69358 7.69358 7.69358 7.69358 9.62351 9.62351 9.62351 9.62351 7.10198 7.10198 7.10198 7.10198 8.64032 8.64032 8.64032 8.64032 1.03525 1.03525 1.03525 1.03525 4.97345 4.97345 4.97345 4.97345 1.55499 1.55499 1.55499 1.55499 6.40601 6.40601 6.40601 6.40601 9.55222 9.55222 9.55222 9.55222 5.50641 5.50641 5.50641 5.50641 0.336253 0.336253 0.336253 0.336253 6.5625 6.5625 6.5625 6.5625 5.77626 5.77626 5.77626 5.77626 7.57273 7.57273 7.57273 7.57273 4.84854 4.84854 4.84854 4.84854 7.63819 7.63819 7.63819 7.63819 3.95882 3.95882 3.95882 3.95882 8.84044 8.84044 8.84044 8.84044 5.42886 5.42886 5.42886 5.42886 4.95344 4.95344 4.95344 4.95344 7.38234 7.38234 7.38234 7.38234 0.481485 0.481485 0.481485 0.481485 0.412989 0.412989 0.412989 0.412989 3.4303 3.4303 3.4303 3.4303 7.01527 7.01527 7.01527 7.01527 6.7263 6.7263 6.7263 6.7263 6.42901 6.42901 6.42901 6.42901 6.91435 6.91435 6.91435 6.91435 5.11949 5.11949 5.11949 5.11949 6.59928 6.59928 6.59928 6.59928 8.40748 8.40748 8.40748 8.40748 9.54701 9.54701 9.54701 9.54701 2.98596 2.98596 2.98596 2.98596 6.47866 6.47866 6.47866 6.47866 0.558943 0.558943 0.558943 0.558943 8.34018 8.34018 8.34018 8.34018 6.77833 6.77833 6.77833 6.77833 3.18467 3.18467 3.18467 3.18467 9.5051 9.5051 9.5051 9.5051 2.5903 2.5903 2.5903 2.5903 4.23378 4.23378 4.23378 4.23378 4.99335 4.99335 4.99335 4.99335 3.56726 3.56726 3.56726 3.56726 2.37353 2.37353 2.37353 2.37353 9.02624 9.02624 9.02624 9.02624 6.63526 6.63526 6.63526 6.63526 1.28506 1.28506 1.28506 1.28506 1.14392 1.14392 1.14392 1.14392 2.14467 2.14467 2.14467 2.14467 2.73748 2.73748 2.73748 2.73748 4.41421 4.41421 4.41421 4.41421 2.83187 2.83187 2.83187 2.83187 0.405704 0.405704 0.405704 0.405704 1.95176 1.95176 1.95176 1.95176 1.19037 1.19037 1.19037 1.19037 0.940635 0.940635 0.940635 0.940635 6.52282 6.52282 6.52282 6.52282 6.88861 6.88861 6.88861 6.88861 8.671 8.671 8.671 8.671 8.83984 8.83984 8.83984 8.83984 7.38816 7.38816 7.38816 7.38816 8.38079 8.38079 8.38079 8.38079 8.84498 8.84498 8.84498 8.84498 5.7155 5.7155 5.7155 5.7155 6.41851 6.41851 6.41851 6.41851 5.0944 5.0944 5.0944 5.0944 8.89995 8.89995 8.89995 8.89995 2.01094 2.01094 2.01094 2.01094 6.97983 6.97983 6.97983 6.97983 5.57347 5.57347 5.57347 5.57347 3.52257 3.52257 3.52257 3.52257 4.40551 4.40551 4.40551 4.40551 4.58365 4.58365 4.58365 4.58365 8.13416 8.13416 8.13416 8.13416 3.46525 3.46525 3.46525 3.46525 8.8523 8.8523 8.8523 8.8523 5.54254 5.54254 5.54254 5.54254 9.18285 9.18285 9.18285 9.18285 7.20448 7.20448 7.20448 7.20448 9.60508 9.60508 9.60508 9.60508 1.02148 1.02148 1.02148 1.02148 3.34655 3.34655 3.34655 3.34655 1.05207 1.05207 1.05207 1.05207 5.35022 5.35022 5.35022 5.35022 5.92833 5.92833 5.92833 5.92833 0.434834 0.434834 0.434834 0.434834 1.11087 1.11087 1.11087 1.11087 5.42788 5.42788 5.42788 5.42788 9.18934 9.18934 9.18934 9.18934 2.51794 2.51794 2.51794 2.51794 2.86622 2.86622 2.86622 2.86622 7.74065 7.74065 7.74065 7.74065 3.52712 3.52712 3.52712 3.52712 2.84187 2.84187 2.84187 2.84187 5.36525 5.36525 5.36525 5.36525 2.76959 2.76959 2.76959 2.76959 5.53723 5.53723 5.53723 5.53723 6.57672 6.57672 6.57672 6.57672 6.17398 6.17398 6.17398 6.17398 1.12945 1.12945 1.12945 1.12945 6.06405 6.06405 6.06405 6.06405 7.69609 7.69609 7.69609 7.69609 4.8942 4.8942 4.8942 4.8942 7.02802 7.02802 7.02802 7.02802 1.65665 1.65665 1.65665 1.65665 7.32496 7.32496 7.32496 7.32496 6.17367 6.17367 6.17367 6.17367 1.29894 1.29894 1.29894 1.29894 7.85369 7.85369 7.85369 7.85369 4.69721 4.69721 4.69721 4.69721 2.75491 2.75491 2.75491 2.75491 1.50711 1.50711 1.50711 1.50711 9.16268 9.16268 9.16268 9.16268 0.925464 0.925464 0.925464 0.925464 1.77067 1.77067 1.77067 1.77067 0.449523 0.449523 0.449523 0.449523 6.13312 6.13312 6.13312 6.13312 2.02211 2.02211 2.02211 2.02211 9.54693 9.54693 9.54693 9.54693 9.02716 9.02716 9.02716 9.02716 9.09546 9.09546 9.09546 9.09546 3.58104 3.58104 3.58104 3.58104 5.11441 5.11441 5.11441 5.11441 8.16846 8.16846 8.16846 8.16846 5.97164 5.97164 5.97164 5.97164 2.76918 2.76918 2.76918 2.76918 7.34739 7.34739 7.34739 7.34739 6.36703 6.36703 6.36703 6.36703 3.99027 3.99027 3.99027 3.99027 8.44625 8.44625 8.44625 8.44625 8.93156 8.93156 8.93156 8.93156 1.31089 1.31089 1.31089 1.31089 4.54094 4.54094 4.54094 4.54094 1.18082 1.18082 1.18082 1.18082 3.63189 3.63189 3.63189 3.63189 1.0271 1.0271 1.0271 1.0271 6.76876 6.76876 6.76876 6.76876 9.60459 9.60459 9.60459 9.60459 1.53816 1.53816 1.53816 1.53816 5.04491 5.04491 5.04491 5.04491 5.02391 5.02391 5.02391 5.02391 7.60966 7.60966 7.60966 7.60966 4.59058 4.59058 4.59058 4.59058 7.65317 7.65317 7.65317 7.65317 5.73643 5.73643 5.73643 5.73643 5.02933 5.02933 5.02933 5.02933 5.44911 5.44911 5.44911 5.44911 0.481303 0.481303 0.481303 0.481303 7.86209 7.86209 7.86209 7.86209 9.63703 9.63703 9.63703 9.63703 4.51907 4.51907 4.51907 4.51907 1.73783 1.73783 1.73783 1.73783 9.12298 9.12298 9.12298 9.12298 0.556001 0.556001 0.556001 0.556001 6.52248 6.52248 6.52248 6.52248 4.7117 4.7117 4.7117 4.7117 0.339973 0.339973 0.339973 0.339973 5.35378 5.35378 5.35378 5.35378 8.91949 8.91949 8.91949 8.91949 3.41164 3.41164 3.41164 3.41164 2.57889 2.57889 2.57889 2.57889 2.40285 2.40285 2.40285 2.40285 5.22864 5.22864 5.22864 5.22864 4.04208 4.04208 4.04208 4.04208 8.20185 8.20185 8.20185 8.20185 5.57018 5.57018 5.57018 5.57018 7.0803 7.0803 7.0803 7.0803 1.13325 1.13325 1.13325 1.13325 9.65144 9.65144 9.65144 9.65144 9.57453 9.57453 9.57453 9.57453 7.13927 7.13927 7.13927 7.13927 2.8567 2.8567 2.8567 2.8567 3.48709 3.48709 3.48709 3.48709 6.70486 6.70486 6.70486 6.70486 5.84421 5.84421 5.84421 5.84421 1.02773 1.02773 1.02773 1.02773 0.419545 0.419545 0.419545 0.419545 7.70198 7.70198 7.70198 7.70198 2.72713 2.72713 2.72713 2.72713 4.97545 4.97545 4.97545 4.97545 6.89656 6.89656 6.89656 6.89656 7.69879 7.69879 7.69879 7.69879 2.40899 2.40899 2.40899 2.40899 0.423747 0.423747 0.423747 0.423747 0.468962 0.468962 0.468962 0.468962 2.40808 2.40808 2.40808 2.40808 5.07937 5.07937 5.07937 5.07937 2.67732 2.67732 2.67732 2.67732 1.58214 1.58214 1.58214 1.58214 6.93633 6.93633 6.93633 6.93633 2.4284 2.4284 2.4284 2.4284 6.64865 6.64865 6.64865 6.64865 1.56408 1.56408 1.56408 1.56408 0.513558 0.513558 0.513558 0.513558 2.72313 2.72313 2.72313 2.72313 3.23985 3.23985 3.23985 3.23985 0.369031 0.369031 0.369031 0.369031 9.66393 9.66393 9.66393 9.66393 9.1696 9.1696 9.1696 9.1696 5.82368 5.82368 5.82368 5.82368 1.29156 1.29156 1.29156 1.29156 5.68776 5.68776 5.68776 5.68776 0.474333 0.474333 0.474333 0.474333 7.99201 7.99201 7.99201 7.99201 6.96078 6.96078 6.96078 6.96078 0.544922 0.544922 0.544922 0.544922 3.30473 3.30473 3.30473 3.30473 2.0783 2.0783 2.0783 2.0783 4.76437 4.76437 4.76437 4.76437 1.21752 1.21752 1.21752 1.21752 7.44209 7.44209 7.44209 7.44209 5.04389 5.04389 5.04389 5.04389 0.451213 0.451213 0.451213 0.451213 5.14356 5.14356 5.14356 5.14356 5.56153 5.56153 5.56153 5.56153 5.16624 5.16624 5.16624 5.16624 6.43523 6.43523 6.43523 6.43523 8.53608 8.53608 8.53608 8.53608 7.46737 7.46737 7.46737 7.46737 1.09694 1.09694 1.09694 1.09694 0.44403 0.44403 0.44403 0.44403 5.78874 5.78874 5.78874 5.78874 0.491003 0.491003 0.491003 0.491003 3.61661 3.61661 3.61661 3.61661 4.97115 4.97115 4.97115 4.97115 8.9408 8.9408 8.9408 8.9408 4.78357 4.78357 4.78357 4.78357 1.40268 1.40268 1.40268 1.40268 2.4013 2.4013 2.4013 2.4013 7.6962 7.6962 7.6962 7.6962 3.02001 3.02001 3.02001 3.02001 4.12413 4.12413 4.12413 4.12413 3.38589 3.38589 3.38589 3.38589 0.573996 0.573996 0.573996 0.573996 2.75119 2.75119 2.75119 2.75119 3.86867 3.86867 3.86867 3.86867 8.08383 8.08383 8.08383 8.08383 4.39772 4.39772 4.39772 4.39772 2.36546 2.36546 2.36546 2.36546 4.25139 4.25139 4.25139 4.25139 6.50134 6.50134 6.50134 6.50134 1.17748 1.17748 1.17748 1.17748 0.369355 0.369355 0.369355 0.369355 7.17278 7.17278 7.17278 7.17278 8.21767 8.21767 8.21767 8.21767 6.5533 6.5533 6.5533 6.5533 9.6694 9.6694 9.6694 9.6694 1.56297 1.56297 1.56297 1.56297 6.94138 6.94138 6.94138 6.94138 7.73491 7.73491 7.73491 7.73491 9.55391 9.55391 9.55391 9.55391 4.56339 4.56339 4.56339 4.56339 4.89863 4.89863 4.89863 4.89863 2.35162 2.35162 2.35162 2.35162 7.92392 7.92392 7.92392 7.92392 0.426551 0.426551 0.426551 0.426551 7.50096 7.50096 7.50096 7.50096 1.13706 1.13706 1.13706 1.13706 5.67329 5.67329 5.67329 5.67329 9.62549 9.62549 9.62549 9.62549 9.65827 9.65827 9.65827 9.65827 1.75104 1.75104 1.75104 1.75104 3.70458 3.70458 3.70458 3.70458 9.67412 9.67412 9.67412 9.67412 7.5044 7.5044 7.5044 7.5044 9.04543 9.04543 9.04543 9.04543 0.486443 0.486443 0.486443 0.486443 8.58037 8.58037 8.58037 8.58037 9.59143 9.59143 9.59143 9.59143 3.09129 3.09129 3.09129 3.09129 8.97649 8.97649 8.97649 8.97649 8.95787 8.95787 8.95787 8.95787 4.40149 4.40149 4.40149 4.40149 2.03495 2.03495 2.03495 2.03495 4.00541 4.00541 4.00541 4.00541 0.550522 0.550522 0.550522 0.550522 4.27097 4.27097 4.27097 4.27097 8.58378 8.58378 8.58378 8.58378 5.28552 5.28552 5.28552 5.28552 1.62052 1.62052 1.62052 1.62052 9.54707 9.54707 9.54707 9.54707 0.424477 0.424477 0.424477 0.424477 0.348257 0.348257 0.348257 0.348257 7.80834 7.80834 7.80834 7.80834 0.910274 0.910274 0.910274 0.910274 9.60045 9.60045 9.60045 9.60045 1.08121 1.08121 1.08121 1.08121 8.98469 8.98469 8.98469 8.98469 2.92287 2.92287 2.92287 2.92287 1.70198 1.70198 1.70198 1.70198 7.74926 7.74926 7.74926 7.74926 1.09152 1.09152 1.09152 1.09152 4.56684 4.56684 4.56684 4.56684 9.58659 9.58659 9.58659 9.58659 9.10229 9.10229 9.10229 9.10229 7.41959 7.41959 7.41959 7.41959 0.434993 0.434993 0.434993 0.434993 0.314543 0.314543 0.314543 0.314543 9.58678 9.58678 9.58678 9.58678 9.02627 9.02627 9.02627 9.02627 9.69238 9.69238 9.69238 9.69238 2.38727 2.38727 2.38727 2.38727 9.5717 9.5717 9.5717 9.5717 1.45971 1.45971 1.45971 1.45971 1.10203 1.10203 1.10203 1.10203 5.30627 5.30627 5.30627 5.30627 1.14214 1.14214 1.14214 1.14214 8.42298 8.42298 8.42298 8.42298 0.979173 0.979173 0.979173 0.979173 1.38866 1.38866 1.38866 1.38866 0.356749 0.356749 0.356749 0.356749 9.64203 9.64203 9.64203 9.64203 4.13072 4.13072 4.13072 4.13072 3.30789 3.30789 3.30789 3.30789 5.69814 5.69814 5.69814 5.69814 5.03181 5.03181 5.03181 5.03181 9.56976 9.56976 9.56976 9.56976 3.74368 3.74368 3.74368 3.74368 6.02147 6.02147 6.02147 6.02147 0.485395 0.485395 0.485395 0.485395 8.92463 8.92463 8.92463 8.92463 1.33697 1.33697 1.33697 1.33697 4.31092 4.31092 4.31092 4.31092 5.44243 5.44243 5.44243 5.44243 8.94199 8.94199 8.94199 8.94199 0.373878 0.373878 0.373878 0.373878 6.71735 6.71735 6.71735 6.71735 8.28405 8.28405 8.28405 8.28405 3.05258 3.05258 3.05258 3.05258 7.30498 7.30498 7.30498 7.30498 7.55089 7.55089 7.55089 7.55089 8.41432 8.41432 8.41432 8.41432 4.86729 4.86729 4.86729 4.86729 7.2081 7.2081 7.2081 7.2081 9.55663 9.55663 9.55663 9.55663 6.4802 6.4802 6.4802 6.4802 9.56635 9.56635 9.56635 9.56635 7.32095 7.32095 7.32095 7.32095 3.38938 3.38938 3.38938 3.38938 7.86687 7.86687 7.86687 7.86687 1.10348 1.10348 1.10348 1.10348 9.63928 9.63928 9.63928 9.63928 5.00462 5.00462 5.00462 5.00462 7.07692 7.07692 7.07692 7.07692 8.69843 8.69843 8.69843 8.69843 7.74118 7.74118 7.74118 7.74118 0.405859 0.405859 0.405859 0.405859 2.81874 2.81874 2.81874 2.81874 9.61356 9.61356 9.61356 9.61356 6.65162 6.65162 6.65162 6.65162 0.375698 0.375698 0.375698 0.375698 8.98657 8.98657 8.98657 8.98657 4.76663 4.76663 4.76663 4.76663 0.855339 0.855339 0.855339 0.855339 1.08112 1.08112 1.08112 1.08112 1.51536 1.51536 1.51536 1.51536 8.9301 8.9301 8.9301 8.9301 7.66039 7.66039 7.66039 7.66039 4.59919 4.59919 4.59919 4.59919 9.72352 9.72352 9.72352 9.72352 0.952948 0.952948 0.952948 0.952948 0.999096 0.999096 0.999096 0.999096 8.97532 8.97532 8.97532 8.97532 5.41902 5.41902 5.41902 5.41902 0.520197 0.520197 0.520197 0.520197 8.0085 8.0085 8.0085 8.0085 0.953861 0.953861 0.953861 0.953861 7.30915 7.30915 7.30915 7.30915 1.13264 1.13264 1.13264 1.13264 8.12906 8.12906 8.12906 8.12906 6.60194 6.60194 6.60194 6.60194 1.06696 1.06696 1.06696 1.06696 1.01765 1.01765 1.01765 1.01765 4.75041 4.75041 4.75041 4.75041 1.20018 1.20018 1.20018 1.20018 0.951785 0.951785 0.951785 0.951785 5.17754 5.17754 5.17754 5.17754 2.03472 2.03472 2.03472 2.03472 5.65323 5.65323 5.65323 5.65323 0.93949 0.93949 0.93949 0.93949 5.35678 5.35678 5.35678 5.35678 2.75017 2.75017 2.75017 2.75017 1.27406 1.27406 1.27406 1.27406 9.63184 9.63184 9.63184 9.63184 1.27002 1.27002 1.27002 1.27002 1.06387 1.06387 1.06387 1.06387 1.76092 1.76092 1.76092 1.76092 0.347728 0.347728 0.347728 0.347728 8.63873 8.63873 8.63873 8.63873 5.83623 5.83623 5.83623 5.83623 0.406397 0.406397 0.406397 0.406397 7.32513 7.32513 7.32513 7.32513 3.22089 3.22089 3.22089 3.22089 7.79082 7.79082 7.79082 7.79082 1.66603 1.66603 1.66603 1.66603 9.05174 9.05174 9.05174 9.05174 6.06069 6.06069 6.06069 6.06069 5.68202 5.68202 5.68202 5.68202 9.59263 9.59263 9.59263 9.59263 0.979595 0.979595 0.979595 0.979595 0.349583 0.349583 0.349583 0.349583 4.95678 4.95678 4.95678 4.95678 8.60101 8.60101 8.60101 8.60101 9.623 9.623 9.623 9.623 3.02683 3.02683 3.02683 3.02683 5.8527 5.8527 5.8527 5.8527 5.99607 5.99607 5.99607 5.99607 2.66704 2.66704 2.66704 2.66704 0.94019 0.94019 0.94019 0.94019 8.91571 8.91571 8.91571 8.91571 4.37125 4.37125 4.37125 4.37125 6.49687 6.49687 6.49687 6.49687 7.24092 7.24092 7.24092 7.24092 6.4258 6.4258 6.4258 6.4258 5.21568 5.21568 5.21568 5.21568 7.31234 7.31234 7.31234 7.31234 2.76306 2.76306 2.76306 2.76306 3.8195 3.8195 3.8195 3.8195 7.87862 7.87862 7.87862 7.87862 8.68533 8.68533 8.68533 8.68533 2.65238 2.65238 2.65238 2.65238 8.07787 8.07787 8.07787 8.07787 7.35614 7.35614 7.35614 7.35614 9.06589 9.06589 9.06589 9.06589 0.428555 0.428555 0.428555 0.428555 1.4948 1.4948 1.4948 1.4948 9.05329 9.05329 9.05329 9.05329 8.58251 8.58251 8.58251 8.58251 2.75398 2.75398 2.75398 2.75398 2.98389 2.98389 2.98389 2.98389 2.71205 2.71205 2.71205 2.71205 9.6887 9.6887 9.6887 9.6887 1.60229 1.60229 1.60229 1.60229 0.407041 0.407041 0.407041 0.407041 7.96193 7.96193 7.96193 7.96193 3.79743 3.79743 3.79743 3.79743 2.38919 2.38919 2.38919 2.38919 7.37366 7.37366 7.37366 7.37366 5.81231 5.81231 5.81231 5.81231 2.68459 2.68459 2.68459 2.68459 9.03534 9.03534 9.03534 9.03534 5.21918 5.21918 5.21918 5.21918 5.01439 5.01439 5.01439 5.01439 9.65875 9.65875 9.65875 9.65875 1.70022 1.70022 1.70022 1.70022 5.15325 5.15325 5.15325 5.15325 8.68762 8.68762 8.68762 8.68762 6.13807 6.13807 6.13807 6.13807 9.15432 9.15432 9.15432 9.15432 1.40517 1.40517 1.40517 1.40517 0.371415 0.371415 0.371415 0.371415 8.57007 8.57007 8.57007 8.57007 5.83159 5.83159 5.83159 5.83159 3.09738 3.09738 3.09738 3.09738 5.85234 5.85234 5.85234 5.85234 9.57343 9.57343 9.57343 9.57343 2.29494 2.29494 2.29494 2.29494 4.943 4.943 4.943 4.943 2.33973 2.33973 2.33973 2.33973 3.36563 3.36563 3.36563 3.36563 9.06035 9.06035 9.06035 9.06035 9.59746 9.59746 9.59746 9.59746 2.67797 2.67797 2.67797 2.67797 2.13152 2.13152 2.13152 2.13152 0.350458 0.350458 0.350458 0.350458 6.4768 6.4768 6.4768 6.4768 9.60676 9.60676 9.60676 9.60676 7.33207 7.33207 7.33207 7.33207 7.45364 7.45364 7.45364 7.45364 9.67194 9.67194 9.67194 9.67194 9.6677 9.6677 9.6677 9.6677 4.72301 4.72301 4.72301 4.72301 8.02992 8.02992 8.02992 8.02992 9.64265 9.64265 9.64265 9.64265 9.64023 9.64023 9.64023 9.64023 9.64228 9.64228 9.64228 9.64228 3.44443 3.44443 3.44443 3.44443 7.20327 7.20327 7.20327 7.20327 6.02779 6.02779 6.02779 6.02779 0.300027 0.300027 0.300027 0.300027 4.23149 4.23149 4.23149 4.23149 2.50515 2.50515 2.50515 2.50515 8.04097 8.04097 8.04097 8.04097 0.905309 0.905309 0.905309 0.905309 1.96 1.96 1.96 1.96 0.320084 0.320084 0.320084 0.320084 1.34094 1.34094 1.34094 1.34094 9.67208 9.67208 9.67208 9.67208 8.92021 8.92021 8.92021 8.92021 6.86338 6.86338 6.86338 6.86338 8.60638 8.60638 8.60638 8.60638 5.46019 5.46019 5.46019 5.46019 9.65523 9.65523 9.65523 9.65523 4.35124 4.35124 4.35124 4.35124 8.16585 8.16585 8.16585 8.16585 8.62572 8.62572 8.62572 8.62572 8.59104 8.59104 8.59104 8.59104 3.48045 3.48045 3.48045 3.48045 0.330978 0.330978 0.330978 0.330978 2.92937 2.92937 2.92937 2.92937 2.28696 2.28696 2.28696 2.28696 4.83602 4.83602 4.83602 4.83602 0.430019 0.430019 0.430019 0.430019 2.22306 2.22306 2.22306 2.22306 3.37428 3.37428 3.37428 3.37428 7.10514 7.10514 7.10514 7.10514 9.66422 9.66422 9.66422 9.66422 7.74898 7.74898 7.74898 7.74898 2.83009 2.83009 2.83009 2.83009 7.08725 7.08725 7.08725 7.08725 3.01433 3.01433 3.01433 3.01433 0.401357 0.401357 0.401357 0.401357 5.03645 5.03645 5.03645 5.03645 0.936777 0.936777 0.936777 0.936777 4.23608 4.23608 4.23608 4.23608 1.47511 1.47511 1.47511 1.47511 4.88517 4.88517 4.88517 4.88517 0.993195 0.993195 0.993195 0.993195 2.40182 2.40182 2.40182 2.40182 6.93004 6.93004 6.93004 6.93004 9.59207 9.59207 9.59207 9.59207 1.06271 1.06271 1.06271 1.06271 0.414905 0.414905 0.414905 0.414905 2.36839 2.36839 2.36839 2.36839 7.21834 7.21834 7.21834 7.21834 2.33738 2.33738 2.33738 2.33738 8.57568 8.57568 8.57568 8.57568 4.28646 4.28646 4.28646 4.28646 9.6588 9.6588 9.6588 9.6588 7.74516 7.74516 7.74516 7.74516 5.24785 5.24785 5.24785 5.24785 2.89107 2.89107 2.89107 2.89107 5.40146 5.40146 5.40146 5.40146 2.18722 2.18722 2.18722 2.18722 8.95984 8.95984 8.95984 8.95984 3.01784 3.01784 3.01784 3.01784 9.12974 9.12974 9.12974 9.12974 8.95708 8.95708 8.95708 8.95708 9.21055 9.21055 9.21055 9.21055 7.95478 7.95478 7.95478 7.95478 2.13046 2.13046 2.13046 2.13046 4.24173 4.24173 4.24173 4.24173 2.88754 2.88754 2.88754 2.88754 7.52751 7.52751 7.52751 7.52751 9.00646 9.00646 9.00646 9.00646 8.4455 8.4455 8.4455 8.4455 1.35711 1.35711 1.35711 1.35711 6.73092 6.73092 6.73092 6.73092 7.13021 7.13021 7.13021 7.13021 1.13841 1.13841 1.13841 1.13841 4.83417 4.83417 4.83417 4.83417 1.92483 1.92483 1.92483 1.92483 5.7136 5.7136 5.7136 5.7136 2.70415 2.70415 2.70415 2.70415 1.11152 1.11152 1.11152 1.11152 1.40623 1.40623 1.40623 1.40623 4.40624 4.40624 4.40624 4.40624 9.59745 9.59745 9.59745 9.59745 3.98374 3.98374 3.98374 3.98374 0.328319 0.328319 0.328319 0.328319 2.67061 2.67061 2.67061 2.67061 0.401519 0.401519 0.401519 0.401519 9.5982 9.5982 9.5982 9.5982 7.25929 7.25929 7.25929 7.25929 2.70419 2.70419 2.70419 2.70419 2.08142 2.08142 2.08142 2.08142 9.66103 9.66103 9.66103 9.66103 0.468343 0.468343 0.468343 0.468343 3.08266 3.08266 3.08266 3.08266 9.15316 9.15316 9.15316 9.15316 7.38507 7.38507 7.38507 7.38507 8.89036 8.89036 8.89036 8.89036 7.21216 7.21216 7.21216 7.21216 0.379487 0.379487 0.379487 0.379487 0.351293 0.351293 0.351293 0.351293 8.47475 8.47475 8.47475 8.47475 4.51474 4.51474 4.51474 4.51474 9.60228 9.60228 9.60228 9.60228 5.03021 5.03021 5.03021 5.03021 9.12887 9.12887 9.12887 9.12887 5.57819 5.57819 5.57819 5.57819 2.60233 2.60233 2.60233 2.60233 7.92911 7.92911 7.92911 7.92911 3.03859 3.03859 3.03859 3.03859 5.03402 5.03402 5.03402 5.03402 2.21613 2.21613 2.21613 2.21613 5.02772 5.02772 5.02772 5.02772 2.9387 2.9387 2.9387 2.9387 8.60217 8.60217 8.60217 8.60217 9.58727 9.58727 9.58727 9.58727 5.05704 5.05704 5.05704 5.05704 0.324095 0.324095 0.324095 0.324095 9.069 9.069 9.069 9.069 9.77195 9.77195 9.77195 9.77195 8.42934 8.42934 8.42934 8.42934 4.77852 4.77852 4.77852 4.77852 2.37152 2.37152 2.37152 2.37152 8.96647 8.96647 8.96647 8.96647 9.59881 9.59881 9.59881 9.59881 4.94164 4.94164 4.94164 4.94164 8.98567 8.98567 8.98567 8.98567 9.10616 9.10616 9.10616 9.10616 3.88195 3.88195 3.88195 3.88195 2.7613 2.7613 2.7613 2.7613 2.85863 2.85863 2.85863 2.85863 9.68836 9.68836 9.68836 9.68836 9.66794 9.66794 9.66794 9.66794 9.24553 9.24553 9.24553 9.24553 4.26298 4.26298 4.26298 4.26298 1.09197 1.09197 1.09197 1.09197 5.80978 5.80978 5.80978 5.80978 2.1503 2.1503 2.1503 2.1503 0.432788 0.432788 0.432788 0.432788 9.62295 9.62295 9.62295 9.62295 8.5327 8.5327 8.5327 8.5327 9.60903 9.60903 9.60903 9.60903 0.351247 0.351247 0.351247 0.351247 0.427215 0.427215 0.427215 0.427215 3.70007 3.70007 3.70007 3.70007 9.22195 9.22195 9.22195 9.22195 5.00505 5.00505 5.00505 5.00505 1.96926 1.96926 1.96926 1.96926 9.59807 9.59807 9.59807 9.59807 7.71827 7.71827 7.71827 7.71827 9.60529 9.60529 9.60529 9.60529 0.410741 0.410741 0.410741 0.410741 0.370121 0.370121 0.370121 0.370121 1.05392 1.05392 1.05392 1.05392 0.991414 0.991414 0.991414 0.991414 4.93343 4.93343 4.93343 4.93343 1.11569 1.11569 1.11569 1.11569 9.75413 9.75413 9.75413 9.75413 1.77351 1.77351 1.77351 1.77351 9.17801 9.17801 9.17801 9.17801 7.64257 7.64257 7.64257 7.64257 4.46119 4.46119 4.46119 4.46119 9.10353 9.10353 9.10353 9.10353 2.74037 2.74037 2.74037 2.74037 0.921807 0.921807 0.921807 0.921807 6.37751 6.37751 6.37751 6.37751 7.45427 7.45427 7.45427 7.45427 9.61827 9.61827 9.61827 9.61827 0.419173 0.419173 0.419173 0.419173 2.19242 2.19242 2.19242 2.19242 9.00772 9.00772 9.00772 9.00772 9.66126 9.66126 9.66126 9.66126 9.64851 9.64851 9.64851 9.64851 9.59067 9.59067 9.59067 9.59067 9.63237 9.63237 9.63237 9.63237 0.917731 0.917731 0.917731 0.917731 9.66987 9.66987 9.66987 9.66987 5.83185 5.83185 5.83185 5.83185 7.04406 7.04406 7.04406 7.04406 8.57997 8.57997 8.57997 8.57997 9.68645 9.68645 9.68645 9.68645 9.67708 9.67708 9.67708 9.67708 2.08415 2.08415 2.08415 2.08415 1.58693 1.58693 1.58693 1.58693 0.865639 0.865639 0.865639 0.865639 9.65657 9.65657 9.65657 9.65657 0.860255 0.860255 0.860255 0.860255 5.78552 5.78552 5.78552 5.78552 7.92593 7.92593 7.92593 7.92593 1.9182 1.9182 1.9182 1.9182 9.15644 9.15644 9.15644 9.15644 9.19349 9.19349 9.19349 9.19349 9.59771 9.59771 9.59771 9.59771 9.63736 9.63736 9.63736 9.63736 0.315911 0.315911 0.315911 0.315911 3.87142 3.87142 3.87142 3.87142 9.63752 9.63752 9.63752 9.63752 0.355732 0.355732 0.355732 0.355732 9.66599 9.66599 9.66599 9.66599 3.68911 3.68911 3.68911 3.68911 0.852217 0.852217 0.852217 0.852217 2.49798 2.49798 2.49798 2.49798 6.45803 6.45803 6.45803 6.45803 0.32371 0.32371 0.32371 0.32371 5.63799 5.63799 5.63799 5.63799 0.981735 0.981735 0.981735 0.981735 7.25903 7.25903 7.25903 7.25903 8.98592 8.98592 8.98592 8.98592 1.03446 1.03446 1.03446 1.03446 7.11624 7.11624 7.11624 7.11624 5.92738 5.92738 5.92738 5.92738 0.97481 0.97481 0.97481 0.97481 0.364743 0.364743 0.364743 0.364743 9.66678 9.66678 9.66678 9.66678 2.90136 2.90136 2.90136 2.90136 5.31866 5.31866 5.31866 5.31866 1.38466 1.38466 1.38466 1.38466 1.65555 1.65555 1.65555 1.65555 0.321686 0.321686 0.321686 0.321686 5.174 5.174 5.174 5.174 2.04992 2.04992 2.04992 2.04992 0.912204 0.912204 0.912204 0.912204 1.04103 1.04103 1.04103 1.04103 1.98333 1.98333 1.98333 1.98333 0.843306 0.843306 0.843306 0.843306 0.960649 0.960649 0.960649 0.960649 9.1843 9.1843 9.1843 9.1843 9.66156 9.66156 9.66156 9.66156 7.96548 7.96548 7.96548 7.96548 6.99417 6.99417 6.99417 6.99417 9.68085 9.68085 9.68085 9.68085 1.05538 1.05538 1.05538 1.05538 9.65701 9.65701 9.65701 9.65701 1.35836 1.35836 1.35836 1.35836 6.98902 6.98902 6.98902 6.98902 9.65104 9.65104 9.65104 9.65104 0.84091 0.84091 0.84091 0.84091 0.822153 0.822153 0.822153 0.822153 9.65545 9.65545 9.65545 9.65545 0.797518 0.797518 0.797518 0.797518 9.03354 9.03354 9.03354 9.03354 0.786256 0.786256 0.786256 0.786256 5.85582 5.85582 5.85582 5.85582 9.61525 9.61525 9.61525 9.61525 0.837223 0.837223 0.837223 0.837223 0.800416 0.800416 0.800416 0.800416 0.357001 0.357001 0.357001 0.357001 2.36052 2.36052 2.36052 2.36052 0.83015 0.83015 0.83015 0.83015 0.842874 0.842874 0.842874 0.842874 4.19666 4.19666 4.19666 4.19666 3.14488 3.14488 3.14488 3.14488 9.62854 9.62854 9.62854 9.62854 0.38849 0.38849 0.38849 0.38849 0.974066 0.974066 0.974066 0.974066 4.35744 4.35744 4.35744 4.35744 1.45013 1.45013 1.45013 1.45013 7.39427 7.39427 7.39427 7.39427 0.336518 0.336518 0.336518 0.336518 7.91157 7.91157 7.91157 7.91157 1.41321 1.41321 1.41321 1.41321 9.10181 9.10181 9.10181 9.10181 8.72596 8.72596 8.72596 8.72596 0.46238 0.46238 0.46238 0.46238 3.31689 3.31689 3.31689 3.31689 0.963312 0.963312 0.963312 0.963312 0.963667 0.963667 0.963667 0.963667 9.72877 9.72877 9.72877 9.72877 9.72565 9.72565 9.72565 9.72565 0.808466 0.808466 0.808466 0.808466 9.19641 9.19641 9.19641 9.19641 7.4724 7.4724 7.4724 7.4724 4.62511 4.62511 4.62511 4.62511 7.74679 7.74679 7.74679 7.74679 9.71054 9.71054 9.71054 9.71054 2.7607 2.7607 2.7607 2.7607 0.441609 0.441609 0.441609 0.441609 4.24961 4.24961 4.24961 4.24961 9.18309 9.18309 9.18309 9.18309 9.69517 9.69517 9.69517 9.69517 0.338292 0.338292 0.338292 0.338292 4.13975 4.13975 4.13975 4.13975 9.73421 9.73421 9.73421 9.73421 9.17354 9.17354 9.17354 9.17354 0.862776 0.862776 0.862776 0.862776 1.38064 1.38064 1.38064 1.38064 5.88551 5.88551 5.88551 5.88551 4.93905 4.93905 4.93905 4.93905 4.99331 4.99331 4.99331 4.99331 0.414028 0.414028 0.414028 0.414028 2.6209 2.6209 2.6209 2.6209 1.66166 1.66166 1.66166 1.66166 0.39978 0.39978 0.39978 0.39978 0.949479 0.949479 0.949479 0.949479 9.65063 9.65063 9.65063 9.65063 2.28866 2.28866 2.28866 2.28866 7.20509 7.20509 7.20509 7.20509 9.16575 9.16575 9.16575 9.16575 0.840225 0.840225 0.840225 0.840225 5.09177 5.09177 5.09177 5.09177 0.428771 0.428771 0.428771 0.428771 9.72207 9.72207 9.72207 9.72207 0.905594 0.905594 0.905594 0.905594 3.40671 3.40671 3.40671 3.40671 2.81708 2.81708 2.81708 2.81708 0.369413 0.369413 0.369413 0.369413 0.343773 0.343773 0.343773 0.343773 9.72444 9.72444 9.72444 9.72444 9.75611 9.75611 9.75611 9.75611 7.40903 7.40903 7.40903 7.40903 9.15885 9.15885 9.15885 9.15885 7.77212 7.77212 7.77212 7.77212 4.89295 4.89295 4.89295 4.89295 9.18357 9.18357 9.18357 9.18357 4.09735 4.09735 4.09735 4.09735 0.912128 0.912128 0.912128 0.912128 9.23236 9.23236 9.23236 9.23236 9.65643 9.65643 9.65643 9.65643 0.386226 0.386226 0.386226 0.386226 0.793306 0.793306 0.793306 0.793306 9.6959 9.6959 9.6959 9.6959 9.69441 9.69441 9.69441 9.69441 9.65628 9.65628 9.65628 9.65628 5.41163 5.41163 5.41163 5.41163 5.13449 5.13449 5.13449 5.13449 9.6519 9.6519 9.6519 9.6519 9.06057 9.06057 9.06057 9.06057 8.51615 8.51615 8.51615 8.51615 0.321397 0.321397 0.321397 0.321397 0.328409 0.328409 0.328409 0.328409 9.20385 9.20385 9.20385 9.20385 0.970719 0.970719 0.970719 0.970719 4.67471 4.67471 4.67471 4.67471 9.66157 9.66157 9.66157 9.66157 4.5319 4.5319 4.5319 4.5319 0.354301 0.354301 0.354301 0.354301 5.43028 5.43028 5.43028 5.43028 9.72387 9.72387 9.72387 9.72387 0.413014 0.413014 0.413014 0.413014 9.18998 9.18998 9.18998 9.18998 0.815781 0.815781 0.815781 0.815781 9.6827 9.6827 9.6827 9.6827 2.14263 2.14263 2.14263 2.14263 2.64117 2.64117 2.64117 2.64117 0.286198 0.286198 0.286198 0.286198 0.396618 0.396618 0.396618 0.396618 4.08826 4.08826 4.08826 4.08826 0.411957 0.411957 0.411957 0.411957 9.66387 9.66387 9.66387 9.66387 0.949595 0.949595 0.949595 0.949595 5.20453 5.20453 5.20453 5.20453 9.67616 9.67616 9.67616 9.67616 9.69432 9.69432 9.69432 9.69432 2.58202 2.58202 2.58202 2.58202 0.40571 0.40571 0.40571 0.40571 7.8455 7.8455 7.8455 7.8455 9.63403 9.63403 9.63403 9.63403 0.312858 0.312858 0.312858 0.312858 9.70745 9.70745 9.70745 9.70745 0.327491 0.327491 0.327491 0.327491 9.20859 9.20859 9.20859 9.20859 9.11856 9.11856 9.11856 9.11856 2.44873 2.44873 2.44873 2.44873 9.64922 9.64922 9.64922 9.64922 2.93583 2.93583 2.93583 2.93583 9.66443 9.66443 9.66443 9.66443 2.18841 2.18841 2.18841 2.18841 9.68709 9.68709 9.68709 9.68709 0.323326 0.323326 0.323326 0.323326 0.295867 0.295867 0.295867 0.295867 5.74977 5.74977 5.74977 5.74977 8.73803 8.73803 8.73803 8.73803 9.72706 9.72706 9.72706 9.72706 0.34567 0.34567 0.34567 0.34567 9.22902 9.22902 9.22902 9.22902 0.415195 0.415195 0.415195 0.415195 4.90619 4.90619 4.90619 4.90619 4.4625 4.4625 4.4625 4.4625 9.72061 9.72061 9.72061 9.72061 9.10735 9.10735 9.10735 9.10735 7.92923 7.92923 7.92923 7.92923 9.68406 9.68406 9.68406 9.68406 9.6767 9.6767 9.6767 9.6767 0.743972 0.743972 0.743972 0.743972 4.57084 4.57084 4.57084 4.57084 0.320987 0.320987 0.320987 0.320987 9.23666 9.23666 9.23666 9.23666 1.46214 1.46214 1.46214 1.46214 9.20641 9.20641 9.20641 9.20641 3.01115 3.01115 3.01115 3.01115 9.69748 9.69748 9.69748 9.69748 9.67209 9.67209 9.67209 9.67209 2.10229 2.10229 2.10229 2.10229 0.378572 0.378572 0.378572 0.378572 0.801237 0.801237 0.801237 0.801237 9.21279 9.21279 9.21279 9.21279 0.421515 0.421515 0.421515 0.421515 5.22597 5.22597 5.22597 5.22597 7.95566 7.95566 7.95566 7.95566 0.361024 0.361024 0.361024 0.361024 9.71313 9.71313 9.71313 9.71313 1.42945 1.42945 1.42945 1.42945 0.463746 0.463746 0.463746 0.463746 0.408117 0.408117 0.408117 0.408117 9.14163 9.14163 9.14163 9.14163 8.00051 8.00051 8.00051 8.00051 9.68561 9.68561 9.68561 9.68561 0.952805 0.952805 0.952805 0.952805 0.999776 0.999776 0.999776 0.999776 8.67163 8.67163 8.67163 8.67163 2.14127 2.14127 2.14127 2.14127 2.09394 2.09394 2.09394 2.09394 8.61787 8.61787 8.61787 8.61787 9.68437 9.68437 9.68437 9.68437 1.42991 1.42991 1.42991 1.42991 0.373085 0.373085 0.373085 0.373085 9.69277 9.69277 9.69277 9.69277 0.427981 0.427981 0.427981 0.427981 0.290512 0.290512 0.290512 0.290512 9.73395 9.73395 9.73395 9.73395 0.355436 0.355436 0.355436 0.355436 0.362479 0.362479 0.362479 0.362479 0.255071 0.255071 0.255071 0.255071 9.70763 9.70763 9.70763 9.70763 9.1732 9.1732 9.1732 9.1732 0.348332 0.348332 0.348332 0.348332 0.365505 0.365505 0.365505 0.365505 9.65122 9.65122 9.65122 9.65122 0.325754 0.325754 0.325754 0.325754 5.18779 5.18779 5.18779 5.18779 7.56326 7.56326 7.56326 7.56326 9.18616 9.18616 9.18616 9.18616 0.943433 0.943433 0.943433 0.943433 9.15025 9.15025 9.15025 9.15025 6.45761 6.45761 6.45761 6.45761 0.360704 0.360704 0.360704 0.360704 0.343881 0.343881 0.343881 0.343881 0.319671 0.319671 0.319671 0.319671 0.336293 0.336293 0.336293 0.336293 9.74026 9.74026 9.74026 9.74026 3.01486 3.01486 3.01486 3.01486 9.20358 9.20358 9.20358 9.20358 0.291062 0.291062 0.291062 0.291062 0.379004 0.379004 0.379004 0.379004 0.210631 0.210631 0.210631 0.210631 9.69786 9.69786 9.69786 9.69786 9.68731 9.68731 9.68731 9.68731 0.39588 0.39588 0.39588 0.39588 7.06096 7.06096 7.06096 7.06096 9.71403 9.71403 9.71403 9.71403 0.369527 0.369527 0.369527 0.369527 9.17096 9.17096 9.17096 9.17096 0.370722 0.370722 0.370722 0.370722 7.97673 7.97673 7.97673 7.97673 0.30344 0.30344 0.30344 0.30344 9.74467 9.74467 9.74467 9.74467 9.71712 9.71712 9.71712 9.71712 0.313538 0.313538 0.313538 0.313538 0.310846 0.310846 0.310846 0.310846 9.67581 9.67581 9.67581 9.67581 0.312312 0.312312 0.312312 0.312312 2.02192 2.02192 2.02192 2.02192 0.827465 0.827465 0.827465 0.827465 9.75412 9.75412 9.75412 9.75412 9.70642 9.70642 9.70642 9.70642 0.266769 0.266769 0.266769 0.266769 0.317882 0.317882 0.317882 0.317882 0.355526 0.355526 0.355526 0.355526 0.341449 0.341449 0.341449 0.341449 0.357864 0.357864 0.357864 0.357864 0.299188 0.299188 0.299188 0.299188 0.228371 0.228371 0.228371 0.228371 0.371939 0.371939 0.371939 0.371939 9.75466 9.75466 9.75466 9.75466 0.314527 0.314527 0.314527 0.314527 0.303973 0.303973 0.303973 0.303973 1.46741 1.46741 1.46741 1.46741 2.30166 2.30166 2.30166 2.30166 0.317941 0.317941 0.317941 0.317941 7.74676 7.74676 7.74676 7.74676 0.355822 0.355822 0.355822 0.355822 9.69522 9.69522 9.69522 9.69522 0.788573 0.788573 0.788573 0.788573 0.814245 0.814245 0.814245 0.814245 0.253709 0.253709 0.253709 0.253709 0.391126 0.391126 0.391126 0.391126 9.70127 9.70127 9.70127 9.70127 0.905198 0.905198 0.905198 0.905198 0.900725 0.900725 0.900725 0.900725 0.809967 0.809967 0.809967 0.809967 9.71112 9.71112 9.71112 9.71112 7.94972 7.94972 7.94972 7.94972 5.95473 5.95473 5.95473 5.95473 9.68782 9.68782 9.68782 9.68782 0.421323 0.421323 0.421323 0.421323 0.296372 0.296372 0.296372 0.296372 0.791554 0.791554 0.791554 0.791554 0.825853 0.825853 0.825853 0.825853 0.274303 0.274303 0.274303 0.274303 0.362188 0.362188 0.362188 0.362188 0.392166 0.392166 0.392166 0.392166 0.3104 0.3104 0.3104 0.3104 2.05962 2.05962 2.05962 2.05962 9.7092 9.7092 9.7092 9.7092 0.231052 0.231052 0.231052 0.231052 2.27519 2.27519 2.27519 2.27519 8.20142 8.20142 8.20142 8.20142 0.22394 0.22394 0.22394 0.22394 9.71657 9.71657 9.71657 9.71657 0.30197 0.30197 0.30197 0.30197 0.321315 0.321315 0.321315 0.321315 5.69456 5.69456 5.69456 5.69456 9.78028 9.78028 9.78028 9.78028 2.11701 2.11701 2.11701 2.11701 9.69939 9.69939 9.69939 9.69939 0.877189 0.877189 0.877189 0.877189 0.819994 0.819994 0.819994 0.819994 9.73253 9.73253 9.73253 9.73253 0.207628 0.207628 0.207628 0.207628 0.348935 0.348935 0.348935 0.348935 0.246919 0.246919 0.246919 0.246919 0.206637 0.206637 0.206637 0.206637 9.75277 9.75277 9.75277 9.75277 9.69589 9.69589 9.69589 9.69589 9.75229 9.75229 9.75229 9.75229 0.309281 0.309281 0.309281 0.309281 0.315592 0.315592 0.315592 0.315592 9.77766 9.77766 9.77766 9.77766 9.73746 9.73746 9.73746 9.73746 8.16862 8.16862 8.16862 8.16862 0.883458 0.883458 0.883458 0.883458 0.313231 0.313231 0.313231 0.313231 0.328774 0.328774 0.328774 0.328774 8.10739 8.10739 8.10739 8.10739 0.357138 0.357138 0.357138 0.357138 0.273151 0.273151 0.273151 0.273151 0.178291 0.178291 0.178291 0.178291 0.239611 0.239611 0.239611 0.239611 9.72844 9.72844 9.72844 9.72844 9.76959 9.76959 9.76959 9.76959 0.260148 0.260148 0.260148 0.260148 9.77637 9.77637 9.77637 9.77637 0.265066 0.265066 0.265066 0.265066 9.74767 9.74767 9.74767 9.74767 5.10153 5.10153 5.10153 5.10153 0.301453 0.301453 0.301453 0.301453 0.292155 0.292155 0.292155 0.292155 0.302001 0.302001 0.302001 0.302001 9.75615 9.75615 9.75615 9.75615 0.246451 0.246451 0.246451 0.246451 0.226479 0.226479 0.226479 0.226479 9.72747 9.72747 9.72747 9.72747 9.76459 9.76459 9.76459 9.76459 0.295308 0.295308 0.295308 0.295308 0.217735 0.217735 0.217735 0.217735 0.828069 0.828069 0.828069 0.828069 0.226878 0.226878 0.226878 0.226878 0.341445 0.341445 0.341445 0.341445 9.75265 9.75265 9.75265 9.75265 9.755 9.755 9.755 9.755 8.1186 8.1186 8.1186 8.1186 0.255997 0.255997 0.255997 0.255997 0.218494 0.218494 0.218494 0.218494 0.231772 0.231772 0.231772 0.231772 0.224195 0.224195 0.224195 0.224195 9.8048 9.8048 9.8048 9.8048 9.79926 9.79926 9.79926 9.79926 0.224687 0.224687 0.224687 0.224687 0.246542 0.246542 0.246542 0.246542 2.00773 2.00773 2.00773 2.00773 0.254683 0.254683 0.254683 0.254683 0.208852 0.208852 0.208852 0.208852 0.160995 0.160995 0.160995 0.160995 0.201458 0.201458 0.201458 0.201458 0.226632 0.226632 0.226632 0.226632 0.279317 0.279317 0.279317 0.279317 0.816837 0.816837 0.816837 0.816837 0.814063 0.814063 0.814063 0.814063 2.57691 2.57691 2.57691 2.57691 9.77262 9.77262 9.77262 9.77262 9.77594 9.77594 9.77594 9.77594 0.176602 0.176602 0.176602 0.176602 0.18692 0.18692 0.18692 0.18692 9.78756 9.78756 9.78756 9.78756 9.82624 9.82624 9.82624 9.82624 9.81412 9.81412 9.81412 9.81412 9.76098 9.76098 9.76098 9.76098 9.8056 9.8056 9.8056 9.8056 9.8324 9.8324 9.8324 9.8324 1.39328 1.39328 1.39328 1.39328 2.21193 2.21193 2.21193 2.21193 8.48838 8.48838 8.48838 8.48838 8.07597 8.07597 8.07597 8.07597 2.68912 2.68912 2.68912 2.68912 2.20784 2.20784 2.20784 2.20784 7.21346 7.21346 7.21346 7.21346 2.1871 2.1871 2.1871 2.1871 2.29443 2.29443 2.29443 2.29443 6.55752 6.55752 6.55752 6.55752 5.95263 5.95263 5.95263 5.95263 8.03864 8.03864 8.03864 8.03864 8.78154 8.78154 8.78154 8.78154 3.63859 3.63859 3.63859 3.63859 3.32494 3.32494 3.32494 3.32494 2.27796 2.27796 2.27796 2.27796 1.74379 1.74379 1.74379 1.74379 7.50294 7.50294 7.50294 7.50294 7.40722 7.40722 7.40722 7.40722 3.87775 3.87775 3.87775 3.87775 3.27583 3.27583 3.27583 3.27583 4.18618 4.18618 4.18618 4.18618 3.6506 3.6506 3.6506 3.6506 1.20732 1.20732 1.20732 1.20732 1.84248 1.84248 1.84248 1.84248 1.20278 1.20278 1.20278 1.20278 1.9187 1.9187 1.9187 1.9187 6.35096 6.35096 6.35096 6.35096 6.48736 6.48736 6.48736 6.48736 1.78498 1.78498 1.78498 1.78498 1.13974 1.13974 1.13974 1.13974 9.58282 9.58282 9.58282 9.58282 8.98565 8.98565 8.98565 8.98565 3.12671 3.12671 3.12671 3.12671 3.06265 3.06265 3.06265 3.06265 3.58561 3.58561 3.58561 3.58561 4.43141 4.43141 4.43141 4.43141 3.65827 3.65827 3.65827 3.65827 3.36857 3.36857 3.36857 3.36857 2.92088 2.92088 2.92088 2.92088 2.78408 2.78408 2.78408 2.78408 4.48664 4.48664 4.48664 4.48664 3.8669 3.8669 3.8669 3.8669 9.57424 9.57424 9.57424 9.57424 9.11634 9.11634 9.11634 9.11634 2.7039 2.7039 2.7039 2.7039 2.61231 2.61231 2.61231 2.61231 9.57265 9.57265 9.57265 9.57265 9.06916 9.06916 9.06916 9.06916 2.97632 2.97632 2.97632 2.97632 2.92038 2.92038 2.92038 2.92038 3.10046 3.10046 3.10046 3.10046 3.7111 3.7111 3.7111 3.7111 6.71689 6.71689 6.71689 6.71689 5.91637 5.91637 5.91637 5.91637 9.61448 9.61448 9.61448 9.61448 8.97288 8.97288 8.97288 8.97288 4.07136 4.07136 4.07136 4.07136 3.27087 3.27087 3.27087 3.27087 1.23182 1.23182 1.23182 1.23182 1.96735 1.96735 1.96735 1.96735 6.41711 6.41711 6.41711 6.41711 5.7522 5.7522 5.7522 5.7522 4.65921 4.65921 4.65921 4.65921 4.5733 4.5733 4.5733 4.5733 4.96838 4.96838 4.96838 4.96838 5.11288 5.11288 5.11288 5.11288 4.53549 4.53549 4.53549 4.53549 4.19562 4.19562 4.19562 4.19562 9.53388 9.53388 9.53388 9.53388 8.7814 8.7814 8.7814 8.7814 8.38258 8.38258 8.38258 8.38258 8.91358 8.91358 8.91358 8.91358 1.63794 1.63794 1.63794 1.63794 0.954283 0.954283 0.954283 0.954283 9.19553 9.19553 9.19553 9.19553 9.61354 9.61354 9.61354 9.61354 0.98653 0.98653 0.98653 0.98653 1.6839 1.6839 1.6839 1.6839 1.04213 1.04213 1.04213 1.04213 1.65031 1.65031 1.65031 1.65031 9.77319 9.77319 9.77319 9.77319 9.26243 9.26243 9.26243 9.26243 0.425165 0.425165 0.425165 0.425165 1.03886 1.03886 1.03886 1.03886 9.13157 9.13157 9.13157 9.13157 8.51951 8.51951 8.51951 8.51951 8.40587 8.40587 8.40587 8.40587 8.99977 8.99977 8.99977 8.99977 -1.91007 -1.91007 -1.91007 -1.91007 -8.07143 -8.07143 -8.07143 -8.07143 -7.75595 -7.75595 -7.75595 -7.75595 -4.77013 -4.77013 -4.77013 -4.77013 -5.227 -5.227 -5.227 -5.227 -8.10559 -8.10559 -8.10559 -8.10559 -1.94726 -1.94726 -1.94726 -1.94726 -8.36249 -8.36249 -8.36249 -8.36249 -7.81711 -7.81711 -7.81711 -7.81711 -8.50591 -8.50591 -8.50591 -8.50591 -6.6077 -6.6077 -6.6077 -6.6077 -4.67067 -4.67067 -4.67067 -4.67067 -1.14855 -1.14855 -1.14855 -1.14855 -7.92897 -7.92897 -7.92897 -7.92897 -5.99645 -5.99645 -5.99645 -5.99645 -7.61598 -7.61598 -7.61598 -7.61598 -7.81227 -7.81227 -7.81227 -7.81227 -4.85298 -4.85298 -4.85298 -4.85298 -2.6274 -2.6274 -2.6274 -2.6274 -7.9001 -7.9001 -7.9001 -7.9001 -3.86951 -3.86951 -3.86951 -3.86951 -6.54137 -6.54137 -6.54137 -6.54137 -4.08229 -4.08229 -4.08229 -4.08229 -4.34678 -4.34678 -4.34678 -4.34678 -3.55103 -3.55103 -3.55103 -3.55103 -8.88611 -8.88611 -8.88611 -8.88611 -5.95572 -5.95572 -5.95572 -5.95572 -5.67152 -5.67152 -5.67152 -5.67152 -8.73444 -8.73444 -8.73444 -8.73444 -2.27769 -2.27769 -2.27769 -2.27769 -2.66825 -2.66825 -2.66825 -2.66825 -2.72604 -2.72604 -2.72604 -2.72604 -6.27424 -6.27424 -6.27424 -6.27424 -6.84975 -6.84975 -6.84975 -6.84975 -8.70382 -8.70382 -8.70382 -8.70382 -1.96789 -1.96789 -1.96789 -1.96789 -4.19492 -4.19492 -4.19492 -4.19492 -4.033 -4.033 -4.033 -4.033 -8.96215 -8.96215 -8.96215 -8.96215 -6.10017 -6.10017 -6.10017 -6.10017 -1.10639 -1.10639 -1.10639 -1.10639 -6.3953 -6.3953 -6.3953 -6.3953 -7.9739 -7.9739 -7.9739 -7.9739 -2.59499 -2.59499 -2.59499 -2.59499 -5.96173 -5.96173 -5.96173 -5.96173 -5.81013 -5.81013 -5.81013 -5.81013 -4.29797 -4.29797 -4.29797 -4.29797 -4.95862 -4.95862 -4.95862 -4.95862 -2.2172 -2.2172 -2.2172 -2.2172 -1.99268 -1.99268 -1.99268 -1.99268 -8.84194 -8.84194 -8.84194 -8.84194 -4.49807 -4.49807 -4.49807 -4.49807 -7.23021 -7.23021 -7.23021 -7.23021 -8.67336 -8.67336 -8.67336 -8.67336 -6.4012 -6.4012 -6.4012 -6.4012 -7.98075 -7.98075 -7.98075 -7.98075 -8.00852 -8.00852 -8.00852 -8.00852 -7.78027 -7.78027 -7.78027 -7.78027 -7.95634 -7.95634 -7.95634 -7.95634 -1.83825 -1.83825 -1.83825 -1.83825 -6.8524 -6.8524 -6.8524 -6.8524 -8.39939 -8.39939 -8.39939 -8.39939 -3.46242 -3.46242 -3.46242 -3.46242 -5.41721 -5.41721 -5.41721 -5.41721 -7.93566 -7.93566 -7.93566 -7.93566 -4.78864 -4.78864 -4.78864 -4.78864 -8.13286 -8.13286 -8.13286 -8.13286 -7.94603 -7.94603 -7.94603 -7.94603 -2.14006 -2.14006 -2.14006 -2.14006 -2.01988 -2.01988 -2.01988 -2.01988 -4.10962 -4.10962 -4.10962 -4.10962 -6.72674 -6.72674 -6.72674 -6.72674 -6.86576 -6.86576 -6.86576 -6.86576 -5.57165 -5.57165 -5.57165 -5.57165 -5.58539 -5.58539 -5.58539 -5.58539 -5.13303 -5.13303 -5.13303 -5.13303 -4.96642 -4.96642 -4.96642 -4.96642 -3.84233 -3.84233 -3.84233 -3.84233 -2.01179 -2.01179 -2.01179 -2.01179 -8.92766 -8.92766 -8.92766 -8.92766 -8.64937 -8.64937 -8.64937 -8.64937 -6.3321 -6.3321 -6.3321 -6.3321 -2.90815 -2.90815 -2.90815 -2.90815 -5.75976 -5.75976 -5.75976 -5.75976 -8.18902 -8.18902 -8.18902 -8.18902 -4.87359 -4.87359 -4.87359 -4.87359 -1.22423 -1.22423 -1.22423 -1.22423 -5.7353 -5.7353 -5.7353 -5.7353 -4.71327 -4.71327 -4.71327 -4.71327 -6.86511 -6.86511 -6.86511 -6.86511 -7.36723 -7.36723 -7.36723 -7.36723 -3.574 -3.574 -3.574 -3.574 -3.55392 -3.55392 -3.55392 -3.55392 -6.64081 -6.64081 -6.64081 -6.64081 -7.90029 -7.90029 -7.90029 -7.90029 -7.9073 -7.9073 -7.9073 -7.9073 -6.84317 -6.84317 -6.84317 -6.84317 -2.14893 -2.14893 -2.14893 -2.14893 -3.54001 -3.54001 -3.54001 -3.54001 -3.70121 -3.70121 -3.70121 -3.70121 -2.19667 -2.19667 -2.19667 -2.19667 -3.35457 -3.35457 -3.35457 -3.35457 -5.02386 -5.02386 -5.02386 -5.02386 -4.12943 -4.12943 -4.12943 -4.12943 -5.54579 -5.54579 -5.54579 -5.54579 -2.07635 -2.07635 -2.07635 -2.07635 -7.14208 -7.14208 -7.14208 -7.14208 -8.76376 -8.76376 -8.76376 -8.76376 -1.28971 -1.28971 -1.28971 -1.28971 -5.45309 -5.45309 -5.45309 -5.45309 -1.60896 -1.60896 -1.60896 -1.60896 -5.87665 -5.87665 -5.87665 -5.87665 -9.52916 -9.52916 -9.52916 -9.52916 -2.33699 -2.33699 -2.33699 -2.33699 -6.19143 -6.19143 -6.19143 -6.19143 -6.67049 -6.67049 -6.67049 -6.67049 -1.85975 -1.85975 -1.85975 -1.85975 -5.47199 -5.47199 -5.47199 -5.47199 -8.3684 -8.3684 -8.3684 -8.3684 -6.98504 -6.98504 -6.98504 -6.98504 -5.42807 -5.42807 -5.42807 -5.42807 -5.33309 -5.33309 -5.33309 -5.33309 -3.17319 -3.17319 -3.17319 -3.17319 -6.23913 -6.23913 -6.23913 -6.23913 -3.00403 -3.00403 -3.00403 -3.00403 -1.94397 -1.94397 -1.94397 -1.94397 -1.91928 -1.91928 -1.91928 -1.91928 -6.42271 -6.42271 -6.42271 -6.42271 -8.75515 -8.75515 -8.75515 -8.75515 -7.07409 -7.07409 -7.07409 -7.07409 -3.36294 -3.36294 -3.36294 -3.36294 -6.47451 -6.47451 -6.47451 -6.47451 -0.518486 -0.518486 -0.518486 -0.518486 -6.26686 -6.26686 -6.26686 -6.26686 -2.50026 -2.50026 -2.50026 -2.50026 -8.0764 -8.0764 -8.0764 -8.0764 -2.17772 -2.17772 -2.17772 -2.17772 -3.10553 -3.10553 -3.10553 -3.10553 -2.74956 -2.74956 -2.74956 -2.74956 -9.4261 -9.4261 -9.4261 -9.4261 -5.94931 -5.94931 -5.94931 -5.94931 -2.54586 -2.54586 -2.54586 -2.54586 -2.95734 -2.95734 -2.95734 -2.95734 -4.1649 -4.1649 -4.1649 -4.1649 -3.55753 -3.55753 -3.55753 -3.55753 -2.21954 -2.21954 -2.21954 -2.21954 -5.98292 -5.98292 -5.98292 -5.98292 -8.98457 -8.98457 -8.98457 -8.98457 -8.81971 -8.81971 -8.81971 -8.81971 -4.87326 -4.87326 -4.87326 -4.87326 -1.50068 -1.50068 -1.50068 -1.50068 -5.45085 -5.45085 -5.45085 -5.45085 -5.84105 -5.84105 -5.84105 -5.84105 -1.20411 -1.20411 -1.20411 -1.20411 -1.09649 -1.09649 -1.09649 -1.09649 -5.11838 -5.11838 -5.11838 -5.11838 -1.77597 -1.77597 -1.77597 -1.77597 -5.90388 -5.90388 -5.90388 -5.90388 -2.75168 -2.75168 -2.75168 -2.75168 -1.94486 -1.94486 -1.94486 -1.94486 -4.84243 -4.84243 -4.84243 -4.84243 -3.22301 -3.22301 -3.22301 -3.22301 -3.84106 -3.84106 -3.84106 -3.84106 -8.07185 -8.07185 -8.07185 -8.07185 -6.28609 -6.28609 -6.28609 -6.28609 -3.20922 -3.20922 -3.20922 -3.20922 -1.835 -1.835 -1.835 -1.835 -5.56834 -5.56834 -5.56834 -5.56834 -5.23447 -5.23447 -5.23447 -5.23447 -4.25482 -4.25482 -4.25482 -4.25482 -4.68905 -4.68905 -4.68905 -4.68905 -3.20747 -3.20747 -3.20747 -3.20747 -8.7523 -8.7523 -8.7523 -8.7523 -3.08588 -3.08588 -3.08588 -3.08588 -5.87786 -5.87786 -5.87786 -5.87786 -5.72825 -5.72825 -5.72825 -5.72825 -5.37204 -5.37204 -5.37204 -5.37204 -8.82712 -8.82712 -8.82712 -8.82712 -6.23398 -6.23398 -6.23398 -6.23398 -4.97533 -4.97533 -4.97533 -4.97533 -5.69876 -5.69876 -5.69876 -5.69876 -5.29111 -5.29111 -5.29111 -5.29111 -2.28554 -2.28554 -2.28554 -2.28554 -6.95937 -6.95937 -6.95937 -6.95937 -5.42865 -5.42865 -5.42865 -5.42865 -6.21676 -6.21676 -6.21676 -6.21676 -9.42652 -9.42652 -9.42652 -9.42652 -9.42834 -9.42834 -9.42834 -9.42834 -1.16621 -1.16621 -1.16621 -1.16621 -2.05664 -2.05664 -2.05664 -2.05664 -1.15562 -1.15562 -1.15562 -1.15562 -5.66371 -5.66371 -5.66371 -5.66371 -2.18662 -2.18662 -2.18662 -2.18662 -4.68341 -4.68341 -4.68341 -4.68341 -1.63238 -1.63238 -1.63238 -1.63238 -6.56189 -6.56189 -6.56189 -6.56189 -0.416686 -0.416686 -0.416686 -0.416686 -5.55461 -5.55461 -5.55461 -5.55461 -8.66268 -8.66268 -8.66268 -8.66268 -3.92452 -3.92452 -3.92452 -3.92452 -5.10112 -5.10112 -5.10112 -5.10112 -5.76156 -5.76156 -5.76156 -5.76156 -1.1584 -1.1584 -1.1584 -1.1584 -5.62179 -5.62179 -5.62179 -5.62179 -1.91559 -1.91559 -1.91559 -1.91559 -4.00077 -4.00077 -4.00077 -4.00077 -4.33879 -4.33879 -4.33879 -4.33879 -6.18946 -6.18946 -6.18946 -6.18946 -0.441387 -0.441387 -0.441387 -0.441387 -2.05658 -2.05658 -2.05658 -2.05658 -6.8742 -6.8742 -6.8742 -6.8742 -6.16123 -6.16123 -6.16123 -6.16123 -4.58568 -4.58568 -4.58568 -4.58568 -9.56601 -9.56601 -9.56601 -9.56601 -6.85053 -6.85053 -6.85053 -6.85053 -6.09092 -6.09092 -6.09092 -6.09092 -5.38303 -5.38303 -5.38303 -5.38303 -8.29308 -8.29308 -8.29308 -8.29308 -5.29474 -5.29474 -5.29474 -5.29474 -2.67445 -2.67445 -2.67445 -2.67445 -6.82425 -6.82425 -6.82425 -6.82425 -4.83248 -4.83248 -4.83248 -4.83248 -3.01831 -3.01831 -3.01831 -3.01831 -8.82105 -8.82105 -8.82105 -8.82105 -1.95548 -1.95548 -1.95548 -1.95548 -4.96045 -4.96045 -4.96045 -4.96045 -1.16069 -1.16069 -1.16069 -1.16069 -8.68636 -8.68636 -8.68636 -8.68636 -6.3052 -6.3052 -6.3052 -6.3052 -7.45846 -7.45846 -7.45846 -7.45846 -8.03914 -8.03914 -8.03914 -8.03914 -4.99383 -4.99383 -4.99383 -4.99383 -4.67897 -4.67897 -4.67897 -4.67897 -7.04859 -7.04859 -7.04859 -7.04859 -3.48595 -3.48595 -3.48595 -3.48595 -9.51861 -9.51861 -9.51861 -9.51861 -2.82212 -2.82212 -2.82212 -2.82212 -2.4705 -2.4705 -2.4705 -2.4705 -2.12271 -2.12271 -2.12271 -2.12271 -1.50171 -1.50171 -1.50171 -1.50171 -3.09813 -3.09813 -3.09813 -3.09813 -8.06149 -8.06149 -8.06149 -8.06149 -8.05509 -8.05509 -8.05509 -8.05509 -7.42347 -7.42347 -7.42347 -7.42347 -5.03195 -5.03195 -5.03195 -5.03195 -8.35259 -8.35259 -8.35259 -8.35259 -2.88124 -2.88124 -2.88124 -2.88124 -6.70493 -6.70493 -6.70493 -6.70493 -6.34465 -6.34465 -6.34465 -6.34465 -7.37 -7.37 -7.37 -7.37 -6.43523 -6.43523 -6.43523 -6.43523 -8.63318 -8.63318 -8.63318 -8.63318 -4.40383 -4.40383 -4.40383 -4.40383 -9.55157 -9.55157 -9.55157 -9.55157 -2.57439 -2.57439 -2.57439 -2.57439 -8.81499 -8.81499 -8.81499 -8.81499 -8.69262 -8.69262 -8.69262 -8.69262 -8.76656 -8.76656 -8.76656 -8.76656 -5.27882 -5.27882 -5.27882 -5.27882 -1.80858 -1.80858 -1.80858 -1.80858 -0.41594 -0.41594 -0.41594 -0.41594 -1.11962 -1.11962 -1.11962 -1.11962 -2.0079 -2.0079 -2.0079 -2.0079 -8.62277 -8.62277 -8.62277 -8.62277 -3.80064 -3.80064 -3.80064 -3.80064 -8.78162 -8.78162 -8.78162 -8.78162 -1.1364 -1.1364 -1.1364 -1.1364 -8.09587 -8.09587 -8.09587 -8.09587 -4.45524 -4.45524 -4.45524 -4.45524 -3.45109 -3.45109 -3.45109 -3.45109 -3.40192 -3.40192 -3.40192 -3.40192 -6.62667 -6.62667 -6.62667 -6.62667 -6.42934 -6.42934 -6.42934 -6.42934 -8.10418 -8.10418 -8.10418 -8.10418 -8.6421 -8.6421 -8.6421 -8.6421 -1.89784 -1.89784 -1.89784 -1.89784 -3.21657 -3.21657 -3.21657 -3.21657 -8.61546 -8.61546 -8.61546 -8.61546 -7.97448 -7.97448 -7.97448 -7.97448 -9.37752 -9.37752 -9.37752 -9.37752 -3.86148 -3.86148 -3.86148 -3.86148 -3.06027 -3.06027 -3.06027 -3.06027 -3.56639 -3.56639 -3.56639 -3.56639 -4.0332 -4.0332 -4.0332 -4.0332 -4.64732 -4.64732 -4.64732 -4.64732 -1.5482 -1.5482 -1.5482 -1.5482 -1.42945 -1.42945 -1.42945 -1.42945 -2.15791 -2.15791 -2.15791 -2.15791 -3.31022 -3.31022 -3.31022 -3.31022 -2.74676 -2.74676 -2.74676 -2.74676 -3.70989 -3.70989 -3.70989 -3.70989 -8.01976 -8.01976 -8.01976 -8.01976 -6.86509 -6.86509 -6.86509 -6.86509 -4.88617 -4.88617 -4.88617 -4.88617 -5.04323 -5.04323 -5.04323 -5.04323 -4.32738 -4.32738 -4.32738 -4.32738 -2.04457 -2.04457 -2.04457 -2.04457 -6.7911 -6.7911 -6.7911 -6.7911 -4.18235 -4.18235 -4.18235 -4.18235 -9.46371 -9.46371 -9.46371 -9.46371 -4.81091 -4.81091 -4.81091 -4.81091 -3.6796 -3.6796 -3.6796 -3.6796 -1.91423 -1.91423 -1.91423 -1.91423 -5.90921 -5.90921 -5.90921 -5.90921 -6.74486 -6.74486 -6.74486 -6.74486 -3.33459 -3.33459 -3.33459 -3.33459 -8.86371 -8.86371 -8.86371 -8.86371 -8.75431 -8.75431 -8.75431 -8.75431 -5.47561 -5.47561 -5.47561 -5.47561 -5.17391 -5.17391 -5.17391 -5.17391 -4.15888 -4.15888 -4.15888 -4.15888 -4.16388 -4.16388 -4.16388 -4.16388 -3.19129 -3.19129 -3.19129 -3.19129 -6.22986 -6.22986 -6.22986 -6.22986 -8.51222 -8.51222 -8.51222 -8.51222 -8.3697 -8.3697 -8.3697 -8.3697 -9.52415 -9.52415 -9.52415 -9.52415 -1.14614 -1.14614 -1.14614 -1.14614 -2.86057 -2.86057 -2.86057 -2.86057 -5.64833 -5.64833 -5.64833 -5.64833 -6.64678 -6.64678 -6.64678 -6.64678 -8.80081 -8.80081 -8.80081 -8.80081 -2.38634 -2.38634 -2.38634 -2.38634 -5.19449 -5.19449 -5.19449 -5.19449 -8.18259 -8.18259 -8.18259 -8.18259 -1.04598 -1.04598 -1.04598 -1.04598 -7.21542 -7.21542 -7.21542 -7.21542 -4.03464 -4.03464 -4.03464 -4.03464 -8.84018 -8.84018 -8.84018 -8.84018 -4.25297 -4.25297 -4.25297 -4.25297 -2.01898 -2.01898 -2.01898 -2.01898 -1.25075 -1.25075 -1.25075 -1.25075 -6.1613 -6.1613 -6.1613 -6.1613 -1.77402 -1.77402 -1.77402 -1.77402 -4.66213 -4.66213 -4.66213 -4.66213 -6.89193 -6.89193 -6.89193 -6.89193 -3.19455 -3.19455 -3.19455 -3.19455 -8.15307 -8.15307 -8.15307 -8.15307 -3.82962 -3.82962 -3.82962 -3.82962 -3.75405 -3.75405 -3.75405 -3.75405 -1.67884 -1.67884 -1.67884 -1.67884 -3.83272 -3.83272 -3.83272 -3.83272 -5.64001 -5.64001 -5.64001 -5.64001 -1.27945 -1.27945 -1.27945 -1.27945 -7.16846 -7.16846 -7.16846 -7.16846 -4.50897 -4.50897 -4.50897 -4.50897 -5.09247 -5.09247 -5.09247 -5.09247 -2.74473 -2.74473 -2.74473 -2.74473 -4.3464 -4.3464 -4.3464 -4.3464 -6.18511 -6.18511 -6.18511 -6.18511 -1.23605 -1.23605 -1.23605 -1.23605 -7.0907 -7.0907 -7.0907 -7.0907 -2.19811 -2.19811 -2.19811 -2.19811 -1.71183 -1.71183 -1.71183 -1.71183 -8.69797 -8.69797 -8.69797 -8.69797 -7.97935 -7.97935 -7.97935 -7.97935 -3.97708 -3.97708 -3.97708 -3.97708 -7.95179 -7.95179 -7.95179 -7.95179 -2.0317 -2.0317 -2.0317 -2.0317 -5.97329 -5.97329 -5.97329 -5.97329 -5.66719 -5.66719 -5.66719 -5.66719 -5.89908 -5.89908 -5.89908 -5.89908 -8.25402 -8.25402 -8.25402 -8.25402 -4.01769 -4.01769 -4.01769 -4.01769 -3.13234 -3.13234 -3.13234 -3.13234 -6.16495 -6.16495 -6.16495 -6.16495 -7.40964 -7.40964 -7.40964 -7.40964 -4.6604 -4.6604 -4.6604 -4.6604 -4.01866 -4.01866 -4.01866 -4.01866 -6.06402 -6.06402 -6.06402 -6.06402 -2.29796 -2.29796 -2.29796 -2.29796 -4.01676 -4.01676 -4.01676 -4.01676 -3.21029 -3.21029 -3.21029 -3.21029 -8.84768 -8.84768 -8.84768 -8.84768 -4.25425 -4.25425 -4.25425 -4.25425 -4.9013 -4.9013 -4.9013 -4.9013 -3.79526 -3.79526 -3.79526 -3.79526 -8.06998 -8.06998 -8.06998 -8.06998 -3.89594 -3.89594 -3.89594 -3.89594 -6.72279 -6.72279 -6.72279 -6.72279 -1.08448 -1.08448 -1.08448 -1.08448 -2.92156 -2.92156 -2.92156 -2.92156 -1.2646 -1.2646 -1.2646 -1.2646 -6.75561 -6.75561 -6.75561 -6.75561 -3.20543 -3.20543 -3.20543 -3.20543 -6.42522 -6.42522 -6.42522 -6.42522 -7.87255 -7.87255 -7.87255 -7.87255 -2.50154 -2.50154 -2.50154 -2.50154 -6.26879 -6.26879 -6.26879 -6.26879 -6.20768 -6.20768 -6.20768 -6.20768 -3.75829 -3.75829 -3.75829 -3.75829 -8.04742 -8.04742 -8.04742 -8.04742 -4.04445 -4.04445 -4.04445 -4.04445 -9.39399 -9.39399 -9.39399 -9.39399 -3.76036 -3.76036 -3.76036 -3.76036 -5.26445 -5.26445 -5.26445 -5.26445 -2.07522 -2.07522 -2.07522 -2.07522 -0.431406 -0.431406 -0.431406 -0.431406 -3.2993 -3.2993 -3.2993 -3.2993 -2.17811 -2.17811 -2.17811 -2.17811 -8.86875 -8.86875 -8.86875 -8.86875 -5.20546 -5.20546 -5.20546 -5.20546 -6.37584 -6.37584 -6.37584 -6.37584 -8.80974 -8.80974 -8.80974 -8.80974 -6.8828 -6.8828 -6.8828 -6.8828 -3.52106 -3.52106 -3.52106 -3.52106 -5.54089 -5.54089 -5.54089 -5.54089 -5.36863 -5.36863 -5.36863 -5.36863 -8.8642 -8.8642 -8.8642 -8.8642 -3.47059 -3.47059 -3.47059 -3.47059 -4.43608 -4.43608 -4.43608 -4.43608 -1.93397 -1.93397 -1.93397 -1.93397 -7.44615 -7.44615 -7.44615 -7.44615 -1.14692 -1.14692 -1.14692 -1.14692 -9.52777 -9.52777 -9.52777 -9.52777 -9.55043 -9.55043 -9.55043 -9.55043 -3.73603 -3.73603 -3.73603 -3.73603 -6.334 -6.334 -6.334 -6.334 -4.56289 -4.56289 -4.56289 -4.56289 -6.10699 -6.10699 -6.10699 -6.10699 -4.08031 -4.08031 -4.08031 -4.08031 -7.73883 -7.73883 -7.73883 -7.73883 -0.433206 -0.433206 -0.433206 -0.433206 -6.32433 -6.32433 -6.32433 -6.32433 -2.94172 -2.94172 -2.94172 -2.94172 -1.03054 -1.03054 -1.03054 -1.03054 -9.39654 -9.39654 -9.39654 -9.39654 -8.04875 -8.04875 -8.04875 -8.04875 -6.87578 -6.87578 -6.87578 -6.87578 -6.61264 -6.61264 -6.61264 -6.61264 -8.10428 -8.10428 -8.10428 -8.10428 -5.52921 -5.52921 -5.52921 -5.52921 -6.12787 -6.12787 -6.12787 -6.12787 -7.16843 -7.16843 -7.16843 -7.16843 -1.20628 -1.20628 -1.20628 -1.20628 -8.55475 -8.55475 -8.55475 -8.55475 -4.43056 -4.43056 -4.43056 -4.43056 -1.13614 -1.13614 -1.13614 -1.13614 -8.92775 -8.92775 -8.92775 -8.92775 -6.23631 -6.23631 -6.23631 -6.23631 -9.54851 -9.54851 -9.54851 -9.54851 -7.99298 -7.99298 -7.99298 -7.99298 -5.0629 -5.0629 -5.0629 -5.0629 -0.492729 -0.492729 -0.492729 -0.492729 -8.1694 -8.1694 -8.1694 -8.1694 -8.76536 -8.76536 -8.76536 -8.76536 -6.21903 -6.21903 -6.21903 -6.21903 -4.82485 -4.82485 -4.82485 -4.82485 -8.94847 -8.94847 -8.94847 -8.94847 -6.80929 -6.80929 -6.80929 -6.80929 -1.05122 -1.05122 -1.05122 -1.05122 -8.13922 -8.13922 -8.13922 -8.13922 -3.36328 -3.36328 -3.36328 -3.36328 -1.6678 -1.6678 -1.6678 -1.6678 -8.18687 -8.18687 -8.18687 -8.18687 -6.38238 -6.38238 -6.38238 -6.38238 -2.46138 -2.46138 -2.46138 -2.46138 -5.99684 -5.99684 -5.99684 -5.99684 -5.48714 -5.48714 -5.48714 -5.48714 -5.36874 -5.36874 -5.36874 -5.36874 -8.05302 -8.05302 -8.05302 -8.05302 -3.1709 -3.1709 -3.1709 -3.1709 -6.76921 -6.76921 -6.76921 -6.76921 -4.63573 -4.63573 -4.63573 -4.63573 -6.36859 -6.36859 -6.36859 -6.36859 -4.79739 -4.79739 -4.79739 -4.79739 -6.86755 -6.86755 -6.86755 -6.86755 -9.51276 -9.51276 -9.51276 -9.51276 -1.97757 -1.97757 -1.97757 -1.97757 -8.97095 -8.97095 -8.97095 -8.97095 -3.83121 -3.83121 -3.83121 -3.83121 -1.21817 -1.21817 -1.21817 -1.21817 -4.4371 -4.4371 -4.4371 -4.4371 -3.57609 -3.57609 -3.57609 -3.57609 -3.22588 -3.22588 -3.22588 -3.22588 -3.92807 -3.92807 -3.92807 -3.92807 -1.41928 -1.41928 -1.41928 -1.41928 -8.75281 -8.75281 -8.75281 -8.75281 -7.4417 -7.4417 -7.4417 -7.4417 -4.25663 -4.25663 -4.25663 -4.25663 -8.21986 -8.21986 -8.21986 -8.21986 -8.77001 -8.77001 -8.77001 -8.77001 -0.394631 -0.394631 -0.394631 -0.394631 -6.86331 -6.86331 -6.86331 -6.86331 -3.72968 -3.72968 -3.72968 -3.72968 -4.0948 -4.0948 -4.0948 -4.0948 -1.17337 -1.17337 -1.17337 -1.17337 -3.06922 -3.06922 -3.06922 -3.06922 -9.4813 -9.4813 -9.4813 -9.4813 -3.24385 -3.24385 -3.24385 -3.24385 -1.91497 -1.91497 -1.91497 -1.91497 -6.41663 -6.41663 -6.41663 -6.41663 -3.12469 -3.12469 -3.12469 -3.12469 -1.28337 -1.28337 -1.28337 -1.28337 -5.7491 -5.7491 -5.7491 -5.7491 -1.26279 -1.26279 -1.26279 -1.26279 -5.17743 -5.17743 -5.17743 -5.17743 -4.31005 -4.31005 -4.31005 -4.31005 -8.20412 -8.20412 -8.20412 -8.20412 -8.7869 -8.7869 -8.7869 -8.7869 -3.80739 -3.80739 -3.80739 -3.80739 -8.05903 -8.05903 -8.05903 -8.05903 -7.94713 -7.94713 -7.94713 -7.94713 -4.43548 -4.43548 -4.43548 -4.43548 -8.72243 -8.72243 -8.72243 -8.72243 -5.97099 -5.97099 -5.97099 -5.97099 -3.37711 -3.37711 -3.37711 -3.37711 -3.57902 -3.57902 -3.57902 -3.57902 -5.03437 -5.03437 -5.03437 -5.03437 -0.432964 -0.432964 -0.432964 -0.432964 -6.36878 -6.36878 -6.36878 -6.36878 -7.87229 -7.87229 -7.87229 -7.87229 -8.732 -8.732 -8.732 -8.732 -8.82247 -8.82247 -8.82247 -8.82247 -4.13925 -4.13925 -4.13925 -4.13925 -6.88524 -6.88524 -6.88524 -6.88524 -3.98384 -3.98384 -3.98384 -3.98384 -3.75152 -3.75152 -3.75152 -3.75152 -2.05972 -2.05972 -2.05972 -2.05972 -7.94551 -7.94551 -7.94551 -7.94551 -4.60001 -4.60001 -4.60001 -4.60001 -1.31555 -1.31555 -1.31555 -1.31555 -2.56558 -2.56558 -2.56558 -2.56558 -8.33654 -8.33654 -8.33654 -8.33654 -1.88594 -1.88594 -1.88594 -1.88594 -2.47387 -2.47387 -2.47387 -2.47387 -8.80055 -8.80055 -8.80055 -8.80055 -5.36438 -5.36438 -5.36438 -5.36438 -8.88471 -8.88471 -8.88471 -8.88471 -3.73942 -3.73942 -3.73942 -3.73942 -3.62976 -3.62976 -3.62976 -3.62976 -7.89898 -7.89898 -7.89898 -7.89898 -1.37231 -1.37231 -1.37231 -1.37231 -6.27502 -6.27502 -6.27502 -6.27502 -8.933 -8.933 -8.933 -8.933 -4.94652 -4.94652 -4.94652 -4.94652 -2.16819 -2.16819 -2.16819 -2.16819 -3.6131 -3.6131 -3.6131 -3.6131 -8.27248 -8.27248 -8.27248 -8.27248 -6.2171 -6.2171 -6.2171 -6.2171 -4.28573 -4.28573 -4.28573 -4.28573 -7.65385 -7.65385 -7.65385 -7.65385 -2.84938 -2.84938 -2.84938 -2.84938 -9.48747 -9.48747 -9.48747 -9.48747 -2.37924 -2.37924 -2.37924 -2.37924 -3.40101 -3.40101 -3.40101 -3.40101 -3.89839 -3.89839 -3.89839 -3.89839 -7.55848 -7.55848 -7.55848 -7.55848 -7.87711 -7.87711 -7.87711 -7.87711 -8.83898 -8.83898 -8.83898 -8.83898 -2.74619 -2.74619 -2.74619 -2.74619 -4.93369 -4.93369 -4.93369 -4.93369 -3.64107 -3.64107 -3.64107 -3.64107 -1.15202 -1.15202 -1.15202 -1.15202 -3.20476 -3.20476 -3.20476 -3.20476 -5.93143 -5.93143 -5.93143 -5.93143 -3.88601 -3.88601 -3.88601 -3.88601 -4.52684 -4.52684 -4.52684 -4.52684 -8.88399 -8.88399 -8.88399 -8.88399 -9.40975 -9.40975 -9.40975 -9.40975 -2.19492 -2.19492 -2.19492 -2.19492 -1.99597 -1.99597 -1.99597 -1.99597 -3.40217 -3.40217 -3.40217 -3.40217 -5.12966 -5.12966 -5.12966 -5.12966 -2.51723 -2.51723 -2.51723 -2.51723 -6.24944 -6.24944 -6.24944 -6.24944 -9.56018 -9.56018 -9.56018 -9.56018 -3.99148 -3.99148 -3.99148 -3.99148 -1.78351 -1.78351 -1.78351 -1.78351 -7.56831 -7.56831 -7.56831 -7.56831 -2.85753 -2.85753 -2.85753 -2.85753 -7.50267 -7.50267 -7.50267 -7.50267 -5.57316 -5.57316 -5.57316 -5.57316 -7.22693 -7.22693 -7.22693 -7.22693 -7.97904 -7.97904 -7.97904 -7.97904 -8.80393 -8.80393 -8.80393 -8.80393 -9.56008 -9.56008 -9.56008 -9.56008 -4.68312 -4.68312 -4.68312 -4.68312 -5.25739 -5.25739 -5.25739 -5.25739 -3.25024 -3.25024 -3.25024 -3.25024 -1.30983 -1.30983 -1.30983 -1.30983 -6.3776 -6.3776 -6.3776 -6.3776 -3.20306 -3.20306 -3.20306 -3.20306 -5.9303 -5.9303 -5.9303 -5.9303 -1.42078 -1.42078 -1.42078 -1.42078 -8.54109 -8.54109 -8.54109 -8.54109 -6.27574 -6.27574 -6.27574 -6.27574 -0.458303 -0.458303 -0.458303 -0.458303 -3.21645 -3.21645 -3.21645 -3.21645 -8.05604 -8.05604 -8.05604 -8.05604 -2.46973 -2.46973 -2.46973 -2.46973 -6.54924 -6.54924 -6.54924 -6.54924 -8.88695 -8.88695 -8.88695 -8.88695 -3.34999 -3.34999 -3.34999 -3.34999 -2.06882 -2.06882 -2.06882 -2.06882 -3.62425 -3.62425 -3.62425 -3.62425 -4.54252 -4.54252 -4.54252 -4.54252 -4.7685 -4.7685 -4.7685 -4.7685 -4.00475 -4.00475 -4.00475 -4.00475 -4.44611 -4.44611 -4.44611 -4.44611 -6.98776 -6.98776 -6.98776 -6.98776 -2.79704 -2.79704 -2.79704 -2.79704 -3.71383 -3.71383 -3.71383 -3.71383 -1.63982 -1.63982 -1.63982 -1.63982 -2.8163 -2.8163 -2.8163 -2.8163 -7.97151 -7.97151 -7.97151 -7.97151 -7.65633 -7.65633 -7.65633 -7.65633 -8.71298 -8.71298 -8.71298 -8.71298 -6.90815 -6.90815 -6.90815 -6.90815 -2.51885 -2.51885 -2.51885 -2.51885 -1.21212 -1.21212 -1.21212 -1.21212 -1.09946 -1.09946 -1.09946 -1.09946 -6.23508 -6.23508 -6.23508 -6.23508 -1.13221 -1.13221 -1.13221 -1.13221 -0.592819 -0.592819 -0.592819 -0.592819 -9.63033 -9.63033 -9.63033 -9.63033 -2.34564 -2.34564 -2.34564 -2.34564 -1.7171 -1.7171 -1.7171 -1.7171 -5.04719 -5.04719 -5.04719 -5.04719 -6.44263 -6.44263 -6.44263 -6.44263 -3.09918 -3.09918 -3.09918 -3.09918 -0.969237 -0.969237 -0.969237 -0.969237 -4.00704 -4.00704 -4.00704 -4.00704 -5.41825 -5.41825 -5.41825 -5.41825 -8.21621 -8.21621 -8.21621 -8.21621 -4.84159 -4.84159 -4.84159 -4.84159 -4.14598 -4.14598 -4.14598 -4.14598 -1.85846 -1.85846 -1.85846 -1.85846 -1.83255 -1.83255 -1.83255 -1.83255 -8.64681 -8.64681 -8.64681 -8.64681 -6.08492 -6.08492 -6.08492 -6.08492 -4.30383 -4.30383 -4.30383 -4.30383 -4.04113 -4.04113 -4.04113 -4.04113 -5.1996 -5.1996 -5.1996 -5.1996 -1.1943 -1.1943 -1.1943 -1.1943 -9.176 -9.176 -9.176 -9.176 -3.76476 -3.76476 -3.76476 -3.76476 -4.46483 -4.46483 -4.46483 -4.46483 -2.19312 -2.19312 -2.19312 -2.19312 -7.68323 -7.68323 -7.68323 -7.68323 -2.23093 -2.23093 -2.23093 -2.23093 -9.44629 -9.44629 -9.44629 -9.44629 -3.05075 -3.05075 -3.05075 -3.05075 -6.8318 -6.8318 -6.8318 -6.8318 -6.07031 -6.07031 -6.07031 -6.07031 -1.05452 -1.05452 -1.05452 -1.05452 -4.50729 -4.50729 -4.50729 -4.50729 -3.65633 -3.65633 -3.65633 -3.65633 -3.73521 -3.73521 -3.73521 -3.73521 -9.61411 -9.61411 -9.61411 -9.61411 -5.42196 -5.42196 -5.42196 -5.42196 -3.52404 -3.52404 -3.52404 -3.52404 -3.68346 -3.68346 -3.68346 -3.68346 -2.95538 -2.95538 -2.95538 -2.95538 -7.07753 -7.07753 -7.07753 -7.07753 -6.95752 -6.95752 -6.95752 -6.95752 -3.16019 -3.16019 -3.16019 -3.16019 -1.86883 -1.86883 -1.86883 -1.86883 -8.87035 -8.87035 -8.87035 -8.87035 -6.59524 -6.59524 -6.59524 -6.59524 -1.00209 -1.00209 -1.00209 -1.00209 -1.36023 -1.36023 -1.36023 -1.36023 -4.37337 -4.37337 -4.37337 -4.37337 -6.53335 -6.53335 -6.53335 -6.53335 -6.2818 -6.2818 -6.2818 -6.2818 -2.68218 -2.68218 -2.68218 -2.68218 -1.65192 -1.65192 -1.65192 -1.65192 -4.07903 -4.07903 -4.07903 -4.07903 -1.27542 -1.27542 -1.27542 -1.27542 -6.0205 -6.0205 -6.0205 -6.0205 -2.18237 -2.18237 -2.18237 -2.18237 -1.07588 -1.07588 -1.07588 -1.07588 -0.539621 -0.539621 -0.539621 -0.539621 -5.40328 -5.40328 -5.40328 -5.40328 -3.09697 -3.09697 -3.09697 -3.09697 -6.53759 -6.53759 -6.53759 -6.53759 -5.98445 -5.98445 -5.98445 -5.98445 -8.17871 -8.17871 -8.17871 -8.17871 -6.11393 -6.11393 -6.11393 -6.11393 -2.63766 -2.63766 -2.63766 -2.63766 -4.48774 -4.48774 -4.48774 -4.48774 -5.68439 -5.68439 -5.68439 -5.68439 -3.8452 -3.8452 -3.8452 -3.8452 -4.75751 -4.75751 -4.75751 -4.75751 -9.5482 -9.5482 -9.5482 -9.5482 -0.95379 -0.95379 -0.95379 -0.95379 -5.14006 -5.14006 -5.14006 -5.14006 -8.97006 -8.97006 -8.97006 -8.97006 -4.64216 -4.64216 -4.64216 -4.64216 -7.60366 -7.60366 -7.60366 -7.60366 -1.99078 -1.99078 -1.99078 -1.99078 -3.36024 -3.36024 -3.36024 -3.36024 -0.434255 -0.434255 -0.434255 -0.434255 -4.24849 -4.24849 -4.24849 -4.24849 -0.523426 -0.523426 -0.523426 -0.523426 -7.03064 -7.03064 -7.03064 -7.03064 -8.83346 -8.83346 -8.83346 -8.83346 -1.91016 -1.91016 -1.91016 -1.91016 -2.39264 -2.39264 -2.39264 -2.39264 -9.53649 -9.53649 -9.53649 -9.53649 -4.40359 -4.40359 -4.40359 -4.40359 -9.60879 -9.60879 -9.60879 -9.60879 -6.43905 -6.43905 -6.43905 -6.43905 -8.46656 -8.46656 -8.46656 -8.46656 -5.79588 -5.79588 -5.79588 -5.79588 -6.91204 -6.91204 -6.91204 -6.91204 -4.26187 -4.26187 -4.26187 -4.26187 -4.66549 -4.66549 -4.66549 -4.66549 -5.99383 -5.99383 -5.99383 -5.99383 -8.00885 -8.00885 -8.00885 -8.00885 -5.28502 -5.28502 -5.28502 -5.28502 -2.11241 -2.11241 -2.11241 -2.11241 -2.7194 -2.7194 -2.7194 -2.7194 -8.20106 -8.20106 -8.20106 -8.20106 -6.57718 -6.57718 -6.57718 -6.57718 -4.11015 -4.11015 -4.11015 -4.11015 -8.05029 -8.05029 -8.05029 -8.05029 -9.5678 -9.5678 -9.5678 -9.5678 -8.07332 -8.07332 -8.07332 -8.07332 -6.50243 -6.50243 -6.50243 -6.50243 -6.31098 -6.31098 -6.31098 -6.31098 -6.923 -6.923 -6.923 -6.923 -7.94801 -7.94801 -7.94801 -7.94801 -3.31256 -3.31256 -3.31256 -3.31256 -4.24382 -4.24382 -4.24382 -4.24382 -3.57843 -3.57843 -3.57843 -3.57843 -8.68872 -8.68872 -8.68872 -8.68872 -9.19016 -9.19016 -9.19016 -9.19016 -8.94031 -8.94031 -8.94031 -8.94031 -5.9302 -5.9302 -5.9302 -5.9302 -3.76744 -3.76744 -3.76744 -3.76744 -5.11749 -5.11749 -5.11749 -5.11749 -3.29519 -3.29519 -3.29519 -3.29519 -8.14057 -8.14057 -8.14057 -8.14057 -7.26119 -7.26119 -7.26119 -7.26119 -1.40627 -1.40627 -1.40627 -1.40627 -0.462599 -0.462599 -0.462599 -0.462599 -1.37027 -1.37027 -1.37027 -1.37027 -9.00064 -9.00064 -9.00064 -9.00064 -4.59507 -4.59507 -4.59507 -4.59507 -1.09613 -1.09613 -1.09613 -1.09613 -3.98516 -3.98516 -3.98516 -3.98516 -3.5167 -3.5167 -3.5167 -3.5167 -5.37848 -5.37848 -5.37848 -5.37848 -1.61955 -1.61955 -1.61955 -1.61955 -9.00608 -9.00608 -9.00608 -9.00608 -2.83796 -2.83796 -2.83796 -2.83796 -0.40617 -0.40617 -0.40617 -0.40617 -4.36899 -4.36899 -4.36899 -4.36899 -5.30308 -5.30308 -5.30308 -5.30308 -0.298322 -0.298322 -0.298322 -0.298322 -2.87981 -2.87981 -2.87981 -2.87981 -2.66293 -2.66293 -2.66293 -2.66293 -8.07776 -8.07776 -8.07776 -8.07776 -5.48261 -5.48261 -5.48261 -5.48261 -5.52447 -5.52447 -5.52447 -5.52447 -7.15767 -7.15767 -7.15767 -7.15767 -2.30097 -2.30097 -2.30097 -2.30097 -3.63257 -3.63257 -3.63257 -3.63257 -8.2526 -8.2526 -8.2526 -8.2526 -8.8502 -8.8502 -8.8502 -8.8502 -2.93872 -2.93872 -2.93872 -2.93872 -4.43957 -4.43957 -4.43957 -4.43957 -4.69188 -4.69188 -4.69188 -4.69188 -8.05106 -8.05106 -8.05106 -8.05106 -7.36754 -7.36754 -7.36754 -7.36754 -5.8183 -5.8183 -5.8183 -5.8183 -6.84919 -6.84919 -6.84919 -6.84919 -6.94915 -6.94915 -6.94915 -6.94915 -6.23781 -6.23781 -6.23781 -6.23781 -4.99009 -4.99009 -4.99009 -4.99009 -8.99911 -8.99911 -8.99911 -8.99911 -7.37377 -7.37377 -7.37377 -7.37377 -6.81412 -6.81412 -6.81412 -6.81412 -4.37591 -4.37591 -4.37591 -4.37591 -3.0901 -3.0901 -3.0901 -3.0901 -1.71906 -1.71906 -1.71906 -1.71906 -4.3102 -4.3102 -4.3102 -4.3102 -3.21096 -3.21096 -3.21096 -3.21096 -3.82291 -3.82291 -3.82291 -3.82291 -5.58819 -5.58819 -5.58819 -5.58819 -5.44653 -5.44653 -5.44653 -5.44653 -1.52763 -1.52763 -1.52763 -1.52763 -5.87173 -5.87173 -5.87173 -5.87173 -1.40613 -1.40613 -1.40613 -1.40613 -3.87592 -3.87592 -3.87592 -3.87592 -4.66564 -4.66564 -4.66564 -4.66564 -6.47769 -6.47769 -6.47769 -6.47769 -1.35708 -1.35708 -1.35708 -1.35708 -8.55666 -8.55666 -8.55666 -8.55666 -7.12577 -7.12577 -7.12577 -7.12577 -9.5896 -9.5896 -9.5896 -9.5896 -5.73152 -5.73152 -5.73152 -5.73152 -6.14873 -6.14873 -6.14873 -6.14873 -8.56021 -8.56021 -8.56021 -8.56021 -3.71972 -3.71972 -3.71972 -3.71972 -6.45616 -6.45616 -6.45616 -6.45616 -9.61823 -9.61823 -9.61823 -9.61823 -1.29142 -1.29142 -1.29142 -1.29142 -9.55392 -9.55392 -9.55392 -9.55392 -5.02519 -5.02519 -5.02519 -5.02519 -3.30628 -3.30628 -3.30628 -3.30628 -6.44684 -6.44684 -6.44684 -6.44684 -8.13341 -8.13341 -8.13341 -8.13341 -8.83963 -8.83963 -8.83963 -8.83963 -6.6533 -6.6533 -6.6533 -6.6533 -2.07692 -2.07692 -2.07692 -2.07692 -4.07916 -4.07916 -4.07916 -4.07916 -1.01076 -1.01076 -1.01076 -1.01076 -6.48181 -6.48181 -6.48181 -6.48181 -8.84627 -8.84627 -8.84627 -8.84627 -0.401654 -0.401654 -0.401654 -0.401654 -5.84175 -5.84175 -5.84175 -5.84175 -7.25592 -7.25592 -7.25592 -7.25592 -6.78174 -6.78174 -6.78174 -6.78174 -3.53651 -3.53651 -3.53651 -3.53651 -8.24844 -8.24844 -8.24844 -8.24844 -8.93536 -8.93536 -8.93536 -8.93536 -5.19208 -5.19208 -5.19208 -5.19208 -3.05695 -3.05695 -3.05695 -3.05695 -4.94896 -4.94896 -4.94896 -4.94896 -5.08713 -5.08713 -5.08713 -5.08713 -5.7297 -5.7297 -5.7297 -5.7297 -6.97201 -6.97201 -6.97201 -6.97201 -5.12762 -5.12762 -5.12762 -5.12762 -4.45867 -4.45867 -4.45867 -4.45867 -5.37675 -5.37675 -5.37675 -5.37675 -5.39227 -5.39227 -5.39227 -5.39227 -3.41377 -3.41377 -3.41377 -3.41377 -2.86555 -2.86555 -2.86555 -2.86555 -1.29863 -1.29863 -1.29863 -1.29863 -0.995648 -0.995648 -0.995648 -0.995648 -8.93955 -8.93955 -8.93955 -8.93955 -3.2517 -3.2517 -3.2517 -3.2517 -6.55166 -6.55166 -6.55166 -6.55166 -3.73808 -3.73808 -3.73808 -3.73808 -6.66612 -6.66612 -6.66612 -6.66612 -5.60613 -5.60613 -5.60613 -5.60613 -2.80713 -2.80713 -2.80713 -2.80713 -1.36683 -1.36683 -1.36683 -1.36683 -8.54659 -8.54659 -8.54659 -8.54659 -5.8589 -5.8589 -5.8589 -5.8589 -6.48275 -6.48275 -6.48275 -6.48275 -0.493718 -0.493718 -0.493718 -0.493718 -1.29412 -1.29412 -1.29412 -1.29412 -6.88587 -6.88587 -6.88587 -6.88587 -3.61489 -3.61489 -3.61489 -3.61489 -6.24607 -6.24607 -6.24607 -6.24607 -1.30129 -1.30129 -1.30129 -1.30129 -1.22916 -1.22916 -1.22916 -1.22916 -3.07647 -3.07647 -3.07647 -3.07647 -8.99016 -8.99016 -8.99016 -8.99016 -4.2321 -4.2321 -4.2321 -4.2321 -5.43485 -5.43485 -5.43485 -5.43485 -1.1298 -1.1298 -1.1298 -1.1298 -8.35355 -8.35355 -8.35355 -8.35355 -6.68967 -6.68967 -6.68967 -6.68967 -4.46865 -4.46865 -4.46865 -4.46865 -6.93738 -6.93738 -6.93738 -6.93738 -8.58829 -8.58829 -8.58829 -8.58829 -2.99918 -2.99918 -2.99918 -2.99918 -6.25392 -6.25392 -6.25392 -6.25392 -8.61339 -8.61339 -8.61339 -8.61339 -9.55571 -9.55571 -9.55571 -9.55571 -8.08115 -8.08115 -8.08115 -8.08115 -4.60349 -4.60349 -4.60349 -4.60349 -2.09054 -2.09054 -2.09054 -2.09054 -9.0258 -9.0258 -9.0258 -9.0258 -5.3381 -5.3381 -5.3381 -5.3381 -2.0631 -2.0631 -2.0631 -2.0631 -8.93544 -8.93544 -8.93544 -8.93544 -5.99381 -5.99381 -5.99381 -5.99381 -0.496755 -0.496755 -0.496755 -0.496755 -1.11038 -1.11038 -1.11038 -1.11038 -8.97143 -8.97143 -8.97143 -8.97143 -0.531774 -0.531774 -0.531774 -0.531774 -7.34718 -7.34718 -7.34718 -7.34718 -1.67999 -1.67999 -1.67999 -1.67999 -0.643449 -0.643449 -0.643449 -0.643449 -4.80174 -4.80174 -4.80174 -4.80174 -3.07113 -3.07113 -3.07113 -3.07113 -8.05638 -8.05638 -8.05638 -8.05638 -1.98881 -1.98881 -1.98881 -1.98881 -6.09949 -6.09949 -6.09949 -6.09949 -6.34537 -6.34537 -6.34537 -6.34537 -1.79332 -1.79332 -1.79332 -1.79332 -8.06278 -8.06278 -8.06278 -8.06278 -5.55817 -5.55817 -5.55817 -5.55817 -3.72183 -3.72183 -3.72183 -3.72183 -3.46843 -3.46843 -3.46843 -3.46843 -8.45291 -8.45291 -8.45291 -8.45291 -6.68254 -6.68254 -6.68254 -6.68254 -8.19382 -8.19382 -8.19382 -8.19382 -5.9976 -5.9976 -5.9976 -5.9976 -2.82271 -2.82271 -2.82271 -2.82271 -8.8663 -8.8663 -8.8663 -8.8663 -2.8117 -2.8117 -2.8117 -2.8117 -1.56169 -1.56169 -1.56169 -1.56169 -4.83625 -4.83625 -4.83625 -4.83625 -8.02456 -8.02456 -8.02456 -8.02456 -1.46611 -1.46611 -1.46611 -1.46611 -8.88765 -8.88765 -8.88765 -8.88765 -4.43035 -4.43035 -4.43035 -4.43035 -8.24558 -8.24558 -8.24558 -8.24558 -3.34117 -3.34117 -3.34117 -3.34117 -7.16467 -7.16467 -7.16467 -7.16467 -4.92067 -4.92067 -4.92067 -4.92067 -5.25688 -5.25688 -5.25688 -5.25688 -8.12444 -8.12444 -8.12444 -8.12444 -3.35626 -3.35626 -3.35626 -3.35626 -4.7284 -4.7284 -4.7284 -4.7284 -0.925877 -0.925877 -0.925877 -0.925877 -4.9478 -4.9478 -4.9478 -4.9478 -8.90625 -8.90625 -8.90625 -8.90625 -5.98147 -5.98147 -5.98147 -5.98147 -1.10192 -1.10192 -1.10192 -1.10192 -5.64366 -5.64366 -5.64366 -5.64366 -8.38835 -8.38835 -8.38835 -8.38835 -2.50731 -2.50731 -2.50731 -2.50731 -8.89343 -8.89343 -8.89343 -8.89343 -1.36859 -1.36859 -1.36859 -1.36859 -5.96286 -5.96286 -5.96286 -5.96286 -0.491456 -0.491456 -0.491456 -0.491456 -4.7575 -4.7575 -4.7575 -4.7575 -9.14327 -9.14327 -9.14327 -9.14327 -2.21302 -2.21302 -2.21302 -2.21302 -8.85434 -8.85434 -8.85434 -8.85434 -7.17248 -7.17248 -7.17248 -7.17248 -0.388741 -0.388741 -0.388741 -0.388741 -6.45663 -6.45663 -6.45663 -6.45663 -3.45763 -3.45763 -3.45763 -3.45763 -9.49026 -9.49026 -9.49026 -9.49026 -7.22387 -7.22387 -7.22387 -7.22387 -6.06546 -6.06546 -6.06546 -6.06546 -4.86309 -4.86309 -4.86309 -4.86309 -4.14723 -4.14723 -4.14723 -4.14723 -5.1623 -5.1623 -5.1623 -5.1623 -8.82021 -8.82021 -8.82021 -8.82021 -1.15845 -1.15845 -1.15845 -1.15845 -4.24345 -4.24345 -4.24345 -4.24345 -1.10816 -1.10816 -1.10816 -1.10816 -3.21866 -3.21866 -3.21866 -3.21866 -4.23598 -4.23598 -4.23598 -4.23598 -8.61142 -8.61142 -8.61142 -8.61142 -1.8831 -1.8831 -1.8831 -1.8831 -9.58245 -9.58245 -9.58245 -9.58245 -3.90249 -3.90249 -3.90249 -3.90249 -2.5944 -2.5944 -2.5944 -2.5944 -2.49673 -2.49673 -2.49673 -2.49673 -8.09487 -8.09487 -8.09487 -8.09487 -0.993664 -0.993664 -0.993664 -0.993664 -0.487762 -0.487762 -0.487762 -0.487762 -4.81979 -4.81979 -4.81979 -4.81979 -1.04736 -1.04736 -1.04736 -1.04736 -9.01463 -9.01463 -9.01463 -9.01463 -6.89417 -6.89417 -6.89417 -6.89417 -5.59011 -5.59011 -5.59011 -5.59011 -6.91499 -6.91499 -6.91499 -6.91499 -3.56417 -3.56417 -3.56417 -3.56417 -0.396267 -0.396267 -0.396267 -0.396267 -0.340813 -0.340813 -0.340813 -0.340813 -0.933359 -0.933359 -0.933359 -0.933359 -6.30417 -6.30417 -6.30417 -6.30417 -8.15556 -8.15556 -8.15556 -8.15556 -6.10088 -6.10088 -6.10088 -6.10088 -3.13524 -3.13524 -3.13524 -3.13524 -2.9366 -2.9366 -2.9366 -2.9366 -1.04692 -1.04692 -1.04692 -1.04692 -8.84937 -8.84937 -8.84937 -8.84937 -6.36983 -6.36983 -6.36983 -6.36983 -9.20875 -9.20875 -9.20875 -9.20875 -0.501636 -0.501636 -0.501636 -0.501636 -7.35091 -7.35091 -7.35091 -7.35091 -6.06037 -6.06037 -6.06037 -6.06037 -9.5162 -9.5162 -9.5162 -9.5162 -6.17202 -6.17202 -6.17202 -6.17202 -6.77192 -6.77192 -6.77192 -6.77192 -8.70357 -8.70357 -8.70357 -8.70357 -1.92525 -1.92525 -1.92525 -1.92525 -0.38337 -0.38337 -0.38337 -0.38337 -6.67191 -6.67191 -6.67191 -6.67191 -6.18577 -6.18577 -6.18577 -6.18577 -3.58169 -3.58169 -3.58169 -3.58169 -7.4715 -7.4715 -7.4715 -7.4715 -8.8974 -8.8974 -8.8974 -8.8974 -6.27911 -6.27911 -6.27911 -6.27911 -4.36382 -4.36382 -4.36382 -4.36382 -6.66399 -6.66399 -6.66399 -6.66399 -5.01867 -5.01867 -5.01867 -5.01867 -9.56265 -9.56265 -9.56265 -9.56265 -1.52024 -1.52024 -1.52024 -1.52024 -0.470857 -0.470857 -0.470857 -0.470857 -6.96041 -6.96041 -6.96041 -6.96041 -1.01606 -1.01606 -1.01606 -1.01606 -6.5333 -6.5333 -6.5333 -6.5333 -7.17532 -7.17532 -7.17532 -7.17532 -8.25257 -8.25257 -8.25257 -8.25257 -5.15717 -5.15717 -5.15717 -5.15717 -2.51626 -2.51626 -2.51626 -2.51626 -6.56842 -6.56842 -6.56842 -6.56842 -3.39622 -3.39622 -3.39622 -3.39622 -6.23055 -6.23055 -6.23055 -6.23055 -6.6006 -6.6006 -6.6006 -6.6006 -8.88374 -8.88374 -8.88374 -8.88374 -8.51564 -8.51564 -8.51564 -8.51564 -2.10994 -2.10994 -2.10994 -2.10994 -9.07118 -9.07118 -9.07118 -9.07118 -8.6232 -8.6232 -8.6232 -8.6232 -5.40884 -5.40884 -5.40884 -5.40884 -0.426699 -0.426699 -0.426699 -0.426699 -4.6038 -4.6038 -4.6038 -4.6038 -7.42727 -7.42727 -7.42727 -7.42727 -6.99623 -6.99623 -6.99623 -6.99623 -4.74066 -4.74066 -4.74066 -4.74066 -3.03155 -3.03155 -3.03155 -3.03155 -6.03854 -6.03854 -6.03854 -6.03854 -7.33278 -7.33278 -7.33278 -7.33278 -1.65228 -1.65228 -1.65228 -1.65228 -2.90776 -2.90776 -2.90776 -2.90776 -3.42267 -3.42267 -3.42267 -3.42267 -3.15499 -3.15499 -3.15499 -3.15499 -7.56456 -7.56456 -7.56456 -7.56456 -4.33857 -4.33857 -4.33857 -4.33857 -6.47238 -6.47238 -6.47238 -6.47238 -1.77221 -1.77221 -1.77221 -1.77221 -9.64638 -9.64638 -9.64638 -9.64638 -7.21814 -7.21814 -7.21814 -7.21814 -9.65947 -9.65947 -9.65947 -9.65947 -0.430086 -0.430086 -0.430086 -0.430086 -8.25027 -8.25027 -8.25027 -8.25027 -3.13671 -3.13671 -3.13671 -3.13671 -7.61211 -7.61211 -7.61211 -7.61211 -2.1422 -2.1422 -2.1422 -2.1422 -7.06715 -7.06715 -7.06715 -7.06715 -4.99486 -4.99486 -4.99486 -4.99486 -4.47578 -4.47578 -4.47578 -4.47578 -4.20863 -4.20863 -4.20863 -4.20863 -1.16025 -1.16025 -1.16025 -1.16025 -2.76547 -2.76547 -2.76547 -2.76547 -8.78953 -8.78953 -8.78953 -8.78953 -5.35125 -5.35125 -5.35125 -5.35125 -0.926237 -0.926237 -0.926237 -0.926237 -5.50876 -5.50876 -5.50876 -5.50876 -3.27361 -3.27361 -3.27361 -3.27361 -9.66164 -9.66164 -9.66164 -9.66164 -3.1512 -3.1512 -3.1512 -3.1512 -5.48357 -5.48357 -5.48357 -5.48357 -1.79491 -1.79491 -1.79491 -1.79491 -1.05473 -1.05473 -1.05473 -1.05473 -7.96439 -7.96439 -7.96439 -7.96439 -4.02363 -4.02363 -4.02363 -4.02363 -7.94674 -7.94674 -7.94674 -7.94674 -1.3343 -1.3343 -1.3343 -1.3343 -3.81795 -3.81795 -3.81795 -3.81795 -6.67172 -6.67172 -6.67172 -6.67172 -4.87641 -4.87641 -4.87641 -4.87641 -0.369722 -0.369722 -0.369722 -0.369722 -1.54892 -1.54892 -1.54892 -1.54892 -9.58499 -9.58499 -9.58499 -9.58499 -8.82993 -8.82993 -8.82993 -8.82993 -8.44641 -8.44641 -8.44641 -8.44641 -7.67254 -7.67254 -7.67254 -7.67254 -8.85695 -8.85695 -8.85695 -8.85695 -1.20352 -1.20352 -1.20352 -1.20352 -8.95101 -8.95101 -8.95101 -8.95101 -4.40858 -4.40858 -4.40858 -4.40858 -8.92379 -8.92379 -8.92379 -8.92379 -0.380454 -0.380454 -0.380454 -0.380454 -6.98565 -6.98565 -6.98565 -6.98565 -6.64766 -6.64766 -6.64766 -6.64766 -1.45828 -1.45828 -1.45828 -1.45828 -7.34886 -7.34886 -7.34886 -7.34886 -6.82153 -6.82153 -6.82153 -6.82153 -7.68371 -7.68371 -7.68371 -7.68371 -1.85369 -1.85369 -1.85369 -1.85369 -6.82909 -6.82909 -6.82909 -6.82909 -1.19371 -1.19371 -1.19371 -1.19371 -4.5653 -4.5653 -4.5653 -4.5653 -8.86156 -8.86156 -8.86156 -8.86156 -8.5151 -8.5151 -8.5151 -8.5151 -5.04736 -5.04736 -5.04736 -5.04736 -2.71676 -2.71676 -2.71676 -2.71676 -4.34342 -4.34342 -4.34342 -4.34342 -5.50364 -5.50364 -5.50364 -5.50364 -5.56118 -5.56118 -5.56118 -5.56118 -7.09921 -7.09921 -7.09921 -7.09921 -2.62854 -2.62854 -2.62854 -2.62854 -3.33846 -3.33846 -3.33846 -3.33846 -9.60233 -9.60233 -9.60233 -9.60233 -0.968904 -0.968904 -0.968904 -0.968904 -0.446191 -0.446191 -0.446191 -0.446191 -8.99304 -8.99304 -8.99304 -8.99304 -1.02676 -1.02676 -1.02676 -1.02676 -0.437628 -0.437628 -0.437628 -0.437628 -4.84935 -4.84935 -4.84935 -4.84935 -9.61485 -9.61485 -9.61485 -9.61485 -0.989322 -0.989322 -0.989322 -0.989322 -8.06918 -8.06918 -8.06918 -8.06918 -4.91078 -4.91078 -4.91078 -4.91078 -0.936798 -0.936798 -0.936798 -0.936798 -5.30081 -5.30081 -5.30081 -5.30081 -3.04206 -3.04206 -3.04206 -3.04206 -3.59694 -3.59694 -3.59694 -3.59694 -6.92497 -6.92497 -6.92497 -6.92497 -1.0456 -1.0456 -1.0456 -1.0456 -7.25154 -7.25154 -7.25154 -7.25154 -8.97356 -8.97356 -8.97356 -8.97356 -4.06981 -4.06981 -4.06981 -4.06981 -1.90534 -1.90534 -1.90534 -1.90534 -5.41255 -5.41255 -5.41255 -5.41255 -9.62727 -9.62727 -9.62727 -9.62727 -8.92329 -8.92329 -8.92329 -8.92329 -0.52058 -0.52058 -0.52058 -0.52058 -2.04729 -2.04729 -2.04729 -2.04729 -3.49987 -3.49987 -3.49987 -3.49987 -2.05185 -2.05185 -2.05185 -2.05185 -2.11251 -2.11251 -2.11251 -2.11251 -4.17577 -4.17577 -4.17577 -4.17577 -9.55675 -9.55675 -9.55675 -9.55675 -7.96919 -7.96919 -7.96919 -7.96919 -3.46906 -3.46906 -3.46906 -3.46906 -3.64914 -3.64914 -3.64914 -3.64914 -0.384727 -0.384727 -0.384727 -0.384727 -6.8185 -6.8185 -6.8185 -6.8185 -6.40066 -6.40066 -6.40066 -6.40066 -4.04189 -4.04189 -4.04189 -4.04189 -1.67 -1.67 -1.67 -1.67 -0.46159 -0.46159 -0.46159 -0.46159 -1.46838 -1.46838 -1.46838 -1.46838 -2.01734 -2.01734 -2.01734 -2.01734 -3.33417 -3.33417 -3.33417 -3.33417 -0.42509 -0.42509 -0.42509 -0.42509 -4.54884 -4.54884 -4.54884 -4.54884 -4.40901 -4.40901 -4.40901 -4.40901 -7.06648 -7.06648 -7.06648 -7.06648 -7.21045 -7.21045 -7.21045 -7.21045 -1.14205 -1.14205 -1.14205 -1.14205 -7.8824 -7.8824 -7.8824 -7.8824 -0.34893 -0.34893 -0.34893 -0.34893 -2.97712 -2.97712 -2.97712 -2.97712 -7.78062 -7.78062 -7.78062 -7.78062 -6.54523 -6.54523 -6.54523 -6.54523 -6.00887 -6.00887 -6.00887 -6.00887 -7.29319 -7.29319 -7.29319 -7.29319 -4.31347 -4.31347 -4.31347 -4.31347 -0.489751 -0.489751 -0.489751 -0.489751 -7.1688 -7.1688 -7.1688 -7.1688 -8.19351 -8.19351 -8.19351 -8.19351 -7.18641 -7.18641 -7.18641 -7.18641 -2.33836 -2.33836 -2.33836 -2.33836 -5.40753 -5.40753 -5.40753 -5.40753 -6.99202 -6.99202 -6.99202 -6.99202 -1.73998 -1.73998 -1.73998 -1.73998 -7.74966 -7.74966 -7.74966 -7.74966 -2.84612 -2.84612 -2.84612 -2.84612 -2.02919 -2.02919 -2.02919 -2.02919 -6.24418 -6.24418 -6.24418 -6.24418 -7.47792 -7.47792 -7.47792 -7.47792 -9.58064 -9.58064 -9.58064 -9.58064 -5.61045 -5.61045 -5.61045 -5.61045 -6.44051 -6.44051 -6.44051 -6.44051 -8.97169 -8.97169 -8.97169 -8.97169 -7.24888 -7.24888 -7.24888 -7.24888 -0.503267 -0.503267 -0.503267 -0.503267 -3.48199 -3.48199 -3.48199 -3.48199 -6.88537 -6.88537 -6.88537 -6.88537 -2.81891 -2.81891 -2.81891 -2.81891 -3.91141 -3.91141 -3.91141 -3.91141 -2.19303 -2.19303 -2.19303 -2.19303 -9.5824 -9.5824 -9.5824 -9.5824 -2.12566 -2.12566 -2.12566 -2.12566 -7.35967 -7.35967 -7.35967 -7.35967 -9.62764 -9.62764 -9.62764 -9.62764 -7.98123 -7.98123 -7.98123 -7.98123 -8.89432 -8.89432 -8.89432 -8.89432 -1.84166 -1.84166 -1.84166 -1.84166 -5.04636 -5.04636 -5.04636 -5.04636 -8.25838 -8.25838 -8.25838 -8.25838 -0.377639 -0.377639 -0.377639 -0.377639 -2.07731 -2.07731 -2.07731 -2.07731 -0.487092 -0.487092 -0.487092 -0.487092 -1.02352 -1.02352 -1.02352 -1.02352 -1.181 -1.181 -1.181 -1.181 -4.99691 -4.99691 -4.99691 -4.99691 -3.6061 -3.6061 -3.6061 -3.6061 -8.89219 -8.89219 -8.89219 -8.89219 -2.49444 -2.49444 -2.49444 -2.49444 -1.72906 -1.72906 -1.72906 -1.72906 -2.75678 -2.75678 -2.75678 -2.75678 -4.2102 -4.2102 -4.2102 -4.2102 -1.5048 -1.5048 -1.5048 -1.5048 -9.51754 -9.51754 -9.51754 -9.51754 -9.62199 -9.62199 -9.62199 -9.62199 -7.18081 -7.18081 -7.18081 -7.18081 -3.75059 -3.75059 -3.75059 -3.75059 -4.62597 -4.62597 -4.62597 -4.62597 -2.96766 -2.96766 -2.96766 -2.96766 -9.66469 -9.66469 -9.66469 -9.66469 -7.78653 -7.78653 -7.78653 -7.78653 -6.73262 -6.73262 -6.73262 -6.73262 -1.87155 -1.87155 -1.87155 -1.87155 -3.87873 -3.87873 -3.87873 -3.87873 -7.18106 -7.18106 -7.18106 -7.18106 -2.77093 -2.77093 -2.77093 -2.77093 -7.40073 -7.40073 -7.40073 -7.40073 -6.55828 -6.55828 -6.55828 -6.55828 -2.89746 -2.89746 -2.89746 -2.89746 -4.50728 -4.50728 -4.50728 -4.50728 -8.02045 -8.02045 -8.02045 -8.02045 -7.24894 -7.24894 -7.24894 -7.24894 -1.88592 -1.88592 -1.88592 -1.88592 -4.46979 -4.46979 -4.46979 -4.46979 -6.35967 -6.35967 -6.35967 -6.35967 -5.96405 -5.96405 -5.96405 -5.96405 -2.67193 -2.67193 -2.67193 -2.67193 -1.11464 -1.11464 -1.11464 -1.11464 -7.33388 -7.33388 -7.33388 -7.33388 -0.50503 -0.50503 -0.50503 -0.50503 -2.41276 -2.41276 -2.41276 -2.41276 -7.27338 -7.27338 -7.27338 -7.27338 -7.63042 -7.63042 -7.63042 -7.63042 -2.95805 -2.95805 -2.95805 -2.95805 -0.49248 -0.49248 -0.49248 -0.49248 -7.10036 -7.10036 -7.10036 -7.10036 -4.7141 -4.7141 -4.7141 -4.7141 -8.46925 -8.46925 -8.46925 -8.46925 -8.89139 -8.89139 -8.89139 -8.89139 -0.538605 -0.538605 -0.538605 -0.538605 -4.00696 -4.00696 -4.00696 -4.00696 -8.69399 -8.69399 -8.69399 -8.69399 -9.01865 -9.01865 -9.01865 -9.01865 -6.92007 -6.92007 -6.92007 -6.92007 -5.62066 -5.62066 -5.62066 -5.62066 -2.50157 -2.50157 -2.50157 -2.50157 -7.3251 -7.3251 -7.3251 -7.3251 -8.97909 -8.97909 -8.97909 -8.97909 -0.298266 -0.298266 -0.298266 -0.298266 -1.11009 -1.11009 -1.11009 -1.11009 -1.58438 -1.58438 -1.58438 -1.58438 -2.35757 -2.35757 -2.35757 -2.35757 -5.57032 -5.57032 -5.57032 -5.57032 -3.34316 -3.34316 -3.34316 -3.34316 -3.4214 -3.4214 -3.4214 -3.4214 -0.975778 -0.975778 -0.975778 -0.975778 -2.84592 -2.84592 -2.84592 -2.84592 -3.16321 -3.16321 -3.16321 -3.16321 -9.65244 -9.65244 -9.65244 -9.65244 -9.55192 -9.55192 -9.55192 -9.55192 -9.59092 -9.59092 -9.59092 -9.59092 -7.43922 -7.43922 -7.43922 -7.43922 -0.361359 -0.361359 -0.361359 -0.361359 -2.27086 -2.27086 -2.27086 -2.27086 -7.6137 -7.6137 -7.6137 -7.6137 -8.87229 -8.87229 -8.87229 -8.87229 -6.55621 -6.55621 -6.55621 -6.55621 -4.01096 -4.01096 -4.01096 -4.01096 -2.68463 -2.68463 -2.68463 -2.68463 -0.358024 -0.358024 -0.358024 -0.358024 -3.17398 -3.17398 -3.17398 -3.17398 -4.663 -4.663 -4.663 -4.663 -5.35629 -5.35629 -5.35629 -5.35629 -5.9881 -5.9881 -5.9881 -5.9881 -4.15516 -4.15516 -4.15516 -4.15516 -1.44477 -1.44477 -1.44477 -1.44477 -3.48823 -3.48823 -3.48823 -3.48823 -1.54147 -1.54147 -1.54147 -1.54147 -0.361571 -0.361571 -0.361571 -0.361571 -0.846705 -0.846705 -0.846705 -0.846705 -6.37248 -6.37248 -6.37248 -6.37248 -2.24746 -2.24746 -2.24746 -2.24746 -1.42556 -1.42556 -1.42556 -1.42556 -4.23398 -4.23398 -4.23398 -4.23398 -6.41091 -6.41091 -6.41091 -6.41091 -7.06097 -7.06097 -7.06097 -7.06097 -5.6951 -5.6951 -5.6951 -5.6951 -0.342225 -0.342225 -0.342225 -0.342225 -1.20486 -1.20486 -1.20486 -1.20486 -6.77062 -6.77062 -6.77062 -6.77062 -9.00254 -9.00254 -9.00254 -9.00254 -5.57389 -5.57389 -5.57389 -5.57389 -7.89191 -7.89191 -7.89191 -7.89191 -1.10699 -1.10699 -1.10699 -1.10699 -2.70388 -2.70388 -2.70388 -2.70388 -0.884024 -0.884024 -0.884024 -0.884024 -4.37762 -4.37762 -4.37762 -4.37762 -1.02399 -1.02399 -1.02399 -1.02399 -1.66711 -1.66711 -1.66711 -1.66711 -8.39609 -8.39609 -8.39609 -8.39609 -6.04959 -6.04959 -6.04959 -6.04959 -0.366253 -0.366253 -0.366253 -0.366253 -9.55106 -9.55106 -9.55106 -9.55106 -7.80331 -7.80331 -7.80331 -7.80331 -9.62375 -9.62375 -9.62375 -9.62375 -9.68081 -9.68081 -9.68081 -9.68081 -9.65856 -9.65856 -9.65856 -9.65856 -5.29588 -5.29588 -5.29588 -5.29588 -0.443721 -0.443721 -0.443721 -0.443721 -1.4664 -1.4664 -1.4664 -1.4664 -9.66778 -9.66778 -9.66778 -9.66778 -9.57117 -9.57117 -9.57117 -9.57117 -3.16093 -3.16093 -3.16093 -3.16093 -2.66485 -2.66485 -2.66485 -2.66485 -3.82635 -3.82635 -3.82635 -3.82635 -9.5632 -9.5632 -9.5632 -9.5632 -4.02429 -4.02429 -4.02429 -4.02429 -9.55055 -9.55055 -9.55055 -9.55055 -0.474093 -0.474093 -0.474093 -0.474093 -2.97344 -2.97344 -2.97344 -2.97344 -8.07538 -8.07538 -8.07538 -8.07538 -8.92387 -8.92387 -8.92387 -8.92387 -0.500548 -0.500548 -0.500548 -0.500548 -4.50342 -4.50342 -4.50342 -4.50342 -9.63805 -9.63805 -9.63805 -9.63805 -0.885967 -0.885967 -0.885967 -0.885967 -6.33345 -6.33345 -6.33345 -6.33345 -9.60357 -9.60357 -9.60357 -9.60357 -0.97394 -0.97394 -0.97394 -0.97394 -9.60441 -9.60441 -9.60441 -9.60441 -1.48577 -1.48577 -1.48577 -1.48577 -1.07474 -1.07474 -1.07474 -1.07474 -8.9499 -8.9499 -8.9499 -8.9499 -3.74113 -3.74113 -3.74113 -3.74113 -9.58077 -9.58077 -9.58077 -9.58077 -9.60923 -9.60923 -9.60923 -9.60923 -8.64017 -8.64017 -8.64017 -8.64017 -7.21541 -7.21541 -7.21541 -7.21541 -1.26752 -1.26752 -1.26752 -1.26752 -1.5875 -1.5875 -1.5875 -1.5875 -9.59032 -9.59032 -9.59032 -9.59032 -6.49939 -6.49939 -6.49939 -6.49939 -7.09972 -7.09972 -7.09972 -7.09972 -8.58746 -8.58746 -8.58746 -8.58746 -0.435425 -0.435425 -0.435425 -0.435425 -1.435 -1.435 -1.435 -1.435 -1.10607 -1.10607 -1.10607 -1.10607 -0.481588 -0.481588 -0.481588 -0.481588 -1.46362 -1.46362 -1.46362 -1.46362 -0.462466 -0.462466 -0.462466 -0.462466 -5.80668 -5.80668 -5.80668 -5.80668 -9.0033 -9.0033 -9.0033 -9.0033 -7.21925 -7.21925 -7.21925 -7.21925 -7.29105 -7.29105 -7.29105 -7.29105 -4.96927 -4.96927 -4.96927 -4.96927 -3.63703 -3.63703 -3.63703 -3.63703 -5.76966 -5.76966 -5.76966 -5.76966 -5.79824 -5.79824 -5.79824 -5.79824 -4.80405 -4.80405 -4.80405 -4.80405 -1.14265 -1.14265 -1.14265 -1.14265 -1.4717 -1.4717 -1.4717 -1.4717 -9.03416 -9.03416 -9.03416 -9.03416 -1.35658 -1.35658 -1.35658 -1.35658 -0.438112 -0.438112 -0.438112 -0.438112 -4.74565 -4.74565 -4.74565 -4.74565 -2.9534 -2.9534 -2.9534 -2.9534 -2.54509 -2.54509 -2.54509 -2.54509 -2.07763 -2.07763 -2.07763 -2.07763 -4.1017 -4.1017 -4.1017 -4.1017 -8.08374 -8.08374 -8.08374 -8.08374 -7.95615 -7.95615 -7.95615 -7.95615 -2.93752 -2.93752 -2.93752 -2.93752 -5.64943 -5.64943 -5.64943 -5.64943 -0.451358 -0.451358 -0.451358 -0.451358 -1.62854 -1.62854 -1.62854 -1.62854 -4.98075 -4.98075 -4.98075 -4.98075 -9.01489 -9.01489 -9.01489 -9.01489 -1.05521 -1.05521 -1.05521 -1.05521 -2.76367 -2.76367 -2.76367 -2.76367 -5.88749 -5.88749 -5.88749 -5.88749 -9.01611 -9.01611 -9.01611 -9.01611 -1.57624 -1.57624 -1.57624 -1.57624 -2.11408 -2.11408 -2.11408 -2.11408 -2.06336 -2.06336 -2.06336 -2.06336 -0.40563 -0.40563 -0.40563 -0.40563 -6.9574 -6.9574 -6.9574 -6.9574 -7.36721 -7.36721 -7.36721 -7.36721 -0.414069 -0.414069 -0.414069 -0.414069 -5.81097 -5.81097 -5.81097 -5.81097 -9.61551 -9.61551 -9.61551 -9.61551 -9.64352 -9.64352 -9.64352 -9.64352 -8.96297 -8.96297 -8.96297 -8.96297 -7.18211 -7.18211 -7.18211 -7.18211 -4.1821 -4.1821 -4.1821 -4.1821 -3.48453 -3.48453 -3.48453 -3.48453 -9.65254 -9.65254 -9.65254 -9.65254 -0.429227 -0.429227 -0.429227 -0.429227 -0.365795 -0.365795 -0.365795 -0.365795 -6.04589 -6.04589 -6.04589 -6.04589 -2.9706 -2.9706 -2.9706 -2.9706 -7.2001 -7.2001 -7.2001 -7.2001 -9.20818 -9.20818 -9.20818 -9.20818 -6.59637 -6.59637 -6.59637 -6.59637 -5.23634 -5.23634 -5.23634 -5.23634 -9.17378 -9.17378 -9.17378 -9.17378 -5.45792 -5.45792 -5.45792 -5.45792 -2.17294 -2.17294 -2.17294 -2.17294 -9.56735 -9.56735 -9.56735 -9.56735 -7.31038 -7.31038 -7.31038 -7.31038 -4.26625 -4.26625 -4.26625 -4.26625 -9.01441 -9.01441 -9.01441 -9.01441 -5.21566 -5.21566 -5.21566 -5.21566 -9.06845 -9.06845 -9.06845 -9.06845 -1.12371 -1.12371 -1.12371 -1.12371 -9.12347 -9.12347 -9.12347 -9.12347 -0.820129 -0.820129 -0.820129 -0.820129 -4.80705 -4.80705 -4.80705 -4.80705 -0.453877 -0.453877 -0.453877 -0.453877 -9.55037 -9.55037 -9.55037 -9.55037 -7.26051 -7.26051 -7.26051 -7.26051 -9.62172 -9.62172 -9.62172 -9.62172 -9.50496 -9.50496 -9.50496 -9.50496 -0.286205 -0.286205 -0.286205 -0.286205 -8.71066 -8.71066 -8.71066 -8.71066 -9.66574 -9.66574 -9.66574 -9.66574 -6.73054 -6.73054 -6.73054 -6.73054 -4.38842 -4.38842 -4.38842 -4.38842 -1.36315 -1.36315 -1.36315 -1.36315 -7.75927 -7.75927 -7.75927 -7.75927 -9.65293 -9.65293 -9.65293 -9.65293 -1.19132 -1.19132 -1.19132 -1.19132 -9.13369 -9.13369 -9.13369 -9.13369 -5.73636 -5.73636 -5.73636 -5.73636 -9.60691 -9.60691 -9.60691 -9.60691 -0.840289 -0.840289 -0.840289 -0.840289 -3.21902 -3.21902 -3.21902 -3.21902 -8.98057 -8.98057 -8.98057 -8.98057 -2.56941 -2.56941 -2.56941 -2.56941 -4.74883 -4.74883 -4.74883 -4.74883 -7.39642 -7.39642 -7.39642 -7.39642 -7.94024 -7.94024 -7.94024 -7.94024 -5.8006 -5.8006 -5.8006 -5.8006 -0.430029 -0.430029 -0.430029 -0.430029 -9.60608 -9.60608 -9.60608 -9.60608 -7.0148 -7.0148 -7.0148 -7.0148 -7.11838 -7.11838 -7.11838 -7.11838 -1.30186 -1.30186 -1.30186 -1.30186 -9.60455 -9.60455 -9.60455 -9.60455 -7.83676 -7.83676 -7.83676 -7.83676 -2.75178 -2.75178 -2.75178 -2.75178 -8.98016 -8.98016 -8.98016 -8.98016 -9.22384 -9.22384 -9.22384 -9.22384 -2.9944 -2.9944 -2.9944 -2.9944 -8.66427 -8.66427 -8.66427 -8.66427 -9.67493 -9.67493 -9.67493 -9.67493 -2.30001 -2.30001 -2.30001 -2.30001 -0.389922 -0.389922 -0.389922 -0.389922 -3.59716 -3.59716 -3.59716 -3.59716 -2.20756 -2.20756 -2.20756 -2.20756 -6.98515 -6.98515 -6.98515 -6.98515 -9.60809 -9.60809 -9.60809 -9.60809 -6.36561 -6.36561 -6.36561 -6.36561 -7.87444 -7.87444 -7.87444 -7.87444 -7.16721 -7.16721 -7.16721 -7.16721 -4.6998 -4.6998 -4.6998 -4.6998 -9.60546 -9.60546 -9.60546 -9.60546 -9.58214 -9.58214 -9.58214 -9.58214 -4.44668 -4.44668 -4.44668 -4.44668 -0.350813 -0.350813 -0.350813 -0.350813 -2.97784 -2.97784 -2.97784 -2.97784 -8.58214 -8.58214 -8.58214 -8.58214 -7.79607 -7.79607 -7.79607 -7.79607 -6.94691 -6.94691 -6.94691 -6.94691 -0.558924 -0.558924 -0.558924 -0.558924 -3.49389 -3.49389 -3.49389 -3.49389 -9.14378 -9.14378 -9.14378 -9.14378 -1.41756 -1.41756 -1.41756 -1.41756 -5.70516 -5.70516 -5.70516 -5.70516 -8.71746 -8.71746 -8.71746 -8.71746 -6.47319 -6.47319 -6.47319 -6.47319 -9.61491 -9.61491 -9.61491 -9.61491 -7.24959 -7.24959 -7.24959 -7.24959 -9.71329 -9.71329 -9.71329 -9.71329 -2.32987 -2.32987 -2.32987 -2.32987 -0.374833 -0.374833 -0.374833 -0.374833 -8.10052 -8.10052 -8.10052 -8.10052 -5.50427 -5.50427 -5.50427 -5.50427 -4.49877 -4.49877 -4.49877 -4.49877 -1.4871 -1.4871 -1.4871 -1.4871 -2.51176 -2.51176 -2.51176 -2.51176 -9.18596 -9.18596 -9.18596 -9.18596 -9.60922 -9.60922 -9.60922 -9.60922 -6.43779 -6.43779 -6.43779 -6.43779 -6.94339 -6.94339 -6.94339 -6.94339 -1.12629 -1.12629 -1.12629 -1.12629 -8.6338 -8.6338 -8.6338 -8.6338 -7.44113 -7.44113 -7.44113 -7.44113 -2.33007 -2.33007 -2.33007 -2.33007 -7.25011 -7.25011 -7.25011 -7.25011 -9.58476 -9.58476 -9.58476 -9.58476 -9.62889 -9.62889 -9.62889 -9.62889 -3.93932 -3.93932 -3.93932 -3.93932 -1.28629 -1.28629 -1.28629 -1.28629 -9.22207 -9.22207 -9.22207 -9.22207 -4.90838 -4.90838 -4.90838 -4.90838 -5.09282 -5.09282 -5.09282 -5.09282 -5.38562 -5.38562 -5.38562 -5.38562 -9.23369 -9.23369 -9.23369 -9.23369 -2.94858 -2.94858 -2.94858 -2.94858 -0.338206 -0.338206 -0.338206 -0.338206 -8.93663 -8.93663 -8.93663 -8.93663 -4.66539 -4.66539 -4.66539 -4.66539 -5.38458 -5.38458 -5.38458 -5.38458 -2.90802 -2.90802 -2.90802 -2.90802 -8.61057 -8.61057 -8.61057 -8.61057 -0.432762 -0.432762 -0.432762 -0.432762 -1.3745 -1.3745 -1.3745 -1.3745 -9.08452 -9.08452 -9.08452 -9.08452 -1.19845 -1.19845 -1.19845 -1.19845 -9.01656 -9.01656 -9.01656 -9.01656 -2.73234 -2.73234 -2.73234 -2.73234 -4.42413 -4.42413 -4.42413 -4.42413 -1.13099 -1.13099 -1.13099 -1.13099 -4.59964 -4.59964 -4.59964 -4.59964 -5.81472 -5.81472 -5.81472 -5.81472 -9.62059 -9.62059 -9.62059 -9.62059 -9.12661 -9.12661 -9.12661 -9.12661 -3.43179 -3.43179 -3.43179 -3.43179 -9.6514 -9.6514 -9.6514 -9.6514 -6.60803 -6.60803 -6.60803 -6.60803 -7.87712 -7.87712 -7.87712 -7.87712 -9.57837 -9.57837 -9.57837 -9.57837 -4.71637 -4.71637 -4.71637 -4.71637 -9.6811 -9.6811 -9.6811 -9.6811 -7.96506 -7.96506 -7.96506 -7.96506 -8.62659 -8.62659 -8.62659 -8.62659 -1.92883 -1.92883 -1.92883 -1.92883 -0.989449 -0.989449 -0.989449 -0.989449 -3.48221 -3.48221 -3.48221 -3.48221 -5.98917 -5.98917 -5.98917 -5.98917 -9.59039 -9.59039 -9.59039 -9.59039 -1.2663 -1.2663 -1.2663 -1.2663 -0.936826 -0.936826 -0.936826 -0.936826 -0.863822 -0.863822 -0.863822 -0.863822 -0.935285 -0.935285 -0.935285 -0.935285 -9.57167 -9.57167 -9.57167 -9.57167 -4.42578 -4.42578 -4.42578 -4.42578 -8.98744 -8.98744 -8.98744 -8.98744 -0.392478 -0.392478 -0.392478 -0.392478 -9.67092 -9.67092 -9.67092 -9.67092 -9.60511 -9.60511 -9.60511 -9.60511 -0.357347 -0.357347 -0.357347 -0.357347 -0.382306 -0.382306 -0.382306 -0.382306 -8.94294 -8.94294 -8.94294 -8.94294 -8.96356 -8.96356 -8.96356 -8.96356 -7.17243 -7.17243 -7.17243 -7.17243 -3.84056 -3.84056 -3.84056 -3.84056 -0.535843 -0.535843 -0.535843 -0.535843 -1.07914 -1.07914 -1.07914 -1.07914 -3.25311 -3.25311 -3.25311 -3.25311 -9.1197 -9.1197 -9.1197 -9.1197 -9.22124 -9.22124 -9.22124 -9.22124 -9.65545 -9.65545 -9.65545 -9.65545 -8.96372 -8.96372 -8.96372 -8.96372 -8.33528 -8.33528 -8.33528 -8.33528 -1.39669 -1.39669 -1.39669 -1.39669 -9.63861 -9.63861 -9.63861 -9.63861 -0.337801 -0.337801 -0.337801 -0.337801 -0.369847 -0.369847 -0.369847 -0.369847 -8.5817 -8.5817 -8.5817 -8.5817 -0.89856 -0.89856 -0.89856 -0.89856 -2.22252 -2.22252 -2.22252 -2.22252 -6.57753 -6.57753 -6.57753 -6.57753 -0.377069 -0.377069 -0.377069 -0.377069 -8.95346 -8.95346 -8.95346 -8.95346 -0.442007 -0.442007 -0.442007 -0.442007 -4.09058 -4.09058 -4.09058 -4.09058 -9.58742 -9.58742 -9.58742 -9.58742 -1.01208 -1.01208 -1.01208 -1.01208 -6.93474 -6.93474 -6.93474 -6.93474 -4.12351 -4.12351 -4.12351 -4.12351 -5.18279 -5.18279 -5.18279 -5.18279 -2.77905 -2.77905 -2.77905 -2.77905 -0.402523 -0.402523 -0.402523 -0.402523 -0.464921 -0.464921 -0.464921 -0.464921 -2.98123 -2.98123 -2.98123 -2.98123 -5.17426 -5.17426 -5.17426 -5.17426 -2.69456 -2.69456 -2.69456 -2.69456 -9.19839 -9.19839 -9.19839 -9.19839 -2.20293 -2.20293 -2.20293 -2.20293 -7.32674 -7.32674 -7.32674 -7.32674 -6.04445 -6.04445 -6.04445 -6.04445 -7.56009 -7.56009 -7.56009 -7.56009 -9.14176 -9.14176 -9.14176 -9.14176 -1.14725 -1.14725 -1.14725 -1.14725 -6.93959 -6.93959 -6.93959 -6.93959 -9.61905 -9.61905 -9.61905 -9.61905 -5.83126 -5.83126 -5.83126 -5.83126 -0.377427 -0.377427 -0.377427 -0.377427 -0.338704 -0.338704 -0.338704 -0.338704 -2.71687 -2.71687 -2.71687 -2.71687 -9.63013 -9.63013 -9.63013 -9.63013 -9.62828 -9.62828 -9.62828 -9.62828 -2.7233 -2.7233 -2.7233 -2.7233 -7.27827 -7.27827 -7.27827 -7.27827 -0.3518 -0.3518 -0.3518 -0.3518 -5.20216 -5.20216 -5.20216 -5.20216 -4.18207 -4.18207 -4.18207 -4.18207 -9.60675 -9.60675 -9.60675 -9.60675 -7.60154 -7.60154 -7.60154 -7.60154 -2.84429 -2.84429 -2.84429 -2.84429 -0.334657 -0.334657 -0.334657 -0.334657 -0.939416 -0.939416 -0.939416 -0.939416 -9.20047 -9.20047 -9.20047 -9.20047 -9.0593 -9.0593 -9.0593 -9.0593 -0.290791 -0.290791 -0.290791 -0.290791 -8.99886 -8.99886 -8.99886 -8.99886 -0.431422 -0.431422 -0.431422 -0.431422 -2.24206 -2.24206 -2.24206 -2.24206 -8.59313 -8.59313 -8.59313 -8.59313 -9.65117 -9.65117 -9.65117 -9.65117 -0.286002 -0.286002 -0.286002 -0.286002 -2.00222 -2.00222 -2.00222 -2.00222 -4.82931 -4.82931 -4.82931 -4.82931 -7.77959 -7.77959 -7.77959 -7.77959 -9.66952 -9.66952 -9.66952 -9.66952 -0.414306 -0.414306 -0.414306 -0.414306 -0.423885 -0.423885 -0.423885 -0.423885 -9.21766 -9.21766 -9.21766 -9.21766 -9.62968 -9.62968 -9.62968 -9.62968 -9.59101 -9.59101 -9.59101 -9.59101 -0.905033 -0.905033 -0.905033 -0.905033 -9.06249 -9.06249 -9.06249 -9.06249 -5.34255 -5.34255 -5.34255 -5.34255 -9.56501 -9.56501 -9.56501 -9.56501 -7.31619 -7.31619 -7.31619 -7.31619 -0.381195 -0.381195 -0.381195 -0.381195 -3.51774 -3.51774 -3.51774 -3.51774 -5.20307 -5.20307 -5.20307 -5.20307 -9.65126 -9.65126 -9.65126 -9.65126 -9.64786 -9.64786 -9.64786 -9.64786 -9.02116 -9.02116 -9.02116 -9.02116 -8.52984 -8.52984 -8.52984 -8.52984 -7.65268 -7.65268 -7.65268 -7.65268 -0.966104 -0.966104 -0.966104 -0.966104 -9.63967 -9.63967 -9.63967 -9.63967 -0.976252 -0.976252 -0.976252 -0.976252 -8.21947 -8.21947 -8.21947 -8.21947 -7.27639 -7.27639 -7.27639 -7.27639 -0.914173 -0.914173 -0.914173 -0.914173 -4.86329 -4.86329 -4.86329 -4.86329 -5.02307 -5.02307 -5.02307 -5.02307 -9.66242 -9.66242 -9.66242 -9.66242 -2.60674 -2.60674 -2.60674 -2.60674 -0.909147 -0.909147 -0.909147 -0.909147 -9.6449 -9.6449 -9.6449 -9.6449 -2.37218 -2.37218 -2.37218 -2.37218 -9.70705 -9.70705 -9.70705 -9.70705 -3.45668 -3.45668 -3.45668 -3.45668 -9.72024 -9.72024 -9.72024 -9.72024 -4.09878 -4.09878 -4.09878 -4.09878 -7.80975 -7.80975 -7.80975 -7.80975 -8.58512 -8.58512 -8.58512 -8.58512 -7.93345 -7.93345 -7.93345 -7.93345 -1.01071 -1.01071 -1.01071 -1.01071 -9.60628 -9.60628 -9.60628 -9.60628 -0.854302 -0.854302 -0.854302 -0.854302 -0.236911 -0.236911 -0.236911 -0.236911 -8.61249 -8.61249 -8.61249 -8.61249 -9.58903 -9.58903 -9.58903 -9.58903 -9.1916 -9.1916 -9.1916 -9.1916 -8.75086 -8.75086 -8.75086 -8.75086 -9.23353 -9.23353 -9.23353 -9.23353 -9.62224 -9.62224 -9.62224 -9.62224 -0.904189 -0.904189 -0.904189 -0.904189 -5.03186 -5.03186 -5.03186 -5.03186 -9.64117 -9.64117 -9.64117 -9.64117 -9.08152 -9.08152 -9.08152 -9.08152 -0.966199 -0.966199 -0.966199 -0.966199 -9.63252 -9.63252 -9.63252 -9.63252 -7.46343 -7.46343 -7.46343 -7.46343 -9.67149 -9.67149 -9.67149 -9.67149 -9.65106 -9.65106 -9.65106 -9.65106 -9.20283 -9.20283 -9.20283 -9.20283 -0.90574 -0.90574 -0.90574 -0.90574 -4.16585 -4.16585 -4.16585 -4.16585 -7.55795 -7.55795 -7.55795 -7.55795 -2.76905 -2.76905 -2.76905 -2.76905 -7.51924 -7.51924 -7.51924 -7.51924 -9.07426 -9.07426 -9.07426 -9.07426 -0.273285 -0.273285 -0.273285 -0.273285 -9.18684 -9.18684 -9.18684 -9.18684 -2.28851 -2.28851 -2.28851 -2.28851 -9.21509 -9.21509 -9.21509 -9.21509 -2.09784 -2.09784 -2.09784 -2.09784 -9.25132 -9.25132 -9.25132 -9.25132 -2.70195 -2.70195 -2.70195 -2.70195 -5.14897 -5.14897 -5.14897 -5.14897 -0.989039 -0.989039 -0.989039 -0.989039 -9.67557 -9.67557 -9.67557 -9.67557 -0.770243 -0.770243 -0.770243 -0.770243 -0.287041 -0.287041 -0.287041 -0.287041 -6.09069 -6.09069 -6.09069 -6.09069 -0.794937 -0.794937 -0.794937 -0.794937 -0.79922 -0.79922 -0.79922 -0.79922 -8.74237 -8.74237 -8.74237 -8.74237 -0.33948 -0.33948 -0.33948 -0.33948 -2.75761 -2.75761 -2.75761 -2.75761 -0.828745 -0.828745 -0.828745 -0.828745 -0.844405 -0.844405 -0.844405 -0.844405 -9.18097 -9.18097 -9.18097 -9.18097 -9.2073 -9.2073 -9.2073 -9.2073 -0.329278 -0.329278 -0.329278 -0.329278 -9.65495 -9.65495 -9.65495 -9.65495 -0.823752 -0.823752 -0.823752 -0.823752 -0.822582 -0.822582 -0.822582 -0.822582 -0.806162 -0.806162 -0.806162 -0.806162 -4.7814 -4.7814 -4.7814 -4.7814 -4.783 -4.783 -4.783 -4.783 -0.858692 -0.858692 -0.858692 -0.858692 -0.956169 -0.956169 -0.956169 -0.956169 -9.66917 -9.66917 -9.66917 -9.66917 -5.12273 -5.12273 -5.12273 -5.12273 -5.73379 -5.73379 -5.73379 -5.73379 -8.42913 -8.42913 -8.42913 -8.42913 -8.60352 -8.60352 -8.60352 -8.60352 -2.57476 -2.57476 -2.57476 -2.57476 -0.920268 -0.920268 -0.920268 -0.920268 -7.97753 -7.97753 -7.97753 -7.97753 -1.39956 -1.39956 -1.39956 -1.39956 -9.66588 -9.66588 -9.66588 -9.66588 -9.63927 -9.63927 -9.63927 -9.63927 -0.810431 -0.810431 -0.810431 -0.810431 -0.277454 -0.277454 -0.277454 -0.277454 -0.411755 -0.411755 -0.411755 -0.411755 -0.92874 -0.92874 -0.92874 -0.92874 -9.22341 -9.22341 -9.22341 -9.22341 -6.7959 -6.7959 -6.7959 -6.7959 -7.95753 -7.95753 -7.95753 -7.95753 -0.434208 -0.434208 -0.434208 -0.434208 -4.91923 -4.91923 -4.91923 -4.91923 -8.98186 -8.98186 -8.98186 -8.98186 -0.296686 -0.296686 -0.296686 -0.296686 -0.806243 -0.806243 -0.806243 -0.806243 -9.66049 -9.66049 -9.66049 -9.66049 -7.37714 -7.37714 -7.37714 -7.37714 -9.67956 -9.67956 -9.67956 -9.67956 -8.63454 -8.63454 -8.63454 -8.63454 -1.09385 -1.09385 -1.09385 -1.09385 -9.69192 -9.69192 -9.69192 -9.69192 -0.937559 -0.937559 -0.937559 -0.937559 -0.841312 -0.841312 -0.841312 -0.841312 -9.71065 -9.71065 -9.71065 -9.71065 -8.7549 -8.7549 -8.7549 -8.7549 -2.11208 -2.11208 -2.11208 -2.11208 -2.11663 -2.11663 -2.11663 -2.11663 -7.23473 -7.23473 -7.23473 -7.23473 -9.69233 -9.69233 -9.69233 -9.69233 -9.12735 -9.12735 -9.12735 -9.12735 -9.68709 -9.68709 -9.68709 -9.68709 -9.65622 -9.65622 -9.65622 -9.65622 -1.03261 -1.03261 -1.03261 -1.03261 -9.65901 -9.65901 -9.65901 -9.65901 -2.55095 -2.55095 -2.55095 -2.55095 -0.361476 -0.361476 -0.361476 -0.361476 -5.12405 -5.12405 -5.12405 -5.12405 -1.49897 -1.49897 -1.49897 -1.49897 -5.21943 -5.21943 -5.21943 -5.21943 -1.99233 -1.99233 -1.99233 -1.99233 -4.9695 -4.9695 -4.9695 -4.9695 -9.7145 -9.7145 -9.7145 -9.7145 -9.17623 -9.17623 -9.17623 -9.17623 -9.70378 -9.70378 -9.70378 -9.70378 -9.03679 -9.03679 -9.03679 -9.03679 -1.41453 -1.41453 -1.41453 -1.41453 -4.34223 -4.34223 -4.34223 -4.34223 -4.19299 -4.19299 -4.19299 -4.19299 -7.97606 -7.97606 -7.97606 -7.97606 -0.348876 -0.348876 -0.348876 -0.348876 -9.69168 -9.69168 -9.69168 -9.69168 -9.673 -9.673 -9.673 -9.673 -0.311102 -0.311102 -0.311102 -0.311102 -9.7007 -9.7007 -9.7007 -9.7007 -2.01077 -2.01077 -2.01077 -2.01077 -1.46077 -1.46077 -1.46077 -1.46077 -0.824129 -0.824129 -0.824129 -0.824129 -0.378218 -0.378218 -0.378218 -0.378218 -9.65356 -9.65356 -9.65356 -9.65356 -9.68793 -9.68793 -9.68793 -9.68793 -0.413896 -0.413896 -0.413896 -0.413896 -0.351093 -0.351093 -0.351093 -0.351093 -0.793277 -0.793277 -0.793277 -0.793277 -9.64354 -9.64354 -9.64354 -9.64354 -9.17171 -9.17171 -9.17171 -9.17171 -9.68779 -9.68779 -9.68779 -9.68779 -8.14985 -8.14985 -8.14985 -8.14985 -0.312679 -0.312679 -0.312679 -0.312679 -9.19339 -9.19339 -9.19339 -9.19339 -9.68945 -9.68945 -9.68945 -9.68945 -5.78276 -5.78276 -5.78276 -5.78276 -0.328807 -0.328807 -0.328807 -0.328807 -0.393064 -0.393064 -0.393064 -0.393064 -9.74807 -9.74807 -9.74807 -9.74807 -9.67244 -9.67244 -9.67244 -9.67244 -9.20038 -9.20038 -9.20038 -9.20038 -9.12116 -9.12116 -9.12116 -9.12116 -2.1473 -2.1473 -2.1473 -2.1473 -9.1909 -9.1909 -9.1909 -9.1909 -0.29479 -0.29479 -0.29479 -0.29479 -7.3052 -7.3052 -7.3052 -7.3052 -2.07759 -2.07759 -2.07759 -2.07759 -0.423913 -0.423913 -0.423913 -0.423913 -2.09175 -2.09175 -2.09175 -2.09175 -5.29945 -5.29945 -5.29945 -5.29945 -7.96978 -7.96978 -7.96978 -7.96978 -9.18387 -9.18387 -9.18387 -9.18387 -0.412081 -0.412081 -0.412081 -0.412081 -2.65962 -2.65962 -2.65962 -2.65962 -7.93045 -7.93045 -7.93045 -7.93045 -0.818932 -0.818932 -0.818932 -0.818932 -9.69568 -9.69568 -9.69568 -9.69568 -0.854431 -0.854431 -0.854431 -0.854431 -9.70791 -9.70791 -9.70791 -9.70791 -0.981496 -0.981496 -0.981496 -0.981496 -0.32769 -0.32769 -0.32769 -0.32769 -6.22409 -6.22409 -6.22409 -6.22409 -9.22356 -9.22356 -9.22356 -9.22356 -9.71928 -9.71928 -9.71928 -9.71928 -9.73061 -9.73061 -9.73061 -9.73061 -9.73699 -9.73699 -9.73699 -9.73699 -9.6973 -9.6973 -9.6973 -9.6973 -6.65313 -6.65313 -6.65313 -6.65313 -0.317431 -0.317431 -0.317431 -0.317431 -9.6925 -9.6925 -9.6925 -9.6925 -2.0802 -2.0802 -2.0802 -2.0802 -8.07572 -8.07572 -8.07572 -8.07572 -0.367095 -0.367095 -0.367095 -0.367095 -0.358529 -0.358529 -0.358529 -0.358529 -5.04807 -5.04807 -5.04807 -5.04807 -9.72851 -9.72851 -9.72851 -9.72851 -2.66387 -2.66387 -2.66387 -2.66387 -0.415336 -0.415336 -0.415336 -0.415336 -7.91111 -7.91111 -7.91111 -7.91111 -7.26195 -7.26195 -7.26195 -7.26195 -9.70686 -9.70686 -9.70686 -9.70686 -0.208639 -0.208639 -0.208639 -0.208639 -9.17581 -9.17581 -9.17581 -9.17581 -8.15648 -8.15648 -8.15648 -8.15648 -0.918857 -0.918857 -0.918857 -0.918857 -7.96066 -7.96066 -7.96066 -7.96066 -0.951957 -0.951957 -0.951957 -0.951957 -0.951643 -0.951643 -0.951643 -0.951643 -0.375719 -0.375719 -0.375719 -0.375719 -5.70858 -5.70858 -5.70858 -5.70858 -0.396273 -0.396273 -0.396273 -0.396273 -5.12746 -5.12746 -5.12746 -5.12746 -0.448492 -0.448492 -0.448492 -0.448492 -9.70911 -9.70911 -9.70911 -9.70911 -9.1658 -9.1658 -9.1658 -9.1658 -0.428849 -0.428849 -0.428849 -0.428849 -1.89048 -1.89048 -1.89048 -1.89048 -0.285814 -0.285814 -0.285814 -0.285814 -0.385824 -0.385824 -0.385824 -0.385824 -9.72888 -9.72888 -9.72888 -9.72888 -0.312273 -0.312273 -0.312273 -0.312273 -0.375107 -0.375107 -0.375107 -0.375107 -8.00638 -8.00638 -8.00638 -8.00638 -9.11944 -9.11944 -9.11944 -9.11944 -0.306614 -0.306614 -0.306614 -0.306614 -7.93803 -7.93803 -7.93803 -7.93803 -9.701 -9.701 -9.701 -9.701 -9.25498 -9.25498 -9.25498 -9.25498 -5.8156 -5.8156 -5.8156 -5.8156 -0.383444 -0.383444 -0.383444 -0.383444 -0.328904 -0.328904 -0.328904 -0.328904 -6.01905 -6.01905 -6.01905 -6.01905 -0.217001 -0.217001 -0.217001 -0.217001 -0.294427 -0.294427 -0.294427 -0.294427 -0.331809 -0.331809 -0.331809 -0.331809 -0.402411 -0.402411 -0.402411 -0.402411 -0.342802 -0.342802 -0.342802 -0.342802 -9.7128 -9.7128 -9.7128 -9.7128 -9.68495 -9.68495 -9.68495 -9.68495 -0.30956 -0.30956 -0.30956 -0.30956 -9.73193 -9.73193 -9.73193 -9.73193 -9.31191 -9.31191 -9.31191 -9.31191 -9.72919 -9.72919 -9.72919 -9.72919 -9.73843 -9.73843 -9.73843 -9.73843 -0.387971 -0.387971 -0.387971 -0.387971 -9.73131 -9.73131 -9.73131 -9.73131 -5.93186 -5.93186 -5.93186 -5.93186 -9.18147 -9.18147 -9.18147 -9.18147 -9.71876 -9.71876 -9.71876 -9.71876 -1.40222 -1.40222 -1.40222 -1.40222 -0.747545 -0.747545 -0.747545 -0.747545 -7.94122 -7.94122 -7.94122 -7.94122 -0.265975 -0.265975 -0.265975 -0.265975 -0.288679 -0.288679 -0.288679 -0.288679 -0.259096 -0.259096 -0.259096 -0.259096 -0.217569 -0.217569 -0.217569 -0.217569 -0.307771 -0.307771 -0.307771 -0.307771 -0.241039 -0.241039 -0.241039 -0.241039 -0.383199 -0.383199 -0.383199 -0.383199 -1.29608 -1.29608 -1.29608 -1.29608 -9.73738 -9.73738 -9.73738 -9.73738 -0.312928 -0.312928 -0.312928 -0.312928 -0.313721 -0.313721 -0.313721 -0.313721 -0.293499 -0.293499 -0.293499 -0.293499 -0.324351 -0.324351 -0.324351 -0.324351 -0.325204 -0.325204 -0.325204 -0.325204 -0.328697 -0.328697 -0.328697 -0.328697 -0.310894 -0.310894 -0.310894 -0.310894 -2.06824 -2.06824 -2.06824 -2.06824 -8.10214 -8.10214 -8.10214 -8.10214 -0.261432 -0.261432 -0.261432 -0.261432 -0.2676 -0.2676 -0.2676 -0.2676 -9.71013 -9.71013 -9.71013 -9.71013 -9.71291 -9.71291 -9.71291 -9.71291 -0.33459 -0.33459 -0.33459 -0.33459 -0.227848 -0.227848 -0.227848 -0.227848 -9.6915 -9.6915 -9.6915 -9.6915 -9.22282 -9.22282 -9.22282 -9.22282 -0.407008 -0.407008 -0.407008 -0.407008 -0.869012 -0.869012 -0.869012 -0.869012 -9.72782 -9.72782 -9.72782 -9.72782 -0.377238 -0.377238 -0.377238 -0.377238 -0.368127 -0.368127 -0.368127 -0.368127 -8.71659 -8.71659 -8.71659 -8.71659 -0.262855 -0.262855 -0.262855 -0.262855 -0.298376 -0.298376 -0.298376 -0.298376 -9.73442 -9.73442 -9.73442 -9.73442 -0.864504 -0.864504 -0.864504 -0.864504 -0.858283 -0.858283 -0.858283 -0.858283 -0.872061 -0.872061 -0.872061 -0.872061 -0.821701 -0.821701 -0.821701 -0.821701 -0.868114 -0.868114 -0.868114 -0.868114 -9.73692 -9.73692 -9.73692 -9.73692 -9.71996 -9.71996 -9.71996 -9.71996 -9.69468 -9.69468 -9.69468 -9.69468 -5.68714 -5.68714 -5.68714 -5.68714 -0.715299 -0.715299 -0.715299 -0.715299 -9.72668 -9.72668 -9.72668 -9.72668 -0.311907 -0.311907 -0.311907 -0.311907 -0.344757 -0.344757 -0.344757 -0.344757 -0.367134 -0.367134 -0.367134 -0.367134 -6.34007 -6.34007 -6.34007 -6.34007 -4.83637 -4.83637 -4.83637 -4.83637 -0.831561 -0.831561 -0.831561 -0.831561 -9.75264 -9.75264 -9.75264 -9.75264 -0.24905 -0.24905 -0.24905 -0.24905 -9.77128 -9.77128 -9.77128 -9.77128 -0.268858 -0.268858 -0.268858 -0.268858 -0.870776 -0.870776 -0.870776 -0.870776 -0.286667 -0.286667 -0.286667 -0.286667 -9.74371 -9.74371 -9.74371 -9.74371 -9.68032 -9.68032 -9.68032 -9.68032 -4.20988 -4.20988 -4.20988 -4.20988 -0.314935 -0.314935 -0.314935 -0.314935 -0.206757 -0.206757 -0.206757 -0.206757 -0.259053 -0.259053 -0.259053 -0.259053 -0.31653 -0.31653 -0.31653 -0.31653 -0.318178 -0.318178 -0.318178 -0.318178 -0.301121 -0.301121 -0.301121 -0.301121 -5.11308 -5.11308 -5.11308 -5.11308 -9.75789 -9.75789 -9.75789 -9.75789 -0.218093 -0.218093 -0.218093 -0.218093 -9.74768 -9.74768 -9.74768 -9.74768 -0.219066 -0.219066 -0.219066 -0.219066 -9.70923 -9.70923 -9.70923 -9.70923 -0.26495 -0.26495 -0.26495 -0.26495 -0.30936 -0.30936 -0.30936 -0.30936 -0.313421 -0.313421 -0.313421 -0.313421 -9.79225 -9.79225 -9.79225 -9.79225 -0.354458 -0.354458 -0.354458 -0.354458 -9.72873 -9.72873 -9.72873 -9.72873 -0.338646 -0.338646 -0.338646 -0.338646 -2.01229 -2.01229 -2.01229 -2.01229 -9.77588 -9.77588 -9.77588 -9.77588 -0.295387 -0.295387 -0.295387 -0.295387 -0.227244 -0.227244 -0.227244 -0.227244 -0.203046 -0.203046 -0.203046 -0.203046 -9.767 -9.767 -9.767 -9.767 -0.246367 -0.246367 -0.246367 -0.246367 -0.307089 -0.307089 -0.307089 -0.307089 -0.886806 -0.886806 -0.886806 -0.886806 -0.852742 -0.852742 -0.852742 -0.852742 -9.81708 -9.81708 -9.81708 -9.81708 -9.70687 -9.70687 -9.70687 -9.70687 -9.81181 -9.81181 -9.81181 -9.81181 -9.7944 -9.7944 -9.7944 -9.7944 -0.271576 -0.271576 -0.271576 -0.271576 -0.224879 -0.224879 -0.224879 -0.224879 -0.265951 -0.265951 -0.265951 -0.265951 -9.73724 -9.73724 -9.73724 -9.73724 -0.240186 -0.240186 -0.240186 -0.240186 -0.262491 -0.262491 -0.262491 -0.262491 -0.230119 -0.230119 -0.230119 -0.230119 -9.74933 -9.74933 -9.74933 -9.74933 -0.254919 -0.254919 -0.254919 -0.254919 -9.78883 -9.78883 -9.78883 -9.78883 -0.238037 -0.238037 -0.238037 -0.238037 -0.211516 -0.211516 -0.211516 -0.211516 -0.226 -0.226 -0.226 -0.226 -0.258697 -0.258697 -0.258697 -0.258697 -0.776355 -0.776355 -0.776355 -0.776355 -9.76768 -9.76768 -9.76768 -9.76768 -9.77129 -9.77129 -9.77129 -9.77129 -9.75501 -9.75501 -9.75501 -9.75501 -0.159022 -0.159022 -0.159022 -0.159022 -9.75974 -9.75974 -9.75974 -9.75974 -9.82804 -9.82804 -9.82804 -9.82804 -9.78193 -9.78193 -9.78193 -9.78193 -0.297211 -0.297211 -0.297211 -0.297211 -9.83219 -9.83219 -9.83219 -9.83219 -9.87175 -9.87175 -9.87175 -9.87175 -9.84493 -9.84493 -9.84493 -9.84493 -9.51194 -9.51194 -9.51194 -9.51194 -8.77636 -8.77636 -8.77636 -8.77636 -1.64604 -1.64604 -1.64604 -1.64604 -0.91422 -0.91422 -0.91422 -0.91422 -8.66049 -8.66049 -8.66049 -8.66049 -7.92081 -7.92081 -7.92081 -7.92081 -0.521428 -0.521428 -0.521428 -0.521428 -1.05643 -1.05643 -1.05643 -1.05643 -3.58582 -3.58582 -3.58582 -3.58582 -3.14977 -3.14977 -3.14977 -3.14977 -5.31639 -5.31639 -5.31639 -5.31639 -5.84349 -5.84349 -5.84349 -5.84349 -9.64497 -9.64497 -9.64497 -9.64497 -9.201 -9.201 -9.201 -9.201 -0.511505 -0.511505 -0.511505 -0.511505 -1.28891 -1.28891 -1.28891 -1.28891 -8.62228 -8.62228 -8.62228 -8.62228 -7.85162 -7.85162 -7.85162 -7.85162 -2.74476 -2.74476 -2.74476 -2.74476 -2.72144 -2.72144 -2.72144 -2.72144 -1.58802 -1.58802 -1.58802 -1.58802 -2.04896 -2.04896 -2.04896 -2.04896 -5.03065 -5.03065 -5.03065 -5.03065 -5.19071 -5.19071 -5.19071 -5.19071 -9.17074 -9.17074 -9.17074 -9.17074 -8.73083 -8.73083 -8.73083 -8.73083 -2.52747 -2.52747 -2.52747 -2.52747 -3.11832 -3.11832 -3.11832 -3.11832 -7.97181 -7.97181 -7.97181 -7.97181 -7.39674 -7.39674 -7.39674 -7.39674 -0.362563 -0.362563 -0.362563 -0.362563 -0.988136 -0.988136 -0.988136 -0.988136 -4.41815 -4.41815 -4.41815 -4.41815 -3.91455 -3.91455 -3.91455 -3.91455 -8.22602 -8.22602 -8.22602 -8.22602 -8.98294 -8.98294 -8.98294 -8.98294 -2.99806 -2.99806 -2.99806 -2.99806 -2.88979 -2.88979 -2.88979 -2.88979 -1.21346 -1.21346 -1.21346 -1.21346 -1.95214 -1.95214 -1.95214 -1.95214 -7.50373 -7.50373 -7.50373 -7.50373 -7.08107 -7.08107 -7.08107 -7.08107 -7.99577 -7.99577 -7.99577 -7.99577 -7.66549 -7.66549 -7.66549 -7.66549 -6.94862 -6.94862 -6.94862 -6.94862 -7.46872 -7.46872 -7.46872 -7.46872 -2.81904 -2.81904 -2.81904 -2.81904 -3.47649 -3.47649 -3.47649 -3.47649 -8.08702 -8.08702 -8.08702 -8.08702 -8.77054 -8.77054 -8.77054 -8.77054 -8.66547 -8.66547 -8.66547 -8.66547 -9.51507 -9.51507 -9.51507 -9.51507 -6.6191 -6.6191 -6.6191 -6.6191 -6.80978 -6.80978 -6.80978 -6.80978 -0.433622 -0.433622 -0.433622 -0.433622 -1.13622 -1.13622 -1.13622 -1.13622 -1.92371 -1.92371 -1.92371 -1.92371 -0.98785 -0.98785 -0.98785 -0.98785 -8.67563 -8.67563 -8.67563 -8.67563 -8.04981 -8.04981 -8.04981 -8.04981 -9.53177 -9.53177 -9.53177 -9.53177 -8.89058 -8.89058 -8.89058 -8.89058 -1.22758 -1.22758 -1.22758 -1.22758 -0.506474 -0.506474 -0.506474 -0.506474 -7.88069 -7.88069 -7.88069 -7.88069 -7.55146 -7.55146 -7.55146 -7.55146 -9.02387 -9.02387 -9.02387 -9.02387 -9.60728 -9.60728 -9.60728 -9.60728 -3.75837 -3.75837 -3.75837 -3.75837 -3.14313 -3.14313 -3.14313 -3.14313 -3.50117 -3.50117 -3.50117 -3.50117 -3.38785 -3.38785 -3.38785 -3.38785 -0.40792 -0.40792 -0.40792 -0.40792 -1.13046 -1.13046 -1.13046 -1.13046 -5.66956 -5.66956 -5.66956 -5.66956 -5.77906 -5.77906 -5.77906 -5.77906 -8.94878 -8.94878 -8.94878 -8.94878 -9.57813 -9.57813 -9.57813 -9.57813 -9.07957 -9.07957 -9.07957 -9.07957 -8.47836 -8.47836 -8.47836 -8.47836 -0.409597 -0.409597 -0.409597 -0.409597 -1.09783 -1.09783 -1.09783 -1.09783 -9.20446 -9.20446 -9.20446 -9.20446 -9.65052 -9.65052 -9.65052 -9.65052 -1.74596 -1.74596 -1.74596 -1.74596 -1.05987 -1.05987 -1.05987 -1.05987 -1.07929 -1.07929 -1.07929 -1.07929 -0.434949 -0.434949 -0.434949 -0.434949 -8.67709 -8.67709 -8.67709 -8.67709 -8.07771 -8.07771 -8.07771 -8.07771 -9.53812 -9.53812 -9.53812 -9.53812 -8.94107 -8.94107 -8.94107 -8.94107 -9.14273 -9.14273 -9.14273 -9.14273 -9.69071 -9.69071 -9.69071 -9.69071 
VECTORS Velocity float 
-0.0147436 0.00316012 0.630584 
0.00738808 0.0128809 0.989215 
-0.0120635 -0.00809863 0.529076 
0.0119706 0.00125908 1.02942 
0.000898578 0.0207296 0.791324 
0.0106265 0.00246384 0.564328 
0.000908962 -0.021918 0.0235707 
-0.0117852 0.00617175 0.500257 
0.000653961 0.000309312 0.801078 
-0.00140433 0.00156843 1.02924 
0.002602 0.000471615 0.785596 
-0.000952291 -0.000835642 0.895811 
-0.00116655 -0.000986933 0.978109 
-0.000268897 0.00328694 1.12015 
5.43489e-05 0.00144451 0.986073 
0.00181984 -0.00301674 1.17555 
0.011653 0.00659503 0.0255392 
-0.00879241 -0.000645888 0.557432 
0.00653482 -0.00313278 0.546167 
-0.00119275 -0.00125222 0.480951 
0.00732668 0.00751271 0.0242741 
0.0070102 0.00202508 0.562425 
-0.0053779 -0.00487219 0.79034 
-0.000508722 0.000120679 0.504797 
-0.00201883 -0.00563145 0.871064 
-0.00144587 -0.00602266 1.00246 
0.00437132 0.00495604 0.707008 
0.00483621 0.00233272 0.474282 
-4.55603e-05 -0.00380338 0.992983 
-0.000744275 0.0026528 1.02611 
-0.00107723 0.000848369 1.11323 
0.00576562 0.000123172 0.903174 
0.00269408 0.000288899 0.930821 
-0.00439861 0.00235401 0.955384 
-0.001873 0.00619077 1.14207 
0.00504566 -0.00195816 0.849081 
-0.00752454 0.00174305 0.77024 
-0.000594895 0.008596 0.583176 
0.00148719 0.00267341 0.019976 
-0.0044582 -0.00281963 0.532341 
0.00806354 -0.00597276 0.562578 
-0.00891643 0.000976586 0.547619 
-0.000119407 0.00326692 0.8302 
0.00231548 -0.0015271 0.480581 
-0.003265 -0.0110225 1.0033 
-0.00326504 0.0114684 0.521353 
-0.00509169 0.00493513 0.704046 
0.00217264 0.002517 0.435726 
0.00047714 0.00131401 0.629354 
-0.00588099 0.00120399 0.820815 
0.00695109 0.00646181 0.984273 
-0.00419583 0.0059161 1.0328 
-0.00206766 -0.0027022 0.666339 
-0.00595661 0.0102676 0.572467 
-0.00250642 -0.00120804 0.0121149 
6.31566e-05 -0.00380788 0.530328 
0.00467049 0.0056276 0.706904 
-0.00256949 -0.00764402 0.997728 
-0.00105611 -0.00425084 0.875168 
-0.00303735 0.00185974 0.882231 
0.00438501 -0.000850039 0.0126256 
0.00351089 -0.00137092 0.0149687 
-0.0116201 0.00753797 0.77721 
0.00135428 0.0046846 0.578332 
-0.00468124 0.00360481 0.701908 
-0.00664222 0.0139824 0.532607 
0.00480411 -0.0031254 0.986859 
0.00455624 -0.0129497 1.02656 
-0.0029191 0.00153162 0.618526 
0.00118233 0.00261319 0.885567 
0.00439562 -0.00160896 0.698955 
-0.00011943 -0.00146701 0.462871 
-0.000858611 -0.00303419 0.787663 
0.00154182 0.00182061 1.03693 
0.00129412 -0.000826599 0.638951 
0.00390398 0.00283612 0.795631 
-0.00218755 -0.000630019 0.0115245 
0.00274414 0.00180547 0.456981 
0.00981141 0.00259255 0.685968 
-0.00364768 0.00219793 0.469784 
-0.00337332 0.000404234 0.980354 
0.00410702 0.00160255 1.04057 
0.00400486 0.00141041 0.897221 
-0.00213653 -0.00485717 0.756325 
0.00421229 -0.000967584 0.911734 
0.00534412 3.91003e-06 0.998549 
-0.00528355 -0.00061016 0.761851 
-0.00220674 0.00349047 0.919199 
-0.00242678 -0.00047787 1.11878 
0.00140842 -0.00147248 1.19042 
0.00339213 -0.00257445 0.992872 
-0.00217293 0.00187344 1.16738 
0.0012589 -0.000309138 0.705076 
0.00162817 0.00203739 0.629726 
0.00120373 0.00122776 0.884813 
-0.000539019 -0.00205071 0.686863 
0.00118621 0.000320644 1.16913 
0.000894175 -0.00299118 1.03631 
-0.00204006 0.00402157 1.08418 
9.52823e-05 -0.000985493 1.22423 
0.00242133 -0.00232475 0.716343 
0.00051604 -0.00134728 1.08343 
-0.00197263 -0.00122171 0.983902 
2.44687e-05 0.00332606 0.994528 
-0.00552058 -0.00011277 1.00295 
0.00344926 -0.00107959 0.710695 
-0.0108506 -0.000136035 1.02683 
0.0100786 0.00322093 0.544303 
-0.00215251 0.00104868 0.623871 
0.000899574 -0.0112088 0.522319 
-0.00218991 0.000416868 0.824381 
-0.00751793 0.00927345 1.03903 
0.000480128 -0.000213122 0.70027 
-0.000639202 -0.00100739 0.853357 
-0.00102373 -0.000389073 0.922378 
0.00156345 0.000165988 0.742025 
-0.000452357 0.00194672 0.625442 
0.000520305 -0.00200625 0.688887 
0.00277937 -0.000243857 0.708116 
-0.00174665 -0.000889466 0.460972 
-0.000689037 -0.00142041 0.979745 
-0.00136137 0.00300586 0.986242 
-0.00172122 -0.00124827 1.08476 
0.00154258 -0.00292313 1.17173 
0.00329218 -0.0131932 0.999339 
-0.00903814 -0.00423183 0.709313 
0.00703969 0.000592139 0.614832 
-0.00531464 0.0131882 0.437998 
0.012966 0.00585594 0.0217484 
-0.00844592 0.00551999 0.490491 
-0.0019883 -0.00501516 0.591686 
-0.0115721 -0.00437165 0.760016 
-0.00716507 0.0156832 1.00447 
-0.00264643 -0.00293292 0.616526 
-0.00120037 -0.00158881 0.52083 
0.00284938 -0.00567945 0.435206 
0.00276124 0.000366802 1.169 
-0.000471749 -0.000573158 1.02993 
-0.00279466 -0.000226936 1.07212 
0.000660897 -0.00203702 1.03909 
0.00110538 -0.000470766 1.2251 
-0.0012651 0.00132016 1.11353 
0.00159887 5.72959e-06 1.18676 
-0.00320657 -0.000127016 1.17637 
0.00941414 -0.00228421 0.0144521 
-0.00451288 0.00922714 0.784835 
0.00229394 -0.00679765 0.00739374 
-0.00456677 0.00738917 0.57756 
-0.000768623 -0.000535956 1.15712 
0.000151693 -0.0005588 1.22581 
-0.000975953 0.00360704 1.08801 
-0.00040389 0.000885375 1.18504 
0.000327254 -0.00344135 0.0308151 
-0.00447763 0.00714755 0.538307 
-0.00130514 0.00279245 0.750608 
0.000155696 0.000194542 0.437984 
0.00552841 -0.00192526 1.13732 
-0.00108007 0.00263913 1.12324 
-0.00320196 0.00264193 1.12196 
0.00162997 -0.00326618 1.25562 
-0.00380615 -0.00413137 0.00636641 
-0.0010957 0.00452861 0.00249499 
0.00527558 -0.00161478 0.545541 
0.010864 -0.00203616 0.502855 
0.00472742 -0.00842558 0.0063932 
0.00944559 0.00371837 0.00738046 
-0.015154 0.00280742 0.571173 
-0.00803575 0.0034651 0.547816 
0.00330274 -0.00274708 0.0118124 
-0.00130932 -0.00172172 0.0116996 
0.00156159 0.0030885 0.68273 
0.00337599 -0.000905095 0.472103 
-0.00276003 0.000208423 0.0220055 
0.00313833 -0.000960603 0.0220154 
-0.00131487 0.00146962 0.543334 
0.000321017 0.00233989 0.760795 
0.000440523 -0.00043376 0.765187 
0.000199141 0.000889593 0.665175 
-0.00120305 -0.000893725 0.921873 
-0.00471064 0.000265035 0.969164 
0.00333264 -0.00233724 0.71441 
-0.0104354 -0.00709681 1.01182 
-0.00207084 0.00278192 0.587259 
0.0120516 0.00664041 0.538765 
0.00148115 -0.0032162 0.625064 
0.000345178 0.00116364 1.0372 
-0.00112658 0.00042744 0.969286 
0.00236084 0.0103697 0.839612 
-0.000676235 0.00212166 0.69347 
0.0029991 -0.00297657 0.751294 
-0.00223408 0.000503965 0.920512 
0.00186588 -0.000416941 0.571094 
-0.00136196 -0.000717216 0.982606 
0.0068649 -0.000693822 0.765128 
0.0024076 0.00430617 0.988586 
-0.00651551 -0.00809134 1.03035 
0.0110459 -0.00196651 0.9958 
0.00821911 0.00928368 0.671657 
-0.00786354 -0.0119608 0.698606 
-0.00345073 0.00396117 0.586295 
0.00298032 -0.00203482 0.995817 
0.000683274 -0.00074066 1.18941 
-0.000146649 0.00273772 1.07907 
-0.00110633 0.000663786 1.16508 
-0.00096008 0.0038171 0.940682 
0.00117359 0.00140956 1.08789 
0.00129914 0.00226176 1.13207 
-0.00326179 -0.00273641 0.945699 
0.00446057 0.000927257 1.11565 
-0.000494224 -0.000233158 0.990907 
-0.000490338 0.00339894 0.983376 
0.00274531 -0.008025 0.912437 
0.00421152 0.000301639 0.92461 
-0.00304066 0.000163446 0.771818 
-0.00516015 0.00230828 0.959117 
0.00266425 -0.00136795 0.849277 
0.00247099 0.000972403 1.14109 
0.000331219 0.000701443 1.14434 
-0.0049444 -0.00198985 1.05227 
0.00283504 0.00602513 0.925712 
-0.00363942 -0.00665358 0.754473 
-0.0140642 0.00818452 0.54176 
0.00758803 0.00517131 0.025269 
0.0145925 -0.0110062 0.562027 
0.00240921 -0.0037671 0.761156 
0.000454374 -0.000495804 0.895508 
0.00778675 0.00388151 1.0374 
-0.00171288 -0.00479467 0.759221 
0.000966182 -0.00193944 1.10345 
-0.00030886 -0.0013175 1.03112 
-0.000762978 0.004269 1.19922 
-0.00263025 0.000372616 1.17673 
0.00114187 0.00310238 0.744159 
0.00258247 0.00303609 0.838867 
-0.000276387 0.00147822 0.909376 
-0.00348586 -0.00494706 0.544872 
0.00159373 0.00225767 1.21559 
0.00119204 -0.00227388 1.19471 
-0.000922083 -0.00166072 1.24691 
-0.00226667 -0.000114589 1.17848 
-0.0012376 -0.00134097 0.775333 
0.00218031 0.00269193 0.0205769 
-0.00685118 0.00084815 0.564587 
0.00379674 -0.00115744 0.562785 
-0.00637736 0.00545891 0.696283 
0.00938231 0.00288129 0.674009 
0.00467159 -0.00206134 0.990232 
-0.00578502 -0.00334873 0.978265 
-0.000134652 0.00790938 0.547943 
0.00756184 -0.00403535 0.521692 
0.00678796 -0.00584948 0.0207695 
-0.00364393 0.00738381 0.786858 
-0.00691546 -0.0100417 0.697897 
-0.001026 0.0078044 0.582862 
0.0042781 0.00116001 0.674383 
-0.00503959 0.00356486 0.480358 
0.000119496 0.00170886 0.0190374 
-0.0090483 0.00583072 0.770409 
0.00378263 -0.00127045 0.019264 
0.000372909 -0.00535334 0.52965 
-0.000610653 0.00473492 1.19791 
-0.000850991 -0.00288091 1.03805 
0.00107719 -0.00146326 1.10578 
-0.000863664 -0.000504375 0.975582 
0.00010919 -0.00150401 0.00334058 
0.00667183 -0.000156924 0.547271 
-0.00063458 0.000106844 0.0043719 
0.00554763 0.00241844 0.493604 
-0.00208617 -0.00184606 1.0541 
0.00448137 0.00208827 0.987989 
-0.0012622 0.00207931 1.0413 
-0.000936926 0.000524644 1.13467 
0.00667187 -0.0022993 0.80836 
-0.00405954 -0.000642634 0.517276 
0.00194623 0.00811099 0.902289 
-0.00255292 -0.00614258 0.471692 
0.0124027 0.0120108 1.00509 
-0.0016463 0.00777678 1.02818 
0.00370873 -0.00653746 0.65895 
-0.0111489 -0.0112819 0.541745 
-0.00110913 -0.00507421 0.0114929 
0.00463454 -0.00656242 0.00710552 
-0.00120066 0.00574356 0.487874 
-0.00961827 0.00823291 0.777645 
0.00790359 0.00909514 1.07485 
0.00153251 -0.00234725 0.685602 
0.000325537 0.00270797 0.799898 
-0.00571415 -0.00570525 0.521543 
0.00296778 0.000138575 1.02375 
-0.000857763 -3.73348e-05 1.03151 
-0.00360365 -0.00113476 0.708853 
-0.00386007 -0.00349156 0.777263 
-0.00068888 -0.000955964 0.00694679 
-0.00322028 -0.00469165 0.00343893 
-0.00117088 -0.00167704 0.00500651 
0.0106024 0.00488183 0.588777 
0.00465553 0.00227016 0.650948 
-0.000308789 -0.0112891 0.999702 
-0.00257557 -0.00359604 0.872742 
0.00290783 0.00970566 0.4799 
7.31547e-05 0.00249691 0.605484 
0.00106917 -0.000432374 1.00264 
0.00179253 -0.00145239 0.646115 
0.000856065 -0.00175232 0.475847 
-0.00174361 0.000482519 1.1733 
0.0019858 0.000719958 1.02969 
-0.00111821 -0.00335583 1.05315 
-0.00290976 0.000549835 1.05345 
-0.00113833 -0.00139816 0.983421 
-0.00488487 0.00211098 1.08584 
0.00532351 -0.0113164 0.7172 
-0.00380643 0.00121086 1.01244 
-0.00037886 0.0010211 0.827632 
-0.00630525 -0.00478155 0.559937 
0.00340702 0.00359359 0.739771 
0.00184744 -0.00108724 0.548295 
-0.00100808 -0.000599315 0.972733 
0.0021667 0.0107999 0.837135 
-0.000439023 0.00179873 1.02999 
-0.00633514 -0.00140728 1.01943 
-0.000341005 -0.00229575 1.02242 
0.000625723 -0.00130027 0.886659 
-0.00372671 -0.00166754 1.11602 
0.00339326 0.00087461 0.878912 
1.99415e-05 -0.00401909 0.84326 
-0.00314662 -0.001105 0.925844 
0.00135158 0.00288367 0.750151 
0.00182819 -0.00107866 0.910055 
0.0010342 0.000333868 0.0144091 
0.00219524 -0.0025736 0.0147216 
-0.00893709 -0.00333411 0.699031 
0.000621154 0.00431974 0.553647 
0.00176134 0.00498808 1.07255 
0.00123199 -0.00880096 0.684896 
-0.00153898 0.00247094 0.523618 
-0.00372226 0.00103181 0.549958 
-0.00375773 0.0117799 0.561693 
-0.0022249 -0.00424843 0.538073 
-0.000971003 -0.00119419 0.658659 
0.00647592 0.000356345 0.768974 
-0.0144488 0.00589091 1.06354 
-0.00139687 0.00425072 0.863676 
0.00126062 -0.0049253 0.679917 
0.00312116 -0.00391841 0.559645 
0.0011614 0.00150389 0.80032 
0.000120456 -0.000805238 0.903422 
0.000707698 -0.00186489 0.780587 
0.00258115 0.00106574 0.475172 
0.000885698 -0.000575811 0.766485 
0.00154616 -0.000275843 0.639772 
0.000914981 3.15447e-05 0.928804 
-0.00416606 0.00101348 0.651849 
0.00135735 -0.00458307 0.711379 
-0.000984159 0.000878911 0.988667 
-0.000112008 0.000408301 0.613711 
0.000103963 0.00353382 0.997246 
0.00466839 0.00236089 0.937652 
-0.00452884 0.00354142 1.1331 
0.00101213 0.000913705 1.11377 
0.00498507 -0.00398618 0.84572 
-0.00173423 -0.00103088 0.974855 
0.00356805 0.00577141 1.03159 
0.000341548 -0.00045277 1.03403 
-0.00422904 0.00419392 0.758226 
-0.000296211 -0.00135082 1.17266 
-0.0015358 0.00043247 1.03563 
-0.000310331 0.000507556 0.996433 
0.000826214 -0.00079944 1.0606 
-0.00584108 -0.00078305 0.763947 
0.00501894 8.00926e-06 0.99563 
0.00539468 -0.000644023 0.90899 
0.000123953 -0.00287557 0.575926 
0.00592083 -0.00644131 1.00054 
-0.0101721 -0.00673449 0.596026 
0.00132115 0.000685196 0.686743 
-0.0100958 0.000623262 0.486126 
0.00042491 -0.0016854 1.00083 
0.00271445 -0.0025969 1.0775 
-0.00392905 -0.00149377 0.993451 
-0.000916134 0.00418356 1.19125 
-0.00969488 -0.00697062 0.0164944 
0.0099057 0.00774165 0.76542 
-0.00638417 -0.00206877 0.0164974 
0.00660595 0.000974614 0.448999 
-0.00370806 0.000436146 1.0749 
0.00834061 0.00386629 0.996902 
0.00522888 -0.000748554 0.913994 
-0.00878617 -0.00493875 0.922681 
-0.00855413 -0.00862343 1.06637 
0.0051749 0.00767067 0.522398 
0.00461679 -0.00962481 0.674112 
-0.00466979 0.0103516 0.564533 
-0.00228091 -0.00180241 0.0104515 
-0.00147129 -0.00451709 0.335022 
0.012315 0.00215179 0.665517 
0.00190353 0.00583026 0.458668 
4.83214e-05 0.000561505 0.010847 
6.44005e-05 0.000748349 0.00374072 
-0.000117898 -0.00137 0.00928289 
0.000531808 0.00236639 0.779355 
-0.0076004 0.00881507 0.012262 
0.0110306 9.87515e-05 0.523164 
-0.0165198 0.00186184 0.0170724 
0.0122523 -0.0164171 0.796831 
0.00213686 -0.000400563 0.323073 
-0.00205782 0.000330272 0.00265008 
-0.00151133 0.000395112 0.00313922 
0.00750946 -0.0021179 0.677054 
-0.00381036 0.00255506 1.13253 
0.00277872 0.00177519 1.10347 
0.000961483 -0.00152221 0.857185 
5.82981e-05 0.00094246 1.16968 
-0.00727984 -0.00517182 0.0240508 
-0.00529793 -0.00343614 0.541962 
-0.000515773 0.007608 0.552249 
0.00418722 0.00744508 0.782317 
0.00914535 -0.00223388 0.670664 
-0.00682665 0.00537991 0.472534 
0.00514821 0.00469804 0.470221 
-0.00370984 -0.00666203 0.894725 
-0.0135431 -0.00147109 0.725431 
0.00471192 -0.000929239 1.10228 
-0.000207316 -0.00429811 0.998298 
0.00171581 -0.00047489 1.01593 
0.00227728 0.00313157 0.890053 
0.002194 0.000410808 0.701297 
-0.00116807 -0.00250161 0.689702 
0.000531641 -0.00321127 0.874197 
0.000212328 0.000802127 1.11702 
-0.00327217 0.000916672 1.18872 
0.00313702 0.00277591 1.11483 
0.00150113 -0.0042368 0.97302 
-0.00174591 -0.00118959 0.659847 
3.48399e-05 0.00209769 0.980092 
-0.000681701 -0.000137747 0.994417 
0.00175613 -0.00436778 0.910982 
-0.00326183 0.00137016 0.0187763 
-0.00228321 -0.00108689 0.522236 
-0.00061075 -0.00664838 0.698776 
0.00268632 -0.00347967 0.789734 
0.00227917 0.0041117 0.671862 
0.000941035 -0.00483945 1.12583 
-0.00453299 -0.000578258 1.01556 
0.00743837 -0.00319369 0.896264 
0.00665495 0.0072141 1.07298 
0.00110353 0.00213377 0.794997 
0.00378347 -0.00602366 0.673468 
-0.00301145 -0.00352822 0.519008 
-0.0031648 -0.00361331 0.982758 
-0.0078538 0.0138852 0.587933 
0.0043978 0.00300697 0.761312 
0.00319322 -0.00983769 1.03864 
-0.000618882 0.00269477 1.11719 
-0.00617226 -0.00421903 1.00076 
0.00421369 -0.000960619 0.76548 
0.000100609 -0.001333 1.0207 
-0.0017538 0.00748034 0.665404 
-0.00045312 -0.000976652 0.884974 
0.00458963 -0.0036901 1.02878 
0.0029528 0.000859958 0.880551 
0.00428982 0.00211575 0.457838 
-0.00258361 0.0014516 0.00204025 
-0.00372218 -0.000842959 0.0096119 
0.00908161 0.00221853 0.688103 
0.00476743 -0.00558664 1.0598 
-0.00519177 0.00184442 0.690196 
-0.00137882 0.00263481 0.989379 
0.00445466 0.000836524 1.02984 
-0.000272566 0.000123696 0.00350732 
-0.00475749 0.00128074 0.00154455 
-0.000312292 0.000176352 0.00637119 
0.00726514 -0.00296036 0.546606 
0.00049934 -0.000421647 0.646736 
0.000799909 0.00438288 0.58736 
0.0103422 0.00455883 1.01258 
-0.00778078 -0.00521661 0.537742 
-0.00256574 0.00381592 0.999521 
0.00243549 -0.000983998 0.605159 
-0.00382699 0.00200873 0.605739 
0.000633531 -0.000379314 0.440246 
-0.00523946 -0.00375163 0.0199372 
0.00595652 0.00280354 0.656207 
0.000827234 0.00130576 0.532128 
0.0038641 0.00209847 0.767261 
-0.00100976 -0.00013245 0.981516 
-0.000234168 -0.000315455 0.985314 
-0.000441618 0.00233749 1.11664 
-0.00210806 -0.000564234 1.02688 
-0.00630792 -0.000199444 0.012708 
-0.0116574 -0.0030235 0.572648 
0.0105201 0.000447054 0.601677 
0.00539128 -0.00125011 0.463175 
-0.00235894 -0.000796299 0.618615 
0.00418879 0.000780013 0.649443 
0.00158847 0.0020832 0.879113 
-0.00127437 0.00177809 0.47144 
0.000888134 0.000388423 0.364275 
-0.00969887 0.00354986 0.599241 
0.000145692 -0.0024026 0.0123843 
0.00142253 0.00670362 0.575671 
0.00175352 0.00129361 1.1116 
0.00160536 -0.000554963 0.944291 
0.00158628 0.000668672 1.08841 
-0.00165711 0.00242532 1.1203 
-0.00310484 -0.00569483 0.990404 
0.000414374 -0.00116054 0.906382 
0.00333824 0.00289925 0.6549 
0.00400182 0.00101509 0.738143 
0.00097101 0.00102934 1.14031 
-0.00350613 -0.00204445 1.05488 
-0.000434102 0.000730495 1.13972 
0.00312112 -0.00174622 1.17039 
-0.00093706 -0.00137436 0.00607973 
0.000242402 0.0105895 0.554599 
0.00638948 -0.00977201 0.0126744 
-0.00194488 0.00611614 0.80386 
-0.00282672 0.00135893 0.918733 
0.0016139 -0.00403337 1.0462 
-0.00146435 -0.00162968 0.981308 
-0.00156964 -0.00314684 0.881507 
-0.00419364 -0.00339188 1.03958 
-0.00137494 -0.000760419 1.21273 
0.000665275 0.000449922 1.1926 
-0.00117706 0.000488537 1.15271 
-0.00279223 0.000831955 0.014252 
0.00892803 -0.00292955 0.662401 
-0.00175348 0.00102663 0.323894 
0.00403287 -0.00039774 0.552643 
-0.00671603 -0.00393036 0.0206311 
0.0002734 -0.00263838 0.543773 
0.00580684 0.00278043 0.655426 
0.00458844 0.0021584 0.762186 
0.0046574 0.000337546 0.984197 
-0.00836714 0.00627621 1.04875 
0.000789029 0.000868161 1.04677 
-0.00409192 -0.00564213 0.872875 
0.00280083 0.000310293 1.11165 
0.00260013 0.00328007 1.00451 
-0.00278982 -0.00252273 1.06874 
0.000627113 -0.00141699 0.914362 
0.000997487 0.00651954 1.03499 
-0.00303028 -0.00132574 0.796643 
0.00161039 -0.00839144 0.644808 
0.00532904 0.00362371 0.92721 
0.00161831 -0.00179296 1.05618 
0.00409632 0.00112149 1.02855 
0.000540819 -0.000487019 0.986718 
0.000305463 0.00198387 1.13483 
-0.000211697 -0.000375652 0.984455 
0.00155768 -0.00183227 0.767884 
-0.000325957 0.000970401 0.618601 
-0.00032153 0.00381738 0.992496 
-0.000716051 -0.00194942 0.672351 
0.00141973 0.00130532 0.900506 
-0.000606103 0.00324275 0.911377 
-0.00314206 -0.00237811 0.97598 
0.000968858 0.00103088 1.13842 
-0.00165526 0.00160238 1.13932 
0.000837789 0.00110473 1.23356 
0.0030037 -0.00166239 1.16933 
-0.00454993 0.00328543 0.990113 
0.000519275 0.00123869 0.621651 
0.00136146 0.00110634 0.605845 
-0.00516074 -0.00111309 0.578788 
0.00487943 0.00878004 0.80937 
-0.00605334 0.00164305 0.69033 
0.00475275 -0.00443527 1.05473 
0.00186953 8.72173e-05 1.03088 
-0.00569263 -0.00687241 1.04257 
0.00403618 -0.00442871 0.700613 
0.00264336 0.00458752 0.544864 
-0.00135699 -0.00151451 0.771868 
-0.00462983 0.00423325 0.679244 
0.00308286 0.00771342 0.541785 
-0.00253266 -0.00791012 0.839234 
0.00831728 -0.00840434 0.49532 
-0.00104497 -0.00276501 1.05698 
0.00224214 0.000247184 1.23609 
0.0046159 -0.00364836 1.15054 
-0.00157786 0.00197118 1.16112 
0.00164129 -0.000880349 0.931758 
-0.00406321 -0.00020652 0.658491 
0.00190192 0.0006994 0.633106 
-0.00099203 0.0010735 0.546998 
-0.00745723 0.0139372 0.0136301 
0.012787 -0.0143228 0.768499 
-0.0158892 -0.00563755 0.0200577 
0.0179546 0.00526901 0.552737 
-0.00159955 -0.00176887 0.37114 
-0.0094574 -0.00586424 0.699712 
0.00363598 0.00121279 0.0134185 
0.00159186 -0.00100265 0.554192 
-0.000621426 -0.00447914 0.937411 
0.00265954 0.00106894 0.721945 
0.00083485 0.0053253 0.757641 
0.00276223 -0.001066 0.848414 
-0.00187325 0.0157791 0.0159504 
0.00399625 -0.013421 0.77744 
7.04447e-05 0.00455195 0.0148227 
-0.00408679 -0.00611572 0.578191 
-0.00276022 0.00608016 0.812656 
0.00208352 -0.00520602 0.681265 
0.00380241 -0.00103036 0.68392 
0.00147669 0.00438903 1.03261 
-0.00349112 -0.00266479 0.0128823 
-0.00647168 0.00424658 0.568843 
0.00414618 0.00128663 0.458963 
0.00875205 0.00440975 0.503557 
0.000449712 -0.000765717 0.63285 
0.000756164 -0.00114537 0.792528 
0.00392531 0.00194639 0.798798 
-0.00195908 0.0021104 0.465755 
-0.00602035 -0.00716918 1.04331 
0.00249828 0.00503541 0.547294 
-0.00118763 -0.000177049 0.695356 
-0.000852542 -0.00202271 0.767225 
0.00427445 -0.00366344 2.28594e-05 
-0.0110628 -0.00161178 0.559491 
0.0135755 0.00522072 0.0184664 
-0.00536216 -0.00132517 0.488867 
0.00240563 -0.00145698 0.374576 
0.00602073 -0.00484799 0.699475 
-0.000107399 0.00286867 0.0118598 
0.00264885 0.001022 0.465141 
-0.00224579 2.8894e-05 1.23229 
0.0010576 0.000375432 1.16581 
-0.0017001 -0.000888687 1.11582 
0.00146364 0.000164304 1.16575 
-0.000345724 0.00140973 0.991334 
0.000603899 -0.00183797 1.06687 
-0.00312672 0.000730091 1.03633 
9.95972e-05 0.00225072 0.869006 
7.56611e-05 0.00125913 0.00866457 
-7.93819e-05 -0.00104033 -0.00231912 
0.000100193 0.00102558 -0.00400766 
0.00239704 -0.00135768 0.49701 
-0.00742878 0.00234595 0.983505 
0.00177119 -0.00332217 0.58621 
-0.00401955 0.00494005 1.03995 
0.00152552 -0.000753156 0.748573 
-0.000327306 -0.0040598 0.698328 
-0.00425025 0.000968602 0.97689 
-0.00196323 0.0035007 0.668924 
0.00193582 -0.000617463 0.573662 
-0.00650735 -0.00368898 0.997697 
0.00280611 -0.0020664 1.10312 
-0.000525264 0.00347606 0.721843 
-0.0054394 0.00150136 0.900047 
0.00197946 -0.00312383 0.0192065 
0.00172519 0.00290327 0.0234628 
-0.00333697 0.00177527 0.543239 
-0.00559477 -0.0057564 0.782113 
0.00219215 0.0029956 1.13546 
-0.00327631 0.00216216 1.00103 
-0.0015046 -0.000656784 1.16258 
-8.76709e-05 -0.00504953 1.20498 
0.0067088 0.00753688 1.14249 
0.0124293 0.000296936 0.954431 
-0.00461052 -0.00510843 0.778954 
-0.0177321 0.00362783 0.851429 
0.00274607 0.000833545 0.768487 
-0.00400723 0.00333714 0.827436 
5.60936e-05 -0.0124452 0.528321 
-0.00569048 0.0110147 1.02768 
0.00119298 -0.00523774 0.994498 
0.00162768 -0.0016585 0.694678 
-0.00591004 0.00356147 1.05086 
-0.00168022 0.00315415 0.858761 
-0.00085268 -0.00220857 0.588954 
-0.00431246 0.000941241 0.493324 
0.00404 -0.00656068 0.715213 
0.00557296 0.00713729 0.526191 
0.00532658 -0.000901394 0.0133417 
0.0029924 0.00510418 0.0131419 
-0.00895712 0.00524405 0.599389 
-0.00262434 -0.00647261 0.574124 
0.000300834 0.00478418 0.763975 
-0.00211961 -0.00220159 0.839014 
0.00701745 0.0018937 0.733674 
-0.00230172 0.000798468 0.487771 
0.00373665 0.000211887 0.720907 
0.00277834 -0.00115596 0.936314 
0.00269987 0.000468698 1.05506 
0.00111628 0.00528216 0.978841 
-0.000636933 0.000367329 -0.00507516 
0.000375844 -0.000173399 -0.000515649 
-0.00112361 0.000413791 0.0100106 
0.0028077 0.00410294 0.554175 
0.00228946 -0.00065359 0.00836859 
0.00115142 -0.000349961 0.00838411 
-0.000336677 5.44475e-05 0.00695393 
-0.00277248 -0.0017 0.803686 
0.0038259 0.000883515 1.0231 
-0.000932844 -0.00574596 0.70813 
-0.000949569 -0.00018378 1.03412 
-0.00451729 -0.00391641 0.772209 
0.000564287 0.00383978 1.14739 
0.00456159 -0.00393607 1.05341 
-0.000903102 -8.41713e-05 0.918732 
0.00275699 0.00251848 0.956488 
-0.0027544 0.00267578 0.00205732 
0.00142073 -0.00154717 0.00446118 
0.000685208 -0.00102756 0.0114563 
0.0022562 0.00269035 0.68526 
-0.0110415 -0.00121639 0.591343 
0.00757035 0.00601126 0.567426 
-0.0036958 0.00654134 0.381541 
0.00192071 -0.00272626 0.811362 
0.00409919 0.00298926 0.925455 
-0.00171238 0.00416522 0.892267 
-0.0012827 -0.00483539 0.669429 
-0.00651901 -0.00151278 0.548903 
0.00619964 -0.000839599 0.989059 
-0.00200938 -0.00795983 0.619989 
0.00289506 0.0070488 0.766269 
-0.0106378 0.0044883 0.574658 
0.00367047 0.00811444 1.19471 
-0.00432774 -0.00883816 1.24097 
0.0137758 -0.00125354 1.26116 
-0.0118536 0.00130502 1.17248 
0.00594364 -0.00345808 0.763409 
-0.0103757 0.00300487 0.824759 
-0.000754813 0.000685681 1.02653 
-0.000474018 0.00593764 0.82797 
-0.00350201 0.00796121 1.19537 
0.00590594 -0.00864734 1.26336 
-0.00628902 -0.0023333 1.2385 
0.00173455 0.00644713 1.17144 
0.00159832 -0.00424429 0.0127413 
0.000284933 0.00642798 0.529518 
-0.00167983 0.00378262 0.686074 
0.00746784 -0.0053647 0.50319 
0.00160714 0.00326563 1.20122 
-0.00812597 -0.00466492 0.903816 
-0.00273189 0.00147868 0.986469 
0.00441465 0.00428335 0.976697 
-0.0025999 0.000174762 0.0262794 
-0.000126219 -0.00461211 0.696337 
0.00125698 -0.0017525 0.541851 
0.000435075 -0.00480301 0.778898 
-0.00175256 -0.00140062 0.52882 
-0.0035566 0.0019842 0.474437 
0.00025163 -0.00218812 0.0149767 
-0.00411751 0.00156953 0.764374 
-0.00160692 0.00184908 0.984158 
-0.000217738 -0.00389939 1.00565 
0.00233309 -0.00245616 1.07673 
0.000977327 0.000869268 0.875513 
0.000674509 -0.00300285 0.822696 
-0.00375971 0.00567937 0.763829 
-0.000991496 -0.00519032 1.02873 
-0.000580155 0.00100752 0.905017 
-0.00272325 0.000292343 1.22629 
-0.00131084 0.000718929 1.24628 
-0.000418959 -0.00158039 1.16974 
0.002289 0.000714626 1.16797 
-0.00432258 0.00310527 0.676591 
0.00292051 -0.00230449 0.912345 
0.00914451 -0.00422724 0.844909 
-0.00194681 0.00847318 0.544708 
0.00486832 0.0035244 0.682026 
0.00599884 0.000478848 0.90401 
-0.00360287 -0.00229658 0.518673 
-0.00443552 -0.00326169 0.471901 
0.00244152 -0.000305512 0.800121 
0.00303811 0.00995929 1.06005 
0.00677349 -0.00498199 0.683364 
-0.00503711 -0.0010005 0.914712 
0.00149911 0.00398196 1.2 
0.00117668 -0.00277418 1.13059 
0.00232215 -0.00044102 1.13226 
0.000852155 0.00330307 1.25159 
0.00119626 0.00441283 0.0103739 
-0.00140198 2.41943e-05 0.00878184 
0.00668764 -0.00253513 0.665946 
-0.00700465 -0.00419759 0.505336 
-9.71711e-05 0.000368327 0.757571 
0.00261876 -0.0063139 0.537989 
-0.00693593 0.000868749 0.827582 
-0.000931117 0.00644186 0.825014 
-0.00341357 0.0013015 1.01562 
0.00175127 -0.00381869 1.12641 
-0.000161621 0.000575765 0.670844 
-0.0015713 0.00561816 0.94504 
-0.00204397 -0.00403173 0.0053283 
0.00344432 -0.00357779 0.00557564 
0.00607293 0.00230463 0.460464 
-0.00186939 0.00471755 0.589359 
-0.00156249 0.00211833 1.07364 
-0.000917738 0.00116086 0.949254 
0.00190326 -0.00100344 0.934246 
0.00527606 0.000124805 0.980796 
-0.00316977 -0.0029243 1.03781 
0.00145263 -0.0020315 1.08114 
-0.00549535 0.00377954 1.22766 
0.00197902 -0.000822925 1.14391 
0.002339 -0.00161763 0.00116749 
-0.000520703 0.000252927 0.00858833 
0.00231279 -0.00166255 0.00635849 
-0.00608516 -0.00296214 0.707533 
0.00193148 0.00262172 1.13261 
-0.00281681 0.00047347 1.1662 
0.000123892 0.000826076 1.00115 
-0.000653362 -0.00127185 0.945266 
0.000804027 -0.00179006 1.00276 
-0.00155069 0.000169969 1.1619 
0.00135919 -0.000670589 1.06782 
-0.00232178 0.000597273 1.19129 
-0.00527602 2.42566e-05 0.0153615 
0.00997098 -0.00473924 0.695312 
0.00265281 0.0026381 0.50392 
-0.00440064 0.00739203 0.555634 
0.00244927 -0.00299719 0.317838 
-0.00202979 -0.000717079 0.643983 
0.0129348 0.00873054 0.480315 
-0.00468312 -0.0108069 0.5792 
0.00126292 0.00258266 0.0128376 
0.00589657 -0.00626353 0.69977 
0.0011328 -0.000526566 0.0120482 
-0.0021948 0.000417046 0.462116 
-0.00252563 0.00398223 0.00867714 
0.00558594 0.00352554 0.534372 
-0.000345626 0.00202459 0.556894 
-0.00611123 -0.00555818 0.481447 
0.00137717 -0.00212462 0.937195 
-0.000690029 6.04476e-05 0.767733 
0.00179014 0.00327288 0.7128 
-0.00322761 0.00567958 0.945379 
-0.000319377 0.00287354 1.03264 
-0.00095578 0.00181872 0.919549 
0.0097814 -0.0067513 0.654606 
-0.0024603 0.0032934 1.04256 
-0.000199058 -0.00511833 0.692685 
0.00157862 -0.00336239 0.675087 
0.00478097 0.00165073 0.494242 
-0.00408962 0.00563492 0.480372 
-0.0157748 0.00892606 0.760487 
-0.000435065 0.00474779 0.911746 
0.0121134 -0.00753256 0.823331 
0.00146625 -0.00813176 0.539071 
0.00424818 0.00300137 0.658527 
-0.000497956 -0.000820755 0.898008 
-0.00257783 -0.00126263 0.774917 
0.00282845 -0.000449219 0.747744 
-0.000472231 0.00202283 1.05057 
-0.00296797 -0.00144143 1.05623 
0.00158373 0.000247642 1.02643 
-0.00596363 -0.00293278 0.871071 
-0.00360078 -0.000178154 0.717805 
-0.00122536 -0.00159221 0.89804 
0.000658291 0.00156118 0.642965 
-0.00240804 -0.000264025 0.500911 
0.0010946 7.86956e-05 1.0445 
-0.0026358 -0.00248136 1.04637 
-0.0040298 -0.00143644 1.0957 
-0.00299698 -0.00317285 0.873169 
-0.00134943 -0.00016642 0.757296 
0.00139937 0.00144724 0.455975 
0.00448936 0.00143895 0.0265301 
-0.000152241 -0.00121898 0.565159 
-0.000236696 -0.00238758 0.716848 
0.00375084 0.00346425 1.05605 
-0.000967989 -0.00775575 0.670389 
0.00347353 0.0041534 0.981352 
0.00258191 0.00816546 0.987049 
0.00271935 -0.00209241 0.687451 
0.00352281 -0.00334713 0.674721 
-0.00591268 0.00266663 1.03386 
-0.00383965 -0.00058969 1.07642 
-0.000368478 -0.00226073 1.04214 
0.00292301 -0.00019217 1.02298 
-0.00248674 0.000422281 0.87573 
-0.00322739 0.000959406 0.0223755 
0.00154955 -0.0022606 0.669678 
0.00179578 0.00117654 0.460537 
-0.000668853 -0.00219853 0.54739 
0.00909975 -0.000195276 0.00869483 
-0.00511433 -0.00728096 0.568175 
0.00105354 0.00672333 0.00296899 
-0.0128722 -0.00273247 0.481031 
6.70388e-05 6.75696e-05 0.00376691 
0.00225701 -0.00263016 0.370025 
-0.00193811 0.00155892 0.00480377 
0.00746649 -0.00287798 0.713384 
3.74671e-05 0.00312316 0.00869231 
-0.0049697 -0.00220433 0.48156 
-8.25095e-05 0.000196122 0.36678 
0.00672301 -0.00786014 0.517713 
-2.24922e-05 0.00184584 1.08648 
-0.000117016 0.000894133 1.12613 
0.00252372 -0.00026105 1.21146 
0.000261297 0.000126707 1.12251 
-0.0032177 0.00181874 0.270791 
-0.00531905 0.00253665 0.0119457 
0.00566926 -0.00755905 0.558146 
0.00934166 -0.00131944 0.59033 
0.00490134 0.0156444 0.0208347 
-0.004059 -0.00982163 0.531935 
-0.00300395 0.0128728 0.00998184 
0.00415887 -0.0157714 0.769771 
-0.00282838 -0.00120901 0.00295103 
0.00165763 -0.00275267 0.00528903 
0.00300469 -0.000137851 0.456812 
0.00326792 0.00239139 0.674197 
0.000485687 0.000941876 1.22308 
-0.00913084 -0.00317655 1.2597 
-0.00285197 0.00568743 1.23092 
0.0095626 -0.000222274 1.14062 
0.000166911 0.00165383 0.677163 
-0.00125716 -0.00284379 0.79047 
0.00200779 -0.003209 0.900677 
0.000762642 0.00476693 0.475022 
-0.00553446 0.0011098 0.984485 
-0.00148787 -0.0038318 0.907275 
0.00471388 0.00356451 1.20006 
-0.00707504 0.00247062 1.16293 
0.00147098 -0.000692684 1.22616 
0.000138184 0.00111706 1.1182 
0.000196283 0.00174462 1.11945 
-0.000833426 -0.00116789 1.17726 
0.000412923 0.00134461 0.0121259 
0.00268782 -0.00952729 0.689434 
-0.00221064 -0.0027377 0.45973 
-0.0031952 0.00202749 0.498922 
-0.00309781 0.00433921 0.944492 
0.00612466 -0.00511541 1.02302 
-0.00497471 0.00663418 1.03048 
0.00259076 0.000995954 1.15389 
0.00328372 -0.00155953 0.0113588 
0.00837741 -0.00547865 0.474234 
-0.0106072 0.00746788 0.680114 
-0.00391065 -0.000860713 0.509622 
-0.000416214 -0.00501052 1.17731 
0.00783739 0.000205625 1.03079 
-0.00242169 0.00738522 1.03516 
-0.00661325 -0.000891949 1.17617 
0.000945872 0.00132149 0.00329598 
0.00117804 0.00161937 0.00560401 
-0.000119835 -0.00023378 0.00333764 
0.00677912 -0.00493212 0.714357 
0.000318057 -0.00115197 0.624087 
-0.00585643 0.000198474 0.563547 
0.00179735 0.00292152 0.0222898 
0.00322413 -0.000796051 0.564189 
-0.000266791 0.000192195 1.19191 
-0.000530944 -0.00535916 1.07767 
0.000160799 0.00191186 0.908209 
0.00503081 0.00300226 1.17628 
-0.00400029 -0.00159117 0.00874165 
0.00562257 0.00240506 0.459701 
-0.00180265 0.00102063 -0.00540534 
0.00760928 0.00245305 0.505892 
0.0101607 -0.00185903 0.711483 
-0.00144275 0.0151169 1.00212 
-0.00803094 -0.00206938 0.613606 
0.00460132 -0.0122189 0.474339 
-0.000561409 0.000258043 0.00588838 
0.00655294 0.00209539 0.561653 
-0.00202794 0.000273155 0.0072095 
0.00714475 0.000684256 0.517973 
0.00396238 -0.0019108 1.19811 
-0.000638739 -0.000532163 0.969416 
-0.000665463 0.00421814 0.990121 
-0.00090336 0.000486632 0.905381 
0.00203139 0.000409918 1.13664 
-0.000808644 -0.000757059 1.1391 
0.0023017 0.0053427 0.925291 
0.000475478 -0.00151335 1.0389 
0.00128811 0.00102418 0.674545 
9.80002e-06 -0.00212989 0.663897 
0.00139749 0.00134189 0.984275 
-0.00154152 0.000177969 0.998217 
-0.00331312 -0.0183875 0.673887 
-0.0132739 0.00948437 0.985498 
0.00538321 0.0150679 0.693492 
0.0132069 -0.00630806 0.502583 
-0.000467971 -0.00127498 0.973358 
0.00129842 -0.00118938 1.03623 
2.0257e-05 0.000413152 0.625122 
-0.00664005 0.00460661 0.76139 
0.000984947 0.000690824 0.858884 
-0.000579088 0.00198502 0.648721 
-0.000454732 -0.000359474 0.705346 
-0.00384112 -0.00561717 0.898266 
-0.000461832 -0.00244568 0.977833 
-0.00325366 0.00247013 1.03259 
-0.00114859 0.00376365 1.11967 
0.00319211 -0.00078688 1.17815 
-0.00528408 -3.04701e-05 0.698258 
-0.00493414 0.00643548 0.55284 
0.00229829 -0.0070024 1.03753 
0.00156499 -0.00507878 0.884159 
0.00222134 -0.00142477 1.17124 
0.000700885 -0.00202369 1.03459 
0.000645774 0.000654891 1.03427 
0.000230838 -0.00283362 1.22528 
-0.00128446 0.00402174 0.0250122 
-0.00366031 -0.0013512 0.583746 
0.00032567 0.00383681 0.543754 
-0.00360745 -0.00398053 0.759552 
0.00229973 0.00632381 0.00769232 
-0.00271029 -0.00404888 0.38179 
-0.00198635 0.00248798 0.369867 
-0.00320159 -0.00605201 0.477919 
0.00526366 0.00256062 0.667972 
0.00149615 0.00223817 1.0566 
0.00117256 -8.92151e-06 0.978737 
-0.00218811 -0.00296823 0.983262 
-0.0011723 -0.000943336 0.977583 
-9.75209e-05 0.00166202 1.02492 
0.000809434 0.000663208 1.03314 
-0.00193046 0.000550598 1.17758 
-0.00321613 -0.000817307 0.780264 
0.00215125 0.000849639 1.02195 
0.000753453 0.00436672 1.0442 
-0.0028353 -0.00150642 1.04733 
-0.000518123 -0.000260895 1.13426 
0.00357935 -0.00718012 1.01947 
0.00544034 0.00365742 0.950595 
-0.00375064 0.00302237 1.15052 
-0.00672258 -0.00695107 0.708114 
0.00402397 0.000926896 1.02621 
-0.00021145 -3.09496e-05 1.03296 
0.00373984 -0.003449 0.881161 
-0.00242626 0.001911 1.13684 
0.000323889 0.00184866 1.00196 
0.00125615 0.00120969 0.997682 
0.00186381 0.000817707 1.20975 
0.0019549 -0.000258713 0.00118549 
0.00225669 0.000723436 0.00610536 
-0.00340558 -0.00256827 0.368388 
-0.00747367 -0.00511846 0.708424 
-0.000816806 0.00340535 0.824024 
0.00491612 -0.000555236 0.672553 
0.000715269 -0.0035028 0.674864 
-9.84733e-05 0.000271796 0.444224 
-0.00299119 0.00245976 1.13787 
0.00900118 -0.00232285 1.12562 
0.000910501 0.00129225 1.26383 
-0.00264213 0.00186214 1.14864 
-0.000832941 -0.00261376 0.909369 
-0.0015014 9.58278e-05 1.12196 
-0.000742107 0.00114428 1.19746 
-0.00332278 0.000764414 1.15824 
-0.000738648 -0.00143321 1.10704 
-0.000472946 0.00102831 1.17319 
-0.000305134 -0.00142686 1.03129 
0.00133814 0.000227876 1.16667 
0.00329001 -0.00250334 1.1944 
-0.00401146 0.000268328 1.0726 
0.000182517 -0.00230342 0.966524 
-0.00209524 0.00242183 0.907688 
0.00126611 0.00192839 0.672973 
-0.00347561 0.00114081 0.97609 
-0.000836755 -0.00114697 0.759261 
-0.00108033 0.00149505 0.560153 
0.00203135 0.00160937 0.602054 
-0.00381058 -0.000291055 0.583255 
-0.00240664 -0.000584421 0.614603 
-0.000698508 -0.00025921 0.432658 
0.00468093 -0.0013487 1.04022 
-0.00271346 0.000644803 1.19453 
0.00149821 0.00216019 1.17298 
-0.0023911 -0.00348092 1.15072 
-0.00741508 0.00331073 0.0221774 
0.00629924 -0.00129234 0.728162 
0.000861588 0.000413882 0.500419 
-0.000883534 0.00187969 0.506738 
0.0015845 -0.00102213 1.06689 
-0.00142469 -0.00199836 1.16864 
-0.000464266 0.00114622 1.02446 
-0.00105638 0.00127184 0.983875 
0.00446954 0.00240888 1.19865 
0.00691577 -0.00664267 0.910694 
-0.00546333 0.00303546 0.986634 
-0.00350792 0.00504085 1.1678 
-0.00140335 0.00779603 0.808898 
0.000992998 -0.00310823 0.537845 
-8.06496e-05 0.00488751 0.546033 
-0.00202757 -0.00325429 0.837664 
-0.00389621 -0.00335183 1.00583 
-0.00231934 0.00176026 0.989755 
0.000109084 -0.000250462 1.07294 
0.00213594 -0.00289708 1.19347 
-0.00143523 -0.000119226 0.00925781 
0.000998565 0.00538622 0.479577 
-0.000781158 -0.00260254 0.0105225 
0.00451796 -0.00349443 0.516061 
0.00234512 0.00162506 1.16874 
-0.00327904 -0.000878978 1.1489 
0.00363971 -0.00268649 1.03766 
-0.00252987 -0.00527275 1.22501 
0.00418121 0.00444513 1.23349 
0.00120086 -0.00100534 1.17784 
-0.00454879 0.00619889 1.22478 
0.00459682 -0.00352703 1.13542 
0.0181707 -0.00402205 0.02845 
-0.000618891 0.00274872 0.502031 
-0.0165048 0.00447908 0.721782 
-0.00461104 -0.00285696 0.408548 
0.00117249 -0.000201925 1.0203 
0.00143444 0.000906269 1.02886 
-0.00301421 -0.000328362 1.19788 
-0.00192522 -0.00292936 1.15657 
-0.00178523 0.00196036 1.13766 
0.000715305 0.00200237 0.999995 
0.000155663 -7.20876e-06 0.995116 
0.000914805 -0.00288905 0.943754 
-0.0013698 -0.00498356 0.689812 
-0.0040014 0.00442334 0.600674 
-0.00319158 -0.00219647 0.99647 
0.000821655 0.00159446 0.546019 
-0.00148766 0.00447287 0.00323933 
0.00260115 -0.00316493 0.474406 
0.00133945 0.00306202 0.00367423 
-0.002902 -0.00239372 0.555521 
-0.00367674 0.00273989 0.979388 
-0.00711111 -0.00387025 1.04094 
0.0020878 0.00337271 1.05077 
0.00441472 -0.00285191 0.878798 
-0.00163731 -0.000716319 1.07702 
0.00128899 0.00253267 0.992653 
0.00314877 -0.000615904 1.11688 
-0.00148333 -0.000231268 1.19118 
-0.0100764 -0.00132794 1.14021 
0.00442238 0.0121715 0.849254 
0.00391075 0.00170909 1.03019 
-0.0023725 -0.00782917 1.17498 
-1.41148e-05 0.000443507 0.758639 
0.00252662 -0.000543453 0.999289 
-0.00235184 0.000895453 0.674064 
0.000395094 0.000677858 0.944072 
0.0012778 -0.00491708 0.772546 
0.00581193 0.00134657 1.0568 
0.00508821 0.0126168 0.768753 
-0.00771301 -0.0110684 0.884871 
0.00167067 -0.0026881 1.18426 
0.000730066 0.00257965 1.21732 
-0.000984378 -0.0012652 1.26203 
-0.00280683 -0.0016921 1.14239 
0.000595424 0.000320589 0.981915 
0.0032817 0.00345693 0.67815 
-0.000901738 0.000648759 0.992742 
0.00128264 -0.000560568 1.03592 
-0.00251062 7.58929e-06 0.933507 
-0.00084174 0.000598107 0.771616 
-0.00544739 0.00659778 1.03014 
0.00592786 -0.000399507 1.0352 
0.00426856 -0.000554271 0.453514 
0.00100146 -0.00171915 0.518073 
-0.000857349 -0.00183104 0.011886 
-0.00237847 0.003074 0.582211 
-0.00178345 -0.00192839 0.0164696 
-0.000556515 0.00137171 0.419724 
0.00538094 0.00429268 0.678324 
0.00337457 -0.00135015 0.544749 
0.000995535 6.44147e-05 0.552116 
-0.00290647 0.00159332 0.459529 
0.00102064 0.00206482 0.490768 
0.000637273 0.00313187 0.893346 
-0.00339373 0.00367316 0.767545 
-0.0101016 -0.00510681 1.03916 
0.00325209 -5.44354e-05 0.862961 
0.00180987 0.00197476 0.754164 
0.00126658 -0.00132202 0.641853 
0.000191241 8.72495e-05 0.997927 
0.000373816 0.00275035 0.610534 
0.00328063 -0.00144044 0.575204 
-0.00371624 -0.000716588 1.254 
-0.00606555 0.00329638 1.21965 
0.00277327 -0.00250186 1.09088 
0.00274208 -0.00175771 1.14587 
-0.0179571 0.0050163 0.0205302 
0.0131083 -0.00449631 0.767575 
0.0100613 0.00987133 0.556214 
-0.0010055 -0.0151844 0.584066 
0.0223085 0.00498043 0.0195682 
-0.000705828 0.000856838 0.518083 
-0.00886702 -0.00172983 0.760944 
-0.00434237 -0.0030687 0.577215 
-0.0101814 -0.0152977 0.673974 
-0.00736595 0.00411333 0.946665 
0.00995021 0.0103513 1.12382 
0.0123301 -0.00297663 0.898533 
-0.0023607 -0.00274224 1.14778 
0.000503096 0.00314624 1.0317 
0.00293815 -0.000542083 1.038 
-0.0017776 -0.00432822 1.22237 
0.000702231 -0.000282807 0.00840266 
0.00219166 -0.000959651 0.0107696 
-1.91851e-05 -1.94793e-05 -0.00568933 
-0.00216169 -0.000434041 0.555565 
0.0027189 0.000617882 0.943641 
0.00073342 0.00103999 1.04668 
-6.40151e-05 0.000193895 1.02117 
-0.000928671 0.00103669 1.17202 
0.00129136 -0.00262322 1.07079 
-0.00100974 0.00122176 1.10453 
0.000150973 -0.00242121 0.920595 
-0.00186924 0.00510615 1.21537 
7.32092e-05 -0.00366593 1.09654 
0.00452045 -0.00570615 0.729523 
-0.00482371 -0.00193711 0.86298 
-0.00623812 0.0061496 0.89126 
-0.00171147 -0.00257215 0.0181948 
0.00209096 0.00499627 0.708855 
-0.00341332 -0.00139023 0.0142381 
0.00457377 0.000336592 0.527068 
0.000875498 -0.00178467 0.354621 
0.00116806 0.00204975 0.320285 
-0.00158312 0.00336896 0.646977 
0.00848176 -0.0020673 0.470166 
-0.00134705 0.00365396 0.66127 
-0.00213991 -0.00194548 0.560598 
0.00170284 -0.00132612 0.768757 
-0.00373505 0.000571925 0.417739 
0.00235316 -0.00253131 1.13733 
0.00539916 -0.00121966 1.12497 
-0.00169527 0.00242442 1.25347 
-0.00263339 0.00268218 1.26333 
-0.00274885 0.000156157 0.983308 
-0.000105578 0.000627927 0.99597 
0.000601628 -0.00445311 1.11821 
0.00681411 0.00119887 1.20012 
-0.00104082 -0.00092866 1.09254 
-0.000396824 0.000870041 1.18745 
-0.0033852 -0.00257368 1.04137 
7.96203e-05 -0.0011391 1.21941 
-0.00191369 0.000375882 0.723195 
1.64956e-05 0.00138549 0.506314 
0.000600318 0.00134246 0.0259665 
-0.00370838 -0.000159439 0.403187 
0.00116239 -0.00144246 1.25116 
0.00189504 -0.00191909 1.18384 
-0.000222742 0.001036 1.12507 
-0.00206629 0.00182745 1.16647 
-0.000412631 -0.00287198 0.705306 
-0.000205588 0.00429921 0.564786 
0.00471133 0.00689908 0.779101 
-0.00225893 0.00655335 0.501681 
-0.00215849 0.000132979 0.765644 
0.00277998 -0.000777605 0.782231 
-0.00114909 -0.00144945 0.662664 
0.00677127 0.00442666 0.998341 
0.0014522 -0.00195729 0.0024417 
-0.00209659 0.000333992 0.46113 
0.000344886 -0.00332919 0.00613062 
-0.00279855 0.00524425 0.602553 
-0.000305122 0.00213265 1.09599 
-0.00196813 -0.00619263 1.17217 
0.00230814 -0.00177237 1.07123 
-0.00055397 0.00569933 0.979828 
0.00963556 -0.00199735 0.391346 
-0.00704255 0.00141266 0.796303 
-0.00257375 -0.00391005 0.679359 
0.00586611 0.00479329 0.47016 
0.00814117 -0.00139115 0.989935 
0.00386282 -0.00804967 0.666301 
1.76253e-05 0.0104029 0.675166 
-0.00595437 0.000405036 0.545818 
0.000808925 0.0187653 0.759483 
-0.00568553 0.00627884 0.488842 
0.00622069 -0.0187137 0.0247422 
0.00636765 0.00225982 0.44883 
-0.000171113 0.00470532 0.705151 
-0.00191277 0.000952107 0.376953 
2.9599e-05 -0.00271536 0.378641 
-0.00375374 -0.00471664 0.471235 
0.00402128 -0.00245574 0.0192195 
0.000317878 0.00965758 0.535786 
-0.00630094 -0.000413677 0.580357 
-0.00143217 -0.00179392 0.451347 
0.00521239 -0.000905386 1.09946 
0.00387707 -0.000630674 1.01763 
-0.0132117 -0.00159289 0.730944 
-0.00251484 0.00206323 0.88825 
4.18089e-05 0.000752155 1.04802 
0.00143975 -0.00048398 1.16296 
-0.00173806 0.00025993 1.15793 
0.000253227 -0.000242974 1.14705 
0.0103325 0.00725688 1.04697 
-0.00138122 0.00295066 1.0263 
-0.0080275 -0.00266288 0.778202 
-0.00529587 0.00565749 0.759432 
-0.00838656 -0.00263482 0.0117784 
-0.00482762 -0.00381314 0.491028 
-0.00199728 -0.00247671 0.595257 
0.00632454 0.013014 0.528367 
0.00539368 0.0139492 0.0141567 
-0.00235185 -0.0137095 0.706887 
0.018732 -0.00343152 0.476789 
-0.0151098 -0.00316576 0.515921 
0.00181382 -0.000419294 0.771953 
0.00146899 -0.000285535 0.639266 
-0.00357353 0.00148736 0.649475 
-0.00190649 -0.000904889 0.416797 
-0.00221809 -0.00989812 1.25238 
-0.00387811 0.00511199 1.20153 
0.00252018 0.0116856 1.17903 
0.00655886 -0.00580938 1.24931 
-0.00065087 -0.00297769 0.42818 
0.00556294 0.00627706 0.651747 
0.000204337 7.44133e-05 0.337114 
0.00257832 -0.00229024 0.461864 
-0.00969774 -0.00598 0.0193582 
-0.0011834 0.0045109 0.461802 
0.0124508 0.00489649 0.760793 
0.00254935 0.00328002 0.51867 
0.0121436 0.00425485 0.901156 
0.000546627 0.00531701 0.977593 
-0.0138798 -0.00344806 1.20326 
-0.002993 -0.00825452 1.13095 
0.000923283 -0.00150003 0.791145 
-0.000554876 -4.60308e-05 0.589992 
-0.000761574 0.000207999 0.759455 
0.000434386 0.00125913 0.652752 
-0.00718688 0.00672342 0.766983 
-0.00894706 -0.00531031 1.00171 
0.00868976 -0.00590887 1.11643 
0.0101319 0.00744276 0.916096 
0.000665282 0.00511276 0.990272 
-0.000633236 -0.00454705 0.876529 
-0.00639768 -0.0100737 0.998309 
0.00470108 0.00570112 0.883756 
0.00217517 0.00205105 0.0179034 
-0.000307229 -0.00175921 0.5238 
-0.00332294 -0.00208122 0.70558 
-0.00214682 -0.00335053 0.508537 
0.0104847 -0.00978432 0.0171211 
-0.00691844 0.0109862 0.718076 
-0.00500469 0.00630567 0.509573 
-0.00433716 0.000180009 0.430726 
0.00787738 -0.000718953 1.03464 
-0.0109994 -0.000137537 0.531544 
0.00266624 0.00209191 0.74488 
0.00160688 0.000714814 0.820701 
-0.000610434 0.000994797 0.762979 
-0.000392143 0.00170914 0.66137 
0.00361987 0.000799285 0.429751 
0.00232647 -0.00277356 0.540796 
-0.00088292 0.00260332 1.03129 
-0.00720877 0.00973061 0.850733 
0.00252344 -0.00359036 1.13733 
0.000171819 -0.00051029 1.01011 
-0.00164263 0.00714855 0.993601 
0.000813726 -0.00179076 1.04793 
0.0126669 0.00194009 0.667653 
-0.000941391 -0.00360849 1.02579 
-0.00151922 -0.0100705 1.19296 
0.0159084 0.00343672 1.25709 
0.000666576 -0.000742602 1.22297 
-0.0187098 -0.00341329 1.14381 
-0.00209182 -0.0046216 0.458754 
0.000392655 0.00266941 0.00746694 
-0.00118241 0.00265027 0.00602405 
0.00260631 -0.0102062 0.699583 
-0.000165164 0.000895324 1.1884 
-0.0067694 -0.00534321 1.2595 
0.00939058 0.00694609 1.12079 
0.00196307 -0.00274037 1.15608 
0.00543695 -0.00997345 1.08387 
0.0125274 0.00899118 1.00022 
-0.00932316 0.00473198 0.713045 
-0.00690333 -0.0070928 0.878862 
0.000834692 -0.00382257 0.934832 
0.000419584 0.00484676 1.02801 
-0.00141912 -0.00290276 0.846316 
0.00301428 0.000684753 1.17788 
0.00160492 0.00279488 0.935813 
-0.000186197 0.00118446 1.06704 
0.000996797 0.000805844 0.942557 
0.00421676 0.000426409 0.971812 
-0.00041175 -0.0012719 1.0706 
0.000829746 0.00243827 0.965054 
-0.00191243 -0.00318631 1.14242 
0.00111362 -0.00155351 0.979498 
-0.00634103 0.000471726 1.05405 
0.00239442 -0.000221641 1.14071 
0.00150475 0.00583282 0.926497 
-0.00205611 -0.00503041 1.17767 
0.00139707 -0.00328655 0.655774 
-0.0156082 -0.000355159 0.531304 
0.00815398 -0.000696214 1.03673 
0.00313418 0.000797281 0.822998 
0.00109418 0.000920135 1.06573 
0.000128514 -0.00188764 1.04778 
0.0040753 0.000647014 0.940039 
0.000687664 0.00271905 0.977443 
0.0039681 -0.000902205 0.706702 
-0.00763096 0.00483857 0.553036 
-0.000845867 0.00111233 0.545013 
0.00414486 -0.000117149 0.850862 
-0.000638864 0.00545263 0.705748 
0.0027499 -0.00118024 0.372026 
-0.00999307 -0.00163947 0.477872 
0.00793746 -0.00706572 0.515819 
-0.00205528 -0.000451194 0.00626941 
0.000571447 0.000212905 0.00419882 
0.00266346 0.000815707 0.00757007 
-0.000129636 -0.00199951 0.724602 
-0.000545828 0.000791263 0.985874 
-0.00575208 0.00276074 1.16674 
2.54169e-05 0.000643407 0.99353 
0.00654563 0.00114289 1.2023 
0.00315632 0.00527735 0.00578634 
0.0106169 0.0059776 0.0136898 
-0.012296 -0.00320496 0.632635 
-0.00415601 -0.00834037 0.576663 
0.00351024 1.395e-05 1.00777 
0.00698132 0.00113572 1.03656 
-0.00561208 -0.000549947 1.1662 
-0.00572126 0.00111502 1.15161 
0.000751536 0.000401415 1.09464 
0.000986151 0.00318166 1.12026 
0.00159101 -0.000993776 1.20717 
0.00116562 0.00158267 1.16446 
0.00419835 0.000525571 0.714093 
0.000592654 0.000902358 0.953704 
-0.0123341 0.00475878 0.5521 
0.00661685 5.57835e-05 0.85203 
-0.00192456 0.00557439 0.806997 
0.00165844 0.000192335 1.02509 
2.91093e-05 -0.000504562 1.07729 
-0.00243838 0.00252911 0.927423 
0.0012881 -0.00177835 0.581421 
-0.000667749 -3.04154e-05 0.853289 
0.000220668 0.00122963 0.702556 
0.00190633 -0.00158277 0.738943 
-0.00108564 0.00207462 0.0190662 
0.00022287 -0.00197314 0.455163 
0.00809234 -0.00233553 0.714333 
-0.00506525 0.00374981 0.42918 
-0.00270218 -0.00118714 0.0224102 
0.00153049 0.00363072 0.768367 
-0.00203597 0.00161188 0.524866 
0.00518154 0.000148922 0.548015 
0.00195888 -0.00547629 1.12024 
0.00467945 0.00363082 0.999817 
-0.00320129 0.0050047 1.17083 
0.00298762 -0.00144876 1.19717 
-0.00182106 -0.00205818 1.05974 
0.00160365 0.00158744 0.972493 
0.00121984 -0.00124143 1.06617 
0.0012375 0.00314524 1.17108 
0.0018145 0.00151097 0.47911 
0.00356945 0.0018178 0.379466 
-0.00528052 0.0013997 0.00576053 
0.0035086 0.00099011 0.465825 
0.00498921 -0.00728684 0.00558697 
-0.0075358 -0.0116876 0.0150542 
-0.00245479 0.00977626 0.664437 
0.00485094 0.0126404 0.538821 
-7.84446e-05 0.000956235 0.0101365 
-1.80594e-05 0.000220143 0.00302551 
-9.94007e-05 0.00121169 0.00322646 
0.000365521 -0.00322015 0.674332 
-0.00582131 0.000606974 0.675164 
0.00207271 0.000642099 0.943551 
0.00167738 -0.00568001 0.999869 
0.00393703 0.00391719 1.03359 
0.000113706 0.00103299 0.0029922 
7.22496e-05 0.000477127 0.0029849 
0.000141619 0.00146271 0.00266199 
0.00725683 -0.00462397 0.679131 
-0.00289617 0.000967649 0.673015 
0.00122462 0.00173267 0.541083 
0.000947 0.000296482 0.756896 
-0.000306014 0.000792003 0.946611 
-0.00866569 -0.0157315 1.10409 
0.00920958 -0.00288624 1.04238 
0.00691348 0.0143599 0.709303 
-0.011893 0.000854925 0.874407 
-8.22299e-05 0.000466445 0.9541 
0.00483177 -0.00174866 1.11023 
-0.00140941 -0.00342885 1.03905 
-0.00211459 0.0010327 0.970039 
0.00214914 0.00166472 0.390069 
0.000764652 0.000174219 0.470469 
0.00379963 -0.00157453 0.801074 
0.00318429 0.000542497 0.462689 
-0.0143202 0.00102392 0.0230241 
-5.80825e-05 -0.0159298 0.557275 
0.0137104 0.00209138 0.688849 
0.000985749 0.0127254 0.456994 
-0.00102443 -0.00241442 0.743337 
0.00188836 -0.00144707 0.52304 
0.00282904 0.00204851 0.453353 
-0.00201957 -0.0012831 0.572625 
-0.00673212 -0.00605059 0.77478 
-0.0100555 0.0154788 1.04086 
0.00481408 -0.0082455 0.586642 
0.00213505 -0.00102636 0.750294 
0.000696195 -0.00305378 0.813117 
0.00148462 -0.000601616 0.938145 
-0.000617533 0.0015823 0.680851 
0.00341369 0.00395718 1.03359 
-0.00749665 0.00393143 1.25304 
0.00671234 -0.00423354 1.12236 
-0.000265947 -0.00625806 1.20052 
0.00165525 0.00770097 1.17588 
0.000104962 0.00151508 1.25227 
-0.000283348 0.000523997 1.17883 
0.00323894 0.00237544 1.23924 
0.00188552 -0.0016611 1.24598 
0.00192752 0.00503793 0.784258 
-0.00062545 0.00449 0.561077 
9.3839e-05 -0.0018722 0.698077 
-0.000253857 0.00172779 0.944062 
0.000130991 0.000271449 -0.00125396 
-0.000145467 -0.000389896 0.00409569 
0.000710704 0.00128597 -0.0010947 
0.00132733 -0.00154693 0.420842 
0.00630967 0.0108905 0.0133773 
-0.00479444 -0.0120889 0.671245 
-0.00340682 0.00844479 0.00842802 
0.000893929 -0.00832737 0.549009 
0.00306093 0.0011388 0.867485 
-0.00459 9.05293e-05 0.696893 
0.00192294 0.00026547 0.644479 
-0.00475796 0.00070004 0.41778 
-0.000668238 4.33451e-05 0.00113419 
0.00116864 -0.000213493 0.00662612 
-0.00152497 0.000146839 -0.000408171 
0.00507687 -5.37716e-05 0.495552 
-0.00441269 0.00255169 0.00788658 
-0.000930925 -0.00229205 0.432764 
0.000782253 -0.001509 0.330352 
0.00278668 -0.00332556 0.466861 
-0.000137845 0.00246156 0.0138083 
0.00139132 -0.00336682 0.556747 
0.00337721 -0.000696129 0.0140241 
-0.00315656 0.000406274 0.587765 
0.00294984 -0.000746166 0.0151611 
-0.00144807 0.00114261 0.535817 
-0.00342611 0.00231778 0.592522 
0.0014194 -0.00336433 0.568684 
-0.000381879 0.000672052 1.25034 
0.000971153 -7.44059e-05 1.19203 
-0.00194932 -0.00213634 1.20488 
-0.00124614 0.00196673 1.15798 
-0.00157899 7.15283e-05 0.0129226 
0.0100916 -0.000837688 0.69655 
0.000224643 -0.00292042 0.375451 
0.000143287 0.00123524 0.505446 
-5.07109e-05 4.87399e-05 -0.000591486 
0.00229576 -0.00465453 0.00221659 
-0.00159057 0.00400274 0.00626932 
0.00143898 0.000479265 0.464846 
0.000684975 -0.00207211 0.661321 
0.00391326 -0.000697914 0.688871 
0.00144767 0.00245418 0.995283 
-0.00135521 0.00114896 0.545871 
0.00392772 0.00630439 0.786629 
-0.00375269 0.00449694 0.658894 
0.00477331 -0.00360838 0.993151 
-0.00122595 -0.00375865 0.912088 
-0.00458455 -0.00358402 0.486988 
0.00484835 -0.0202099 0.889634 
-0.00572626 -0.000899624 0.769176 
-0.00226606 0.0139117 0.469754 
0.00226844 0.000440251 0.713825 
-0.00278651 0.0012238 0.844641 
0.000299143 -0.0031833 0.909301 
0.000324434 0.000962909 0.875984 
0.0041956 -0.000647559 1.13049 
-0.00165878 0.000428636 1.22595 
-0.00116376 0.00268355 1.25325 
-0.0015225 0.00118185 1.25401 
0.000108419 -0.00033972 0.0118982 
0.00079368 -0.0019899 0.525555 
-0.00170273 -0.00030964 0.536773 
0.000382678 -0.000677478 0.417809 
-0.00631306 -0.00710358 0.708761 
0.0103594 -0.000765109 1.04238 
0.000272736 0.00392235 1.10365 
-0.00375505 -0.00403706 0.876992 
0.00220646 0.0024832 0.792476 
-0.00469738 -0.00155902 0.459267 
-0.0017574 0.000423332 0.559559 
0.0049718 0.00487974 0.885114 
0.00175454 0.00417008 0.551315 
0.00301218 0.00174604 0.528904 
-0.00221842 -0.000821284 0.800273 
-0.00488194 -0.00473038 0.484379 
-0.0125019 0.00333717 0.989325 
0.00115906 0.00534982 0.625033 
0.00423237 -0.00307161 0.578188 
0.00154541 -0.000945554 0.749889 
0.00299939 -0.00275393 0.846259 
-0.00267733 0.00293249 1.07325 
-0.0033172 0.000194099 0.9229 
-0.000295606 -0.00478762 0.913591 
-0.00125833 -0.000884581 1.14754 
-0.00404827 -0.00710281 1.23844 
0.00936647 0.00454135 1.05572 
0.00136416 0.00132513 1.14297 
-0.00289265 -8.95635e-05 1.08683 
4.29922e-05 -5.65352e-05 1.2299 
-0.00125264 -0.00210225 1.05214 
-0.000581749 0.00218036 1.12928 
-0.000927781 0.0020845 0.695702 
0.00251326 -0.000679199 0.579754 
0.00332083 -0.00285388 0.748358 
0.00183537 0.00013523 0.570771 
0.0108353 -0.00087123 0.984999 
-0.00550975 -0.00353112 1.20039 
-0.00526745 0.0112758 1.04145 
0.00345027 -0.00863824 1.14839 
-0.000420946 0.00274903 0.00383535 
0.00344489 0.00320895 0.320116 
0.00267048 -0.000914244 0.354662 
0.00688925 -0.00323581 0.471715 
0.00421899 0.00697489 1.13108 
0.00254838 0.00170149 1.18595 
-0.0023267 -0.00557149 1.2251 
-0.000853178 -0.00362075 1.25404 
0.000379004 0.000183364 1.093 
0.0021388 -0.00151872 1.14406 
-0.000465449 -0.000199868 1.17309 
-0.00113022 0.00171842 0.978246 
0.00115796 0.000666611 1.10543 
0.000128256 0.00263105 1.11892 
0.00147042 0.000911732 1.09155 
0.000688686 0.0012221 1.1684 
-0.00104287 -0.00283932 0.0117957 
6.16562e-05 0.0105232 0.668433 
0.00304791 0.000923064 0.376163 
0.00270657 0.000840716 0.569814 
0.000872511 0.00759889 0.0225253 
0.00053151 -0.00422011 0.708411 
-0.00374711 0.00025122 0.505036 
-0.00130583 -0.00293957 0.576401 
0.00120775 -0.00543958 0.992065 
0.0105723 -0.0099694 0.91634 
0.00108731 0.00752014 1.1136 
-0.0153997 0.0127267 1.21812 
-0.00115019 -0.000800397 0.64066 
-0.00218241 -0.000725042 0.538344 
-0.00508505 0.00383663 0.725436 
0.00435188 0.00497501 0.953038 
-4.13623e-06 -0.00722165 0.0163911 
-0.00702397 0.00480931 0.511345 
-0.000335254 0.0112843 0.711256 
-0.00139028 -0.000917496 0.524448 
-0.00112846 -0.000504149 0.974711 
0.00241729 0.00198159 1.15478 
-0.00133422 0.000441068 1.06329 
-0.0041652 -0.000255927 1.02923 
-0.00168482 -0.00141366 0.817694 
-0.0054966 -0.00604874 1.04151 
-8.97213e-05 0.00329712 0.696473 
0.00267898 0.00159305 0.879882 
0.00298876 0.000164152 1.16685 
-0.00206965 0.00117246 1.25373 
0.00120767 0.00512578 1.20335 
0.00189836 -0.0016401 1.16937 
0.000226632 -0.00342596 0.833731 
-0.000172599 -0.00385305 0.878894 
-0.00403687 -0.00336401 0.604301 
-0.00357367 0.00757315 0.790442 
-0.000109102 -0.00154563 0.0104297 
0.00228594 5.8432e-05 0.528992 
0.00111163 0.00129993 0.586374 
0.00309789 0.0035617 0.496136 
-0.0056427 -0.00622755 0.944736 
0.00151906 0.00289585 0.962355 
0.000613293 -0.000770582 1.04085 
0.00326285 0.00334935 1.15079 
-0.00596952 -0.00844913 0.538945 
0.0075299 0.00585523 0.478892 
0.00442132 0.00643604 0.00968929 
-0.00231405 -0.00246768 0.464478 
0.00139512 0.00420743 1.14506 
0.00296375 0.0030999 0.958444 
-0.000596659 0.000321655 0.919272 
-0.00191662 0.000481062 1.04134 
-0.0026639 -0.000620435 0.541487 
-0.000607125 0.00204614 0.511013 
0.000493522 0.00105574 0.695214 
0.00193432 -0.00215174 0.419624 
0.0015306 0.001281 1.02063 
0.00142668 8.64038e-05 1.03345 
-0.00461917 0.00143759 1.09466 
-0.00430028 -0.00584572 1.19783 
-0.00129387 -0.00181578 1.10826 
-0.000129529 -0.00139198 1.17854 
0.00138437 0.00114553 1.00349 
0.00206383 0.000760439 1.02479 
0.000415545 0.000102973 1.12145 
-0.000636324 0.00171454 1.16104 
-0.000710605 -0.000488757 0.952669 
-4.80127e-05 0.00246409 1.14457 
0.00360986 0.00285907 1.0847 
-0.000563764 0.000382621 1.07442 
-0.00186647 0.00132511 0.988908 
0.00227978 -0.0029523 1.19181 
0.000803857 -0.00187694 1.09915 
0.00334989 0.000240332 1.14146 
-0.00172905 -0.000885129 1.17585 
-0.00220763 0.00142967 1.16586 
-0.00829422 0.00575805 1.257 
-0.00803208 -0.0040832 1.22088 
0.0119101 -0.0103012 1.19753 
0.00635325 0.00817422 1.25269 
0.000199364 0.000333424 0.747475 
-0.00368132 0.00710931 0.587998 
-0.00277295 -0.00356915 0.770428 
-0.00189278 -0.000549758 1.04005 
-0.0164039 -0.000864416 1.03896 
-0.00469803 0.00750849 0.760371 
0.0167314 0.00571251 0.786008 
0.00501894 -0.00659309 1.05546 
-0.002393 0.00216701 0.0137787 
-0.0061237 0.000930456 0.013283 
0.000875693 0.00324644 0.665562 
1.08423e-05 0.00236367 0.570441 
-0.00128925 0.00306509 1.03469 
0.0021718 0.000528258 1.024 
-0.00211021 0.000758137 1.17771 
-0.00164598 -0.00022615 1.04981 
-0.00265285 -0.00107561 1.11371 
0.000875766 -0.000969299 0.883803 
-0.00136041 0.000297494 1.02019 
0.00225588 -2.82094e-05 0.884671 
0.00137197 0.00257758 0.0124915 
0.0106756 -0.00821111 0.667485 
0.000421845 0.00119225 0.00809937 
-0.00509664 -0.00205115 0.504281 
0.0021817 -0.0109312 0.902263 
-0.00167508 0.00773223 0.884276 
-0.00525595 0.00205946 0.859087 
0.00230565 -0.0032182 1.1355 
0.00319443 -0.00258114 0.0243404 
0.00379074 0.00312708 0.759676 
0.0076149 1.10068e-05 0.540989 
-0.00222391 0.00358468 0.476849 
0.00237099 -0.000756843 0.00280519 
-3.12886e-05 0.0036358 0.00662666 
0.00149293 -0.00267697 0.460275 
-0.00158988 -0.00584028 0.649934 
-0.00604459 0.00137395 0.00930331 
-0.00061024 0.00387131 0.317963 
0.00100416 0.00177279 0.00402751 
0.0146529 -0.00134487 0.478238 
0.00133354 -0.00234038 1.13386 
0.000779405 0.00232983 1.25132 
0.00132218 0.00326226 1.19669 
-0.00146409 0.00179754 1.16288 
0.0029604 0.00278085 0.775041 
0.00456958 0.000519032 1.00523 
-0.00199638 0.00412653 0.659754 
-0.00150265 -0.000714417 0.463938 
-0.00101449 0.00248511 0.968769 
-0.00218621 0.00416952 0.914888 
0.00189248 -0.00298758 0.991362 
0.0012301 -0.00256845 1.21925 
0.007008 -0.00569268 0.00756071 
-0.00331612 0.00666244 0.726979 
0.00213591 -0.00185036 0.00436632 
-0.00664522 0.00850285 0.508232 
0.000322073 0.000489871 0.705789 
0.00517042 0.0039722 0.987001 
-0.00291948 -0.00908577 0.67066 
0.00118295 -0.00323065 0.501781 
0.00243747 0.00132076 0.00349023 
-0.00125377 -0.000804195 0.00491552 
-8.14321e-05 -9.7182e-05 0.0027357 
-0.00321688 0.000549253 0.634633 
-0.0106819 0.000562323 0.00929931 
-0.000453894 -0.00963092 0.0102713 
1.91489e-05 0.0132541 0.538104 
0.00780003 -0.00301466 0.479484 
0.00228358 -0.00528129 0.0166452 
0.00433978 0.00731052 0.678909 
0.00359971 -0.00545839 0.0127426 
-0.00616371 0.00357699 0.543481 
-0.0047097 -0.00471084 0.708176 
-0.00171389 0.00172317 1.10863 
-0.00393426 0.00120252 0.867047 
-0.00236551 -0.00333537 0.868856 
-0.000621909 -0.00431842 0.732387 
-0.00290611 0.00669796 0.719285 
-0.00308396 -0.00168088 1.03062 
-0.00613662 -0.00179325 0.587953 
0.0139033 -0.00384732 1.04705 
-0.00944917 0.00315333 0.533623 
-0.000154564 -0.00743225 0.763131 
-0.00309922 0.000690921 0.753779 
-0.00394055 0.00715783 0.665108 
0.00680214 -0.0056877 1.02634 
-0.00107754 -0.00372741 1.05216 
0.00372122 0.00182653 0.825607 
-0.0126186 0.00581024 0.00885772 
-0.00586109 -0.0048134 0.00731805 
0.0201853 -0.00898689 0.722936 
0.0067319 0.00447061 0.467497 
-0.00371052 -0.00416448 0.697844 
-0.000454681 -0.000168776 1.04047 
0.00345337 -0.000311725 1.03372 
-0.00365598 0.00068783 0.861699 
0.00300347 0.00292503 1.09895 
-0.00286362 0.000332591 1.12379 
-0.000875546 -0.00195622 0.903138 
-0.00310342 0.000131909 1.16369 
-0.00338968 -0.000275975 1.13469 
0.00319286 -0.000672732 1.14377 
6.7e-05 0.00402385 1.0038 
0.00545568 0.00177275 1.21146 
0.00264847 0.000366362 0.0126706 
0.00370645 -0.00316314 0.0135461 
4.54287e-05 -0.00344116 0.686653 
0.00101956 -0.00176928 0.500796 
0.00193277 0.0028658 0.712265 
-0.00218994 0.000265256 0.933962 
0.00881047 -0.00304374 0.951915 
-0.00415743 0.00363016 0.903093 
0.00137635 0.00122392 0.956345 
-0.000935925 0.00169441 0.972375 
-0.00589763 -0.00507523 1.03934 
-6.52512e-05 0.00254223 0.812592 
8.59784e-05 0.000707502 0.00338533 
0.000132654 0.00131304 0.00353205 
7.29892e-05 0.000484047 0.00376408 
0.00528402 -0.00132117 0.67578 
-0.000188105 0.0023042 0.0144953 
0.00066341 0.00216681 0.0116432 
0.00762392 -0.00408894 0.662498 
-1.23576e-05 -0.00283386 0.552342 
0.00299804 -0.0032833 1.11488 
-0.000670524 -0.00312982 0.962745 
-0.000283573 0.00125893 1.02757 
-0.00275367 0.000201339 0.817513 
0.00180734 -0.00280987 1.07558 
0.00370525 -0.000786436 1.02929 
-0.00137099 0.000612384 1.03805 
-0.00410556 0.00137293 0.866436 
0.00263782 0.00666832 1.2021 
-0.00484107 -0.00619096 1.09661 
0.00241255 -0.00614587 1.22683 
0.00188891 0.00384131 1.15942 
-0.000575534 0.00160945 0.697957 
0.00193775 -0.00295248 0.47305 
0.00138843 -0.00257304 0.69442 
-0.000422531 -0.00520291 0.521105 
0.00205026 -0.00418113 0.433957 
-0.00158768 -0.00168725 0.00954836 
-0.000288553 -0.00100481 0.321335 
0.00613865 0.00369278 0.53891 
0.00542844 -0.0103678 0.0159174 
0.011648 -0.00166127 0.0136087 
-0.0105808 0.000361542 0.712926 
-0.00636194 0.0121449 0.516288 
-0.00572572 -0.00184575 0.605215 
-0.000489215 0.000682669 0.876453 
-0.00144639 -0.000127987 0.689981 
0.00213353 0.000757333 0.788389 
2.72248e-05 -0.00425874 1.18984 
0.00798392 0.00355685 1.03137 
-0.0065671 -0.00477795 1.23653 
-0.00359388 0.00107595 1.1613 
0.000383061 -0.00091607 0.807043 
-0.00239402 0.0014519 0.708722 
-0.00395058 -0.00267721 1.03266 
-0.00162899 -0.00120909 0.776511 
-0.00693203 0.00124318 0.987559 
0.00455922 -0.00337343 1.10053 
-0.00433478 -0.0029145 0.906791 
-0.00174032 0.000921946 1.16205 
0.00528746 0.00198512 1.14523 
-0.00153508 -0.00192137 0.977506 
-0.00222905 -0.00238498 0.988539 
0.00496785 0.00217146 1.21109 
-0.00595959 0.0122737 0.532621 
0.00380522 -0.0109267 1.02576 
-0.00533046 0.00628167 0.696138 
-0.00104102 -0.00665002 0.856477 
0.00192562 -7.93362e-05 0.643142 
-0.00673439 0.00374489 0.714193 
-0.00161931 -0.00121837 0.502609 
-0.00528046 -0.00173985 0.409121 
-0.00801859 -0.00930303 0.0128589 
0.00485246 -0.00792249 0.010103 
0.0141146 0.0128811 0.670626 
-0.00353892 0.00633961 0.457172 
0.0170544 -0.00146106 0.0141305 
-0.000200512 0.00484476 0.00440131 
-0.00198502 -0.0149973 0.628053 
-0.011238 0.000854061 0.472618 
-0.000990155 -0.00207864 0.595073 
-0.00793789 -0.000910185 0.905883 
0.00172456 -0.000366875 0.662887 
0.00895142 -0.00310653 0.483062 
-0.00857068 -0.00120858 0.00946116 
0.0029883 0.000675753 0.681906 
-0.000727761 -0.00149333 0.00615551 
0.00454703 0.00347377 0.471578 
0.00158658 -0.000417601 0.0119274 
-0.00154174 -0.000565208 0.456209 
-0.00391385 0.00396037 0.593664 
-0.00119574 -0.0026301 0.495046 
-0.00299216 0.000892093 0.424767 
-0.00397728 -0.00286013 0.0185429 
0.00742292 0.00445107 0.672892 
0.00430125 -0.000984385 0.461178 
0.000763069 0.00516735 0.00695875 
-0.00226212 -0.000600827 0.00247576 
0.00085472 -0.0025648 0.527641 
0.000120681 -0.00464342 0.423909 
-0.00431502 0.000184713 1.12124 
0.00143814 0.00140965 0.943746 
0.00137593 0.00370445 1.11219 
0.00437893 -0.00303695 0.946064 
0.000589917 0.00171496 1.1182 
-0.00164131 0.000160993 1.01409 
0.00344128 -0.000367123 0.766881 
0.00631424 0.00144709 0.909599 
-0.000706289 0.000200128 0.759205 
-0.00124966 0.000120633 0.592196 
0.00201744 0.000755533 0.434868 
0.00146503 0.00090036 0.651013 
0.00271543 -0.0019849 0.701849 
-0.00559109 0.000909129 0.744163 
-0.00445087 0.00102751 1.03575 
0.00570346 0.00188864 0.532768 
-0.0011557 0.00419822 0.577671 
-0.00474746 -0.00388516 0.436018 
0.00366658 -0.00464449 0.0144382 
0.000186802 0.000368741 0.376034 
-0.00168477 0.0020884 1.24122 
0.00104803 -0.00436766 1.02817 
0.00370124 -0.000915332 1.0465 
-0.00260941 -0.00139548 1.15493 
0.0030596 -9.84071e-05 0.0231608 
-0.00333872 0.00037892 0.690234 
0.00133536 -0.00679877 0.552308 
-0.00212796 0.00266214 0.550548 
-0.000572786 0.00157014 1.04015 
-0.000145924 -0.00324809 0.548084 
-0.00057419 -0.0051895 0.69877 
0.00154429 -0.00071735 0.761096 
0.000518172 0.00097257 0.85418 
0.000564738 0.000871981 0.876466 
-0.00184668 0.000471911 0.701125 
-0.00634902 0.000161249 0.431236 
0.0108243 0.00491781 0.589757 
-0.0137568 -0.00325712 0.570694 
-0.00261579 0.00331144 0.800106 
0.00685707 -0.00319622 0.470341 
-0.000184092 0.000361378 0.481451 
-0.00349438 -0.00915641 0.7044 
0.000384603 0.00340239 0.0187326 
-0.00260477 -0.00428777 0.515843 
0.00508862 -0.00491315 0.587516 
-0.000467809 -0.00239526 0.825864 
-0.00115504 0.00361718 0.757365 
-0.00261611 0.00383857 0.885245 
0.0123561 0.000903583 0.722079 
-0.00421574 0.0146498 0.904571 
-0.0138454 -0.0068239 1.1001 
0.00128388 -0.0150015 0.877688 
0.000446689 0.00386156 0.00571464 
-0.000123531 -0.00178056 0.00251968 
-0.000277048 -0.00366766 0.00377734 
-0.00226263 0.0040622 0.678535 
-0.00722869 -0.00296124 0.602048 
0.00535423 0.000347691 1.05947 
0.00377839 0.00204657 0.979908 
-0.00493051 -0.00227803 0.743941 
0.00103226 -8.4681e-05 -0.00193447 
0.00125766 -0.000103172 0.0119493 
-0.00186293 0.000152825 -0.00620178 
0.000439435 -0.00268778 0.507018 
-0.0043298 -0.000504457 0.660702 
-0.00359733 0.00204609 0.416192 
0.00206242 0.000876339 0.631849 
-0.00148095 0.000610564 0.548544 
0.00401751 -0.000747913 0.985823 
-0.00109284 8.31824e-05 1.1127 
-0.00685685 0.00349279 1.04092 
0.00264633 0.000674683 1.1998 
-0.00272149 0.000528874 0.935603 
0.00610539 0.00571777 1.12205 
0.00574726 -0.00106644 0.949738 
-0.00170009 0.00242251 0.895224 
-0.000917191 0.000253939 0.707155 
-0.00130997 -0.000333316 0.585016 
-1.81328e-05 0.00143774 0.509266 
-0.00446871 -0.000137065 0.411902 
-0.00070119 -0.00184426 0.995747 
0.000628393 -9.75731e-05 0.883335 
0.00419947 0.00230977 1.03436 
0.00110144 0.0022192 1.16653 
0.00130309 -0.00561792 0.0102483 
-0.00249847 0.00424298 0.680161 
-0.0011732 -0.00279883 0.00785604 
0.000871379 0.00476354 0.409019 
-0.00552328 0.00281948 1.03478 
0.00387676 -0.00145721 1.20473 
-0.00124746 0.000674835 1.10981 
0.00424133 0.000484318 1.18173 
0.000705084 0.00110923 0.704754 
-0.000709965 0.00141866 0.469994 
-0.00718909 0.000126845 0.467714 
0.00578301 0.00399462 0.900175 
-0.00204011 -0.00186632 1.03186 
-0.00568442 0.0086988 0.65094 
0.0018083 -0.00399821 0.972151 
0.00556018 -0.00434867 1.04448 
-0.00257833 0.000432448 1.00079 
0.00321999 0.00108039 0.684837 
0.00927414 -0.00212824 0.902528 
-0.00901667 0.000431309 0.485441 
-0.00186572 0.000293763 0.372738 
-0.00111503 -0.00152698 0.464601 
0.000139512 -0.00782075 0.00843669 
-0.00262419 0.00894595 0.564927 
-0.0140317 -0.00266144 0.0217512 
0.0011529 0.00537057 0.514899 
0.00625176 0.000498978 0.708331 
0.00456457 -0.00233688 0.578366 
-0.000975893 0.00104714 1.02689 
0.000742839 -0.00061701 0.879793 
0.00185792 -0.00220507 0.740555 
0.00199102 -0.000562054 0.880103 
0.00281078 0.00143311 1.24071 
-0.00402817 0.00233391 1.22932 
0.00193309 0.00274434 1.22266 
-0.0057209 -0.0051257 1.25231 
-0.00141135 0.00169903 0.0179533 
0.00337164 -0.00133602 0.665143 
-0.00155483 -0.00239086 0.539631 
0.00455149 0.00367144 0.4511 
0.00361072 0.00441541 0.80646 
0.00227345 -0.00265592 1.04471 
-0.00182405 0.00354595 0.922229 
0.00407391 -3.97856e-05 1.03917 
-0.011067 0.0044589 1.00019 
3.7367e-05 0.00118373 0.665577 
0.00447265 0.00333526 0.596027 
-0.0103944 -0.00445455 0.904426 
0.000452244 0.000933797 1.18537 
-0.000437558 -0.00117792 1.22068 
-0.00499455 -0.000959801 1.09137 
0.00138692 -0.0023768 1.16536 
-0.00222331 -0.000367865 0.0144018 
0.00558458 0.00160393 0.660644 
0.00077372 -0.000615315 0.452166 
0.00115835 -0.000773704 0.4818 
-0.0119276 0.00101879 0.0178126 
0.00512532 -0.0151371 0.708795 
-0.00683736 0.00674873 0.00908241 
0.00823867 -0.00171135 0.51642 
0.00146087 -0.000976613 0.457332 
-0.00161663 -0.00571224 0.641652 
3.06792e-05 0.000197723 0.0116303 
0.000587304 0.000393833 0.471949 
-0.00137974 0.00220665 0.332396 
0.00285043 -0.00233278 0.369361 
0.000453246 -0.00805243 0.0137481 
-0.000919237 0.0122491 0.569353 
-0.000451343 0.00230648 0.99494 
0.000336534 0.00380794 0.997843 
0.00404294 0.00129301 0.765082 
0.00137426 -0.00454261 0.943335 
-0.00113642 -0.00191891 0.36876 
-0.000161962 -0.00174555 0.0126833 
0.00349266 -0.00108163 0.638978 
-0.000797319 -0.00293317 0.470644 
-0.00558138 -0.00258969 1.25316 
0.00220931 -0.0073613 1.25322 
-0.00289919 0.00947728 1.1968 
0.0032943 0.00190693 1.20598 
0.00529034 0.000769299 0.00961225 
0.00155089 -0.0018991 8.69455e-05 
-0.00661069 0.00168597 0.558091 
-0.00110866 0.00121389 0.408423 
0.000322049 0.00202584 0.702957 
0.00128827 -0.00159664 0.597521 
-0.00728273 -0.00433715 1.06538 
0.00015608 0.0018235 0.568268 
-0.00587907 0.00377439 0.00747123 
0.00180916 0.00625055 0.00801695 
0.002787 -0.00532185 0.551467 
0.00174012 -0.00413738 0.570659 
0.00748789 0.00578319 0.665682 
-0.00792246 -0.00789495 0.767196 
-0.00285966 0.00735189 0.528058 
0.00248305 -0.00411628 0.753716 
0.00235602 0.00126607 1.1059 
-0.00482292 0.000884444 1.19564 
-0.00168843 -0.00279848 0.981687 
-0.00326826 -0.000414411 1.12868 
-0.00446686 0.005155 0.00882121 
-3.39783e-05 -0.000864284 0.459923 
0.00187065 0.00112555 0.377881 
0.00335309 -0.0067572 0.634034 
-0.00320756 -0.00266685 1.05673 
0.00344589 0.00517717 1.1709 
0.0016391 -0.00195049 1.07126 
-0.0026301 0.00214908 1.18888 
-6.3306e-05 0.000994303 1.17798 
-0.000356858 0.00151725 1.1672 
-0.00217781 0.000384362 1.03338 
0.000588039 -0.000858706 1.16383 
0.0026804 0.00273146 0.774607 
-0.00107652 -0.00485177 0.670008 
0.0072232 0.00126573 1.00593 
-0.00320958 -0.00123899 0.464032 
-3.31805e-06 -0.000441201 0.00515358 
-0.00174343 -0.00439973 0.00272602 
0.00658353 0.00756602 0.676957 
-0.00131174 0.00682959 0.595906 
0.00251794 -0.0016775 0.279745 
0.000692824 -0.00893538 0.553581 
-0.00288849 0.000172493 0.568303 
0.00907379 0.00529895 0.585222 
0.00191169 -0.00161379 -0.00167945 
-0.00551811 -0.004909 0.540561 
0.004705 0.0105871 0.0137554 
-0.00237621 -0.00387841 0.462794 
0.00112597 -0.000844671 1.17886 
-0.00486431 -0.00581305 1.05777 
-0.0045493 0.00656744 1.22855 
0.00357598 -0.00321954 1.13005 
-0.000198361 -0.00380673 0.933682 
0.00537877 0.00187104 0.964216 
0.000513023 -0.000391685 1.07284 
-0.00680763 -0.000123491 0.982029 
-0.000913984 0.000928578 0.0126596 
0.00256436 -0.00415231 0.478019 
-0.00187115 0.000438979 0.587077 
-0.00177464 0.000965985 0.542684 
-0.000970185 -0.00169624 1.12555 
9.56684e-05 -2.74771e-05 0.937241 
8.04686e-05 0.000482842 0.944174 
0.00183106 0.00155615 0.938708 
-0.0014763 -0.00279494 0.785942 
-0.000814429 0.000425736 0.587993 
0.00182356 0.000170302 0.660079 
-0.00126584 0.00267763 0.456423 
0.00455743 0.000550526 0.454994 
-0.00708961 0.00434992 0.568795 
-0.00144627 -0.0038951 0.708837 
0.00739807 0.00439299 0.501993 
0.0011931 -0.00495218 0.0270683 
0.00204122 0.000645196 0.706316 
-0.00193691 0.00341808 0.498158 
0.00169717 -0.00284023 0.420368 
0.00597529 0.0022809 1.14331 
-0.00403101 -0.00306358 0.9916 
-0.00254587 0.00140488 1.00379 
0.00562122 0.00241077 1.21012 
0.00290678 0.00382403 0.74998 
-0.00354669 0.00789434 0.592858 
-0.00259373 -0.00761062 1.04131 
0.0020997 -0.000565663 0.917058 
0.00174069 0.00151282 0.755763 
0.00203721 0.000736692 0.556944 
-0.001881 0.00304956 0.521983 
0.00128748 -0.00253942 0.840237 
-0.00568701 0.00834327 0.774587 
-0.00763077 -0.00703694 0.778687 
0.00104478 -0.00244288 0.942469 
0.0132482 0.00793598 1.02738 
0.000356726 0.002352 0.72025 
0.0010848 0.000824971 0.934912 
0.000968362 0.00342197 0.938699 
0.00495729 0.000136036 0.977423 
0.00537845 0.0020044 0.722285 
-0.00113527 0.00245877 0.4787 
-4.56219e-07 0.00179695 0.488716 
-0.0053849 0.00620931 0.886497 
0.00778331 0.00455808 0.725207 
-0.00704178 0.00499879 0.88485 
-0.00316416 0.00103187 0.486603 
0.00391428 -0.0079765 0.473343 
0.00210845 0.00111528 1.02568 
0.00211867 -0.00612317 1.03453 
-0.00310281 -0.00412608 0.822377 
-0.0067118 0.00587304 0.883288 
0.00378946 -0.000103412 0.334584 
0.00163664 -0.000885155 0.648138 
0.00148805 0.00101807 0.662492 
0.00144125 0.00190198 0.547006 
-0.00744124 0.00509237 1.09489 
-0.0112192 -0.0113591 0.883668 
0.00567635 -0.00740927 0.902826 
0.00813924 0.00914385 1.1358 
0.00257843 0.000307415 0.801167 
0.00513424 0.00248185 0.485044 
-0.0043954 -0.00487632 0.528731 
-0.00306249 -0.00253224 0.461898 
-0.000262065 -0.00213592 0.934973 
0.00340284 0.00946735 1.0617 
-0.00278966 -0.00127127 1.07277 
-0.00110112 -0.00321337 0.894228 
-0.00228853 0.000635004 0.31432 
0.0014785 -0.00097623 0.398931 
-0.000204982 -0.00605172 0.00831263 
-0.000366642 0.00851853 0.58333 
0.00128329 -0.000782172 1.18315 
0.00094343 -0.000644355 1.09825 
-0.00085583 0.00103958 1.18669 
-0.000230862 -0.000897494 1.1338 
0.00299508 0.00165114 0.704507 
0.00486289 -0.00115959 0.732856 
0.00117375 0.00405095 0.839796 
-0.00201792 -0.00369285 0.489321 
0.00326732 -0.00554746 0.942056 
0.0015201 0.00382829 0.709618 
-0.00747447 -0.00704484 0.71904 
0.00743792 0.0068079 0.846268 
0.00292666 -0.000162469 1.24 
-0.00100503 0.00210138 1.23622 
-0.00169057 -3.82951e-05 1.18156 
-0.000265499 0.00334845 1.21791 
-0.000372136 -6.48898e-05 0.480074 
0.000353131 0.00349377 0.0160165 
-0.00322201 -0.00835048 0.703514 
-0.0011542 -0.0012452 0.46881 
0.000122953 0.00317256 1.18371 
-0.00153209 0.00188199 1.062 
-0.000107953 -0.00318782 1.15088 
-0.00407253 -0.00386588 1.21802 
0.0135624 0.0115015 0.0199776 
-0.00965987 0.00612085 0.515558 
-0.0103139 -0.0122229 0.708773 
0.00333154 -0.00974969 0.43121 
0.00309505 0.00104728 0.939964 
-0.000681367 0.000476137 1.11119 
0.0020855 -0.00117076 1.0738 
-0.00328811 0.00239052 1.05075 
0.000167567 0.00542295 0.711907 
-0.00896715 -0.00942813 1.05508 
-0.000795289 -0.002671 0.87047 
0.00225646 0.00610271 0.575822 
-0.000334819 8.53015e-05 0.00107236 
-0.00406793 0.00107896 0.00244571 
-0.00202316 0.000518303 0.00576758 
0.00708662 -0.00163679 0.568223 
-0.000220304 0.0030444 1.06491 
0.00210472 0.000323698 1.11572 
0.000149519 -0.000135234 1.06817 
-0.000441918 0.00121146 0.89524 
0.00166278 -0.00100664 0.718718 
0.000460756 0.00312439 0.491219 
0.000171601 0.000583094 0.473615 
-0.00165693 -0.00438209 0.461877 
-0.00248395 -0.00690816 0.00387827 
-0.00364644 -0.00214894 0.00533569 
0.000599769 0.0106798 0.634659 
0.00378857 0.00324612 0.393575 
0.0040142 -0.00371415 0.00804256 
-0.00401977 0.00435179 0.600061 
-0.00281193 -0.00579567 0.00526881 
0.000311926 0.00630157 0.550957 
-0.000634364 0.00231772 0.709415 
0.00146037 -0.00063258 0.948064 
-0.00230581 0.000653395 0.665242 
0.00296037 -0.00466174 0.900372 
0.000898644 -0.00411811 0.773552 
-0.00878566 -0.00032277 0.519415 
0.000231014 0.00293507 0.515615 
0.00176768 0.000664364 0.475692 
0.0023458 0.00120171 1.09838 
-0.00305958 -0.00162955 1.1787 
0.00220029 -0.00193543 1.07144 
-0.00177759 -8.07251e-05 1.16294 
-0.00268361 0.0021013 0.765204 
-0.000832707 -0.00103284 1.02693 
-0.000639007 -0.000781121 0.531787 
-0.00209479 -9.95922e-05 0.855445 
-0.000103457 0.00264709 0.709521 
-0.00529892 0.00260391 0.748802 
0.00489598 -0.00408487 0.516724 
-0.00352651 -0.00519501 0.579137 
0.000552054 0.000645658 0.00964989 
0.00056548 0.00059149 0.0014501 
0.00037652 0.000400786 0.00180421 
-0.00372827 0.000558249 0.635421 
-0.000775589 0.00112029 0.711743 
0.00021293 0.000493803 0.650498 
0.00366687 0.00169941 0.467559 
0.00108129 0.00170466 0.903597 
-0.000362043 0.00183678 0.604969 
0.000348888 -0.00182037 0.485473 
0.00235941 -0.00189401 0.627806 
0.00358218 -0.000293133 0.586426 
0.000525422 -0.00317003 0.935761 
-0.00101252 -0.0064268 0.847923 
0.00428896 0.00132208 1.10855 
0.00168411 0.00692146 1.17823 
-0.0133673 0.000812702 0.0118666 
0.0221895 -0.000408323 0.69606 
-0.00611542 0.00906624 0.0108958 
0.0047843 -0.00561278 0.51144 
0.00258143 -0.00164219 0.76136 
-0.00177215 -0.000242324 0.539679 
-0.00229219 -0.00209925 0.642146 
0.00404545 0.00457553 0.947526 
0.000526071 -0.00247847 0.751612 
-0.000659632 -0.000248284 0.880474 
-0.00112405 0.00392493 0.673444 
0.00295267 -0.000517915 0.874678 
0.00818008 0.00617697 0.0167693 
-0.000424116 0.00774639 0.597648 
-0.00177052 -0.00261635 0.656794 
-0.00522795 -0.00748662 0.521361 
-0.00183221 0.00112256 0.0157795 
0.00053565 0.00308807 0.516857 
-0.010132 -0.000202384 0.522525 
0.00340379 0.000878052 0.475798 
0.000198741 -0.000218578 0.627321 
-0.000153361 0.000133295 0.313202 
-0.00213582 0.0012895 0.3812 
-0.00192425 0.00195604 0.569691 
0.00186461 0.000958054 1.01981 
-0.00323456 -0.00144889 1.05471 
0.000437146 -0.00185573 0.769429 
-0.00747298 -0.00439722 0.879119 
-0.0111244 0.00711269 1.00055 
0.00421263 0.0104689 0.903253 
-0.00953662 -0.0108361 0.59717 
0.00698889 -0.0122174 0.485876 
-0.00462337 -0.00471074 0.717799 
0.00688498 -0.00266157 0.58766 
-0.00511802 0.00216537 1.00557 
-0.00339318 0.000452432 0.89122 
-0.0046049 0.00227261 1.25504 
0.00104369 0.00524536 1.19076 
0.000268586 -0.000202478 1.19995 
-0.00195231 -0.0032891 1.20783 
0.00578805 -0.00958779 0.00902378 
-0.0103725 0.00617277 0.709546 
0.0122947 0.00347698 0.012806 
-0.012646 -0.000670776 0.527117 
-0.00356518 -0.00268508 0.647657 
0.00418577 0.000221468 0.910408 
0.00788887 -0.0012119 0.995672 
-0.0039867 -0.000585333 0.578082 
-0.0011875 -0.000485796 0.766904 
-0.00674645 -0.000400927 0.559819 
0.00227795 0.000194456 0.619607 
0.00372988 -0.00045529 0.566232 
0.00208869 0.000833486 1.25938 
0.00472234 -7.07145e-06 1.24205 
-0.00115978 0.000325402 1.19961 
-0.00290307 0.001101 1.23031 
-0.000614803 4.51474e-05 -0.000822975 
-0.00171855 0.000182939 0.00204649 
0.00225208 -0.000101885 0.00787914 
-0.00107775 -0.00180864 0.457923 
-0.00128398 0.00126117 0.796714 
-0.00412454 0.000978961 0.568718 
-0.000173971 -0.000349512 0.591503 
0.00154055 0.00194801 0.809675 
-0.00183869 0.0027023 0.0132146 
-0.000248013 -0.00258577 0.594401 
-0.00173918 0.00227438 0.0137097 
0.00199807 -0.00229519 0.568586 
0.002779 0.00309201 0.439435 
6.5885e-05 -0.000371242 0.667929 
-0.000185513 -0.000829076 0.335701 
0.00214021 0.000802765 0.64088 
0.00219286 -0.000353725 0.711762 
-0.0117317 -0.00247935 1.05892 
0.00360743 -0.0021576 0.599341 
-0.00220119 0.00415353 0.866227 
-0.00231403 0.00171821 0.775852 
0.00386076 -0.00717858 1.14745 
-0.00819868 0.0125726 0.842011 
-0.000263543 0.000187291 1.00994 
0.00382587 0.00133693 1.1118 
-0.00284737 -0.00710771 0.975886 
-0.00278998 -0.00122558 0.922004 
-0.00184722 0.00706624 1.13638 
0.0032379 0.0042486 1.03575 
-0.0020642 -0.00791563 0.554567 
-0.00212772 -0.00154489 0.657351 
0.000341955 0.0038236 0.883013 
0.0158171 -0.00108486 0.0168351 
0.000301607 0.006517 0.411872 
-0.0119507 0.00130784 0.671714 
-0.00556901 -0.00593617 0.552621 
-0.014199 -0.00178629 0.0144267 
-0.000378837 -0.00481252 0.00429877 
0.014261 0.00241114 0.630135 
0.00658507 0.00866063 0.578466 
-0.00410832 -0.0102447 0.0122085 
0.00348902 0.00223825 0.717416 
0.0010548 -0.00241942 0.00991593 
-0.000709691 0.00491849 0.514723 
-0.000830599 0.00201785 1.02848 
-0.00151661 0.000695935 1.17263 
-0.000577105 -0.00164526 0.978193 
-0.000952382 0.000617518 1.0163 
0.00505548 0.0033513 1.03703 
0.00114945 0.00246735 0.592001 
-0.00430749 -0.00414075 0.753675 
-0.000644801 -0.0021883 0.880017 
0.00194848 -0.000762511 1.23318 
0.000405679 -0.00150687 1.17674 
-0.000619653 0.00192921 1.11521 
-0.00167144 0.00219041 1.12981 
-0.000421821 -0.00190869 0.845328 
0.00215024 9.9371e-06 0.902064 
0.000858367 0.00140141 0.761932 
0.00591851 -0.000210644 0.550717 
-0.00524618 -0.001422 0.598785 
0.00196663 -7.67521e-05 0.864803 
0.00078346 -0.000342404 1.06108 
-0.00263794 -0.00158717 0.742421 
-0.000285153 -0.003367 -0.00090025 
0.000193638 0.00220172 0.00234393 
0.00012718 0.000886324 0.0129901 
-8.17154e-06 0.00490994 0.539977 
0.000299922 0.000723134 0.865193 
-0.000472177 0.00232931 0.645987 
3.35011e-05 -0.00372371 0.610548 
0.00462805 0.000149041 0.422739 
-0.00188619 0.0026602 0.98683 
0.000782589 -0.0013412 0.973706 
-0.00374897 -0.00195867 0.896755 
-0.0041155 -0.0014645 0.896347 
0.000978605 0.00628963 0.712761 
-0.000957953 -0.00370903 0.760303 
-0.000973369 -0.00759518 0.888722 
0.000692837 0.00397203 0.47473 
-0.000462861 -0.000924883 1.08021 
0.000385294 0.000104693 1.19242 
7.49331e-05 -0.000626672 1.11174 
-0.000484841 0.00398862 1.2043 
0.00122085 0.000929287 0.0130597 
-0.000931359 -0.000999321 0.55752 
-0.00124134 3.88347e-05 0.015733 
-0.000777578 -1.39973e-06 0.458186 
-0.00173138 -0.00499528 1.02487 
0.00219787 0.0050654 1.03376 
-0.000224345 -0.00630832 0.932859 
-0.000739 0.00558257 1.17748 
-0.00157346 0.00278561 0.00713963 
0.000217651 -0.000265924 -0.0026167 
0.000749887 -0.00189591 0.00435186 
0.00523303 -0.00116749 0.592259 
-0.000195909 0.000317428 0.625516 
-0.00125174 2.93324e-05 0.577928 
-0.00491384 0.00240754 0.382014 
-0.000210555 0.00466821 0.816587 
-0.0042216 0.00288145 0.00601703 
-0.00202581 -0.00372526 0.00458663 
0.00762915 -0.00148023 0.542537 
0.00285753 0.00419798 0.496578 
0.0021459 -0.0053726 0.708892 
0.00582592 -3.06817e-05 0.978856 
0.00319501 0.00107839 0.940638 
-0.00489085 0.00290402 0.516315 
0.000260923 -0.00305995 0.929878 
-0.000880773 0.00252276 0.827891 
0.00154666 0.00129959 0.966964 
-0.00224909 0.000592552 0.978574 
0.00106405 -0.000652588 1.2386 
-0.00301992 -0.00319851 1.26097 
0.00140016 0.00275919 1.21931 
-0.000959069 0.00212763 1.19772 
-0.00198917 0.00297421 0.940392 
-0.000308694 -0.00150136 1.07672 
0.00238583 0.00136034 1.10276 
0.00354699 -0.002226 1.16429 
-4.69068e-05 0.00125979 0.710632 
-0.00620097 -0.00252994 0.841338 
-0.00147907 0.00202459 1.03549 
0.00631224 0.00387119 0.765558 
0.00259474 0.00186289 0.0073785 
-0.00013963 -0.000128272 0.00534774 
0.00210017 0.00154148 -0.00092949 
-0.0075983 -0.00416803 0.434611 
-0.00032344 0.000149011 0.000324091 
-0.00425678 0.00202313 0.00628615 
0.0013079 -0.000293495 0.00876239 
0.00347893 -0.00659157 0.69801 
-0.00132322 0.00179778 -0.00203417 
0.00581069 -0.00641858 0.470787 
0.00213206 0.00376674 0.00594043 
0.000918322 -0.00558502 0.520481 
0.00325645 -0.00486991 0.00832885 
-0.00131386 0.00345922 0.593871 
-0.00398795 -0.00276437 0.00562192 
0.000495936 0.00563262 0.555525 
-0.0051017 -0.00431752 0.011282 
0.00287013 -0.00135168 -0.000873323 
0.00137766 0.00445826 0.502546 
-1.67172e-05 0.0061349 0.484684 
-0.000406688 -0.00489689 0.693889 
0.00373117 0.00445697 0.506432 
0.000943021 0.000486134 0.0150521 
-0.00389409 0.00241415 0.468336 
0.00711287 0.000705293 0.00849761 
-0.000715104 0.00174579 0.463414 
-0.000106268 -0.00143804 0.374944 
-0.00566942 5.64155e-05 0.590909 
-0.00257231 0.00267933 0.00630909 
-0.00129751 -0.00242126 0.675895 
-0.00119588 0.00476419 0.00385784 
-0.000933022 -0.00799646 0.535037 
-0.00212834 -3.38321e-06 0.639291 
0.0013073 -0.00142677 0.767398 
0.00411207 -0.000800175 0.432065 
-0.000840926 0.000443555 0.534441 
-0.000830402 0.00245016 0.00430052 
-0.000713549 4.43802e-05 0.00263169 
-0.00259726 -0.00500038 0.43836 
-0.000506757 0.000300203 0.376525 
0.000120383 -0.00313317 0.0142624 
-0.00786203 -0.00789308 0.580492 
-0.0020461 0.00360988 0.617147 
0.0040246 0.00722178 0.433321 
0.00210341 -0.00231355 1.04708 
-0.00278239 0.00465099 0.858474 
0.00224832 0.00714433 0.877781 
-0.00798083 -0.00982552 1.14295 
-0.00232968 0.00242555 1.03551 
0.00877391 0.00669624 0.843689 
0.00352099 -0.00470341 0.626375 
-0.0068603 -0.00231339 0.76382 
0.00375064 0.00213357 0.0137544 
-0.00626135 0.00446787 0.543631 
0.00222202 -0.0079269 0.67736 
-0.00377701 0.000243004 0.43815 
0.00573165 -0.00818255 0.672404 
-0.00555978 -0.00431975 0.53006 
-0.0107978 0.0120015 0.0134417 
0.00926445 0.00494512 0.479469 
0.00246946 -0.00363777 0.76896 
-0.000804618 0.000836276 0.574331 
0.000322264 0.00146035 0.625123 
-0.00046683 0.00425955 0.819627 
0.0029446 0.000273475 1.10093 
0.00157427 0.00227588 1.07181 
-0.00215101 0.00020863 0.969918 
0.00385784 0.000618972 1.16731 
-0.00183659 0.00160214 1.08981 
0.00139336 -0.00118199 1.17879 
0.000640622 -0.000559784 1.25531 
-0.00113317 0.000296863 1.16293 
2.5681e-05 -0.00472509 0.799596 
-7.6054e-05 0.00152421 0.627968 
-0.00314281 0.00529678 0.473969 
0.00491216 0.000945604 0.470633 
-0.00208172 0.000270758 1.06469 
0.00281655 -0.00166725 0.878174 
0.00285857 -0.00430417 1.05068 
-0.00693367 0.000789119 1.16309 
0.000561461 0.00948888 1.09183 
-0.00875479 -0.00159588 1.22341 
-0.00183755 -0.0067951 1.25264 
0.00526104 -9.96898e-05 1.18559 
-0.000126337 0.000276157 1.26177 
-0.000184813 0.000905611 1.16957 
-0.00031694 -0.000132573 1.19214 
-0.000257261 -0.000553738 1.1938 
0.00154974 -0.00194641 1.04288 
-0.00153165 0.00463651 0.931115 
0.0035822 -0.000105951 1.03469 
-0.00278884 -0.00188038 1.17827 
0.0011972 -0.00473641 1.06392 
0.000788016 -0.00421687 1.01249 
-0.000220306 7.51453e-05 1.11504 
0.000535976 0.00691283 0.896525 
-0.00121573 0.000597334 0.854599 
0.00443034 -0.0011615 0.749617 
-0.000457031 -0.00204785 0.574151 
0.00164884 -0.00211403 0.548678 
-0.00119127 4.07599e-06 0.310382 
0.00210419 -0.0010013 0.00667533 
0.00118399 -0.000543672 0.00120637 
-0.00398275 0.00738366 0.592956 
0.00127106 0.00674439 0.4623 
0.000672949 0.00279478 0.519255 
-0.00744437 -0.0121692 0.0132992 
-0.000625758 0.00266224 0.479021 
-0.000105531 -0.00811223 0.00561498 
0.00365031 0.00930563 0.704752 
-0.00635992 -0.00251726 0.00662143 
0.00213994 0.0046143 0.526436 
-0.000703065 -0.00250051 0.93355 
0.000166306 -0.000570295 1.03248 
-0.00148642 -0.00239547 0.878163 
0.000780249 0.000924282 1.16605 
-0.000535705 0.00534966 0.747934 
0.00633695 0.00529568 0.472836 
0.00453193 -0.0111028 0.674811 
-0.00784079 0.000718361 0.891114 
0.00463103 -0.000733208 0.00574752 
-0.00778153 -0.00104085 0.435138 
-0.00073726 0.0017389 0.000893528 
-0.00483733 -0.000859957 0.382641 
-0.0021123 0.00187496 0.59493 
-0.00161576 -0.00223449 0.507032 
-0.00414185 -0.00269382 0.697826 
-0.000379373 0.000733847 0.876089 
0.00202974 0.00212107 0.709449 
0.00147931 0.0015521 0.942932 
0.00448002 8.00738e-05 0.978857 
-0.000191769 0.00191362 0.512148 
-0.000593863 0.00326247 0.805576 
-0.0015286 0.00225897 1.07998 
0.00208126 -0.000653724 1.02264 
-0.00175864 0.000493767 0.898144 
0.00170104 0.000355469 0.937363 
0.00154947 0.0014566 1.05148 
-0.000370742 0.00121843 0.942845 
-0.000636894 -0.00129204 1.01917 
-0.001491 0.00130469 1.15451 
0.0015075 -0.000344495 1.12482 
0.000318683 -0.00380836 1.21454 
-5.76217e-05 0.00268447 1.14565 
-0.000737553 0.00147443 1.09239 
-0.00208517 -0.00211378 1.07534 
0.00112827 -0.00260886 1.13558 
-0.00114839 0.00162847 0.977847 
0.00100347 0.00108961 0.0154967 
0.00654288 -0.00693932 0.693526 
-0.00161375 0.00626212 0.0139682 
0.000599599 0.00504513 0.506356 
0.000721197 0.00164965 0.00586132 
-0.00237549 -0.0056704 0.460725 
0.000443253 0.00114654 0.000698803 
0.00545543 -0.00354557 0.523243 
0.00164521 -0.000173964 0.454695 
-0.00556061 -0.00514482 0.00967074 
0.00298249 -0.00295662 0.379658 
0.00641304 0.00649664 0.568107 
0.00367902 -0.0022157 1.13477 
0.000155355 0.00459411 1.1719 
-0.00674193 0.000996188 1.03605 
-0.000124897 -0.00285631 1.01383 
0.000124826 0.0101904 0.663125 
-0.0146218 -0.00481706 1.00262 
0.00448613 -0.00844377 0.674109 
0.0150814 0.00438212 0.46647 
-0.00256192 0.00209875 0.920069 
-0.00487615 -0.0041785 0.978267 
0.00512312 0.00568189 0.899286 
0.00343933 -0.00324174 1.1314 
-0.00323675 0.00198738 0.714599 
0.00182319 -0.000966094 0.933844 
-1.65226e-05 0.00257613 1.03421 
-0.00232055 -0.00361012 0.836393 
-0.000585826 -0.00256831 0.542031 
-0.00471822 0.00104073 0.467562 
0.00355978 0.00348641 0.633749 
0.00234191 -0.00182192 0.465085 
-0.00108824 0.00343376 1.05452 
0.00250343 -0.00647066 1.11998 
0.00380354 0.00558096 1.24002 
0.00175744 0.002367 1.18202 
0.0011635 -0.00506276 0.00403285 
-0.00516577 0.0042585 0.699648 
0.0043904 0.000350879 -0.00119853 
-0.000617431 0.00714812 0.541044 
0.00874926 -0.00491835 0.656093 
-0.0023422 0.000884749 0.914293 
-0.00193094 -0.00173794 0.829114 
-0.00215056 0.00335118 1.04341 
0.000130836 0.00157142 0.283623 
0.00200913 0.00195546 0.491007 
0.00128998 -0.000350928 0.554451 
-0.00187691 0.00311912 0.450078 
0.000436905 -0.00330148 0.626523 
-0.00067203 -0.00116464 0.415454 
0.000188922 0.00508442 0.0149512 
6.14138e-05 0.00182332 0.38675 
-0.000888707 0.00111233 0.76385 
-0.00052535 0.00145123 0.764161 
0.000656563 -0.000184991 0.705292 
-0.00058912 -0.00387263 0.895369 
-0.00122047 0.0044802 0.860059 
0.00173038 -0.00205669 0.610599 
-0.00936048 0.00376177 0.876753 
0.00654367 -0.00449166 0.429117 
0.00015196 0.00110756 0.977074 
-0.00868939 -0.00260298 1.03645 
0.00273345 -0.00282474 0.886121 
-0.00337947 0.000387314 0.777072 
-0.00463929 0.0033493 0.667681 
-0.00736402 0.00258566 0.998431 
0.00741574 -0.0028351 0.591849 
-0.000221626 0.000120557 0.892476 
0.000338853 0.00244215 1.18223 
-0.000204266 0.00248512 1.20818 
4.59178e-05 0.00201268 1.1369 
-0.00233404 -0.00369257 1.17595 
-0.000844943 0.000742548 0.00820335 
0.00205657 -0.00143465 0.000981468 
0.00120654 -0.000808908 0.0024175 
0.00225124 0.00462082 0.705061 
-0.000937311 -0.00227957 1.16654 
-0.00507501 0.00454819 1.05872 
-3.37666e-05 -0.00724928 1.21035 
0.00372463 0.00578001 1.17989 
0.000811222 -0.00478573 0.937998 
0.00551051 0.00459051 0.937477 
0.00151881 0.00156431 1.114 
0.000467442 -0.00425876 0.840968 
0.00133495 0.00328463 0.837099 
-0.000355685 0.00213449 0.605416 
-0.00159926 -0.00146524 0.686843 
-0.0065359 -0.00268273 0.786047 
-0.000115528 0.000277268 -0.00286795 
0.000531492 -0.0016917 0.00571824 
-0.000254276 0.000892221 -0.00124668 
6.32253e-05 0.00223404 0.418506 
-0.00187717 0.00110306 0.588434 
0.00208245 0.00150592 0.434622 
0.00263625 -0.0002604 0.657533 
-0.000821962 0.00236271 0.457049 
-0.00491345 -0.00316228 0.0063377 
0.000160358 0.00942975 0.535221 
0.00102131 -0.00655788 0.00872334 
0.00194271 0.00300342 0.463365 
-0.000210324 0.00220399 0.00466717 
-5.31964e-05 0.000459735 0.00192662 
-0.000162789 0.00162864 0.00420211 
-0.00308479 -0.00218089 0.605795 
-0.00521756 0.00204505 1.08847 
0.00562303 -0.0100064 0.71068 
-0.00402701 0.000848037 1.01524 
0.000878069 -0.000242564 0.850487 
-0.00830733 -0.000206068 0.671144 
-0.00220615 0.0141986 0.560197 
0.00854952 -0.00214663 0.0151122 
0.00258089 -0.0149453 0.456326 
-7.33097e-05 -0.00403891 0.801276 
5.31654e-05 0.00138274 0.626236 
0.00266764 -0.00109095 0.936875 
-0.00337487 0.00335965 0.475742 
-0.00642131 0.00452572 1.02974 
-0.00908077 -0.0112607 1.03359 
0.00897957 0.00944782 0.77305 
0.00458004 -0.00586858 0.860672 
-0.000927719 0.000272861 0.00896378 
-0.00104343 0.000657758 0.000862192 
0.00362425 -0.00262771 0.00601946 
-0.00383255 0.00474574 0.67792 
-0.00472076 0.0012799 0.755843 
0.00196975 -0.0029163 0.756373 
-0.00107954 -0.00230377 1.04512 
-5.84204e-05 0.000148556 0.537855 
-0.000480055 0.00078896 1.1859 
0.00306674 -0.00101437 1.18204 
-0.000528911 0.00141745 1.14019 
-0.00106765 -0.00241346 1.23843 
-0.00265236 0.00518828 0.793988 
0.00127196 0.000520635 0.665701 
0.00158032 -0.000135007 0.645367 
0.00496329 0.000590689 0.909672 
0.00147208 0.00269925 0.562525 
0.00216144 0.00247919 0.515736 
-0.00110065 -0.0034691 0.00945171 
-0.00487526 -0.00126036 0.417869 
0.000673813 0.00257597 0.000498691 
0.000129753 0.000488229 -4.4297e-05 
-6.8279e-05 7.56416e-05 0.00599799 
-0.00254882 -0.00154899 0.510985 
-0.00804331 0.00853741 0.724722 
-0.00897924 -0.0101795 1.03048 
0.00319819 0.00645524 0.585039 
0.000765907 -0.00493134 0.886554 
0.00336149 0.00458663 0.686356 
-0.00511856 0.00533105 0.545115 
-0.00027399 -0.000689859 0.0142085 
0.00940536 -0.00404271 0.513718 
0.0018952 -0.000388385 1.07639 
0.00328684 -0.000901518 1.1174 
-0.00313396 0.00453955 1.05516 
-0.00197012 -0.000984304 1.18528 
0.0104139 -0.00141694 0.00837335 
-0.0193935 0.00306476 0.67873 
0.00425181 -0.00833632 0.00798353 
-0.00402703 0.00848355 0.520864 
0.000100471 0.00123609 0.00626425 
1.82537e-05 0.000224576 0.00358019 
3.50312e-06 4.30997e-05 0.00267182 
-0.00298439 -0.00362917 0.671912 
-0.00964537 -0.00111368 0.77906 
0.00571618 -0.00363953 0.518413 
0.00535991 0.00511684 0.555365 
-0.00815074 0.005653 0.77494 
0.00144279 0.00164328 0.0120817 
0.00142101 -0.00515064 0.584722 
-0.000210681 0.00227737 0.00650566 
0.00531528 0.000505861 0.473846 
-0.0117031 -0.0143652 1.20068 
4.12328e-05 -0.00588474 1.22576 
0.0101309 0.00984206 1.09943 
-0.00432537 0.0067745 1.13095 
-0.000167332 0.000228966 0.952457 
0.000787784 -0.00175154 1.12047 
0.00278842 -5.47221e-05 1.11757 
-0.00097198 3.06226e-05 0.96559 
-0.000727943 -0.000960999 0.00277644 
0.00210209 0.00314268 0.00657106 
-0.000390327 -0.000474684 0.00310045 
-0.00113234 -0.000107824 0.710959 
0.00207107 4.95632e-05 0.00425653 
0.000320768 0.00334578 0.00404358 
-0.00694997 -0.00248903 0.585619 
0.000194041 -0.00450832 0.458438 
-0.00168324 -0.00156197 1.03076 
0.00166598 -0.000308212 0.970935 
-0.00272827 0.00569041 0.894152 
6.08219e-05 -0.000868176 1.10616 
-0.000642769 0.00734584 0.778562 
0.00890856 0.00660073 0.951676 
0.00179163 -0.00819756 1.14303 
0.00132099 -0.00336017 1.0141 
-0.00150092 0.000248459 1.16108 
0.00216761 -0.00047204 1.16688 
-0.000324935 -0.00118202 1.25416 
-0.000108129 -0.000219023 1.14146 
-0.00175077 9.47529e-05 1.03435 
0.000875625 0.000386674 1.16359 
-0.00185621 -0.0010857 1.13691 
-0.000895921 0.000302853 1.16384 
-0.000319583 0.000327727 0.698508 
-0.00165704 -0.00346737 0.514582 
-0.00101977 -0.00106158 0.812125 
-0.00131053 -0.00159197 0.86934 
-0.00601828 0.00456472 1.09644 
0.00159557 -0.000392773 1.0322 
0.00154485 0.00131908 1.02132 
0.00716184 -0.00395684 0.889824 
-0.00516527 0.00114555 0.785906 
0.0048552 0.00513014 0.650136 
0.00087234 -0.0024178 0.433972 
0.00128947 -0.00279304 0.456998 
0.00163434 0.00112363 -0.00250327 
-0.000449311 -0.000309236 0.00138097 
-0.000678612 -0.000471412 0.0113064 
-0.00461365 -0.000243556 0.54038 
0.00578041 0.00720987 1.03741 
-0.00161001 -0.00116382 0.658512 
-0.00293116 -0.00757611 0.548998 
-0.00261055 0.00171225 0.763837 
0.0157876 -0.00596296 0.0105037 
0.00353621 0.0070196 0.529493 
-0.0115294 0.00355464 0.693394 
-0.00973398 -0.00476217 0.4806 
-0.000269529 0.000506071 -0.00713357 
-0.000605768 0.00138679 0.0071078 
0.000431831 -0.000810906 0.0114204 
8.9136e-05 -0.00029119 0.459361 
0.000265945 0.00163842 1.07924 
-0.00311564 0.000594049 1.05064 
0.000819571 0.00166503 1.10577 
0.000771833 0.00143623 1.18716 
-0.000131176 -0.00328918 0.716912 
0.00365106 0.00239701 0.582771 
-0.00267092 -0.00360995 0.864702 
-0.00477267 0.00508118 0.892955 
-0.00333261 -0.000202866 1.02029 
0.00573049 -0.00235012 0.891982 
-0.00220987 -0.00416219 0.865968 
-0.00414974 -1.45102e-05 1.13245 
-0.000785694 0.00081732 0.374878 
-0.00274224 -0.00279226 0.00912686 
0.00196367 -0.00239143 0.46044 
0.00524496 0.00914354 0.667192 
0.00235987 0.00180167 0.369514 
-0.00139651 -0.00193119 0.00807713 
-0.000464552 -0.00188431 0.00585185 
0.00140202 0.0101134 0.680529 
-0.000503949 0.000122411 1.25857 
-0.000989406 -0.000471498 1.19356 
0.00127955 -0.000490419 1.11713 
0.000442458 -0.000229813 1.19547 
-0.00304423 0.00233558 0.272081 
0.00400892 -0.00299629 0.400552 
-0.00770822 0.00260942 0.0120474 
0.0114394 -0.00300212 0.586216 
-0.00486249 -0.00258279 0.771063 
0.00133573 -0.00467794 0.562655 
-0.00529789 0.00532678 0.974843 
0.00368724 0.00300589 0.816248 
-0.00239898 0.00263346 0.9399 
-0.00531952 -0.00115753 0.800975 
0.00256036 -0.00115546 0.936491 
0.00775937 -0.000224431 0.988426 
0.000149728 0.000601115 0.319793 
-0.00487946 0.00269442 0.493064 
0.000868309 0.00403055 0.00659478 
-0.003524 -0.00846426 0.512725 
-0.00116477 -0.000735228 1.17456 
-0.00188348 0.00145284 1.16458 
0.00309712 0.000707647 1.14662 
-7.46751e-05 -0.000207075 1.24006 
0.00367212 -0.00132019 0.0127473 
-0.00326229 -0.000989476 0.59506 
-0.000579078 0.000779094 0.368311 
-0.00482086 0.00206155 0.569851 
0.00331706 0.00117949 0.62094 
-0.00492598 -0.00553121 0.433505 
-0.00082943 0.00569346 0.579501 
-0.000470519 3.21802e-05 0.377233 
-0.0014508 -0.000107937 0.689499 
-0.00170634 -0.000361745 0.426446 
-0.00594995 -0.00184516 0.607851 
0.00361064 0.000418171 0.779953 
-0.00476816 -0.00958964 1.1722 
0.00335039 0.00988556 1.25817 
-0.0028441 0.00309692 1.2454 
0.0037376 -0.00171171 1.20154 
-0.000921516 0.00146187 0.00537035 
-0.000441174 0.00052574 -0.00137705 
-0.0019765 0.00274074 0.00256849 
0.00920511 -0.00226376 0.527338 
-0.000197261 -0.000537956 1.21395 
-0.00179411 0.00290299 1.20131 
0.000375735 -0.000132593 1.13529 
0.00494641 0.00421818 1.24894 
-0.00974414 0.00112612 0.0104744 
0.0107197 0.00083816 0.604203 
0.0018149 -0.00116508 0.000188106 
0.00322582 0.000737196 0.467663 
0.00388836 -0.00372876 0.937945 
0.00693409 -0.000981165 0.878586 
-0.00148267 0.000633571 1.06592 
-0.0114518 9.17418e-05 1.16289 
-0.000672826 0.00236641 0.00372613 
0.00161409 0.00186955 0.583184 
-0.00293662 0.00169366 0.00192045 
0.00197941 -0.00164398 0.3792 
0.00255378 -0.00315869 0.00886394 
-0.00125598 0.00160625 -0.00194099 
-0.00153971 0.00214647 0.00574932 
0.00215392 -0.00240255 0.468335 
-0.00340814 -0.00396637 0.70943 
-0.000207082 -0.00043688 0.939268 
-0.000272391 0.000923722 0.822892 
0.00377142 -0.00136947 0.961333 
-0.00101496 0.00511957 1.13769 
0.00245968 0.00275381 1.03667 
-0.0010535 -0.00269493 1.03092 
-0.000909491 -0.00412628 0.923799 
-0.0103629 0.00809187 0.676317 
0.0096264 -0.00508713 0.468901 
0.00395553 0.0026425 0.749287 
-0.00410394 -0.0013517 0.512612 
0.00399046 -0.00355058 0.713841 
0.000417944 0.000567423 0.817623 
-0.000794192 -0.00131914 0.938736 
-0.00316452 -0.0015964 0.97372 
0.00109196 0.00347028 0.749217 
0.000797418 0.00249042 0.525236 
0.00175067 -0.000591873 0.560983 
-0.00367368 0.00343894 0.447251 
0.000865231 -0.00864379 0.0139929 
-0.00215522 0.00506812 0.51928 
-0.000298194 0.00173507 0.542786 
-0.0011686 0.00349704 0.406597 
0.00199965 -0.00217193 1.17215 
-0.00305543 0.00282913 1.17161 
0.00124835 0.00433876 1.24877 
0.00187025 -0.0011815 1.16808 
-0.0024731 0.000397841 1.2272 
0.0056216 0.00133588 1.06367 
-0.000461243 0.000108318 1.10449 
-0.00182166 -0.00154378 1.15223 
0.000504003 -0.00109006 0.0129572 
-0.00371984 -0.00172386 0.704242 
-0.00345267 -0.00044273 0.518392 
0.00101564 -0.00432501 0.512306 
0.000909575 0.000714208 1.07779 
-0.00139361 0.00521956 0.92478 
0.00172788 -0.000481841 1.02714 
-0.00288613 -0.000448505 1.03699 
0.00328008 0.00103051 1.24589 
0.00354391 -0.000922044 1.24494 
-0.00370948 0.000722505 1.17253 
-0.0026621 0.00218056 1.17118 
0.000793157 -0.0017065 0.460064 
0.00130869 0.00425936 0.00937304 
-0.00426802 0.00010097 0.374524 
-0.00146148 -0.00948721 0.68594 
-0.000965621 -0.00181456 0.00436793 
-0.00178753 0.000988394 -0.00154531 
0.00101907 0.00179395 0.42838 
0.000258141 0.00351027 0.391177 
0.000385977 0.000518259 0.983466 
-0.00128071 0.00106939 0.994626 
-0.00278763 0.00175824 1.16613 
0.00245386 -0.00181882 1.02949 
0.00383589 -0.000866181 0.00353272 
0.00277181 0.00100563 0.00447131 
-0.00306869 0.00410542 0.693215 
-0.00124734 -0.000178332 0.533295 
0.000432472 0.00251646 1.18108 
9.98202e-05 0.00196752 1.13628 
-0.000300177 0.00211338 1.20948 
0.00187674 -0.00414694 1.05451 
-0.000597269 5.18743e-05 0.00794691 
0.00394753 -0.00109566 0.00810565 
-0.00161825 0.00034277 0.00524512 
-0.00233238 -0.00142133 0.713737 
-0.00162638 -0.000969865 0.012004 
-0.00089052 -0.000634431 0.00862523 
0.00170791 0.000983123 0.637424 
0.00127437 -0.00423681 0.471738 
-0.00162007 -0.00103694 1.11744 
-0.0010514 0.00375024 1.02375 
0.00242826 -0.00205583 0.898596 
0.00179611 -0.00276245 0.816489 
-0.000468726 0.000360781 0.000221603 
-0.000727435 0.000592659 0.00231396 
0.000398642 -0.000328212 -0.00147431 
0.00271744 0.00110087 0.414588 
-0.00231045 -0.00463542 1.03563 
0.00262016 -0.00239976 0.917336 
-0.00196159 0.00588712 0.588455 
-0.00806076 0.00216628 0.820215 
0.00108275 -0.00422273 1.05685 
0.000858406 -0.00367164 1.01211 
0.000481664 0.00587251 0.900214 
0.00252245 0.000475486 0.826243 
0.00131259 0.00191138 0.00790037 
-0.000387334 0.000633144 0.00774064 
0.00204162 -0.000403092 0.583924 
-0.000791548 0.000323444 0.536023 
-0.000730486 -0.00101828 0.00861815 
0.014509 -0.00538395 0.62543 
-0.000626081 -0.00179074 0.00602553 
0.00343717 0.0112669 0.57807 
0.000557467 -0.0014009 0.0101407 
0.00146167 0.00678974 0.587527 
-0.00115811 0.000549099 0.392865 
-0.000641668 0.00136264 0.495529 
0.00305092 0.00531958 0.0205805 
-0.000377186 0.00492593 0.512071 
-0.000900653 -0.00866 0.697479 
-0.00112076 -0.00108481 0.538212 
0.00101995 0.00114832 1.05104 
-0.00306087 -0.00157025 1.06283 
0.000204168 0.000432852 1.02702 
-0.000298826 0.000337179 1.16951 
-0.00118001 0.000469223 0.0115191 
0.00042222 0.0035498 0.641473 
-0.000386297 0.0018559 0.458749 
-0.00257487 -0.00339154 0.473768 
0.003877 -0.000390901 0.00999753 
0.0021248 -0.000318341 -0.00193369 
-0.00314717 0.00187137 0.52999 
0.000143003 -0.00575635 0.511762 
-0.00383664 0.00118018 0.670553 
-0.00494468 -0.00484148 0.900187 
0.00168448 -0.00173283 0.977295 
-0.00283978 0.00211422 0.891474 
0.0013832 0.000435756 1.02054 
-0.00825578 -0.00395212 1.20325 
-0.00389113 0.00128122 1.09372 
0.0063657 0.00395255 0.896652 
-0.00400021 -0.00297674 0.464536 
0.00487936 0.0043001 0.886276 
0.000766568 0.00303045 0.787365 
0.000174712 2.99261e-05 0.840221 
-0.00209064 0.000809239 0.698837 
0.000617556 -0.000585697 0.485439 
0.000162439 0.0040566 0.482527 
-0.00436571 0.00232857 0.881173 
0.00427974 -0.00128057 1.08505 
0.000483604 0.000257266 1.20067 
0.000850016 0.00484097 1.1913 
-0.00197613 -0.00336041 1.20527 
0.00477526 -0.00571034 0.93908 
0.00371311 0.0033217 1.11023 
-0.000894399 -0.000463804 1.04863 
-0.00107684 0.00670298 1.17367 
0.00110468 0.00103933 0.771087 
-0.00164593 0.00076763 0.994148 
0.00311851 -0.00109776 0.782633 
0.00264063 0.00325529 0.991442 
0.000429531 -0.000605379 1.02478 
0.00374796 -0.00287346 1.08174 
0.000306865 0.000370939 1.02845 
-0.00227986 -0.00304276 1.15129 
0.00267427 -0.0129892 1.12601 
-0.0041679 0.00457518 1.25507 
0.000753617 0.00808051 1.22821 
0.00366956 0.00175161 1.18862 
0.00291041 0.0119122 0.0126091 
-0.000331658 -0.0111121 0.701397 
-0.00415127 0.00548303 0.0116046 
0.00182761 -0.00593703 0.54933 
-0.000782565 -0.00183426 0.00767304 
0.000890205 0.00191412 -0.0020507 
0.000137213 0.00034619 -0.00229712 
-0.000107362 -0.00254426 0.468864 
-0.00955003 -0.00329556 0.583591 
0.00133184 0.00917453 0.531523 
0.00278496 -0.000238153 0.772685 
-0.00206206 -0.00111185 0.454894 
0.000205415 -0.000264538 1.03952 
-0.00330033 -0.00355015 0.881997 
-0.0027981 -0.000522569 1.08486 
-0.00162667 0.00147962 1.13961 
-0.00269956 0.00339154 0.66208 
0.00287746 0.00293028 0.510597 
-0.000314381 0.00164701 0.562063 
-0.00468488 -0.0011437 0.417098 
0.00701225 0.000316862 1.02917 
-0.0106689 0.00105185 1.02478 
-0.0068297 -0.0153342 0.870956 
0.00394361 0.00376317 1.15384 
0.00327691 0.00402358 0.806218 
0.00378239 -0.00636931 0.923724 
-0.00332971 -0.00664823 1.0318 
-0.00238204 0.00879119 1.03705 
-0.00705707 -0.00475773 0.810418 
0.00207991 -0.00847322 0.975535 
0.00495032 0.00750071 0.675833 
-0.0066675 0.00871469 0.56005 
0.00696138 0.00668474 1.03654 
0.000800533 0.0119404 0.885674 
-0.00297442 -0.00449138 1.02684 
0.000275117 -0.0150246 1.16289 
0.00262979 0.000142538 0.716372 
0.00227459 0.000565894 0.936812 
-0.00133665 0.000148018 0.94149 
-0.00246296 0.0004179 1.02852 
0.00315065 0.00365012 0.698472 
-0.002558 0.00141005 0.515758 
0.00162977 -0.00390405 0.012487 
-0.00345246 -0.00328305 0.462583 
-0.00367667 -0.00108152 0.561797 
0.00448506 -0.0028613 0.559166 
0.00725505 -0.00167281 0.759176 
0.00487368 -0.00143109 0.58072 
-0.00223766 -0.00108217 0.000106425 
0.000725201 0.000626653 0.0107952 
0.00231564 0.00118236 0.00234196 
0.000231901 0.0018747 0.603675 
-0.00865409 0.00211947 0.677847 
0.00277882 -0.00221677 0.969693 
0.000383554 -0.00257797 0.810049 
-0.00251613 0.002046 0.890872 
-7.52726e-05 0.00212763 0.699525 
0.000722725 -0.00498694 0.511979 
-9.57159e-05 -0.00361076 0.696315 
-0.00105711 -0.00197782 0.872346 
-0.000527922 -0.000493381 0.00868505 
0.00316884 0.00266494 0.579899 
-0.00335785 -0.00261996 0.542782 
0.0028662 -0.00137105 0.471855 
-0.0047514 -0.00011236 1.20488 
0.00362079 -0.00149051 1.01742 
0.000283067 -0.000402743 1.08572 
0.000352148 -0.000374832 0.897446 
5.84213e-05 -0.000718757 0.00496226 
-0.000130946 0.00161103 0.00269786 
-1.45168e-06 1.78596e-05 0.00319544 
0.00260519 -0.00141886 0.605625 
0.00365822 -0.00170076 0.00322644 
0.000854527 -0.00045015 -0.000899699 
0.00206863 -0.000818376 0.00630785 
-5.00993e-05 0.00860012 0.701068 
-1.00421e-05 -0.00324406 0.0116242 
0.00017699 0.0022467 0.347633 
-0.000188745 -0.000737401 0.000149551 
0.00174437 0.00588738 0.564073 
-0.000853552 -0.00119161 0.0122493 
-0.00643695 0.000697528 0.469324 
0.00214779 -0.00272599 0.545358 
0.00141407 -0.00204383 0.466355 
0.00211175 0.00123368 0.0118456 
-0.0017055 0.00238893 0.527505 
0.00268487 0.00229554 0.65993 
0.00397364 -0.00223785 0.551043 
0.00387722 -0.00436366 0.00162634 
-0.0037241 0.00666031 0.492694 
0.0088533 0.00403753 0.0116945 
-0.0128826 -0.00607142 0.523104 
-0.00161078 -0.00215449 1.02286 
0.000166707 -0.0062722 0.928238 
0.00250052 0.00490757 1.13997 
-0.000608351 0.00235468 1.17661 
0.0107158 -0.00492544 0.750637 
0.000881091 0.00125196 0.516221 
0.000838029 0.00954846 0.467315 
-0.000935685 0.0014487 0.472304 
-0.000451539 0.00205357 1.16384 
0.000812696 0.00446218 1.20825 
-0.0021049 0.000237688 0.985887 
-0.00107139 -0.00232661 1.03297 
0.000503495 0.00185344 0.682047 
-0.000243489 0.000429906 0.978875 
0.00306364 -0.00300229 0.704726 
0.00369269 0.0050957 0.511437 
-0.00356694 -0.000929678 1.07078 
0.00470471 -0.00556157 1.05118 
0.00141512 0.00132182 1.19665 
-0.00615799 0.00253849 1.15661 
-0.00239508 -3.38835e-05 0.766146 
-0.0035253 0.00735346 0.58571 
-0.000332967 -0.00324333 0.754108 
-0.00130007 0.000828599 0.532459 
-0.00616928 0.00912911 0.65274 
0.000520122 0.000815129 0.828383 
0.00102402 -0.00318975 0.970743 
0.00692795 -0.00572356 1.04559 
0.00543419 0.00901829 0.618339 
-0.00945646 0.00281343 0.995547 
-0.00322912 -0.00717282 0.768404 
0.00823697 -0.00387884 0.575543 
-0.000221625 -0.000461641 0.70087 
0.000429043 -0.00364054 0.984793 
-0.00528665 -0.000569837 0.639691 
-0.00118111 0.00282985 0.478547 
-0.00397308 -0.00261209 1.04957 
-0.0114454 -0.00407302 0.877238 
0.001479 0.00333163 1.0429 
0.0118899 0.00197868 1.16479 
-0.00470714 0.0082266 0.0254477 
0.00366647 -0.00576673 0.542988 
0.0025667 -0.00362585 0.697803 
0.000994345 -0.00174496 0.463674 
0.000491274 -0.00170253 0.70093 
-0.000775924 0.000333634 0.621212 
0.000854428 0.00115724 0.844079 
0.000990536 0.00144954 0.764589 
0.00163559 0.00589008 0.583579 
-0.00721431 -0.000180932 0.931283 
0.000714823 0.00261246 0.804175 
0.00047777 0.000395299 0.808149 
-0.00391476 0.000861325 0.772088 
-0.00118964 0.00194294 0.966206 
0.000915438 0.000512821 0.952301 
-0.00132488 -0.00239491 0.819981 
0.0137577 0.00722711 0.754802 
-0.00702439 0.00538766 0.44651 
-0.00846292 -0.0031695 0.556593 
0.00630537 -0.00514952 0.84531 
-0.00162507 -0.00757624 0.0133774 
-0.00288695 -1.82817e-06 0.390766 
0.00253758 0.000109158 0.330795 
0.00157931 0.00651124 0.534435 
0.00215141 0.00434915 1.14038 
0.000444457 -0.00443699 0.92364 
-0.000823944 -0.00331629 1.02938 
-0.00225746 0.0038103 0.927635 
-0.00139007 0.0027815 0.749794 
0.000565571 0.00382129 0.495084 
0.00507351 -0.00478919 0.588344 
-0.00246491 0.0039322 0.886832 
0.000151859 2.88599e-05 0.35301 
-0.00551607 -0.00630736 0.516425 
0.00215854 -9.13749e-05 0.00733881 
-0.00337973 -0.000540965 0.437101 
0.00126465 0.00372024 0.0090098 
0.00461319 -0.000337179 0.540252 
-0.000366412 -0.000682857 0.547591 
-0.00381222 0.000404436 0.413884 
-0.00123723 -0.00099001 1.00615 
0.00333051 -0.00124958 1.07757 
-0.00253814 0.000830887 1.16341 
-0.000778619 -0.00272065 1.19008 
0.00329721 -0.00337383 0.902606 
-0.00312656 0.00404745 0.758431 
0.0069748 -0.0019549 0.826322 
-0.00674827 0.00511387 0.88829 
0.000913388 -0.00344045 0.940706 
0.0026723 0.00037178 1.1024 
-0.00212795 0.000146579 0.968328 
0.00413639 0.000632165 1.1689 
-0.00422351 -0.00269539 0.698474 
-0.00272098 -0.00211938 0.514073 
-0.000458475 0.00134151 0.588971 
-0.00424274 -0.00342092 0.434261 
0.010843 0.00554848 0.820975 
0.00228301 -0.00622186 0.676621 
-0.000516292 0.00337755 0.532229 
-0.00772908 -0.00262003 0.447293 
-0.000806684 -0.000123354 0.00490679 
0.00188006 0.000373906 -0.00365279 
0.00101044 0.000344531 0.0109674 
-0.00316249 -0.00219043 0.475365 
-0.00112314 -0.000662494 0.00118319 
8.41549e-05 0.00542418 0.00248621 
0.000318301 -0.00278586 0.637458 
-0.000663679 -0.00115345 0.423765 
0.0030139 -0.00116356 0.684605 
-0.0017409 -0.000734483 0.964033 
-0.00238143 0.0017091 1.00103 
0.00141054 0.00313712 0.892174 
-0.00227975 -0.000366111 0.00977669 
-0.00270766 -0.000339303 0.00563849 
-0.000429061 1.90439e-05 -0.00365929 
0.00600321 -0.0028891 0.536564 
-0.000245536 0.000236691 -0.000641223 
7.54421e-05 -7.45615e-05 0.00325179 
-0.000161961 0.00015209 0.00629031 
-0.00658832 -0.0030842 0.683426 
-0.000546401 -0.000409138 0.00285252 
-0.00267703 -0.00189861 0.00523216 
-0.00128825 -0.00092367 0.00334463 
0.0105999 -0.0031501 0.631697 
-0.00210963 4.66941e-05 0.00668365 
0.000661708 0.00368102 0.00208267 
0.00542696 -0.00334839 0.590809 
0.00859138 0.00205867 0.478799 
-0.000333762 -0.000808671 0.0108364 
-0.000127171 -0.001057 0.00965405 
0.00118144 0.00579083 0.597693 
-0.000902355 0.00398049 0.526975 
-0.00321657 -0.00206749 0.811355 
-0.000276016 0.00156261 0.824269 
0.000895278 0.00068173 0.689478 
-0.00183065 -0.00172299 0.874166 
0.00130733 0.00323941 0.823902 
-0.00189899 -0.00381281 0.688388 
-0.000940716 -0.00276071 0.490561 
-0.00506254 -0.00141973 0.511875 
0.000669636 -0.000581273 0.0089299 
5.05982e-05 -5.03299e-05 -0.000118027 
-0.000162482 0.000120981 -0.00464841 
-0.00235089 -0.00440274 0.531586 
-0.00299755 -0.00197527 0.00840778 
0.000647098 0.000415628 -0.00262077 
6.9262e-05 0.000108615 0.00451032 
-0.00132513 -0.00114833 0.481202 
-0.000872578 -0.00117242 1.12658 
-0.00202644 -0.000945254 1.09182 
6.62557e-05 2.46763e-05 0.936504 
0.00180656 0.0022694 0.936736 
0.000524878 0.00323645 1.18262 
0.00326179 0.00102235 1.23509 
0.00181684 0.00581432 1.2047 
-0.00406667 -0.00718086 1.17801 
0.00214426 -0.00292412 1.04762 
-0.00173605 0.00261394 1.02238 
0.000399392 -0.00253599 0.864071 
-0.00764645 -0.00179965 1.1357 
-0.00646521 0.00321339 1.04105 
-0.00121328 -0.000670646 0.875923 
-0.00207535 -0.00261151 1.07704 
0.00279388 -0.00359662 0.861696 
-0.000468982 0.000672295 1.22973 
0.0012909 -0.00140249 1.24545 
-0.00251864 -0.00440201 1.25454 
-0.00233467 0.00242102 1.20726 
0.00107855 0.00331824 0.634422 
2.7031e-06 -0.0034713 0.539677 
0.00684386 -0.00525069 0.936842 
-0.00463719 0.00483987 0.47637 
-0.000427688 -0.000921849 0.932514 
0.00249884 0.0051224 1.05891 
-0.000304124 -0.00138509 0.898627 
0.000451323 0.00055868 0.826174 
0.0028335 -0.000214243 0.353872 
0.00596544 -0.000433861 0.00856584 
-0.00422184 0.000420227 0.34512 
-0.00937792 0.00212778 0.438425 
-0.0038684 0.00263686 0.00666985 
-0.00149091 0.00132108 0.629106 
-0.000498769 -0.00204207 0.00541313 
-0.0008934 -0.0036491 0.381042 
-0.000858622 0.00196552 1.03311 
0.00158414 -0.000145046 0.76449 
-0.000431352 -0.00634133 0.698623 
0.0021173 0.000207242 0.860736 
0.000364479 -0.00506885 0.38174 
0.00321228 0.000363067 0.633296 
0.000969287 0.00581563 0.801634 
-0.00135098 -0.00116577 0.463553 
-0.00301256 -0.00367054 0.46332 
0.0043332 -0.0047891 0.674832 
-0.0004278 0.00238882 0.706583 
-0.00376207 0.00290396 0.497525 
0.000334123 -0.00300478 0.708049 
-0.000383115 -0.000684156 0.800159 
0.00337579 0.00434053 0.636721 
-0.00189495 0.000566395 0.98632 
0.0100616 -0.00813863 0.814635 
0.00790094 0.00649307 0.539824 
-0.00783955 0.00908094 0.675501 
-0.00443468 -0.00571533 0.946914 
-0.00187139 0.00303041 0.766271 
0.00927161 -0.00142026 0.537038 
-0.011698 -0.00110396 1.04325 
0.00161078 0.00176455 0.754087 
-0.0012024 0.000118738 0.00109786 
-0.000572831 5.65673e-05 0.0156424 
0.00215005 -0.000212318 -0.00242394 
-0.000846443 0.00283629 0.561186 
-0.00695976 0.00214862 0.00770237 
0.000162762 0.00472881 0.00429424 
1.8437e-05 -0.00394356 0.431879 
0.0108938 -0.0051382 0.552577 
-0.00312796 0.00309855 0.715015 
-0.00364633 -0.00682463 1.04986 
0.000977747 1.92449e-05 0.931086 
-0.000647828 -0.000269473 0.870726 
0.00208969 -0.0024156 0.97871 
0.0001464 -0.0034308 1.17307 
-0.00305199 0.0015883 1.08334 
-0.00384541 0.00226628 1.01571 
-0.00575616 0.00354528 0.671052 
-0.00440909 -0.00120606 0.993322 
-0.00122553 0.00402715 0.891163 
-0.00602889 -0.00704477 0.900142 
3.45304e-05 9.15027e-05 0.938079 
0.00324223 0.00248676 0.714461 
-0.00450117 0.00180293 1.03337 
0.00345951 -0.00152302 0.755512 
0.00139742 0.00173158 0.0159166 
0.00407829 -0.00224667 0.0119414 
-0.00511032 -0.00405835 0.70342 
-0.00368156 0.00157789 0.469409 
0.000874318 -0.000810441 0.659049 
0.0023918 0.00182174 0.907439 
-0.0031107 -0.00315478 0.872182 
0.00267567 -0.00325243 0.982407 
-0.000368887 0.00372456 0.32924 
0.00153078 -0.00209835 0.0130297 
-0.000228349 -0.000361311 -0.000759965 
-0.00358652 0.00683693 0.576823 
0.000898252 0.000149262 0.440087 
-0.00128161 0.00266679 0.790298 
0.000699873 0.000257416 0.67038 
0.00206849 0.000884567 0.639478 
-0.00118482 0.000842592 0.000979742 
-0.00224139 -0.000915707 0.00382303 
0.00503596 -0.00242143 0.521512 
-0.000788274 0.00189392 0.430933 
-0.00528531 0.00143304 0.427918 
0.00107969 0.00367032 0.326839 
-0.00393525 -0.00970581 0.0149871 
0.00444786 0.00626106 0.464702 
-0.00285784 -0.00157752 0.801371 
-0.00923692 0.006804 0.937849 
0.00604295 0.00501966 0.581776 
0.00913413 -0.00492907 0.474717 
0.00273945 0.000384019 0.719621 
-0.000502036 0.0028649 0.627223 
-0.004592 -0.00437512 0.713162 
0.00265602 -0.00450202 0.981851 
-0.0017816 0.00150857 0.701424 
-0.00204107 0.00319146 0.502007 
0.00573578 -0.00434022 0.679021 
0.000865569 -0.00429304 0.965478 
-0.00471148 -0.000784652 0.944543 
-0.00120971 -0.00364158 1.12106 
0.00023165 0.00393829 0.963977 
0.000625709 -0.00158753 1.15299 
-0.00121806 -0.0025643 0.017637 
0.00253873 0.00284369 0.556915 
-0.00130804 -0.000746413 0.385209 
-0.000366542 0.00583322 0.539537 
-0.00804752 -0.00363787 0.0113242 
0.00487355 0.00937306 0.703903 
-0.00224777 -0.00503991 0.0109854 
0.00497696 0.00482832 0.436762 
1.04985e-05 -1.97548e-06 0.000398691 
0.000226901 -0.00010318 0.00409828 
0.000347039 -0.000249544 -0.000584852 
0.00150726 0.0033947 0.545911 
-0.00123162 -0.00374404 1.11675 
0.00220376 0.0010202 0.899902 
-0.00166057 -0.000334362 0.959708 
0.00319201 -0.00311492 0.819624 
-0.00555875 -0.00173152 0.830507 
-0.00296377 -0.00518375 0.928014 
0.0123863 -0.000689831 0.645289 
0.0010982 0.00560411 0.539071 
-0.00212499 0.00172112 0.708165 
0.00267036 0.00184814 0.563141 
-0.000874842 0.00103973 0.661876 
0.0022773 -0.000457959 0.945017 
-0.00616485 -0.0115789 0.0215513 
0.00675992 0.0125263 0.69652 
0.000754993 -0.0023884 0.512152 
0.00432032 0.00373133 0.438973 
-0.000726824 -0.00030533 0.942659 
-0.000249323 -0.000423761 0.939182 
-0.00172977 -0.000806445 1.09339 
0.00220511 0.0027494 0.934601 
-0.00215084 -0.00601231 0.991879 
0.00549361 0.00174652 0.656327 
0.00239025 -0.00202073 0.550825 
0.00025442 0.00421604 0.740893 
0.00139861 -0.00248412 1.08084 
4.68571e-05 0.00148352 1.20175 
-0.000603097 0.00502126 1.04965 
0.000121393 -0.00258583 1.06095 
-0.00286201 0.00134196 0.597665 
-0.00149918 0.000632022 0.534694 
-0.00231479 -0.0017066 0.694047 
-0.000199384 -0.000411507 0.554091 
0.00113749 -0.00131169 0.540137 
-0.00554334 0.000442461 0.489584 
-0.00184768 0.00191407 0.0111238 
0.00173602 -0.00384291 0.474272 
0.000646858 -0.00101535 0.00606712 
-0.0025032 0.00560842 0.00847488 
0.00148172 -0.00283248 0.00425631 
0.000906024 0.000121497 0.685723 
-0.00232495 -0.00076725 0.928816 
0.00137218 0.000305556 0.643326 
0.00264851 0.00400196 0.730188 
-0.00144627 0.00190342 0.946349 
-0.00300361 -0.000813387 0.80473 
0.00155013 -0.000664441 0.436611 
-0.000566275 0.000569334 0.557226 
0.00221934 0.00251451 0.443232 
-3.16442e-05 0.00171664 1.16875 
-0.00135966 0.00468889 1.20594 
0.00327586 -0.00300831 1.0337 
-0.00186368 -0.00345813 1.18075 
-0.00327784 -0.00126575 0.584187 
-0.00465997 -0.00635722 0.503045 
0.00588531 -0.000664081 0.00831071 
-0.000199212 0.0044155 0.553065 
0.00355148 -0.00221566 0.556312 
0.000646132 0.00293087 0.530168 
-0.000864182 -0.00260556 0.00950046 
-0.00254023 0.00284771 0.450742 
-0.000954241 0.00302428 1.23275 
-0.000847719 -0.000308884 1.25714 
0.000921524 -0.00284261 1.20323 
-0.00379898 -0.000888743 1.20529 
0.00533251 -0.0023901 1.03 
-0.00439617 -0.000583248 0.865783 
0.00338203 0.000207163 1.07735 
-0.000145206 -0.00650185 1.15721 
-0.00254794 -0.00108759 0.00308626 
0.00907046 0.00357236 0.544307 
-0.00389102 0.00531265 0.00768597 
0.0014746 -0.003142 0.414188 
0.00214821 -0.00636715 0.0104916 
-0.00902532 0.00425891 0.699509 
0.0119062 -0.0039661 0.0137021 
-0.00378003 0.0083648 0.56373 
0.00144344 -0.00279134 0.389416 
0.00292131 -0.000422442 0.704185 
0.00160027 -0.00015966 0.67071 
0.0024729 0.00169765 0.80038 
0.00168493 -6.34866e-05 0.699451 
-0.000521631 -0.000793718 0.755093 
-0.00120982 0.00429055 0.778632 
-0.00272373 0.00156479 0.460621 
-0.00266997 0.0010029 0.503151 
-0.00591059 0.00137878 0.88296 
0.000241992 -0.000900801 0.60738 
0.00255487 -0.00197427 0.422949 
-0.00307335 -0.000520158 0.686697 
0.000138903 0.00111622 0.608343 
0.00172951 0.000510442 0.425905 
-0.00618561 -0.001846 0.781725 
-0.000363998 0.00131641 1.12955 
-0.00239967 0.00272988 1.04255 
0.00015332 -0.000153666 1.03065 
-0.00124461 -0.00112349 1.1665 
0.000900451 -0.00174564 0.016106 
0.00268126 2.49221e-05 0.659356 
-0.00125929 0.000776536 0.0149737 
-0.000768003 0.00352029 0.482186 
0.000165375 0.000245329 0.937713 
0.00138042 -0.00191911 0.934309 
-0.00184302 -0.000495758 0.720664 
-0.00441302 -0.00116985 1.04021 
-0.00554198 0.00205161 1.03147 
-0.000167207 0.010706 1.17229 
0.00583971 -0.00186112 1.14506 
-0.000854215 -0.00929143 0.979208 
-0.00216606 -0.00566225 1.0375 
-0.000604758 0.0029057 1.03709 
0.00403534 0.00479624 0.750791 
0.00117462 -0.00348968 0.92194 
-0.00429648 0.00466381 0.594959 
0.00056903 -0.00235669 0.487093 
-0.00385586 -0.00046574 0.466379 
0.00534644 0.00239924 0.872491 
0.000732527 0.00266946 0.741893 
0.00217687 0.00318956 0.920338 
-0.00039883 -0.00173585 0.817561 
-0.000685465 0.000456393 0.926205 
0.00301894 -0.00179236 0.0093458 
-0.00314249 -0.00122458 0.484727 
-0.000557934 0.000727465 0.521318 
-0.000107969 0.00660561 0.468874 
-0.00276245 0.00268797 0.710063 
-0.00110209 -0.00184178 0.630109 
0.000625067 -0.00239604 0.460048 
0.00133647 0.00109293 0.471403 
-0.00138736 0.000582936 0.699028 
-0.00273695 -0.00230909 0.831971 
-0.00178871 0.00324149 0.496792 
0.000624394 -0.00449933 0.971371 
-0.000665338 -0.00393312 1.03182 
0.000830129 0.00267851 0.805183 
-0.00374146 -0.000592961 0.923315 
0.000455526 0.000551486 0.810652 
0.000962358 0.00474837 0.0100089 
0.000650473 -0.00169509 -0.00310259 
-0.00193849 -0.0025066 0.383108 
-0.00343823 -0.00679224 0.476393 
-0.000820717 0.00833107 1.25674 
0.000145805 -0.00826654 1.08764 
-0.0045635 0.000833188 1.16845 
0.00459957 -0.00210287 1.14953 
0.00102724 0.00241024 0.979226 
-0.00017159 -0.00425688 0.880866 
-8.58584e-05 -0.00351686 0.83725 
-0.00132347 0.00460506 0.782884 
-0.00161857 -0.00246968 0.706399 
-0.00286451 0.00470226 0.67527 
-0.00348541 -0.00675272 0.381311 
0.00531068 -0.00438868 0.55556 
0.00846485 0.00357375 0.703419 
-7.65454e-05 0.0141331 0.883628 
-0.00881614 -0.00722196 1.03732 
-0.00203761 -0.00922926 0.77854 
-0.00163547 -0.00171251 1.0048 
8.74941e-05 -0.00247055 0.872099 
-0.000269441 0.00247816 1.07812 
-0.00140086 -0.00252167 0.981084 
0.00106067 -0.00277399 0.00812533 
0.00359965 0.00653907 0.510651 
-0.000392246 -4.53652e-05 -3.30417e-05 
-0.00278609 0.00401608 0.475969 
0.00460788 0.00439516 0.00773217 
-0.00298853 0.00309089 0.00227364 
0.00460507 -0.00401171 0.467322 
-0.00832559 -0.00670986 0.494144 
0.00346966 -0.00386371 0.382195 
-0.000404006 0.000954965 0.676471 
0.004437 -0.00172199 0.711541 
-0.000720972 0.001659 0.503412 
0.000549238 0.00115445 0.938575 
-0.00180645 -0.00116707 1.02218 
0.00215721 0.00126389 1.057 
-0.00193956 0.00147705 1.05673 
0.00839557 0.00250914 0.681773 
-0.00163839 0.000265256 0.910832 
0.00532555 -0.00475301 1.05685 
0.00298224 0.00287515 0.963787 
-0.00201092 -0.00295744 0.707299 
0.00223433 -0.000218928 0.455317 
9.03235e-05 -0.0018282 0.381927 
0.00441159 0.00655379 0.565431 
-0.00189777 0.000169731 0.00292018 
-0.000498857 5.02795e-05 0.00239245 
-0.000498339 4.75778e-05 0.00162981 
0.00740508 0.0017739 0.527024 
0.00114086 0.0015571 1.08662 
-0.00225288 0.00088439 1.07807 
0.00322952 -0.000663842 0.909424 
0.00172743 -0.000778543 0.979419 
7.33819e-05 0.000899517 0.00290609 
-0.000150318 -0.0018426 0.00259286 
-8.81674e-05 -0.00108076 0.00206893 
0.00175169 -6.08596e-05 0.680097 
-0.00200141 -0.000534178 0.715427 
-0.000769875 -0.00169184 0.937256 
0.00344442 -0.00119835 0.721261 
0.000751785 -0.000782989 0.813463 
-0.00378834 0.00169047 0.813029 
-0.00118188 0.00470261 0.552083 
-0.0020302 -0.00140249 0.674311 
0.00250856 -0.000626021 0.515381 
-0.00174457 -0.000927823 0.593537 
0.00251229 -0.00206379 0.473204 
0.00276499 -5.80602e-05 0.664303 
-0.00200968 0.00073675 0.5346 
0.000563482 0.00242178 1.18146 
-0.00298587 0.00475601 1.20434 
0.000733858 -0.00180631 1.08148 
0.00314112 -0.0052922 1.0573 
0.00395713 -0.00876524 0.00431156 
-0.00474863 -0.00199134 0.382767 
-0.00762883 0.0111112 0.630525 
0.00535134 0.00702948 0.397372 
-0.00641806 -0.000853368 0.0081395 
0.00161226 0.000667465 0.529848 
0.00167484 -0.0138517 0.0088846 
-0.0015003 0.0163868 0.485944 
0.00266926 0.00525751 0.0139188 
-0.00576246 -0.00370134 0.666152 
0.00180412 -0.00567879 0.535553 
-0.007495 0.00285567 0.521496 
-0.00140792 -0.000635538 0.741187 
0.000914941 -0.0012751 0.648817 
-0.00492705 -0.000135611 0.893666 
0.00198715 6.15855e-05 0.501936 
-0.00405286 0.000494694 0.515718 
0.00117961 -0.000708346 0.426068 
-0.000778521 -0.00420719 0.619726 
-4.13765e-05 0.00225387 0.386034 
-0.00407497 -0.00542208 0.00534513 
-0.00703297 -0.00592656 0.0101575 
0.00215284 0.0128501 0.627918 
0.00552537 0.00314011 0.429047 
-0.000466328 -0.00051118 0.00186895 
-0.000472459 -6.00562e-05 0.00235488 
0.00536324 -6.89015e-05 0.473678 
0.00397721 0.00676234 0.474474 
-0.00082629 -0.00112063 -0.00204418 
0.00196661 0.00266936 0.00463442 
0.000144974 0.00013938 0.00633869 
-0.00239716 0.000628097 0.52874 
0.0109479 -0.00111797 0.681935 
-0.000359864 -0.0173278 0.499914 
-0.00858806 -0.00104465 0.835739 
0.000803844 0.0126285 0.96783 
0.00685525 -0.00471375 1.25639 
-0.00843084 0.00491149 1.11871 
-0.00118006 -0.00685809 1.1905 
0.00235077 0.00464275 1.20297 
0.00209356 -0.000491414 -0.000370899 
-0.00265079 0.000732749 0.0115223 
-0.00141526 0.000332086 0.000239371 
-0.0014529 -0.00167425 0.522775 
-0.000528331 0.00114876 1.11227 
5.58984e-05 0.000174735 0.944265 
0.00247761 0.000505863 0.940969 
-0.000108515 0.000558719 1.04061 
-0.00208626 -0.0034469 1.14509 
0.000335884 0.00214462 0.959986 
-0.000589297 -0.00144277 1.07063 
-0.000619511 0.00139904 1.14937 
-0.0022736 -0.00327546 0.992407 
-0.00128387 0.00294717 0.551701 
-0.00277072 0.00188819 0.591701 
-8.2171e-05 -0.00260789 0.739559 
0.000137879 -0.00129625 0.6293 
4.22554e-06 0.00267172 0.407465 
-0.000338589 0.000529225 0.314245 
-0.00133201 0.00114945 0.565734 
0.00150009 -0.00196828 0.00579195 
-0.00838818 -0.00766775 0.468844 
-0.00311414 0.00202222 0.576594 
0.00371366 0.00864467 0.392571 
0.00808613 0.0046672 0.0165692 
0.00167199 -0.00897553 0.553237 
-0.00514255 -0.00242115 0.688544 
-0.00722326 0.00732992 0.565972 
-0.00171522 -0.000604081 0.987188 
0.000958964 0.00550477 0.902834 
-0.00162242 -0.000153331 0.963159 
-0.00324298 0.000717818 1.10285 
0.00279975 -0.000803558 0.470393 
0.000191123 0.00260508 0.473476 
0.000740201 -0.00206163 0.45081 
3.37033e-07 0.00360632 0.838095 
0.00176241 -0.00330814 0.929832 
-0.00521799 0.00406318 1.04966 
-0.0044079 -0.00355368 0.719378 
-0.00222286 -0.00102 0.868909 
-0.0127164 -0.00523384 0.675695 
0.009204 0.00740774 0.810404 
0.00703084 -0.00463911 0.519805 
-0.0102576 0.00404963 0.898337 
0.00100844 -0.00084201 0.637382 
-0.00137386 0.00129738 0.572442 
0.0010871 -0.00160907 0.759178 
-0.000933889 0.00205985 0.496456 
0.00263937 0.000705738 1.09731 
-0.00326629 -0.00263579 0.990534 
0.00366334 -0.000109918 1.0217 
0.000151857 -0.00178955 1.16416 
0.000828224 -0.000359371 0.695734 
-0.000500988 -0.00107669 0.877611 
-0.00556996 0.00286198 1.04428 
0.000181285 -0.0016305 0.858829 
0.00122679 0.00229729 0.710847 
-0.0030028 -0.00185456 0.495263 
0.0051561 -0.00324521 0.829264 
-0.00352804 0.00122263 0.470942 
-0.00197534 -0.00767809 1.02976 
0.00129012 0.00358274 1.16688 
-0.00684435 0.00263705 1.0432 
0.00854486 -0.00443688 1.15093 
-0.0018137 0.000818538 0.939025 
-0.000955201 -0.00256558 0.940398 
-0.000459843 0.00450656 1.12993 
-0.00203042 -0.0027352 0.957635 
0.00270849 -0.00783347 1.25136 
-0.000219339 -0.00179516 1.17231 
-0.00288346 0.00726599 1.08055 
0.00288091 0.00483724 1.11036 
0.00183096 0.00440667 1.03914 
-0.00566696 -0.00238628 0.975849 
0.00129569 -0.00150906 1.19643 
-0.000480975 0.000576015 1.06668 
0.00505218 -0.0128106 1.17262 
-3.47902e-05 0.005464 0.998399 
-0.0034279 0.0152174 1.1195 
-0.00468193 -0.00466866 1.20459 
-0.000251772 0.00046458 1.18711 
-0.000212077 0.000439992 1.09737 
-0.00156112 -0.00190564 1.07488 
-0.000349541 -0.00159974 1.12989 
0.00127137 0.000243362 1.13502 
0.00110086 0.000419904 1.2407 
-0.00101975 -5.19833e-05 1.13713 
-0.00102466 0.000370258 1.17471 
5.17086e-05 -0.00237352 0.459786 
5.60939e-05 0.00184584 0.75284 
0.0012499 0.0041627 0.471901 
-0.00243412 -0.00221932 0.392999 
0.00525378 -0.00247368 0.00874475 
0.00151194 0.00379236 0.468618 
-0.00461564 0.0047363 0.637256 
0.000563772 0.00062683 0.471611 
-0.000303 0.00114309 0.825193 
0.000391806 0.0003475 0.820791 
-6.30946e-05 -0.0023191 0.492977 
-0.00188328 -0.00164095 0.6788 
-0.000542591 -0.00308493 0.812361 
2.12209e-05 0.00373513 1.02919 
-0.000595246 0.00150989 0.824887 
-0.00513754 -0.00133806 0.876623 
0.000103086 -0.00122886 -0.00298769 
9.51577e-05 -0.00113434 0.00802905 
1.60719e-05 -0.000191586 0.00818273 
-0.000799382 0.00354411 0.487734 
0.000489221 -0.00256707 0.465864 
0.00251901 0.00627675 0.470618 
-0.00234425 0.00106868 0.00530093 
-0.00344624 -0.00367319 0.392382 
-2.43377e-05 3.07209e-05 0.00341674 
0.00234798 0.00348342 0.00584578 
0.0011516 0.00169574 0.00220351 
-0.00614852 -0.00237259 0.586845 
-0.000615113 0.00730334 0.0187062 
-0.00549323 0.00498333 0.0091811 
0.0104811 -0.00290442 0.676232 
0.00115091 -0.00813092 0.460568 
-0.000413239 0.000499311 0.706615 
0.00234281 0.00371935 0.380529 
-9.83455e-05 0.0019166 0.652269 
0.00390603 -0.000201052 0.569283 
-0.00341862 0.00285589 0.937211 
-0.00195604 0.00260699 0.952764 
0.00352936 0.00362096 0.716982 
0.00746328 -0.00653669 0.845207 
0.00418956 -0.00136085 0.938672 
-0.00360845 -7.65996e-05 0.717417 
-0.00280582 -0.00431229 0.71385 
0.00530977 -0.00212766 0.980554 
0.000975527 -0.00415652 0.806334 
-0.00543127 -0.0033053 0.972584 
0.00341009 0.0038408 1.03534 
-0.000366566 0.00259852 1.07308 
0.00076025 -0.00250731 0.487903 
-0.00291988 -0.00289657 0.686844 
-7.72743e-05 0.00210712 0.821849 
0.00053541 -0.00123641 0.469267 
-0.000376782 0.000701454 0.51819 
-0.00259127 0.000692063 0.486314 
-0.00283129 0.000312953 0.767495 
-6.38898e-05 0.00645291 0.467298 
-0.00235386 -0.00367018 0.0181549 
-0.000128717 0.00289856 0.549066 
0.00110629 0.0026717 0.66994 
0.0034849 0.00136785 0.451119 
-0.00228794 -0.00529431 0.0151463 
0.000728156 0.00283614 0.326076 
0.00128961 -0.000351909 -0.00341881 
0.00380074 0.0043717 0.465703 
-0.00257762 -0.00168103 1.17918 
0.00316182 -0.00403781 1.17332 
-0.00183748 0.00326907 1.24367 
-0.0016458 0.00137474 1.25663 
0.00186881 -0.00257954 0.898878 
-3.68016e-07 -0.000838558 0.771943 
-0.00147883 0.00430775 0.628374 
0.00352951 0.000692163 0.816087 
0.000148956 0.00200985 1.18917 
-0.00264386 -0.00164829 1.06901 
0.00264518 -0.00140135 1.10321 
0.00343508 0.00249464 1.163 
0.00349099 0.00593896 0.00305429 
-0.00045751 -6.7573e-05 0.465276 
-0.0018375 0.0029122 0.00539389 
-0.00493872 -0.00886026 0.485082 
-0.000522634 -0.00133366 0.00142414 
-0.000155517 0.00159534 0.347892 
-0.000547992 -0.0019745 0.00939671 
0.00203601 0.00639701 0.562764 
0.000264091 -0.00019903 0.00449222 
-0.000386772 -0.00207283 0.00402339 
0.00140297 0.00225537 0.482714 
0.00214919 0.00188873 0.468978 
-0.0038196 0.0053039 0.00757371 
-0.00508272 -0.00429254 0.463364 
0.0030731 0.00328168 0.00273427 
0.00632968 -0.00616815 0.484705 
0.000935429 -0.00103675 0.0114325 
-0.000836206 0.00122757 0.001718 
-8.35334e-05 0.000126632 0.000330487 
-0.0010012 0.00303107 0.521779 
-0.000744168 0.000411748 0.00193815 
0.00219295 -0.0019161 0.00986795 
0.000595475 -0.000300617 -0.00219067 
-0.00101425 0.00290366 0.561158 
-0.00254863 -0.00660985 0.83274 
0.00204146 0.000394587 0.508655 
-0.00157376 -0.000427798 0.625793 
0.00436366 0.00427603 0.493233 
-0.00226567 0.000242461 0.0133234 
1.80948e-05 0.000192653 0.554011 
-0.00135635 0.00215602 0.0132535 
0.00277928 -0.000431301 0.568015 
-0.000804534 -0.000355339 0.00117334 
-0.000560029 -0.000274321 0.00352978 
-0.00286905 -0.00129845 0.00733018 
0.00367118 -0.00364299 0.651468 
-0.00037478 -0.00370908 0.711401 
0.00130965 0.00209629 0.839135 
-0.000355706 0.000943499 0.617893 
-0.000170745 0.00449916 0.399687 
0.00338491 0.00307997 0.00710366 
-0.00496037 -0.00077048 0.58716 
-0.00410368 -0.00103928 0.505499 
-0.00414237 0.00421365 0.417125 
-0.00042709 -0.00160017 0.744065 
-0.00382312 0.000716656 0.887028 
0.00371084 0.00229974 1.0241 
0.00498135 -0.00091025 0.828265 
0.00566989 -0.00934382 0.751873 
-0.00865555 0.0135555 0.672635 
-0.00649973 -0.00164901 0.515128 
0.00803021 0.00149973 0.883835 
0.00124338 0.00196457 0.00705175 
-0.000886759 -0.00115101 0.010741 
-0.00134382 -0.00203197 -0.00186498 
0.00264254 0.00097776 0.591658 
0.00192303 -0.000550037 0.813956 
-0.00284901 -0.00310918 0.469344 
-0.00528658 0.00131787 0.698415 
0.00105142 -0.00272896 0.778109 
0.00334136 0.0141867 0.642821 
0.0106558 0.000720175 0.800512 
-0.00179287 -0.00866308 1.03276 
-0.0141053 -0.00291745 0.984734 
-0.000478104 0.00765764 0.747599 
-0.00247127 -0.00564624 1.03533 
-0.00268502 -0.000930928 0.916534 
0.00793156 0.00255446 0.927188 
0.00116346 -0.0032198 0.456622 
0.00310094 -0.0042663 0.377071 
0.00290471 0.00990908 0.00870111 
-0.00109614 -0.00699525 0.55419 
0.00185658 -0.000970013 0.00620978 
0.00223573 -0.00106035 0.000436676 
-0.00110547 0.000505278 0.00102654 
0.00100205 0.0039355 0.701552 
-0.00551061 0.00807116 1.0299 
-0.00318296 0.000252279 0.936758 
0.0062628 0.000303989 0.664383 
0.000439131 9.01128e-05 0.765439 
-0.000232151 4.05539e-05 1.18591 
0.00271511 0.000231943 1.07247 
0.000578416 0.00538539 1.16755 
-0.000624806 -0.00347941 1.19133 
0.00281115 -0.000262873 0.931671 
0.000376715 -0.00111127 0.762465 
-0.00634299 0.00215733 1.03657 
-0.00337097 -0.00275951 1.05539 
-0.0129783 0.000768277 0.00756697 
-0.00164394 -0.0117885 0.517005 
0.00375231 0.0125389 0.0147034 
0.00978387 0.00109575 0.436613 
0.00120284 0.00247897 1.08905 
-7.83058e-05 0.000590205 1.11685 
0.00153224 -0.000274799 1.04103 
-0.00296548 -0.000722822 1.19788 
0.00286281 -0.00226579 1.17475 
-0.00260504 -0.0115164 1.20754 
-0.0039831 0.000424048 1.24564 
0.00388434 0.0112578 1.17671 
0.00117699 -0.00296848 0.862885 
-0.000545858 0.0010889 0.740899 
-0.000500651 -0.00134939 0.652413 
-0.00368706 0.000583959 0.891258 
0.00156761 -0.00400948 1.00109 
0.00276958 0.00140238 0.946741 
-0.000813055 0.000919028 1.16694 
0.00126779 0.00291623 1.02321 
0.000371045 7.05594e-05 0.00714635 
-0.00178993 -0.000504566 0.00633341 
-0.00285646 -0.000760509 -0.00100359 
0.00723621 0.003542 0.479371 
0.0033784 0.00491974 0.742816 
-0.00149533 -0.000184634 0.923958 
-0.000719694 -0.00205626 0.819404 
0.000129261 -0.00156376 0.542268 
-0.00594157 0.00034142 0.710755 
0.0016331 -0.00213536 0.820678 
0.00412923 -0.00128225 0.721709 
-0.000108892 0.00389424 0.492849 
5.77752e-05 -0.00126956 0.000407965 
-0.00456376 0.00168141 0.0115989 
0.00276543 -0.00289203 0.54962 
0.00123355 -0.00146479 0.472168 
-0.00258097 -0.00412892 0.80627 
0.00371534 -0.006162 0.954049 
0.00289201 0.00579348 1.03119 
-0.00754391 0.0110078 0.842532 
-0.00203012 -0.00122816 0.374788 
0.00115054 0.000647953 0.00259301 
0.00121168 0.0011995 0.005391 
-0.00163542 -0.00485521 0.475031 
0.00491794 0.000662838 0.00498263 
-0.00287204 0.00916231 0.00853593 
0.000642946 0.000251234 0.529718 
0.00189303 -0.00984462 0.486108 
0.000143157 -0.00359076 0.805291 
0.000168131 0.00512603 0.55011 
0.00312877 -0.00243687 0.666824 
-0.00128132 -0.000162946 0.513137 
-0.00362581 0.0124024 1.03344 
-0.0128465 0.00222388 0.822093 
0.00134801 -0.0126725 0.590103 
0.0155678 0.00062897 0.889329 
-0.000260666 0.00219488 0.888214 
-0.00137837 0.0044117 0.98824 
0.00203034 -0.00569329 0.706298 
0.0041257 0.000561513 0.874729 
0.00252982 0.00547021 0.000248183 
0.00896794 -0.00543995 0.0120101 
-0.00374324 -0.00527347 0.498408 
-0.00659089 0.000711699 0.454734 
-0.00397834 0.00027813 0.343728 
0.00540156 -5.12564e-05 0.0128414 
-0.00127715 -0.00141239 -0.00412183 
-0.00796388 0.00168639 0.43788 
-0.00171429 -0.00262087 1.07493 
-0.000193754 -1.17173e-05 1.18634 
-0.000903227 0.000358234 1.13464 
0.0016388 -0.00106185 1.15187 
-0.00143825 -0.00378843 0.73812 
-0.00616929 -0.00157209 0.589145 
-0.00211162 -0.00167643 1.02685 
0.00632056 -0.00178885 0.884505 
-0.00103574 0.00486285 1.21107 
0.00265072 -0.000796503 1.05875 
0.000594206 -0.00122976 1.13393 
-0.00290169 -7.09912e-05 1.1792 
-0.00546211 0.00248789 1.03632 
0.00331613 -0.000218391 0.947331 
-0.000843571 -0.00394431 0.805778 
0.00314584 0.00408244 1.03213 
0.00225469 -0.00123674 0.436703 
0.000968427 0.000234046 0.325303 
-0.00153012 -0.000773346 0.641475 
0.00107406 0.0019469 0.525405 
-0.00488537 0.00237475 0.937613 
-0.00236365 -0.00211644 0.539862 
0.00285008 0.0037411 0.57239 
0.00624031 -0.00165761 0.475562 
0.0010521 0.00247632 1.09338 
-0.00195997 -0.00377325 0.936117 
-0.001619 -0.0012527 1.07652 
-0.00250157 6.45613e-05 0.975858 
-0.000992551 -0.00274973 0.0098695 
-0.00412315 0.00399831 0.535531 
-0.000439108 -0.000335894 -0.00159112 
0.00602838 -0.00194567 0.554615 
0.00268978 -0.000699768 0.000616915 
-0.00275381 0.000764603 0.0101724 
0.000180751 -2.87186e-05 0.0041464 
-0.00196257 0.000695717 0.529452 
0.0051697 0.00417461 0.0209302 
-0.00451383 0.00164543 0.555433 
0.0006233 -0.00123114 0.53725 
-0.000653142 -0.000745822 0.401445 
-0.00180053 -0.00709364 0.547205 
-0.000730881 0.000929219 0.513951 
-0.00198163 -0.00266289 0.655324 
-0.00039184 0.00846475 0.894466 
-0.00480696 -0.000623502 1.21938 
0.000523306 0.00717128 1.2607 
-0.00132014 -0.000198704 1.24018 
0.0025317 -0.00596282 1.19795 
-0.000359153 0.00265069 0.00400839 
0.00107804 -0.000173308 0.430603 
-0.00346329 0.000794821 0.517584 
-0.000582855 0.00230088 0.386991 
0.000680921 0.00644316 0.382902 
0.00339643 0.000261501 0.559572 
-0.000743835 0.00048016 0.66891 
-0.00405786 0.00246417 0.815175 
0.00526049 -0.00209561 0.67662 
-0.000966632 0.00014483 0.562859 
-0.00156517 0.000984262 0.657131 
0.00167809 0.000151716 0.452603 
0.000464986 0.00371459 0.666252 
0.00361599 -0.01069 0.818735 
0.00426416 0.000880231 0.914063 
-0.000710271 0.00632709 0.538506 
-0.000490576 -0.000724008 -0.00295164 
-0.000281453 -0.000413069 0.00143809 
-0.001059 -0.00155086 0.00997548 
-0.00365808 0.00753689 0.589789 
0.00207322 -0.000976725 0.712803 
0.00247076 -0.00109944 0.94048 
-0.000489162 0.000361672 0.937645 
0.000932061 0.00214908 0.940637 
0.00409583 0.00371877 0.723757 
-0.00360111 0.000477537 0.703266 
0.00338389 0.0015906 0.477 
-0.00625815 0.00343509 0.884842 
-0.00100613 0.00491693 0.0200188 
-0.00152361 -0.00116183 0.515317 
-0.00234718 -0.00490061 0.658792 
0.00120708 2.58759e-05 0.479781 
0.00334646 0.00112255 0.00135641 
0.00332884 -0.00358309 0.00543675 
-0.00745383 -0.000662949 0.556423 
-0.00375661 0.00341932 0.414228 
-0.00129147 0.000423587 0.585123 
0.00308745 0.000358569 0.528745 
0.000420496 0.00362062 0.751125 
0.00252549 0.00341985 0.490174 
-0.00643309 0.00562816 0.00926209 
0.00325185 0.0113963 0.0049905 
-0.000204073 -0.0181432 0.684548 
0.00340634 -0.00537022 0.449189 
-0.00190964 4.54649e-05 1.19744 
-0.00267055 -0.00118861 1.12036 
0.00139636 0.0015193 1.1067 
-0.000439546 0.00264735 1.15112 
-0.00575185 0.00129169 1.25076 
0.000725024 -0.00101398 1.10518 
0.00621629 0.00658474 1.08682 
5.78797e-05 -0.00898492 1.1676 
-0.00197229 -0.00299584 0.00960882 
0.00250185 -0.000181946 0.00186022 
-0.00278572 -0.000295524 0.55691 
0.00575945 0.00386833 0.452449 
-0.00215349 0.00282266 0.00889681 
0.00154214 -0.000444899 0.32815 
-0.00165182 -0.00113263 0.00267494 
0.00492061 0.00239787 0.545032 
0.000957659 -2.07694e-05 0.579863 
-0.001934 0.00118201 0.825273 
-0.0028038 -0.000132453 0.494659 
-0.000140794 -0.00262417 0.506034 
0.000517247 -0.0027178 1.2258 
0.00424052 0.00462234 1.06547 
-0.00304332 -0.00111899 1.16413 
-0.00212182 0.00140555 1.105 
0.00242221 0.00282911 0.620755 
-0.00177296 -0.0042233 0.463972 
-0.00247424 -0.000200871 0.0116766 
-0.00213826 0.00574404 0.41957 
-0.00286472 -0.0013782 0.724019 
0.000768257 -0.00168165 0.713676 
-0.000241649 -0.00153187 0.458588 
0.00159085 0.00120714 0.615208 
0.000681099 -0.000851787 0.2775 
-0.00169778 -0.000978871 0.00426851 
0.00236702 0.00509973 0.498622 
-0.00305933 0.00368867 0.451841 
-0.00138606 0.000373757 1.16528 
0.00297914 0.00175266 0.952895 
0.00033099 5.50025e-05 1.03716 
0.000985428 0.00271401 1.02483 
-0.000293238 0.000207089 0.00178533 
0.000623125 -0.000436902 0.00262605 
8.20974e-05 -5.53397e-05 0.0048642 
-0.00650753 -0.00304196 0.678296 
-0.0023942 -4.76788e-05 0.288603 
-0.000348083 0.000565291 0.558282 
0.00127162 -0.000723893 0.436751 
0.00255878 0.00270544 0.440336 
-0.0100585 -0.00181678 0.642605 
0.000230113 0.0140535 0.985423 
0.00747104 0.00152121 0.830281 
-0.00142718 -0.0150821 0.478186 
-0.00162531 0.000385871 0.984991 
-0.00147737 -0.00329639 1.1043 
0.00211222 0.00361114 1.054 
0.00208858 -0.00263239 1.16208 
-0.000405467 -0.000556892 0.000852517 
0.00077431 0.00106109 0.00214117 
-0.000581031 -0.000803239 0.0094555 
0.000489951 0.000322321 0.485877 
-0.000778313 0.00183735 1.24573 
0.00147278 -0.00175776 1.16867 
0.00200876 0.000154632 1.14045 
-0.002003 0.00186219 1.25798 
0.00284791 -0.00498197 0.835356 
-0.00615343 -0.00494569 0.489521 
0.00824177 0.00700672 0.629525 
-0.00355789 0.0076825 0.399105 
-0.00713726 -0.0035183 0.0120412 
0.000931896 0.00245823 0.349359 
0.000165962 -0.00296536 0.391787 
0.00483657 0.00502015 0.555275 
0.00195104 -0.00075363 0.614846 
0.00568909 -0.000572111 0.708986 
-0.000934214 -0.00295097 0.463306 
-0.00475903 0.00406636 0.426686 
-0.000218962 0.000297026 0.708147 
0.00119973 -0.00435646 0.649106 
0.00373315 0.0016233 0.463583 
-0.000560649 -0.00152018 0.50681 
-0.00528862 0.000438771 0.714014 
1.12903e-05 -0.0021792 0.464797 
0.00220185 -0.000615306 0.452754 
0.00344178 0.00755834 0.841926 
0.000649509 -0.00231196 0.705808 
-0.000811427 0.000397941 0.620525 
0.000412574 0.00201357 0.756124 
-0.0019619 0.00223821 0.38606 
-0.00471338 -0.00203943 1.14669 
0.00383042 0.00374046 1.1668 
-0.000493802 0.00372857 1.03179 
0.000489457 -0.000448742 1.16849 
-0.00292586 0.0017152 1.17711 
-0.000390991 0.00550668 1.20425 
-0.00111789 -0.00524427 1.17618 
0.00283176 -0.00187293 1.25662 
-0.00205571 0.00124917 0.510116 
0.00583883 0.00171872 0.483006 
0.00339481 -0.00271386 0.00953142 
-0.00462098 0.00218512 0.40242 
0.00174886 0.00206796 0.45226 
-0.00061159 0.00435873 0.723233 
0.000533513 -0.00520279 0.716459 
0.00271275 -0.00113294 0.484857 
-0.00029582 -0.00336324 0.71215 
-0.000384541 0.000735965 0.618318 
-0.00146916 0.00217575 0.385687 
1.89697e-05 0.00575132 0.397862 
0.00116743 -0.00234274 0.935687 
0.00344283 0.00133289 1.05104 
-0.00175645 0.00273405 0.940597 
-0.000236313 -1.86884e-05 0.825934 
-0.00368484 0.000974125 0.375109 
0.00667574 0.00469557 0.00895952 
-0.00244372 0.0031547 0.463749 
-0.00640457 -0.00486703 0.497188 
0.00221904 -0.00301425 0.00166116 
0.00751798 0.00065581 0.00709698 
-0.00292416 0.00574902 0.538436 
-0.00649622 0.00273882 0.454339 
0.000758992 -0.000104426 1.12156 
-0.000235878 -0.0010376 1.18726 
-0.000420956 -0.000242826 1.17468 
-0.000137213 0.000699866 1.19281 
-0.00170062 0.00333662 0.0113069 
0.00397327 -0.0027287 0.399266 
0.00068511 0.000912665 -0.00106365 
0.00726621 -0.00452746 0.591572 
0.00632337 0.00208891 0.789398 
0.00228473 -0.00388828 0.98914 
-0.000965559 0.00301536 0.965294 
-0.00215294 0.0045088 0.912631 
-0.000378362 -0.000908864 -0.000833654 
-0.000322334 -0.000838717 0.00185171 
-0.000114107 -0.000324465 0.00175116 
0.00134676 0.00177492 0.56306 
0.0011664 -0.000945527 1.01209 
-0.00588408 0.00472858 0.955943 
0.000984809 -0.00240788 0.849038 
0.000805149 0.00371766 1.15022 
-0.00104443 0.000538558 0.668774 
0.00242423 0.000412527 0.555767 
-0.00117128 -0.00483374 0.773493 
-0.00411905 0.00250882 0.818058 
0.00148381 -0.00582018 0.0117832 
-0.000484903 0.00143434 0.00152154 
-0.000432815 0.0013487 0.000572012 
-0.000537752 0.00405861 0.590374 
-0.0040763 -0.00326148 0.00480861 
0.00180362 0.0033066 0.56535 
-0.000440056 -0.00358833 0.00524786 
0.00184559 0.00506888 0.524639 
0.00137588 0.000912993 0.0149173 
-6.18792e-05 -0.00124139 0.0123776 
-0.00707298 -0.00178758 0.516777 
8.94568e-05 0.00284023 0.582448 
-0.00321429 -0.00158602 0.441454 
0.000767284 0.00211738 0.349829 
0.00179114 -0.00775778 0.014285 
-0.000826133 0.00838011 0.556401 
-0.00029663 0.000377188 0.700653 
0.00309794 -0.00141624 0.825445 
0.000379509 -0.00244103 0.982475 
-0.00118442 0.00195195 0.481619 
-0.000113579 -0.00141005 0.5335 
0.000794322 -0.00404376 0.476158 
0.0041509 0.00277684 0.0115415 
-0.00330599 0.00213445 0.425752 
-0.00126826 -0.00187322 1.13751 
0.00183977 0.00154385 1.24563 
0.000330116 0.000205789 1.08921 
-0.000410518 0.000464114 1.16995 
-0.000277903 0.000405176 -7.54016e-06 
0.00204766 -0.00279209 0.546174 
-0.00290735 0.00267346 0.00577029 
0.00250988 -0.00362476 0.476839 
-0.000112957 0.00094267 0.00835702 
9.42906e-06 -8.5528e-05 -0.000557707 
-4.43968e-05 0.000691656 -0.00328493 
-0.00595106 -0.000589675 0.560241 
-0.000909816 0.00300335 0.992247 
0.00161263 -0.00132462 1.04119 
-0.000361557 -0.00253079 1.02012 
0.000800533 -0.00113772 1.16447 
-3.87541e-05 0.00644072 0.892813 
0.00205769 0.00893846 0.841149 
-0.000424343 -0.0024921 1.01944 
0.000206416 -0.0117199 1.15983 
-0.000634403 0.000645939 -0.0017808 
-0.0026999 0.000875626 0.522557 
0.00108143 0.00164836 0.0091072 
0.00109356 0.00119259 0.485889 
0.000996355 -0.000799845 0.636974 
-0.00160717 0.00154453 0.396637 
-0.000479874 0.00171712 0.57198 
-0.00152758 0.00170153 0.497451 
3.8006e-05 -5.24111e-05 -3.45452e-06 
-0.00128538 0.00171092 0.00655798 
-0.000243153 0.000348977 -0.00140536 
-0.00370561 -0.00620998 0.527451 
-0.00181571 0.00765277 0.0136938 
0.00338031 -0.00224673 0.402561 
-0.00370367 -0.000248811 0.311554 
0.0056439 -0.00989436 0.578034 
-0.00400594 -0.000187452 0.00867903 
0.000392956 -0.00120736 0.0089038 
0.00267167 -0.00647712 0.621469 
-0.00898159 0.00322141 0.470434 
0.00154686 -0.000181999 1.08579 
-0.000173166 0.00189651 1.204 
0.000520048 -0.00298276 1.07932 
0.00189815 0.00214084 1.18578 
0.00314416 -0.00114015 0.937093 
-0.00521235 -0.00114413 0.800648 
0.00108474 -0.00382496 0.709735 
0.00488026 -0.000380374 0.98878 
0.00327379 -0.00176126 0.00223666 
-0.0039559 0.00372892 0.515207 
0.00546608 0.00381283 0.0109872 
-0.00604223 -0.00186355 0.401747 
-0.00123404 -0.00400043 1.1222 
-0.000280489 0.000278623 1.07159 
0.000318599 0.00368433 0.960237 
0.000672576 -0.00294883 1.15124 
-0.012197 0.00383579 0.00944159 
-0.00138292 -0.00891432 0.523079 
0.00506507 0.00653781 0.00225783 
0.0134311 -0.00599558 0.59277 
0.00818804 0.00181799 0.747793 
-0.0033631 0.000896161 0.586034 
0.000816428 0.00729936 0.924775 
-0.00242323 -0.00150755 0.539906 
-0.000843468 0.00545448 0.716047 
0.000622055 -0.0055101 0.71036 
0.00638765 9.06135e-05 0.938143 
-0.00430727 0.0028905 0.515783 
0.000939367 -0.00154863 1.07378 
0.00199515 -0.000222706 1.04209 
-0.000330682 0.000561091 1.11637 
-0.00278725 -0.000698712 1.19768 
0.000974085 -0.00111437 0.00403571 
-0.000873151 -0.000187953 0.00564409 
0.00212041 0.00207828 0.542556 
0.000816345 -0.00406649 0.414084 
0.00417779 -0.00121686 0.352295 
-0.00367864 0.00144962 0.272584 
-0.00584352 0.00433719 0.00974449 
0.00736831 -0.00749038 0.554005 
0.000606872 -0.000127682 0.00849771 
-0.00101957 -0.000954006 0.00880755 
3.8946e-05 8.31254e-05 0.489255 
-0.000111587 0.000604245 0.477868 
-0.00126646 -0.00264476 -0.00130894 
0.0004294 0.000582087 0.0101325 
0.000166061 0.000210432 0.00437049 
0.000935204 0.00570088 0.510727 
-0.00468492 -0.00310374 0.708505 
0.00735948 -0.00473157 0.882997 
-0.00282778 0.00115357 0.503155 
-0.0104016 0.00603191 0.423021 
-0.000872263 0.0019785 9.33386e-05 
0.00297105 0.00385797 0.52363 
-0.00708366 -0.00464772 0.011681 
0.006121 0.00160687 0.483688 
-0.000676807 0.000291977 0.625048 
0.00225933 0.00260099 0.494869 
0.00267549 0.00122884 0.505517 
-0.00531033 0.00118851 0.393423 
0.000321271 -0.000739694 1.07081 
-0.00525039 -0.00301671 0.864187 
-0.00496236 0.00308541 1.01998 
0.00101324 -0.00414103 1.15948 
0.000175355 4.12234e-05 0.00495464 
0.00388924 -0.00180377 0.00321265 
-0.002497 0.00144581 0.00923036 
-0.00325525 0.000783447 0.571423 
-0.00125431 0.00148482 1.1445 
0.00102969 0.000171185 1.01907 
0.00104316 0.00275949 1.08279 
-0.00217978 -0.00193237 0.924524 
-0.00331606 0.000944843 0.0025645 
-0.000832822 0.00261265 0.528887 
0.00231458 0.00129281 0.00775789 
0.0056647 -0.00180755 0.555709 
0.000915991 0.00064836 0.00222773 
0.000280053 0.000164546 0.005537 
0.000778583 0.000565977 -0.000251317 
-0.00616218 0.00266826 0.63311 
0.000341555 -0.00207551 0.932636 
0.00280296 0.00201576 1.08871 
-0.00364305 0.0029195 1.04466 
-0.001705 -0.00174523 0.870234 
0.00125754 -0.00319005 1.1635 
-0.00376803 0.000131529 1.0307 
-0.000722299 0.00798633 1.03594 
0.00166506 -0.00151121 1.17083 
-0.000385259 -0.000712072 1.24364 
0.00307228 -0.00813706 1.19739 
-0.00182069 0.00917455 1.253 
0.00359529 0.00233187 1.20606 
-0.000494303 0.000482484 0.0058304 
-0.000159361 0.000158968 0.00830129 
0.000898594 -0.000873499 -0.00381894 
0.000536503 -0.000793344 0.530502 
-0.00542885 -0.00591248 0.755398 
-0.000392787 0.007475 1.03577 
0.00414609 0.0029546 1.03401 
-6.08552e-05 -0.000558663 0.876119 
0.00209753 -0.000775675 1.08434 
-0.000712869 -0.00365469 1.05546 
-0.000302295 0.00551919 1.05148 
-0.00320335 0.000611538 0.871785 
-0.000464271 -0.00163841 0.00378322 
0.000776754 0.00327831 0.00442351 
-0.000338987 -0.00114609 0.00376696 
0.00146005 0.00252612 0.558268 
0.000357983 -0.0019303 1.13726 
0.00403628 0.00204806 1.08094 
-0.000722261 0.0044385 1.02809 
-0.00326765 -0.000505284 1.17457 
0.00248319 -0.00236231 0.384372 
0.00211661 0.00254108 0.630398 
0.000177789 -0.002793 0.701894 
-0.000934605 -0.0018052 0.801498 
0.00206151 -0.00063298 1.02615 
0.00480312 0.0106186 0.848936 
-0.00520644 0.00275766 0.955588 
-0.00240906 -0.0108943 1.15002 
0.000954772 -0.000168375 -0.00471816 
-0.00401792 0.00103783 0.00763349 
0.000133929 -3.40219e-05 -0.000275682 
0.00463548 -0.000678806 0.548596 
0.000731648 5.94692e-05 0.00636884 
-0.00170035 -0.000138206 -0.00100521 
-0.000405489 -3.29587e-05 0.00588749 
0.000761654 0.00191401 0.478388 
-0.000479024 0.000264454 0.374055 
-0.0070205 0.0008395 0.555731 
0.00347157 0.000138727 0.0118533 
-7.26051e-05 -0.00491949 0.569479 
-0.00898479 -0.0024867 0.0106904 
-0.00264504 0.00319854 0.328057 
0.00335222 -0.00129913 0.351838 
0.0104319 0.00139634 0.553437 
-0.00178412 -0.00596297 0.00787516 
-0.00154669 0.00270639 0.373185 
-0.00300944 0.00145496 0.462135 
0.000555553 0.00375713 0.466818 
-0.00148415 0.000714065 0.707794 
0.00339485 0.00127369 0.887662 
-0.00474544 0.00233916 0.476565 
0.00224564 0.00123411 0.83876 
0.00414787 0.00102148 0.711933 
-0.0059049 0.00283493 0.713331 
-0.00297107 -0.00123275 0.46568 
0.00807775 0.00397976 0.904954 
0.00394999 -0.00974337 1.0852 
-0.00393683 0.00699028 1.24454 
-0.0050629 -0.0022694 1.19 
0.0052185 0.00403415 1.17739 
0.00139868 -0.00123364 0.704168 
0.000516453 -0.000270651 0.977439 
0.00218286 0.000405056 0.677293 
0.0011022 0.000773034 0.795339 
-2.44364e-05 -0.0016958 0.774387 
0.00245607 -0.00246265 0.955613 
-0.00237135 0.00227239 0.672454 
-0.00516542 0.000150234 0.817686 
0.00629815 -0.0027059 0.0132312 
0.000497325 -0.0012694 0.423644 
0.000137106 0.0039814 0.33546 
-0.00732228 0.00298811 0.559488 
-0.0013022 -0.00257209 0.357692 
0.00240647 -6.70772e-05 0.301369 
0.00377795 0.000720458 0.00969542 
-0.00640524 -0.00119255 0.504945 
0.00453754 0.00107549 0.00129965 
-0.010738 -0.00331148 0.588949 
0.00118432 0.0020605 0.00210565 
-0.00353205 -0.00579226 0.462478 
-0.000659554 -0.000716785 0.0109008 
0.00176881 0.00140936 0.536431 
-0.000108008 0.000408559 0.0114842 
0.000180783 -0.00297513 0.525962 
-0.000501629 0.00189333 0.435281 
-0.000720805 0.000710532 0.558183 
0.00175023 0.000809958 0.0121455 
0.00163075 -0.000664508 0.448311 
-0.00227716 0.00138113 0.00658077 
0.00174562 -0.000771376 0.00107818 
-0.00072645 0.000246927 -0.0020272 
0.00507693 0.00378423 0.547352 
-0.00318418 0.00112866 0.0119464 
0.00207086 -0.00161029 0.639125 
-0.00103163 0.00048877 0.0114079 
-0.00194722 -0.0020958 0.473548 
0.00847268 0.00981051 0.77072 
-0.00352302 0.00418056 0.903184 
-0.00620675 -0.00869405 0.661887 
0.00801727 -0.00449372 0.54829 
-0.000974733 -0.00605502 0.696261 
-0.00541795 -0.00219013 0.868753 
0.00526019 0.00247565 0.582941 
-0.00545189 0.000806488 0.881038 
-0.00288359 0.0052898 1.18347 
0.00381282 -0.00482444 1.23371 
0.000211135 0.00247516 1.19885 
-0.00133201 -0.00340641 1.25399 
-0.0019547 -0.00299491 0.0102195 
0.000655102 0.00291284 0.333093 
0.000984946 -0.00157586 0.00241217 
-0.0045172 0.00686223 0.569391 
0.00250379 0.00191505 1.24622 
0.0033806 0.00161383 1.21802 
-0.00198979 -0.00316612 1.16451 
-0.0043415 0.000113521 1.18993 
-0.000516358 -0.000524418 0.710263 
0.00248658 -0.000421097 0.457536 
0.0023004 0.000952488 0.650584 
-0.000567423 0.000300874 0.475314 
-0.0019068 -0.00260975 1.02051 
0.00276881 0.00428142 1.1975 
0.00360092 0.00207062 1.10528 
-0.000664331 0.000652066 1.15662 
-0.00319797 0.000669643 0.717428 
0.00426103 -0.00417285 0.715473 
-0.0022856 0.000708835 0.662395 
-0.00314945 -0.00469007 0.95953 
-0.0056282 0.00338571 0.00722562 
0.000735685 -0.00298008 0.423483 
0.00227717 -0.00271055 0.629688 
-0.00349338 -8.39089e-05 0.380069 
0.000462574 0.000523887 0.705093 
6.55012e-05 -0.00445452 0.865807 
0.00521016 -0.00264918 0.942397 
-0.00211828 0.00318263 0.554748 
0.000161627 0.00865627 1.03297 
0.00401991 -0.000923674 1.07807 
0.000107954 -0.0076429 1.19685 
-0.00207634 0.000563663 1.1767 
-0.00114819 -0.00178551 0.639166 
0.00132043 -0.00153159 0.759016 
-0.00152653 0.00225359 0.397687 
-0.00212607 0.00126174 0.497785 
-0.00279496 -0.00278181 0.00850283 
0.00159143 -0.000978837 0.45878 
-0.00264217 0.00186008 0.00362605 
0.00628934 0.00632364 0.56852 
-0.0027056 -0.00413294 0.00627816 
0.00085655 -0.00421976 0.00640446 
0.000729728 -0.000413348 0.519428 
0.0164721 0.00514104 0.588071 
0.00152562 -0.000775312 0.005164 
-0.000300403 0.000154589 0.00464888 
0.00210331 -0.00107129 5.28813e-05 
-0.00322554 -0.00115943 0.542673 
0.00149467 -0.00281308 0.00964637 
0.00102568 -0.00168359 0.00232715 
-0.00296369 0.00427504 0.00353039 
0.00156601 0.000619319 0.550438 
-0.00276515 0.00543303 0.771762 
0.00305025 0.00119992 0.78097 
-0.000553049 -0.00128058 1.02538 
-0.00160552 -0.0025935 0.84887 
0.000845388 0.000447698 0.0105257 
0.000946788 0.00336066 0.585974 
-0.000183769 0.00018703 0.0106429 
0.00155307 0.00102039 0.495871 
-0.000374797 -0.000528085 0.00239146 
-0.00173933 -0.00242947 0.00791409 
0.0012455 0.0017022 -4.30233e-05 
-0.00248847 -0.0032283 0.5328 
-0.0106617 -0.00606368 0.813123 
0.00273173 -0.0056967 0.513383 
-0.00145575 0.00971875 0.684894 
0.0116323 0.00420901 0.448527 
0.00613459 0.00124533 0.547458 
-0.00346826 0.00309499 0.513128 
-0.0028042 -0.00568655 0.808745 
-0.000143855 0.003831 0.408375 
-0.00379604 -0.00033456 0.388195 
0.0018554 -0.00330051 0.474529 
0.00138082 0.00339326 0.707443 
0.00776172 -0.000205373 0.802287 
-0.0042097 0.00145164 0.0112073 
0.00116734 -0.000509466 0.000676486 
6.27098e-05 -4.1814e-05 0.000547551 
-0.000273834 -0.00131168 0.561746 
0.00213437 4.86168e-05 0.986041 
0.000803822 0.00255863 1.04876 
-0.000370981 -0.00262084 0.834536 
-0.00161076 -0.00104055 0.87152 
-0.00106395 0.0015461 -0.00165332 
0.000403916 -0.000584831 0.00090537 
0.00160399 -0.00230398 0.00599825 
-0.00432482 -0.00175649 0.448801 
-0.000540531 -0.00143146 0.475067 
0.000775816 0.00369499 0.484085 
-0.00202955 0.000232568 0.0107521 
-0.00153472 -0.00352991 0.471879 
-0.00239566 -0.00495138 1.00361 
0.00242896 0.00443655 1.01746 
0.00126982 -0.00670463 0.889276 
0.000389674 0.0112981 1.15794 
0.00114422 0.000627393 0.709986 
0.000257756 -0.000493218 0.381942 
0.000138795 -0.000894941 0.460168 
0.0006138 -0.00263562 0.618052 
-0.00560789 0.00591043 0.011764 
-0.00143478 -0.000164053 -0.000373922 
0.00394866 -0.00378846 0.55028 
0.00200668 -0.00216966 0.471788 
-0.00156624 -0.00274757 1.22855 
-0.00788016 0.00361949 1.24586 
0.00696262 -0.00366892 1.20787 
0.00103422 0.00164491 1.25198 
-0.000580878 0.000206556 1.12801 
9.72872e-05 -0.00103387 1.07047 
-0.00188354 -2.89042e-05 0.939195 
-0.00150213 -0.000428146 0.953138 
0.000178284 -0.000346886 0.0047071 
0.000217234 -0.000428338 -0.00276135 
0.000366185 -0.000716429 0.00375253 
-0.00173404 0.00075149 0.594928 
0.00190877 -0.0015205 0.443001 
0.00180306 0.000262549 0.449663 
-0.00273925 0.00172185 0.795931 
-0.00273149 0.00275861 0.844858 
0.000337081 0.00120717 0.983585 
-0.000225032 -0.00282767 0.970086 
0.00162117 0.0037454 1.05487 
-0.000149344 -0.000470107 1.10683 
0.0018295 -0.000106162 0.972666 
-0.00482069 0.000820743 1.17254 
0.00416039 0.00112872 1.05819 
-0.00335826 -0.00104108 1.10272 
-0.00110122 0.000160616 0.00517169 
-0.00328066 0.000822079 0.00104644 
0.00412993 -0.00127951 0.00890666 
0.00137026 -0.00152165 0.500823 
-0.00126306 -0.000523869 0.00493551 
-0.000303232 -2.44637e-05 -0.0025753 
5.54479e-05 -2.10857e-05 0.0014196 
0.00292755 -0.00111111 0.522136 
0.00193733 0.00334344 1.22262 
0.000175393 -0.00309728 1.17395 
0.00403844 -0.00249878 1.2453 
-0.00442655 0.00102826 1.11327 
0.00312094 -0.0025187 0.898085 
0.000613031 -0.00156747 0.820764 
-0.00200672 0.00494639 1.02914 
0.00115265 0.00540914 0.891178 
-0.00124711 0.00391372 0.697144 
-0.000333878 -0.00342111 0.518829 
-0.00795342 0.0116321 0.525479 
0.000221394 -0.00594282 0.862112 
-0.00181913 0.00174542 0.00817862 
0.001234 -0.0037299 0.538518 
-0.000100335 0.0010054 0.00280367 
0.004999 0.00143586 0.411745 
0.0031785 -0.000407723 1.07335 
0.000589936 -0.000684577 0.933626 
-0.00247826 -0.00462892 1.04264 
-0.000232891 0.00108587 0.871409 
-0.00228529 -0.000690571 0.588687 
0.00114178 0.000981008 0.322862 
0.000199481 0.00115007 0.438148 
0.00109847 0.00325483 0.453611 
0.000826023 -0.00214967 1.11999 
5.13962e-05 0.000945357 0.955482 
-0.000867561 -0.00144941 0.92138 
-0.00161187 0.000290353 0.961289 
0.00116187 0.00166915 0.800748 
-0.00166379 -0.0019556 1.03946 
-0.0019097 -0.00140042 0.971778 
9.30891e-06 0.00109559 0.812234 
-0.00262364 0.00501622 1.23545 
0.00441039 0.00172101 1.24801 
0.00321647 -0.00847019 1.18043 
-0.00532492 -0.00299294 1.19879 
0.00580687 -0.00327204 0.82808 
0.0015362 0.000918251 0.919025 
0.0018058 0.00302819 0.960097 
-0.00469393 -0.000283673 1.04174 
0.00273037 -0.000763079 0.66685 
-0.00140685 0.00191421 0.523249 
-0.000427957 0.00259742 0.765464 
0.00417662 -0.000425236 0.542738 
-0.00321543 0.00217514 0.807084 
0.00147412 0.00537267 1.07732 
0.00140957 -0.00238507 1.02809 
-0.00198685 -0.00249573 0.927014 
0.00143181 -0.00213368 0.713532 
-0.00107959 0.00240226 0.5832 
-0.00271094 0.000575501 0.467353 
-0.00207741 -0.00102706 0.875469 
-0.00205923 -0.000205263 0.93895 
0.000890909 -9.52805e-05 1.08633 
0.00262601 0.000598033 1.12381 
-0.000664587 -9.90343e-06 1.03557 
0.00154841 0.000941051 0.0022001 
-0.00204504 -0.00131637 -0.000974633 
0.00296696 0.00144449 0.013641 
-0.00169097 -3.84348e-05 0.5758 
0.00149013 2.78934e-05 0.831726 
-0.000594386 0.00269307 1.14663 
0.00187105 -0.00405458 0.973862 
0.0041848 -0.00220331 1.03468 
-0.00356079 -0.000236322 0.520689 
-0.00350072 -0.00266882 0.520451 
-0.003339 0.00279224 0.766695 
-0.000628168 3.95946e-05 0.863904 
0.000920269 0.000689752 0.00224631 
0.00226829 0.00161693 0.000861328 
-0.00291302 -0.00196187 0.00533838 
-0.00107646 -0.000981429 0.634006 
-0.000142707 0.00046682 0.00560931 
0.000379955 -0.000163163 0.00715176 
0.000432486 -3.88946e-05 0.479625 
-0.000994123 0.00102386 0.425802 
0.0044847 -0.000588549 1.22603 
0.00255476 -0.00446109 1.16992 
-0.00658136 0.00515884 1.05939 
0.00121404 0.00476221 1.1875 
-0.00141241 -0.000658163 1.10604 
0.000917627 0.00142057 1.07182 
0.00263067 0.000549728 0.933222 
0.00189033 0.0011708 0.965285 
-0.000901005 0.00208308 0.713838 
0.000232999 -0.00203746 0.715618 
5.85297e-05 0.000472103 0.940577 
0.00223088 0.00300098 0.936754 
1.78e-05 -0.0074532 1.14355 
-0.00777171 5.85945e-06 0.964792 
0.000758689 0.00938545 0.834437 
0.00703719 0.00062033 0.979568 
0.000111248 -0.00129273 0.00716631 
-6.12913e-05 0.000712218 0.00821356 
-1.37945e-05 0.000160294 -0.00360239 
-0.000698822 0.00114754 0.560474 
0.000652238 0.000294641 0.00469059 
-0.00158762 -0.00074029 0.470404 
-0.0002019 -0.000865219 0.00425679 
-0.0010911 0.000981439 0.392587 
-0.00262252 -0.00137118 1.24487 
0.00254146 0.00204507 1.20842 
0.00123274 0.00134322 1.23079 
-0.00237094 0.000683257 1.17674 
0.00207549 0.00284696 0.674051 
-0.000967964 0.000264821 0.535512 
0.00347271 -0.000786325 0.664072 
0.00441376 0.00190556 0.456548 
0.0110785 0.00216344 1.0527 
-0.000298257 -0.00552066 0.958892 
-0.00681894 -1.47922e-05 1.14699 
0.00164072 0.00551547 1.14942 
0.00220819 -0.00124495 -0.000558844 
-0.000463284 0.000259638 0.00020084 
-0.0024915 0.00131755 0.005314 
0.000835277 0.00168632 0.415538 
-0.000943177 -0.00442486 0.483022 
0.00346357 0.00268893 0.00846387 
-0.00015052 0.00299696 0.00112842 
-0.00406455 -0.00410833 0.471403 
-0.00170701 0.000128565 0.718011 
0.000279789 -0.00210705 0.718649 
-0.000534995 -0.00120596 0.460272 
-0.00126283 -0.000422207 0.657003 
0.00180353 -0.00428826 0.830539 
-0.00616446 0.00263928 0.964878 
-0.00051636 0.00490398 1.14692 
0.0021568 -0.000561245 1.03767 
0.00053038 0.00110671 0.836215 
-0.000540679 0.00073776 0.907501 
0.00517695 -0.000565896 0.682858 
0.00302248 0.00238554 0.96106 
-0.00341088 -0.00256512 0.710886 
-0.00378684 -0.000727662 0.94114 
-0.00133896 0.000514095 0.938849 
-0.00290511 -0.00244845 0.961718 
-0.000932513 -0.00368679 0.644494 
0.000748088 0.00273777 0.696144 
-0.00177984 -0.000301938 0.918734 
0.000891381 -8.46752e-05 0.571243 
-0.00355734 0.00188527 0.407513 
0.00121677 0.00184112 0.00706331 
0.000598652 0.000643926 0.322004 
-0.00360198 -0.0038947 0.467008 
-9.67624e-05 -0.00060456 -0.00400383 
-0.000271346 -0.000122443 0.00455306 
0.000884645 0.00214593 0.00268101 
-0.00372103 0.00268399 0.484848 
0.00277975 0.00277012 0.706988 
-0.00045357 -0.00201489 0.649852 
-0.000525846 -0.00282075 0.724232 
0.00182324 -2.69861e-05 0.83227 
0.000246896 0.00046299 0.00776439 
0.00123637 0.0026164 0.0092162 
0.000699898 0.00156218 -0.00285468 
-0.000155156 -0.00343126 0.540066 
-0.000725364 0.00109367 1.11072 
0.00260385 0.000249089 0.938281 
0.000725836 -0.000459404 1.07028 
0.00041441 0.000317409 1.03984 
0.000527631 0.00225741 0.00933996 
0.00168759 -0.00200312 0.412715 
0.000998603 0.00401032 0.0095052 
0.00188287 -0.00179817 0.556175 
-0.00264281 -0.00490793 0.670432 
0.000615286 -0.00119209 0.893431 
0.002243 0.00152938 0.586295 
-0.0043536 0.00202577 0.545506 
0.000699343 0.00212249 0.719992 
0.000904634 0.000559787 0.456541 
0.000279887 -0.00141734 0.719196 
0.00123673 -0.00242017 0.639287 
-0.000708673 -0.0010118 0.832399 
0.00253351 0.00155393 0.534989 
-0.000341375 -0.00141899 0.641588 
0.000922357 -0.00466012 0.472016 
-0.00100676 0.00189217 0.659435 
0.00383848 -0.00089731 0.699656 
-0.000122886 0.00135058 0.475551 
0.000797275 0.000122324 0.829537 
-0.000600784 -0.000875046 0.000403395 
0.000168798 0.000243311 0.00358155 
-0.000273469 -0.000398353 0.000247197 
0.00307457 0.00154991 0.590607 
-0.00331317 0.000695801 0.710023 
-0.000753328 -0.000946511 0.55888 
0.00568049 -0.00151411 0.720062 
0.0011917 0.00662276 0.941856 
-0.000360329 -0.000368546 0.00280923 
-0.0006364 -0.000648469 0.000814809 
0.000926353 0.000940968 0.00382872 
-0.00119415 0.00593804 0.584782 
0.00426317 -0.00130369 1.20364 
-0.00770848 0.00090286 1.25408 
-0.000820797 -0.00171774 1.2245 
0.00276714 0.002213 1.16904 
-0.00190614 -0.00156713 0.934168 
0.00366026 0.00128155 0.709503 
0.00069645 0.00237823 0.727723 
0.0008911 -0.00278641 0.829608 
-6.77167e-05 -0.000685736 0.00503428 
-0.000103289 -0.00104597 0.00726756 
-0.000423298 -0.00428654 0.00330092 
0.00234069 0.0063265 0.597185 
-0.00353664 0.00206269 1.183 
-0.00570082 0.00366983 1.25077 
0.00242497 -0.00924807 1.08686 
0.0018227 0.00465818 1.16763 
-0.00475995 -0.0028912 1.20549 
0.00284017 0.00126554 1.24672 
0.00149222 -0.00237 1.24807 
9.10513e-05 -0.000635957 1.24993 
7.82116e-05 -0.000219151 0.00467279 
-0.00319613 -0.00406036 0.467396 
0.00376163 0.000931851 0.00188699 
-0.00500043 0.00529983 0.428888 
0.0017005 0.000840056 1.01349 
0.000139384 -0.00489152 0.841293 
0.00102319 -0.00118709 0.892964 
0.00240656 0.00874986 1.1596 
0.00134142 -0.000680956 0.00470786 
0.000815091 -0.000475177 -0.000333773 
-0.0016851 0.00099077 0.00112719 
-0.00260129 -0.00336589 0.557255 
0.00308671 0.00217251 0.934711 
-0.00254312 -0.00359964 0.716639 
0.000122285 -0.00538066 0.757767 
-0.00235226 0.00440396 1.0649 
-0.00265032 0.000466356 0.710776 
-0.000661635 -0.00347179 0.462046 
0.0015206 0.00168177 0.375385 
0.00566923 0.00375187 0.506718 
0.00345949 0.000959124 0.00245865 
-0.00472042 0.00535118 0.541385 
0.00653144 -0.00420738 0.00943969 
-0.00429466 0.00299912 0.450549 
0.000314908 0.000272704 0.941531 
0.00103164 0.00081328 1.07216 
-0.00217048 0.00116792 1.12138 
-0.000911206 0.000466038 1.10451 
-0.00159217 -0.00195231 0.00406299 
-0.00201039 0.00885319 0.585368 
0.0016043 -0.00350803 0.000813966 
0.0030161 0.00307248 0.385529 
0.00108025 -0.00314816 0.985254 
0.00271683 0.00958284 1.03347 
-0.00346389 -0.0079079 1.20777 
0.00315473 -0.000278108 1.13548 
-0.00112621 -0.00157767 0.742444 
-0.00281291 0.00128817 0.886661 
0.0029161 0.00412284 0.926141 
0.0011286 -0.0028306 0.554014 
0.0104637 0.00880834 0.0141072 
-0.0118509 -0.00732225 0.517058 
0.0119142 -0.00448331 0.0106524 
-0.0145598 0.00555763 0.527868 
-0.003184 0.00354297 0.465658 
0.00296042 -0.00238715 0.00272192 
0.0035984 0.00353795 0.00608166 
-0.00554612 -0.0049658 0.476026 
-0.0011389 -0.000697945 0.00623727 
0.00255255 0.00173556 0.00211726 
-0.0003633 -0.000216265 0.00258841 
0.000933706 -0.00468236 0.475356 
-0.000643036 -0.000272772 0.00048791 
-3.37203e-05 6.02385e-05 -0.00378016 
-0.00372868 -0.00177698 0.0127999 
0.00223475 0.00746563 0.594874 
-0.000177546 -3.15785e-05 0.00323824 
0.000134931 0.000111268 0.00352462 
-0.00230062 -0.000920522 0.00688965 
8.39806e-05 0.00365792 0.650154 
-0.00104273 -0.000416726 0.00158255 
-0.00106837 -0.000230362 0.00581062 
0.000101859 -0.000199545 -0.00527363 
-0.000176773 0.00519562 0.432902 
0.000440155 -0.00157376 1.18273 
-0.000302243 0.00347857 1.24654 
0.00152442 -0.00107943 1.23429 
-0.00231954 0.00108656 1.25403 
0.00115442 0.0019996 0.380788 
0.00109195 0.00153782 0.464698 
-0.000175728 0.00119096 0.708097 
0.000317132 0.00055464 0.643523 
-0.00937592 0.00384355 1.05019 
0.00338429 0.0050885 1.04566 
-0.00138084 0.000650707 1.13515 
0.0102447 -0.00560744 1.15791 
-0.00447424 -0.00663912 1.05362 
0.00100393 -0.0014309 1.14012 
0.0059796 0.00400861 1.23629 
-0.000588868 0.00350536 1.16522 
0.00110106 -0.00254546 0.656124 
0.000333993 -0.000317639 0.904729 
0.00162739 0.00190864 0.659668 
0.00167191 0.000341678 0.547267 
-0.000188092 0.000660935 -0.00346873 
6.34013e-06 -6.18203e-06 0.0010597 
0.000335464 -0.0011644 0.00702894 
-0.00601224 -0.000572648 0.560773 
-0.00496158 0.00156518 1.04863 
-0.00110682 0.00161509 1.13086 
0.00107488 -0.000731685 1.19653 
0.00439522 -0.00244316 1.15944 
0.000196677 0.000217017 0.00259389 
-0.00204631 -0.00209836 0.00394164 
-0.00170745 -0.00174823 0.00380351 
0.000201091 0.00549722 0.58386 
0.000387824 0.00471966 0.00817187 
-0.00568465 -0.00128736 0.509029 
-0.00121399 0.00259601 0.00341102 
-0.000912854 -0.00033272 0.589715 
-0.00169076 -0.00250248 0.384576 
0.0044571 -0.00208984 0.801962 
0.00198025 0.000631865 0.477088 
0.00100285 0.00051563 0.453613 
0.00319413 -0.000541734 1.0871 
0.00176457 0.000982902 1.17872 
-0.00220195 -0.000143693 1.12091 
-0.00250109 0.00145144 1.19598 
-0.00468361 0.000194829 0.504802 
-0.000573183 -0.00613915 0.580865 
-0.00261329 -0.00264015 0.706892 
-0.00738869 0.00883922 0.41988 
0.00177488 0.000744463 0.442924 
-0.00488571 0.00342013 0.553342 
0.00167003 -0.000707951 0.448088 
-0.00240391 -0.0024596 0.845195 
0.000394605 0.00350641 0.00374776 
-0.00754249 -0.00484554 0.595325 
0.00434071 0.00393091 0.00742473 
-0.00372713 -0.0064054 0.502398 
0.00114332 0.000876078 0.653479 
-0.00273852 0.00182743 0.624114 
0.00227071 -0.000823141 0.357332 
0.00395026 -0.00068432 0.46012 
-0.0003758 -0.00136149 1.18581 
0.000279772 0.00189063 1.16295 
0.0027944 0.00268579 1.24567 
-0.000378912 -0.00043012 1.19643 
0.00210263 -0.0030852 0.582992 
0.00281493 -0.00096503 0.89757 
-0.00219553 0.00298053 0.719066 
-0.00636117 -0.00159492 0.501024 
-0.00115735 -1.34961e-05 0.742669 
0.00066826 0.00950382 0.489762 
0.00571178 0.00915154 0.455451 
-0.00443037 -0.00669427 0.896559 
-5.08517e-05 -0.00128578 1.11087 
0.000349849 -0.000971878 1.0075 
-0.000780649 0.00122663 0.909006 
0.00111217 0.00219361 1.01601 
0.00178661 0.00107519 1.21894 
0.00105563 -0.00490595 1.10953 
0.000204005 0.00314042 1.25023 
-0.00485249 -0.00355154 1.16042 
0.00068962 -0.00192288 1.2447 
-0.00155998 0.00426074 1.17637 
-0.00113491 -0.00105457 1.20363 
0.00108992 -0.00157182 1.25582 
0.00433674 0.00124183 1.05014 
0.00478692 -0.00716227 1.20121 
-0.00510331 -0.00278887 1.17497 
-0.00796479 0.00722734 1.06087 
-0.00103703 0.00180601 0.0152026 
0.000848293 -0.00190677 -0.00346097 
-0.00100653 0.0025415 -0.00172473 
0.00146372 -0.00120779 0.465418 
-0.00509415 -0.0030758 0.723325 
-0.00112511 0.000449262 0.932218 
0.00138934 -0.00162656 0.713707 
-0.00227547 -0.00228655 0.955931 
-0.0045475 0.00741241 0.0114351 
0.00502578 -0.00946266 0.5579 
-0.0108209 0.000440217 0.00849737 
0.00869082 0.00190677 0.451345 
0.00199989 0.000372431 0.469572 
0.000345406 0.00133219 0.374616 
0.00227203 -0.00352477 0.00787081 
-0.00259054 0.00307211 0.462425 
-0.000611382 -0.00761698 0.00896342 
0.00753795 0.000214807 0.00555677 
-0.000913112 0.0102427 0.454089 
-0.00836987 -0.00160501 0.419384 
0.00138905 -0.00214314 0.833371 
-0.00280722 0.00238605 0.616099 
-0.000816781 -0.00112738 0.606847 
-0.00166144 -0.00179419 0.869398 
0.000917057 0.000955946 0.280961 
-0.00227878 0.00409238 0.571893 
0.00183906 -0.00326076 0.397723 
0.00768297 -0.00199244 0.578391 
0.00056666 -0.000326246 0.455759 
0.000163656 0.000272859 0.00845775 
0.00220838 -0.00202957 0.489466 
-0.0036924 3.69038e-05 0.477928 
-0.000586309 -0.000372506 0.00528349 
-0.00104669 -0.000724309 -0.00188856 
-0.000613849 -0.000393805 0.00480585 
0.00399633 0.00587667 0.471198 
0.00115782 0.000587447 1.23461 
-0.0022115 0.00338635 1.1165 
0.00212334 -0.00254544 1.18108 
0.00321853 9.81582e-05 1.12884 
0.00525294 0.00308306 0.587858 
-0.000399569 0.0073599 0.494447 
-0.00216702 -0.000759362 0.746477 
-0.00191192 -0.00631784 0.88778 
-0.000956847 -0.00151359 0.281619 
0.00128969 -0.000132738 0.446168 
-0.00250443 -0.00245769 0.00637318 
0.00089076 0.00399305 0.441993 
0.000309435 -0.000507178 0.938046 
-0.000551803 -0.000309785 0.941415 
-0.00103633 0.00264173 0.715524 
0.00229485 0.00270633 0.935634 
0.00282846 -0.00264157 0.00565003 
-0.000826435 -0.00174263 0.00421176 
-0.00169467 0.000381552 0.330702 
-0.00314709 0.00772199 0.563145 
0.00111272 -0.000807401 0.673863 
8.95151e-05 0.00305963 0.381975 
-0.000801125 0.000834822 0.329302 
0.000238521 0.00300261 0.551054 
-0.00747007 0.00202004 0.770946 
0.00293591 -0.000930588 0.512478 
-0.000674665 -0.00522386 0.837085 
0.00169324 0.00498056 0.484682 
-0.00234038 0.000954179 1.01573 
-0.00195242 0.00258425 0.951876 
-0.00171531 0.000666633 0.939268 
0.00542321 -0.00389566 0.843679 
-0.000124738 0.000986114 0.61357 
-0.00178894 0.00089965 0.501679 
0.00147004 -0.00223303 0.604643 
-0.00633747 -0.0014567 0.874946 
0.00154899 -0.00138483 1.0272 
-0.00705312 0.000456877 0.89948 
0.00177851 0.00276942 1.07618 
-0.000378998 0.00576545 1.1059 
0.000853396 -0.00363155 0.000740957 
-0.000228742 0.00121314 0.00538604 
-0.000148141 0.000943383 0.00716176 
-0.00353941 0.000523252 0.576047 
0.00644035 0.00163205 0.775565 
-0.00428637 0.00102996 0.480515 
-0.00144736 -0.000463224 0.524817 
-0.00315044 0.00533438 0.749531 
-0.000378557 -0.00385908 0.466265 
0.000676366 -0.00234973 0.377639 
-0.000350436 -7.62279e-05 0.707395 
-0.00202982 -0.000238087 0.662817 
-0.00252762 0.00247088 1.13675 
0.00196005 -0.00308637 1.25981 
0.00250258 -0.000313189 1.17045 
-0.00458556 0.00154228 1.15327 
0.00388945 -0.00272358 0.00847697 
-0.00136702 -0.000805411 0.328983 
-0.00208812 -0.00114552 0.413352 
-0.00369174 0.00591494 0.557568 
-0.00443623 -0.000332884 0.00935984 
0.00387845 -0.00511604 0.454985 
0.00186281 0.00192097 0.507689 
-0.00344029 0.00575885 0.41513 
-0.000171183 0.00272197 1.21933 
0.000906917 0.000411183 1.24555 
0.00471105 -0.000416086 1.25013 
-0.00173026 0.00152864 1.19515 
0.00344132 0.00183751 0.629442 
-0.000134157 0.00164958 0.383786 
-0.00312317 -0.00134824 0.672953 
-0.0036674 0.00476604 0.814752 
0.00043698 0.000418595 1.07244 
-0.000262757 -0.00287307 0.938111 
0.00245598 0.00113324 1.12377 
-0.000931751 -0.000564894 1.03432 
0.00217859 -0.00108306 0.939571 
-0.00245949 -0.00053257 0.937934 
0.000403961 -0.000703708 1.07241 
-0.00128453 -0.000296581 0.952415 
-0.000638045 -0.000198784 0.00693464 
-1.79128e-05 -2.84539e-05 0.00313351 
-0.00249225 -0.000573822 0.00105069 
0.00179341 0.00475253 0.591982 
-0.00137061 0.00317334 1.05474 
0.000401101 -0.00122495 1.13345 
0.00643865 -0.000170148 1.06193 
-0.00578576 0.000138689 1.17093 
-0.00031439 -0.00372342 0.745023 
0.00081698 -0.00147085 0.929924 
0.000402559 0.0035978 0.636792 
0.00158111 0.00151764 0.550252 
0.000830096 0.00176602 1.2424 
0.000856556 -0.00288399 1.24419 
0.00148161 0.00439726 1.22193 
0.000383908 -0.000464511 1.24469 
-0.00169964 0.00058884 0.938566 
-0.000894277 0.00200038 0.9492 
-0.00285167 0.00129507 1.01759 
0.00329536 0.00197741 1.1463 
-0.000152933 -0.00272509 0.828987 
-0.00613861 -2.68955e-05 0.494318 
0.0027001 -0.000199631 0.528931 
0.000595572 -0.00377647 0.47352 
-0.00017654 -0.00125722 1.18234 
-0.00142282 -0.000662917 1.24196 
-0.000627459 0.00245508 1.14172 
-0.000500969 6.35431e-05 1.15311 
-0.00156952 -0.000517738 0.742752 
-0.00405983 -0.00463748 0.889949 
0.00784201 0.0108163 0.458859 
0.00267503 5.75922e-05 0.840221 
-0.00176629 0.00083328 0.70592 
-0.00101394 -0.00245157 0.467758 
0.00259506 -0.00152257 0.485262 
-0.00612967 0.00303504 0.876159 
-0.000508391 -0.00272926 0.0124817 
0.000234812 0.0011404 -0.00438454 
-1.57252e-05 0.000396537 -0.00513883 
0.00277237 0.00378144 0.489656 
0.000994786 0.0013455 0.796765 
-0.00310397 0.00160706 0.966634 
0.0040257 -0.00175115 0.668048 
0.00133329 0.00436027 0.906887 
-0.00355385 0.00130586 1.23605 
-0.00459188 0.00546345 1.209 
0.00463702 -0.00122369 1.13132 
0.00326047 -0.00498766 1.14856 
1.43051e-05 -0.000175352 0.00410871 
-1.64476e-05 0.000201616 -0.00294204 
9.22124e-05 -0.00113034 0.00619013 
-0.000963812 0.000791929 0.418683 
0.00116259 -0.00260366 0.454316 
0.0039299 -0.00174627 0.710626 
-1.02956e-05 -0.00119791 0.381114 
-0.00171382 -0.0050761 0.55008 
-0.000193559 0.00140554 1.24432 
2.54831e-05 0.000417926 1.19042 
-0.0025179 -5.90771e-05 1.17698 
0.0011076 7.20949e-05 1.15864 
-0.00234175 -0.000557646 1.15569 
0.000496706 -4.81666e-05 0.97209 
-0.000696441 0.00111359 0.998972 
0.00245366 -0.000799476 0.982069 
0.000798511 0.00223572 0.00507271 
0.00259137 1.70207e-05 0.371026 
-0.00221716 -0.000252495 0.326924 
0.000185897 -0.00669598 0.50494 
-0.00215395 -0.00149117 -0.00267053 
0.00034331 -0.00013773 0.408856 
-0.00235978 0.00379871 0.00590471 
0.00204268 0.0017855 0.323854 
-0.000682327 -0.00789906 1.03142 
-0.00947782 0.00359055 1.05868 
-0.00164547 0.00581162 1.17846 
0.00779458 0.000539783 1.17106 
6.61028e-05 0.000906359 0.953943 
-0.00191484 0.000148548 0.769652 
-0.00119889 -0.00174891 0.922124 
-0.000769467 0.00111233 0.96114 
-0.00347089 0.00164191 0.00730887 
0.000665807 -0.00211183 0.454115 
0.000492044 0.00242804 0.0028328 
0.00346018 -0.00295408 0.467005 
0.00280432 -0.000253477 0.455006 
0.00102863 -0.00240763 0.494277 
-0.000490848 0.00437352 0.714374 
-0.00388882 0.000647529 0.469976 
0.0020279 -0.00100624 0.658134 
-0.00995992 -0.00138125 0.901545 
-0.00393234 -0.000507249 0.528163 
0.0105422 -0.00227815 0.489958 
-0.00206927 -0.00293677 0.378533 
0.00197737 0.000537638 0.481042 
-0.00188014 0.00170984 0.0065203 
0.000958348 0.000335348 0.458586 
-0.000954819 0.0010238 1.23113 
0.00237003 -0.00158561 1.24808 
-0.00244135 0.00233915 1.20604 
0.000513308 -0.00102157 1.15235 
0.000947381 0.000839556 1.07176 
-0.00341187 0.00187954 1.12639 
0.000302616 -5.23116e-05 1.10554 
0.00155452 0.00149013 1.19614 
-0.00294942 0.00190254 0.00361417 
0.000330678 -0.00324469 0.00356081 
0.00571947 -0.00225651 0.464498 
0.00231445 0.00896732 0.487639 
0.00229668 0.000810717 1.1244 
0.00049584 -0.00191052 0.937082 
-0.00147579 0.00025887 0.94286 
-0.00172395 -0.000378771 1.03127 
0.000681009 0.0016159 0.624615 
-0.00163082 0.00146379 0.712314 
-0.00143568 -0.00263676 0.380984 
0.000148951 -0.00135314 0.459797 
-0.0032788 0.000911246 0.00263751 
0.000721143 -0.00196077 0.52272 
-0.000753821 0.000497218 0.00323336 
-0.0020836 -0.00376159 0.463182 
-0.00300018 -0.00640372 1.23927 
0.00157497 -0.00121645 1.14009 
0.00663982 0.0034668 1.05093 
0.00184348 0.00173932 1.14302 
-1.05667e-05 0.000227577 0.00245795 
-6.46392e-05 0.00101159 0.00585585 
0.000103098 -0.00134024 -0.002749 
0.00568303 0.00316199 0.55946 
0.00081966 -0.00011476 1.13692 
-0.00320115 0.00484698 1.08935 
0.0022216 -0.00560548 1.24637 
-0.000364213 -0.000179562 1.16786 
-7.4481e-05 0.000767015 0.397521 
-0.000884637 -0.000348603 0.641116 
0.00119419 0.000113631 0.3285 
0.000287932 0.00185743 0.520559 
0.00341567 -0.00157993 0.00447041 
-0.00105949 0.000189165 0.00295914 
0.000444133 0.00259672 0.649954 
-0.000793929 0.00498209 0.463455 
-0.00105178 -8.39547e-05 1.13239 
0.000116667 -0.000540455 1.17032 
0.00218896 0.00219046 1.03002 
-0.00320733 0.00296443 1.17515 
-0.000328714 -0.000406657 0.376279 
-0.00170104 -0.000278949 0.465813 
0.0003354 -0.00114131 0.710475 
-0.00223618 0.00344055 0.5806 
-0.000840112 0.00200006 0.912463 
0.00119747 0.00342288 1.02171 
4.34044e-06 -0.0025639 0.999852 
-0.000177155 -0.00043689 0.881516 
0.0013244 -0.00461162 0.459616 
0.000646976 0.00221074 0.00584242 
-0.00298345 0.00110289 0.00193552 
2.72646e-05 -0.00510021 0.558396 
-0.00188769 -0.000491374 0.000371198 
0.00248855 0.00069533 0.0101741 
0.000405543 0.000108208 0.000513018 
0.00258221 -0.00219139 0.549084 
0.00199374 0.00492995 1.20608 
-0.00285513 -0.0019389 1.03754 
0.000744226 -0.00118903 1.15727 
0.00178646 -0.00101359 1.16955 
0.00123968 0.00368149 0.925911 
0.00390106 -0.00100707 0.88729 
-0.00307666 -0.000887601 1.02383 
-0.00364411 0.000116561 1.13084 
0.00424597 0.00254825 0.935175 
-0.00219409 -0.00072473 0.937141 
0.00239452 0.00142447 0.722139 
-0.00737073 0.000165768 1.06021 
-0.00133827 -0.00430118 1.08908 
-0.00192012 -0.00123775 0.869152 
-0.00217497 -0.00229369 0.708152 
0.00231898 -0.00120022 0.851074 
0.00086178 -0.000233415 0.00693615 
-0.000683318 0.00191334 0.37573 
-0.00193977 -0.00271195 0.504157 
-0.00331882 0.000817776 0.415087 
0.00508335 0.00647823 0.781517 
-0.00870509 -0.009308 0.606933 
-0.00539516 0.00385982 0.484282 
-0.00471141 -0.00115161 0.744673 
5.1688e-06 0.000136495 -0.0023546 
0.000350195 0.00135199 0.000758032 
-0.000361175 -0.00178576 0.00716331 
-0.00242993 6.82573e-05 0.561605 
-0.0011233 0.000685659 0.0117581 
-0.000997828 -0.000305328 0.00714136 
0.00075791 0.000254865 0.503684 
0.00299394 -0.00220355 0.41459 
0.000215454 0.000811806 0.41872 
-0.00561819 -0.000296735 0.566165 
0.000939161 0.000707291 0.00941185 
0.00115719 0.00162339 0.415944 
-0.000451879 -0.00046449 0.00265129 
-0.000743099 -0.000764724 0.00274524 
-0.00032735 -0.000334756 0.00507161 
0.00425331 0.000704942 0.583622 
0.0014486 -0.00389081 0.694659 
-0.000471002 0.000937528 0.537428 
-0.00235395 -0.00080248 0.426614 
0.00217015 0.00226729 0.777421 
-0.000690334 -0.000171675 1.1406 
0.00125541 -0.00259565 0.998795 
-0.000799343 3.71842e-05 0.931744 
0.000147163 0.00167569 0.936744 
0.00236907 -0.000677214 0.00389068 
-0.00145568 0.000390178 -0.000149401 
-0.000733543 0.000197326 -0.00013653 
-0.00109405 8.35903e-05 0.455691 
-0.00103867 0.000331785 0.92912 
0.00274439 -0.000504021 0.761939 
0.00106696 0.000976265 0.648037 
-0.000517425 0.0013821 0.939816 
-0.00119637 -9.75987e-05 0.00727775 
-0.001152 -9.3979e-05 -0.000789028 
0.00138929 0.000113337 -0.00200396 
0.00168269 0.000500512 0.517871 
-0.00263265 -0.00506629 0.005399 
-0.000957544 0.00598188 0.514447 
0.00679678 -0.000609703 0.00697278 
-0.0041971 0.00628343 0.554255 
-0.00157886 -0.000168398 0.00413524 
-0.00162856 -0.000114858 -0.000514599 
-0.00102747 -0.000164996 0.00719228 
0.00434549 -0.00348641 0.516985 
-0.000303032 -0.000358893 1.06839 
0.00105863 0.000660764 1.11158 
0.000601146 0.00290595 0.939985 
-0.00189724 0.00119694 0.892105 
0.000790064 0.00235707 1.20619 
-0.000951563 0.000547221 1.25332 
-0.00186438 -0.00253779 1.16396 
-0.000594686 0.00192526 1.18206 
0.00186273 0.00103178 1.21853 
0.00112706 0.00217387 1.24241 
-0.00266858 -0.00262459 1.19339 
-0.00818775 -0.00272055 1.17151 
0.000132645 9.43043e-05 0.00208487 
-0.000722183 -0.000509008 -0.00234716 
-0.000235875 -0.000163876 0.00405763 
0.00337186 -0.00472249 0.573597 
-0.00217236 -0.00176876 0.00793174 
-0.00100588 0.00233958 0.00152145 
0.00334252 -0.0019198 0.402633 
0.00796375 -0.00561802 0.586146 
-0.00240393 -0.00195843 0.00831002 
-0.000272148 -0.000325155 0.00975932 
0.00018707 -0.00055619 0.564544 
-0.00160768 0.00100136 0.416722 
0.0011297 -0.00156974 0.463794 
-0.00106388 0.00157257 0.375329 
-0.00271152 -0.00233874 0.708717 
-0.000488534 0.00536053 0.556273 
0.0011116 -0.00189371 -0.00188346 
0.00064579 -0.00117637 0.00123462 
-0.000336137 0.000539816 0.00157274 
-0.000183979 -9.24412e-05 0.465621 
0.00141732 -0.00121168 1.03325 
0.000604149 0.00236932 1.15988 
-0.00108263 0.000657927 0.977344 
-0.00232775 -0.00256834 1.01953 
1.00969e-05 0.00288405 1.03243 
-0.00244992 0.00230181 1.17479 
0.00247212 -0.00218795 1.16951 
0.000877918 -0.000765901 1.16868 
0.00286096 0.00102772 0.936849 
-0.000473089 -0.000901448 0.941228 
-0.000626119 -0.000283384 1.10892 
0.00135948 0.000682759 0.961567 
0.00108375 -0.00152842 1.12578 
-0.00241583 0.00140157 0.94747 
-0.00168803 0.000592915 0.938576 
0.00283554 0.00191104 1.14656 
-0.00294169 0.00127188 0.924465 
-0.00156771 0.00699741 0.927553 
0.00255928 -0.00417901 1.14013 
0.00182202 0.00167016 1.03766 
-0.00295057 -0.00280787 0.476986 
0.00261856 -0.00283597 0.379521 
0.00597385 0.00553272 0.00842751 
-0.0043315 -0.00538177 0.566655 
0.000491498 0.00157019 1.10512 
-0.00152357 7.41722e-05 1.04805 
0.000867764 -0.00182526 1.07156 
-0.000188019 0.00165734 1.18818 
0.00277778 4.98697e-05 0.00817766 
0.00063868 0.00328475 0.0036331 
-0.000902636 -0.00419259 0.47062 
-0.00389718 -0.000826058 0.384103 
0.000747128 0.000832427 0.582765 
-0.0018013 -7.80839e-05 0.814697 
-0.000273593 -0.00183839 0.510863 
-0.00195278 -0.00374378 0.870722 
-0.000245331 -0.002411 0.470301 
-0.00235255 0.000824532 0.429996 
0.00370949 -0.00265182 0.526373 
-0.00185016 0.0025214 0.781402 
0.00142774 -0.00137338 1.22081 
-0.00461697 -0.00761411 1.19534 
0.00355376 0.00519738 1.24453 
-0.00141429 0.000873541 1.24995 
0.00235757 0.000305366 -0.00310801 
0.0025804 0.00431862 0.00783218 
-0.00111936 -0.000458338 0.407644 
-0.00346444 0.000377468 0.311691 
-0.000622148 0.00229737 1.20866 
-0.00369368 -0.00262215 1.24358 
-2.39225e-05 -0.00247919 1.18592 
0.00187485 0.00214904 1.15132 
0.00296616 0.00287695 0.715744 
-0.00140965 -0.00181793 0.937545 
0.00271311 0.000188126 0.885632 
-0.0026328 0.00189394 0.833309 
0.003121 0.000528829 0.00622359 
0.000787942 -0.00162328 0.381807 
-0.00168807 -0.000289525 0.406068 
-0.00399732 0.000565588 0.498364 
-0.000600008 -0.00109887 0.690455 
0.003261 0.000804778 0.515868 
-0.000687008 0.000842426 0.546803 
-0.00444408 -0.00180179 0.893742 
0.000567353 -0.00238432 0.466336 
-0.00128773 -0.000824646 0.382325 
-0.00152829 -7.6306e-05 0.713718 
0.00438842 -0.00201671 0.503656 
0.000494067 0.000754339 0.00627104 
0.000296231 0.000634766 0.00104726 
-0.00135865 -0.00348876 0.00378086 
0.000457984 0.00309046 0.562326 
0.00184021 0.000321893 1.18997 
-0.00118392 0.00106301 1.16066 
0.000764416 0.000636991 1.24288 
-0.000260185 0.000934353 1.24084 
1.98133e-05 -0.0101624 1.03567 
0.00531574 0.00343256 0.953876 
-0.00100816 0.00657798 1.16624 
-0.00234761 -0.00185821 1.14118 
0.00193471 -0.00163117 0.703531 
-0.000647496 0.00201099 0.458157 
-0.000792751 0.0015519 0.472074 
0.00396088 0.000545117 0.83149 
0.00434139 -0.00679094 0.00904466 
-0.00540005 0.011053 0.507939 
-0.00844063 0.000378196 0.0072501 
0.00382927 -0.00240134 0.554458 
-0.000258394 0.00163238 0.00104118 
-0.00117199 0.00212698 0.00500751 
0.00185769 -0.00459092 0.544507 
0.00316595 -0.00260742 0.476191 
0.000656856 -0.00241661 0.470705 
-0.00417276 0.00561541 0.0114585 
-0.00191318 -0.00328351 0.37829 
0.00393555 -0.00427592 0.505459 
0.00226118 -0.000146642 1.24175 
-0.0027034 0.00209464 1.16328 
-0.000446307 -0.000863766 1.17396 
0.000690428 6.19684e-05 1.23779 
-0.00814594 0.00222285 0.00769567 
0.00620122 -0.00105346 0.511762 
-0.00227226 0.0101781 0.00912719 
0.0020245 -0.0129929 0.454971 
-0.00365403 -0.00108338 0.376325 
-0.00116514 0.000741585 0.589347 
0.00134791 0.000459533 0.706272 
-0.00163966 0.00285321 0.562166 
0.00112247 -0.000241361 1.18586 
0.00178648 0.00174925 1.24597 
0.000141695 0.000667406 1.24364 
-0.00261285 -0.000645805 1.19366 
0.000352403 -0.000363117 0.000464449 
-0.000424272 0.000437406 -0.000133829 
0.000666529 -0.000682577 0.0085644 
-0.00150117 0.000776627 0.455471 
0.000262629 -0.000265924 0.00790853 
0.0020482 -0.0030478 0.000263618 
-0.000957745 0.00151752 0.00570069 
-0.00331955 0.000808464 0.560496 
-0.00177309 -0.00406446 0.808889 
0.000296507 0.00217142 0.502845 
0.00299504 -0.0027345 0.459592 
-0.00246585 0.00470242 0.415193 
0.000287923 0.000838262 1.24462 
0.00173319 0.0017793 1.24689 
0.000473765 0.0027344 1.21873 
-0.00332059 -0.00122439 1.19237 
0.00519779 0.00898964 0.0125483 
0.00614547 -0.0120845 0.587156 
-0.00261311 0.00986472 0.0106872 
-0.00824064 -0.00542507 0.483563 
-0.000362571 0.00126595 0.00350158 
0.000188432 -0.00111004 0.00735831 
-4.70333e-05 0.000315664 -0.00262011 
0.00450762 0.00131597 0.575805 
-0.000144539 -0.00128771 0.704439 
-0.00087492 0.0018484 0.467289 
-0.00086246 0.000199486 0.750121 
0.00213223 0.00093366 0.466135 
-0.000694016 0.00174603 1.1749 
-0.00226125 0.000837552 1.22641 
0.00113846 -0.000308679 1.23478 
-6.12906e-05 -0.00166222 1.24108 
0.00389464 5.61013e-06 0.71294 
-0.000675899 0.00305614 0.754645 
-0.000447846 -0.0012101 0.460613 
-0.000975668 -0.00170868 0.385895 
-0.0015705 -0.00597473 0.714442 
0.00208301 -0.000824453 0.4693 
-0.00340577 0.00707432 0.840123 
0.00195909 -0.00122884 0.401993 
0.00165135 0.000770439 0.00541147 
0.000113243 -0.000520993 0.44943 
0.00311654 -0.0025269 0.465928 
-0.000249828 0.00523301 0.480944 
-0.00516557 -0.0034468 0.703165 
0.00110291 -0.00335048 0.723864 
0.00422139 0.00424281 0.941814 
0.00148043 0.00879604 0.875693 
-0.000754347 0.00150695 0.0093752 
3.32351e-05 -0.000797551 0.325768 
-0.000303928 -0.000570009 -0.00163184 
-0.00247599 -0.002329 0.476266 
0.000693618 0.00229694 0.00697122 
-0.000187314 -0.000832615 0.00301303 
-0.000670202 -0.00267529 0.00377611 
-0.00149814 0.0030895 0.594114 
-0.0026068 0.00234725 0.7141 
0.000767369 0.000690944 0.724999 
0.00161658 -0.000811811 0.453304 
-0.000689915 -0.000315527 0.485829 
-0.00220389 0.00149765 -0.000343265 
-0.000515142 0.000353247 0.0062749 
0.00029275 -0.000196084 0.00574128 
0.00351276 0.000911589 0.476883 
-0.00739375 0.00187745 1.1441 
-0.00172873 -0.00318788 1.17217 
0.00850206 -0.00164591 1.03292 
0.000646573 0.00246068 1.0389 
-0.00192061 0.00880316 0.0112212 
0.000414779 0.00576513 0.00629348 
0.000789555 -0.00773344 0.505253 
0.003592 -0.00304847 0.554344 
-0.000566427 0.000478411 1.23543 
0.00263644 0.001492 1.20129 
-0.00120211 -2.04473e-05 1.24889 
-0.000462891 -0.00100081 1.24412 
0.00169775 0.00139992 1.23784 
-0.00346021 0.00124482 1.16613 
0.00237471 -0.00176272 1.24837 
-0.00274767 -0.001583 1.14425 
-0.000598809 0.00058661 0.539684 
0.0032388 -0.00107171 0.546838 
3.68523e-05 0.00387775 0.808836 
-2.50184e-06 0.000427672 0.408655 
0.00160452 0.000136079 0.000338588 
0.00121782 0.000120542 0.00520887 
-0.00048045 -3.98008e-05 0.000170042 
-0.00096646 0.00268319 0.550994 
-0.00284865 0.00124747 0.746531 
-0.000261783 -0.00159178 0.865236 
0.00195711 -0.00163546 1.02925 
0.000266226 -0.000713294 0.882527 
0.00219661 0.00385008 1.24113 
0.000646039 0.000163827 1.20728 
0.00300317 -0.00123599 1.19758 
-0.00576396 0.000506362 1.2444 
9.71163e-05 0.00443057 0.71231 
0.00136076 -0.003086 0.942058 
0.00653865 -0.0055314 0.712375 
0.00011115 0.00171186 0.551779 
-0.00016779 0.00221242 0.528642 
0.00720867 -0.00229885 0.903302 
0.00126824 0.00330007 0.675928 
-0.010919 -0.000130637 0.487794 
-0.000682402 0.00253142 0.00438372 
0.0010457 -0.00147211 0.367107 
-0.00135472 6.53223e-05 -0.000398919 
0.00536941 -0.00574652 0.517598 
-0.000892113 -0.000571037 0.323204 
0.000739427 0.000663241 0.583199 
-0.00256669 -5.53361e-05 0.494903 
-0.000655205 -0.00379076 0.500791 
0.00120877 -0.000108957 0.785521 
0.00328038 0.00131089 0.862381 
-0.00561365 -0.00276318 0.606726 
-0.00347911 -0.00162095 0.737458 
-0.000289291 0.00092545 0.010337 
-8.63897e-05 0.00032454 -0.000118083 
0.000346886 -0.0012266 -0.00461799 
0.00503207 0.00295041 0.562258 
0.00740929 0.00224281 0.809084 
-0.00612047 0.00124029 0.460961 
-0.00159306 0.00214946 0.527829 
0.00290847 -0.00307388 0.413556 
0.000888496 0.000223787 -0.00015337 
0.000910971 0.000209163 -0.00175553 
-0.00271311 -0.000574184 0.0090703 
4.10181e-05 0.000483095 0.404146 
-0.000333399 -0.000948753 0.373419 
0.00137304 -0.00291676 0.466579 
0.00316423 -0.000284292 0.00534459 
-0.00518105 -0.000446809 0.485467 
0.00167394 0.00221767 0.421628 
0.00187926 -0.00345102 0.771628 
-0.0061263 -0.00186618 0.558537 
0.0013284 0.00210392 0.418218 
0.00360558 0.00334065 1.13889 
-0.00254771 -0.00453809 1.23867 
-0.00638198 0.00176174 1.23782 
0.00447571 -0.00167662 1.17593 
-0.000726726 -0.00188033 0.00532858 
-0.0031944 -0.000881077 0.523848 
0.00187717 0.00335027 0.0021531 
0.000159171 -0.00567941 0.51213 
-0.00354675 -0.00394004 0.69671 
-0.000672497 -0.00323176 0.467982 
0.00519519 -0.00298556 0.534376 
-0.00196453 0.0043403 0.78082 
-0.00150967 -0.00219538 0.00215672 
-0.00701929 0.00543327 0.546548 
0.00609154 -0.000600953 0.0054305 
-0.00262201 0.00231487 0.44354 
0.0020159 -0.000965713 1.25518 
0.00250706 0.000609246 1.2428 
0.000843603 -0.00124741 1.19489 
7.35255e-05 -0.00151299 1.2476 
0.000105362 0.000929761 0.796371 
-0.00124938 -0.000956394 0.974543 
-0.00395957 0.000256934 0.562591 
0.00119709 0.00271359 0.815855 
-0.000826597 0.00290491 1.14471 
-0.00224061 -0.00242305 1.03296 
0.00256333 -0.00485538 0.97508 
0.00337099 -0.00121706 1.03444 
0.0041306 0.00126191 1.22787 
-0.00398269 -0.000373697 1.23893 
-0.00244309 -0.000538717 1.23125 
0.00258058 -0.00186186 1.17847 
0.000655661 0.00232574 0.00896695 
-0.00051253 -0.00222302 0.000421554 
-8.46779e-05 -0.000556483 0.00354128 
-0.0039382 0.00323749 0.508796 
0.00271231 -0.000805086 0.349209 
-0.00196247 -0.00318086 0.00844032 
-0.00114397 0.000117374 2.40056e-05 
0.00730053 -0.00212716 0.561742 
0.000295838 -0.000781335 0.00215912 
-0.000120842 0.000162083 0.00536294 
0.000114217 -0.000303664 0.00091342 
-0.000698256 -0.00042519 0.483215 
-0.000737699 -0.000637849 0.00755237 
-0.000616008 -0.00058685 0.00232781 
0.000388706 0.000415387 0.00183901 
0.00597491 0.000590239 0.584906 
0.000334356 0.00100862 0.00776758 
0.000394999 0.000802833 -0.00265551 
0.000197498 0.000445867 2.53398e-05 
-0.00311684 0.000534875 0.563143 
0.00330355 -0.00111346 0.558714 
0.00191549 -0.000516299 0.492885 
-0.0025965 0.00168623 0.753982 
-0.00242759 0.00743495 0.885152 
-0.00278062 0.0049921 0.71933 
-0.00268526 0.00148824 0.453313 
0.00421443 -0.00183686 0.710079 
0.00432257 -0.000587519 0.834099 
-0.00199594 0.00284222 0.00842379 
0.000575184 -0.0037524 0.475714 
0.00262798 0.00283481 0.00445168 
0.00308036 -0.00352555 0.507804 
0.00418042 0.000803964 0.487125 
-0.000169292 -0.00160253 0.328009 
-0.00313138 0.00735113 0.0121328 
-0.000328875 -0.00447714 0.468954 
0.00281692 -0.00173421 0.00666643 
-0.000901269 -0.000946483 -0.000741904 
-0.000380694 0.00182676 0.376723 
-0.00390854 0.00137384 0.415902 
-0.000466003 -0.00198648 0.56203 
-0.00551832 -0.00175775 0.47175 
0.00161746 -0.001113 0.752841 
0.00118497 0.00513959 0.393114 
0.00648298 -0.000470282 1.23857 
0.00126972 0.00229091 1.23694 
-0.00183226 -0.00446302 1.1413 
-0.00532514 0.00182713 1.17579 
0.000571167 -0.00084158 -0.00158264 
-0.000348003 0.000513642 0.00216023 
0.000659891 -0.00096524 0.00776427 
0.00322035 0.00577749 0.559459 
0.00267385 -0.00297304 0.00613234 
0.000218509 0.000555939 0.361342 
-0.00151106 -0.00172253 -0.00450167 
0.00171706 0.00156472 0.301671 
0.00218531 0.000690938 1.20291 
0.000827711 -0.000854691 1.19864 
-0.00356233 -0.000622225 1.2467 
-0.0012975 0.00130928 1.15348 
0.00122201 0.00126432 0.453908 
0.00175331 0.000103787 0.720083 
-0.00310933 -0.000986463 0.713786 
0.000604854 0.00181268 0.551057 
0.000385587 0.000725302 0.00762011 
0.000140679 0.000330594 -5.44788e-05 
0.000898725 0.00194214 0.00695031 
0.00200331 -0.00345082 0.562191 
-0.000950001 0.00303222 1.18415 
-0.0015186 0.000532355 1.18944 
0.00263669 -0.00167655 1.23724 
0.000197227 -0.002858 1.14071 
0.0019413 -0.00468869 1.23148 
-0.00102651 0.0044758 1.14232 
0.00420398 0.00319351 1.24158 
-0.0051063 -0.00413182 1.15317 
0.000154309 -1.29448e-05 0.00412963 
-5.49373e-05 4.60853e-06 0.00290317 
3.27995e-05 -2.75157e-06 0.000418577 
0.00237512 -0.00270452 0.498899 
0.000388952 -0.00238088 0.962917 
-0.00338932 0.000365046 1.07935 
-0.000111501 0.000229464 0.804873 
0.000207932 0.00214336 0.898714 
-0.0106733 -0.0206755 0.78981 
-0.00719831 -0.00100242 0.485147 
0.00464334 0.0185469 0.600139 
0.0089877 -0.00366415 0.87237 
-0.00181724 0.00038053 0.395932 
0.0012626 0.00426194 0.337264 
0.00317995 -0.0011319 0.00652687 
-0.00782916 0.000448806 0.551158 
0.000554793 5.47861e-05 0.00250139 
0.00114365 0.000112936 0.00829297 
-0.00234033 -0.000231109 -0.00283591 
0.00289573 0.00383035 0.53585 
-0.0023881 -0.00603724 1.20597 
0.00230237 -0.00242797 1.1324 
0.00102708 0.00684578 1.03767 
0.000945652 0.000905867 1.1694 
0.00275493 0.00172609 0.979006 
-0.000329452 0.0006134 0.841912 
-0.00311125 -0.00122848 0.690166 
-0.00368111 0.00111051 0.778101 
0.00344908 0.00194238 0.70925 
-0.00179435 -0.00276583 0.488914 
0.000467388 0.0027888 0.835247 
-0.000950875 -0.0012976 0.399247 
-0.000111388 0.000481506 -0.00336117 
-0.000161011 0.000488049 0.00604328 
9.47036e-05 -0.000531629 0.00926602 
-0.000652208 -0.000467446 0.560836 
-0.00207644 0.00341827 0.405888 
0.00469697 0.00226724 0.00642853 
0.00173672 -0.00541078 0.00440582 
-0.00912073 -0.00157082 0.475217 
-0.00152804 -0.000261676 0.533701 
-0.00720546 0.00580058 0.452985 
-8.41539e-05 0.00373485 0.00629086 
0.0032109 -0.0054683 0.418614 
-0.0019772 0.00082785 -0.00113811 
0.00212137 -0.000692278 0.00857021 
0.00123076 -0.000610378 -0.00285711 
-0.00104514 -0.00115164 0.351394 
0.00270528 0.00101032 0.463593 
-0.00193898 0.00201929 0.00376238 
-0.00427283 -0.00203906 0.00452731 
0.00297979 -0.00285435 0.491008 
0.00145434 -0.00208132 1.11973 
-0.00076812 0.00100644 0.945369 
-0.0010725 0.00153002 1.06571 
-0.00274333 -0.0028753 1.15098 
-0.00110717 -0.00164307 0.355335 
-0.0015843 0.00258091 0.00789314 
0.0027373 0.00109946 0.0039636 
-0.00467642 -0.00483506 0.512923 
-0.000219636 -0.00232048 0.000665754 
-6.63257e-05 -0.000576027 0.00106963 
-0.000116943 -0.000308343 0.00681197 
-0.00392162 0.00300104 0.598341 
-0.00223043 0.0017369 0.782324 
0.0020779 0.00906343 0.562118 
5.29572e-05 -0.00351158 0.944695 
-0.00325161 4.79347e-05 0.76531 
-0.000137404 2.00187e-05 0.00931463 
0.000167684 -6.87069e-05 -0.00170712 
0.0006036 -0.0002512 -0.00529815 
-0.00195891 -0.00473672 0.555397 
0.000895703 -0.0018111 1.00191 
0.0019129 -4.18762e-05 0.764083 
-0.000830039 0.000401462 0.930357 
0.000477856 0.000652188 0.93556 
-0.00500351 0.00277492 0.00538576 
-0.00620377 -0.00519466 0.0113636 
0.00663082 -0.00226343 0.484585 
0.00505846 0.00488831 0.400489 
8.21372e-05 -0.000111631 -0.00169187 
-0.000566119 0.00077302 0.00594532 
0.000823144 -0.00113246 0.00474103 
-0.00112425 -0.00129388 0.527394 
-0.000176432 -0.0013302 1.24902 
-0.0033552 0.00136741 1.2018 
-0.000304428 -4.79252e-05 1.22749 
0.00450735 -0.00113608 1.24373 
-0.000735276 -0.00372611 1.1827 
-0.000980629 0.000591722 1.23756 
-0.000335759 -0.00177884 1.18697 
0.000692437 0.00146715 1.14167 
0.00098448 -0.00230009 0.0037714 
-0.0029607 0.000728832 0.401679 
0.00268018 -5.19768e-05 0.283927 
-0.000182634 0.00571617 0.492169 
0.00266818 -0.0014064 0.490958 
0.000885217 0.000301261 0.822796 
-0.00140125 0.000757672 0.572002 
-0.00140459 -0.00105309 0.466489 
0.000714692 -0.000726351 -0.00230258 
-0.000851934 0.00086296 0.00761991 
-0.000441322 0.000448832 0.000894537 
0.00227951 0.00504849 0.55966 
0.00370849 -0.00087851 0.00473139 
0.00208081 -0.000473769 0.000193552 
-0.00143916 0.000267294 0.00762435 
-0.00220666 0.00444671 0.571187 
0.000714544 0.00439597 1.18162 
-0.000544978 0.00285216 1.13767 
0.00165024 -0.00322871 1.23861 
-0.00317551 -0.00613331 1.17722 
0.00111374 0.00538439 0.00112011 
0.00072329 -0.00674083 0.539916 
-0.00934602 0.002055 0.00863202 
0.00738861 -0.0036642 0.416527 
1.43079e-05 -0.0013179 0.822615 
0.0022354 -0.00134549 1.03045 
-0.00160419 0.000755415 0.97883 
-0.00230909 -0.00260571 1.0203 
-5.51741e-05 -4.52625e-06 0.000292338 
-0.000105454 -8.65095e-06 0.00645728 
3.29408e-05 2.70221e-06 -0.00136435 
0.00240657 -0.00149079 0.50183 
-0.000144305 -0.000417053 0.894018 
-0.00346821 -0.00226354 0.504908 
-0.00223452 -0.00136612 0.574952 
-0.000638716 0.00240913 0.550913 
-0.00239655 0.00192166 -0.00352913 
0.00322934 -0.00248872 0.369712 
-0.00201561 -0.00398493 0.00836328 
0.000756126 -7.80167e-05 0.335801 
0.0032694 0.00272055 1.11333 
0.00101143 0.00177455 0.927138 
-0.00424235 -0.00268049 1.02669 
-0.0029895 0.00154406 1.12905 
0.00167843 0.000647892 0.000405672 
-0.0021772 0.00465171 0.519515 
0.00142992 -0.00715167 0.00910256 
-0.0014582 0.00418704 0.408922 
0.000513335 -0.000665987 -0.00468641 
-0.00217395 0.00295251 0.0123715 
-0.000312619 0.000402671 0.00301884 
-6.70341e-07 0.00348503 0.436074 
0.00181516 0.000846173 0.712737 
-0.000629485 0.00086686 0.581939 
0.00142204 -0.00129802 0.36932 
0.00142485 -0.00363006 0.500894 
-0.00296092 -0.00354764 1.15491 
0.00142787 -0.000453387 1.17415 
0.00143696 0.00154686 1.2435 
5.49113e-05 0.000626876 1.20966 
0.000315196 -0.00277027 0.371144 
0.000105133 0.00204112 -0.00329894 
0.00305083 -0.0012439 0.00615132 
0.000382804 -0.00100588 0.318105 
-0.00216789 -0.000418771 1.22752 
0.0046189 0.000425633 1.23672 
0.00161735 0.00068669 1.23344 
-0.00160005 -0.00225009 1.25215 
-0.000983345 -0.000266573 -0.000528018 
-0.0031487 -0.000669293 0.006409 
0.00195352 0.000574573 0.00302669 
0.00391153 0.000962768 0.589601 
0.00143638 -0.00253242 0.00586692 
-0.000951069 0.00213488 0.00317981 
-7.01062e-05 -5.10844e-05 -0.0029803 
-0.00579031 0.00351574 0.592802 
-0.003742 0.000593564 0.936985 
0.00030773 -0.00218264 0.714752 
0.00472965 0.00362263 0.715716 
0.000171012 0.00328486 0.894732 
-0.00104128 -0.000109531 -0.00113943 
0.000483706 7.14605e-05 0.00210601 
0.00041578 0.000172548 0.0103238 
0.0024311 0.00258204 0.523135 
-0.000869819 -0.00278972 0.00762274 
-0.00233883 -0.00263337 0.010756 
-0.00152236 0.00182783 0.484778 
0.00171331 0.00187666 0.470994 
0.000299668 0.00160188 0.00734899 
-0.000597294 -0.00256657 -6.01048e-05 
0.000233292 0.0012007 0.00464112 
0.00348462 -0.000711766 0.561167 
-0.00466072 -0.000264733 0.00586956 
0.00033122 -0.00279113 0.462448 
0.000383719 -0.000429754 0.375294 
0.00413726 0.000456606 0.475647 
0.00166512 -0.00157788 0.00691026 
0.000197154 -0.000107653 0.00662778 
-0.00304287 0.00307462 0.00139949 
-0.000455087 -0.00244753 0.557658 
-0.000242163 0.00156876 1.07719 
0.00290757 -0.000706799 0.936757 
-0.00104766 0.00197382 1.09602 
0.00127952 -2.83273e-05 0.970532 
-0.00287263 -0.00306949 0.480348 
0.00106221 3.86786e-05 0.00506573 
-0.000575618 0.00189455 0.00188448 
-0.00249929 -0.00388589 0.573161 
-0.00309701 -0.00263182 1.20585 
0.00149374 0.000179283 1.08417 
0.00335048 0.0019051 1.1483 
0.00192246 -0.00138086 1.20117 
0.000753326 0.002088 0.584023 
-0.000272259 -0.00238596 0.510241 
0.00379709 0.000393097 0.706161 
-0.00203158 -0.00504067 0.87073 
-0.00247247 0.000925585 1.19225 
-6.14618e-05 0.000187641 1.23236 
0.00363478 0.000174412 1.24731 
-0.000642614 0.00126798 1.17829 
-0.000652618 -0.00367766 0.436053 
-0.00521784 0.00280209 0.00897476 
0.00265302 0.00180342 -0.00134573 
0.00521486 -0.00361587 0.462268 
-0.00114337 -0.00164473 1.13841 
0.00146635 0.000686136 1.24389 
-0.000492306 0.000724293 1.16718 
-0.00132321 0.00192236 1.17422 
-0.00103188 -0.0014847 1.25077 
0.000940244 -0.000206246 1.23572 
-0.00236931 0.000874264 1.22656 
-0.000947276 -0.00148793 1.23982 
5.65342e-05 -4.96626e-05 0.000991376 
-0.000323993 0.000341257 0.00568598 
-0.00112487 0.0010764 -0.0020153 
0.00650726 0.00112944 0.52766 
-0.000704178 -0.000643128 0.738873 
0.00122094 9.61274e-05 0.504807 
-0.00467777 7.64681e-08 0.894698 
-0.000717287 0.000129735 0.550431 
-0.000913333 6.03092e-05 0.000458156 
-0.00111159 0.00164147 0.00715488 
0.00247603 -0.000747293 0.348747 
0.00731627 -0.00214497 0.56141 
0.00620438 -0.00201888 0.0075459 
0.00157599 -0.00232209 0.0073798 
-0.00401173 0.000802566 0.396904 
-0.00779418 5.23067e-06 0.554518 
0.000885795 -0.00419459 0.00678224 
-0.00139949 0.00101627 0.52342 
0.00155483 0.00129877 0.00262571 
-0.003077 0.000156236 0.478965 
0.00136041 -0.00307893 1.07944 
-0.0016684 -0.00223619 1.11612 
0.000563717 0.000344065 1.18732 
-0.000962041 -0.000612885 1.14804 
-0.000450846 0.000525103 0.66173 
-0.00010803 -0.00419643 0.945579 
0.0020677 0.00961367 0.563622 
-0.00285145 0.00134656 0.76213 
0.00497598 -0.00258875 0.00572169 
-0.00131832 0.000766149 0.465437 
-0.0048896 -0.00732161 0.00642176 
0.00307252 0.00705951 0.481589 
0.00978271 0.00533708 0.00681875 
-0.00924625 0.00204229 0.543962 
0.00862258 -0.00336154 0.0123435 
-0.00667729 -0.00642915 0.473587 
-0.00307996 0.00348092 0.718369 
0.000553137 -0.00217018 0.46539 
-0.000735157 -0.000345206 0.716082 
0.00364987 -0.00139621 0.499857 
0.00256151 -0.00122891 0.00921047 
-0.00084492 0.000283623 0.0031771 
0.000249146 -4.18791e-05 -0.0030686 
-0.000148302 0.00635219 0.568289 
-0.00285522 -0.000495761 1.22701 
0.00127804 0.000751246 1.23269 
0.00620645 0.000188655 1.23991 
-0.00306865 0.00133907 1.17841 
-0.00402261 -0.00650018 0.711003 
-0.00496607 -0.00176815 0.504349 
0.00519313 0.00335745 0.876839 
0.000706385 -0.00248307 0.577295 
-0.00071312 0.0010348 1.08127 
-0.00083793 -0.00204876 0.875386 
0.00206399 8.53823e-05 0.911585 
0.000621846 -0.00179078 0.972319 
-0.000975371 -0.00145241 0.00306356 
-0.000660708 -0.00120412 0.496404 
-0.000709793 0.0026527 0.00579779 
-0.00358089 0.00502496 0.452698 
-0.00272024 -0.00147252 1.23163 
-0.000105575 0.000728579 1.19439 
0.00216016 0.000254011 1.13789 
0.000620019 -0.00311029 1.15038 
0.00012189 0.000115736 0.00261285 
0.000326075 0.000312261 0.00258883 
-0.000638819 -0.000614633 -0.000284901 
0.00296037 -0.00412829 0.570829 
0.00383588 0.00298089 0.00287404 
-0.00206466 -0.00144361 0.00330118 
0.00069684 0.000528133 0.000118617 
-0.00195187 -0.00123513 0.383007 
0.00156462 -0.00189404 0.712772 
-0.00126902 -0.00078642 0.93845 
0.00203783 -0.00114546 0.942303 
-0.00279145 -2.04739e-05 0.953129 
0.000402495 0.000391495 0.0021621 
-0.000425716 -0.000411153 0.00321507 
0.00150208 0.00145872 0.00372713 
-0.00355689 -0.00346674 0.528747 
-0.00501411 -0.00294709 1.07334 
0.000566294 -1.24955e-05 1.1982 
0.00298088 -0.00042375 1.2054 
-0.00228547 0.00358329 1.15108 
-0.00118637 -0.00464027 0.82446 
-0.0041687 0.00293406 0.921684 
0.00811234 0.00121614 0.922902 
-0.00143571 0.00401152 1.04168 
-0.000329106 -0.00416072 0.00597246 
0.00230077 0.00180885 0.000997104 
-0.00197653 0.000876103 0.372622 
-0.00295546 0.00625674 0.57188 
0.00342648 -0.00117745 1.13825 
-0.00133644 0.000948332 1.23175 
-0.00732035 -0.00271917 1.24461 
0.00216627 0.0038537 1.17384 
0.00150195 -0.000416432 0.458165 
-0.00410334 0.00125309 0.378213 
-0.00254302 -0.00334778 0.00710755 
0.00274389 0.00613972 0.557881 
-0.000462957 -0.00122097 0.00188019 
0.00129335 0.00312831 0.00065503 
-0.000526694 -0.00174673 0.00961356 
-0.00296604 0.000269934 0.471209 
0.000491293 -0.000699893 -0.00180026 
-0.00107605 0.0015342 0.00573795 
-0.000656766 0.000933775 -0.000237298 
-0.00413919 -0.00118862 0.550441 
0.00033163 0.00138133 0.373121 
-0.000374541 -0.000225411 -0.00111832 
0.000440605 -0.000634568 0.00143861 
-5.6275e-05 0.00151807 0.328872 
0.00436174 -0.0014987 0.705747 
-0.000817345 0.003607 0.834124 
0.00162735 -0.000183879 0.471149 
0.000831807 0.000292535 0.404903 
0.00169885 -0.00158068 0.715 
-0.000727065 -0.00118644 0.94044 
0.00283624 0.000792228 0.938492 
0.002083 0.00128189 0.96557 
-0.00396532 -0.00152888 1.1454 
-0.00147385 0.00120155 1.24018 
0.00297496 0.00333796 1.16548 
0.000164421 -0.000562153 1.16739 
0.000796715 -0.00173558 0.00138745 
-0.000481307 0.000847496 0.00535115 
-0.00052216 0.00111544 -0.000230357 
0.000839328 0.0033029 0.514458 
0.00501181 0.0057193 0.475075 
-0.00526141 0.000950709 0.889149 
0.00163742 0.00167715 0.737519 
1.83212e-05 -0.00347966 0.838857 
-3.02256e-05 0.0015082 0.00228027 
0.00182284 0.0011026 0.00238904 
-0.000905175 -0.00082035 0.323144 
-0.00257563 -0.00653071 0.513297 
-0.00136503 -1.6093e-05 0.00528146 
-0.00104695 0.00124529 0.00204588 
-0.00200144 -0.00284938 0.528007 
-0.00300853 -0.00382298 0.464477 
0.00213757 -0.000115641 -0.00142693 
-0.000872989 -0.00226322 0.00791452 
-0.0039563 -0.000117884 0.427828 
-0.000857408 -0.000724704 0.331118 
-4.66957e-05 -0.000334059 0.00951214 
0.00156965 0.00149781 0.00206641 
-0.000750518 -0.000788567 0.00140607 
-0.00267604 -0.000833994 0.569294 
-0.000380661 0.000259416 0.00426967 
0.000162751 -0.000113691 0.00405075 
-0.000264594 0.000181624 0.000205577 
-0.000298946 -5.7707e-05 0.544424 
-0.0022323 -0.00618869 1.17913 
0.00223201 -0.00124338 1.19491 
-0.00574228 0.000841226 1.04657 
0.00112302 0.00519253 1.14119 
-0.00194103 -0.000469307 1.08756 
0.005331 -0.00195361 1.02935 
-0.00377781 0.000437081 1.19058 
0.00228657 0.00216454 1.16257 
0.00215397 -0.00123254 1.22346 
0.00200621 -0.000117846 1.24639 
-0.00275145 0.000808094 1.19875 
-0.00155216 -0.00221489 1.15366 
-0.000871623 -0.00101304 0.305166 
-0.00228775 0.000153577 0.502806 
0.000849781 0.00155289 0.612889 
-5.82433e-05 -0.00366884 0.413363 
-0.00128589 0.00210032 1.24763 
0.00149507 -0.00371086 1.23864 
0.00316961 0.00150459 1.23321 
-0.00104522 0.00135402 1.24858 
0.00153204 0.000815013 0.0080966 
0.00157231 0.000536515 -0.00418731 
-0.00190204 -0.000779291 -0.000362169 
0.000560602 -0.0025658 0.31518 
0.0034093 -0.00319238 0.814208 
-0.00576094 -0.00237105 1.03017 
-0.00170828 0.000277434 0.97951 
-0.000965599 0.00115676 0.773209 
-0.000977303 0.000783555 -0.00385816 
0.00161182 0.00171448 0.407429 
0.00283293 -0.0019375 0.00198466 
-0.00283011 0.00164319 0.00607438 
-6.90507e-05 6.06972e-05 0.00427951 
-0.000327373 3.31753e-05 0.000657483 
-0.00189546 0.000170528 0.00214471 
0.0016259 0.0026381 0.499573 
-3.11367e-05 0.000544293 0.00828842 
2.94368e-05 -0.000134709 -0.00452809 
-4.46613e-05 -0.000645167 -0.000527743 
-0.00684139 0.00017578 0.496206 
0.000937402 0.0017707 -0.002009 
-0.00239355 -0.0045103 0.00529921 
0.00112869 0.0023774 0.00136509 
0.00347544 0.000216036 0.480448 
0.000264851 0.000271685 0.00561774 
-0.000862562 -0.000899086 0.00453267 
-0.00215392 -0.00223712 -0.00149839 
0.00378054 0.0012497 0.385974 
-0.00361642 -0.000996716 0.00262907 
0.00211908 0.000629931 -0.0034588 
0.00173152 0.000262691 0.00770779 
-0.00594061 0.0030206 0.47051 
0.00381115 -0.00216575 0.710614 
-0.00158806 -3.65388e-05 0.547151 
-0.00503294 0.0050068 0.453577 
0.00399537 0.00245463 0.841788 
0.00102944 -0.000360288 0.299694 
0.00125677 4.85404e-05 0.00601272 
-0.00480693 -0.000285753 0.50947 
-0.00128512 -0.00303877 0.415442 
0.00365125 -0.000260571 0.00707001 
-0.00206487 0.000274626 0.373741 
9.67589e-05 -0.00158005 0.000898263 
-0.00719336 0.00132075 0.561508 
0.00572574 0.00743696 0.804936 
0.00602712 -0.00709986 0.539567 
-0.00373645 0.00572088 0.548078 
-0.00272769 -0.00357731 0.4085 
-0.00147589 -0.0013327 0.698054 
-0.000251779 0.00087714 0.876146 
-0.00300051 -0.000721059 0.508225 
-0.000388381 -0.00312499 0.573733 
0.00341446 -0.0035325 0.715566 
-9.37516e-06 0.00435813 0.384554 
0.00157372 -0.0023472 0.374373 
-0.00466565 -0.000647913 0.400832 
0.00113004 -0.00201498 1.24855 
-0.00146203 0.00316341 1.16938 
0.00228695 -0.00272744 1.25971 
-0.00261382 0.000762191 1.15352 
-0.000562391 -0.00247863 0.00143831 
0.000176003 0.00108005 0.0055926 
-1.38378e-06 8.68914e-05 0.00184982 
0.00479779 0.00285451 0.511829 
-0.000513855 -0.000489586 0.00134712 
0.00158841 0.00154043 0.0012619 
0.00114314 0.00112713 0.00462441 
-0.00512311 -0.00166249 0.528913 
-0.00139894 0.000114124 0.00161735 
-0.000336819 2.74774e-05 -0.00119635 
0.000578278 -4.71755e-05 0.004185 
0.00106601 -0.00280858 0.496338 
0.00087682 -0.000381342 0.713239 
0.00307503 -0.000840473 0.470623 
-0.00315926 0.000650351 0.482906 
0.00303682 -0.000213731 0.397464 
-0.000420879 -0.00261046 0.00118627 
0.00433653 -0.00317757 0.00548643 
-0.000549737 0.0019755 0.373636 
-0.00797559 0.004865 0.577758 
4.03527e-05 -6.21896e-05 0.00105754 
-0.000909343 0.0012601 -0.00262942 
0.000337287 -0.000489525 0.00429619 
0.00554129 0.000176743 0.528361 
0.00122451 -0.00063055 0.382226 
0.000301132 -8.69221e-05 0.000597677 
9.01154e-05 0.000278133 0.00281083 
0.00114007 0.000383708 0.409219 
0.00489767 0.00150398 1.22828 
4.87658e-05 0.000743499 1.23534 
-0.00672937 -0.00167208 1.23506 
0.000690959 -1.0529e-05 1.25169 
0.00508391 0.00180256 1.07402 
-0.00484798 0.000346531 1.21673 
0.00141834 -0.000293104 1.1264 
-0.00528772 0.00461416 1.19616 
-1.00911e-05 0.000248374 0.00686788 
-0.000408262 0.000974829 0.00167003 
-0.000332392 0.000777552 0.000869057 
0.00629182 0.0015312 0.574306 
-0.00307824 -0.00106102 0.710503 
0.00141436 -0.000412505 0.466421 
-0.000667893 0.0018503 0.372545 
-0.00102991 0.00211557 0.45818 
-0.00388631 0.000229933 0.435348 
0.000374603 0.000282979 0.00116139 
-0.000277986 -0.000409523 0.0040821 
0.000489728 -0.000108689 0.330224 
0.000403205 -3.27729e-05 0.00610608 
0.00141048 -0.000114645 -0.00014357 
-0.00116957 9.50637e-05 -0.000546831 
0.00167729 0.000558723 0.515921 
0.000925577 7.76449e-05 0.000201496 
0.00112123 9.40583e-05 0.00514594 
-0.00202351 -0.000169749 0.00383395 
0.000326321 -0.00291501 0.488918 
-0.000570591 0.00122407 0.00479815 
-0.000923551 0.00197395 0.00808064 
-0.000948204 0.00217738 0.00181951 
-0.000453864 -0.00392655 0.573038 
-0.00221978 -0.00290017 1.15625 
0.00155596 0.00164627 1.24378 
-0.000406184 0.00142602 1.18633 
-0.00106229 -0.000347441 1.20762 
0.00227478 4.52309e-05 0.709075 
0.000568169 0.00180726 0.375825 
0.000311218 -0.000952847 0.469148 
-0.00352668 0.000628532 0.455627 
0.0022366 0.000154858 0.571272 
0.00318635 -0.00348803 0.755438 
-0.00457406 0.000820936 0.622418 
-0.00174409 0.00589191 0.385449 
0.000927492 0.00245846 0.00523567 
0.00141383 -0.000934153 0.334481 
0.000253629 0.000410591 -0.00282864 
-0.00133528 -0.00301089 0.00106611 
0.00103472 -0.000334554 0.00854851 
0.000276576 -0.000136141 -0.000919191 
0.00274914 -0.0011634 0.00388324 
-0.00298749 0.00246178 0.47679 
0.00236554 -0.000106458 0.644143 
-0.00175053 -0.00260737 0.502942 
-0.000553738 0.00187656 0.374781 
-0.00306187 0.000602168 0.41305 
-0.00136269 -0.00065019 0.000521255 
0.00388063 0.00179521 0.00219957 
-5.44591e-05 -9.93955e-05 0.00481755 
-0.00565106 0.000563534 0.471172 
-0.00258006 -0.000222995 0.376404 
0.00108821 0.000171469 0.465831 
-0.000581998 0.00367543 0.708495 
-0.00439551 -0.00300442 0.489686 
-0.00175608 0.00267706 0.939774 
-0.000900788 0.000699691 1.05594 
0.00354238 -0.00140839 1.13814 
0.00357899 0.00128788 1.0574 
0.000406254 0.00159782 0.44348 
-0.000718229 -0.00152391 0.00344215 
-0.00387406 0.00137412 0.0056277 
0.00274841 0.00100703 0.449589 
-0.000634205 -0.000290775 0.00028872 
-0.00031519 -0.000152379 0.00186019 
-0.0016657 -0.000773488 0.00289327 
0.00506593 0.000322586 0.47086 
0.000445758 -0.000464566 0.718219 
0.000602238 0.00109574 0.347223 
-0.00222399 0.00175229 0.450141 
-0.000447435 0.00194572 0.540513 
0.00243983 1.30294e-05 1.25112 
0.00125279 -0.00284358 1.25572 
-0.00294768 -0.00139628 1.18998 
-0.00185557 0.000382763 1.15707 
0.000770979 -0.00132555 0.00974761 
0.000270297 -0.000900302 -0.0039356 
-0.0005436 0.00120651 -0.00228286 
-0.00140255 -0.000951194 0.330382 
0.00248639 -0.00139758 0.00617568 
-0.0013921 0.000778848 -0.00335327 
-0.00328632 0.00151605 0.00133957 
0.00402682 0.000122974 0.546343 
-0.00105743 0.000306721 0.00144965 
0.000471007 -0.000155816 -0.0014894 
0.00306526 -0.000701149 0.00405948 
-0.00250629 0.00272179 0.570854 
-0.00488359 0.000941537 1.16377 
0.00420671 -0.00784708 1.2064 
0.00152778 -0.000810506 1.24798 
-0.00342272 0.00678223 1.15236 
0.00447617 -0.00160587 0.746402 
0.00156372 0.000707284 0.515681 
0.00150471 0.000210955 0.474295 
-0.00673007 0.00044457 0.830938 
-0.000452887 4.31106e-05 1.0746 
-0.00447197 0.00258263 1.01778 
0.000223009 -0.00182319 1.17415 
0.00172826 -0.00474271 1.15265 
-1.31614e-05 -0.000684784 1.24918 
-0.00500118 -0.00309615 1.24471 
0.0012982 0.00366352 1.22161 
0.00616833 0.00576993 1.19632 
0.000827946 0.00176149 -0.00271294 
-0.00017248 -0.00029361 0.00737092 
-0.000492642 -0.00105778 0.000717584 
-0.00295432 0.00298969 0.541263 
-0.00244018 0.000989733 1.22575 
0.00141364 -0.00345617 1.23905 
-0.00156624 0.00270428 1.24958 
-0.00084734 0.000269509 1.24849 
-0.00203509 -0.00102556 0.00208204 
-0.000337027 -0.000489406 0.000650442 
0.00095905 -0.000963909 0.280004 
0.0033491 0.00624548 0.500277 
0.00287544 2.0148e-05 0.786415 
-0.000744775 0.00151109 0.99774 
0.000479828 -0.000315166 0.973971 
0.00214832 0.000518615 0.981081 
0.00197422 -0.00180667 1.1438 
-0.00123247 0.00533568 0.924595 
-0.00339177 -0.00170937 1.08345 
0.000705837 0.00195501 1.03268 
0.00221655 0.000676924 1.18358 
0.00141562 -0.00287772 1.08299 
0.000778924 0.000348929 1.13718 
-3.96124e-05 -0.00118792 1.05187 
0.00135406 0.000374556 0.334654 
-0.0024326 -0.00130073 0.00855271 
-0.00115491 -0.000924246 -0.00514 
0.00178182 0.00113863 -0.000688867 
-0.00287795 0.000705255 0.271456 
0.00247985 -0.000388792 -0.00404425 
-6.37368e-05 -0.000400127 0.357553 
-0.0016964 0.00340568 0.0045735 
-0.000768081 -0.00179585 0.394885 
0.000218711 0.000161036 0.00557328 
-0.00554552 0.00236766 0.480256 
0.000284831 -0.00258405 0.425709 
-0.00252452 0.0089907 0.00642072 
-0.000248159 0.00110234 0.00258727 
0.00103834 -0.00289307 0.00456223 
-0.000560054 -0.00361513 0.522124 
0.00168904 0.00174666 0.00476223 
-0.00102103 -0.000977807 0.00287287 
-0.00257322 -0.00252514 0.00275621 
0.0041646 3.76787e-05 0.47091 
-0.0011104 0.00142297 0.409638 
-0.00274329 0.000910517 0.497818 
0.00345376 -0.00102927 0.746029 
-0.0012447 -0.00273972 0.55061 
4.04411e-05 -0.0013734 0.284541 
0.000385874 0.000203898 0.000231028 
-0.000233409 0.000300505 -0.00174164 
9.27157e-05 -0.000943037 0.405169 
0.000105272 -0.00106604 0.00618818 
0.000134402 -0.00136103 0.0016089 
0.000118607 -0.00120108 0.00690555 
-0.00150237 0.00433223 0.526918 
0.0026288 -0.000520364 0.815159 
-0.00087553 0.00152358 0.572993 
-0.00192234 -6.77447e-05 0.471166 
-8.39211e-05 -0.00556733 0.775949 
0.00149381 0.00135747 -0.00410699 
0.00181266 0.00213743 0.00729519 
-0.00032674 -0.00103591 0.336978 
-0.00184813 -0.00186849 0.000345968 
0.000535295 0.00150321 1.07359 
0.00204233 -0.00115346 1.0307 
0.000464412 0.000572438 1.17265 
0.000132378 0.000398922 1.03887 
0.000726889 0.00432289 1.02877 
-0.00634636 0.00140082 1.17064 
0.00237842 -3.05546e-05 0.971442 
-0.00168168 -0.00171415 1.10504 
-0.00113724 -0.00159358 0.658078 
0.00125059 0.000244887 0.474952 
-0.00115092 -0.000111724 0.513587 
-0.00305415 0.00111434 0.830387 
0.00522153 -0.000762978 1.14828 
-0.00135219 0.000893065 1.13995 
-0.00313702 0.00108738 1.23537 
0.000234284 0.00136205 1.19949 
0.00294536 0.00101741 -0.0034013 
0.00222452 -0.00476365 0.00923137 
-0.00420896 -0.00150912 0.392601 
-0.00100328 -0.000423283 0.333046 
0.00118212 0.00134512 -0.00421445 
0.00227056 0.00197929 0.00615165 
-0.00149499 -0.00146666 -0.000197296 
-0.00124777 -0.00104785 0.407149 
-0.00194589 -0.000159771 -0.000710071 
0.000438707 3.52408e-05 0.000350924 
-0.00339799 -0.000313326 0.00716036 
0.00323308 -0.00386245 0.547506 
0.00611723 0.000276929 0.711377 
-0.00190553 0.00152062 0.936003 
-0.00159392 -0.00398413 0.974862 
0.00119248 0.00194187 0.795234 
0.000519512 -0.00133465 0.0096235 
0.000838284 -0.00161868 -0.00518705 
-0.000777195 0.00163702 -0.000469543 
0.00331672 0.00571603 0.45337 
0.000731422 0.00365802 0.00614659 
0.000743507 -0.00206738 0.38426 
0.00418782 -0.000734676 0.00383638 
-0.00332768 3.46128e-05 0.395489 
-0.000662342 0.00568213 0.380544 
-0.00402428 0.00196308 0.703652 
0.00581577 -0.00378803 0.483299 
0.00211686 -0.0080746 0.803451 
0.000458749 -0.00164595 1.03269 
0.00091952 0.00206358 0.924046 
-0.000597818 0.000288596 0.747816 
-0.000399641 0.00037709 0.876796 
-0.00295468 -0.000777599 0.404442 
2.19768e-05 0.00195742 0.00199238 
0.00277503 0.000197979 0.00412348 
-0.00372345 0.00154086 0.506007 
-0.000170172 -0.00195301 0.71513 
0.000961589 -0.000199517 0.398472 
0.000975954 0.00202207 0.348595 
-0.000391443 0.00208574 0.540692 
0.000527302 9.58158e-05 1.07452 
-0.00228197 -0.000866049 1.11991 
0.00225864 -0.00197589 1.20759 
-0.000509436 0.00157669 1.19355 
-0.000617611 -0.000633539 0.718837 
0.00379762 -0.00195191 0.708708 
-0.00297481 0.00233649 0.943579 
0.00102665 0.00138714 0.826783 
0.00186484 0.000623402 1.13507 
-0.00113687 0.000298403 1.17231 
-0.00124579 -0.00019673 1.13597 
-0.000129449 -0.000737953 1.03906 
0.00218736 -0.00146222 -8.48356e-05 
-0.00121589 0.000700676 -0.00335315 
-0.00238526 0.0018341 0.00735841 
-0.000705486 -0.00199492 0.351173 
-0.000888496 -0.00336299 -0.00403859 
0.00157287 0.00646793 0.0117546 
-0.00031444 -0.00113621 -0.000946297 
-0.00210704 0.00332987 0.489229 
0.000995112 -0.00168019 0.00292459 
-0.00207012 0.00263838 0.0066586 
-0.000508265 0.000971794 -0.00318339 
0.00365602 -0.000630117 0.467875 
0.00211621 -0.0018103 0.00816178 
-0.00292998 -0.00259122 0.442437 
0.00156342 0.0010762 -0.001379 
-0.000314542 -0.00115103 0.353333 
-0.00162126 -0.00201069 0.00537901 
0.000842806 0.00101913 -0.00399352 
0.000897508 0.00122762 0.00227103 
-0.00224995 -5.07669e-05 0.421214 
0.00152465 -0.000489569 0.676151 
-0.0024544 0.000295907 0.429459 
-0.000155101 -0.00206015 0.77235 
-0.000668333 0.00146971 0.547118 
-0.00122637 0.00197002 1.24413 
0.00205824 -0.000203081 1.23892 
-0.000908805 -0.00140385 1.20829 
-0.0010863 0.00169034 1.23963 
-0.00277269 0.0043801 0.712337 
0.00169414 -0.00659724 0.716353 
0.00354613 -0.000686356 0.464581 
-0.00864825 0.00172586 0.877429 
0.000246228 -2.58004e-05 0.375068 
-3.8043e-06 0.000983101 0.48209 
0.0013109 -0.00100448 0.470936 
0.00293333 -2.43051e-05 0.39619 
-0.000280737 -0.000360475 -0.00216421 
0.00119253 -0.00118589 0.470912 
0.00246226 0.00267936 0.00667886 
-0.002174 -0.00198466 0.00382317 
-0.00351821 0.00479382 0.768885 
-0.0043177 -0.00416639 0.52475 
0.00370039 -0.00028261 0.77486 
0.00067277 -0.00124629 0.855095 
-0.0010067 9.7352e-05 1.23697 
0.000672991 -0.00155936 1.2443 
0.000668703 0.00192424 1.24102 
-0.000124474 0.00104407 1.24184 
0.00324274 0.00373355 1.01689 
0.000817664 0.00106588 1.01183 
-0.00449524 -0.00362948 1.1657 
-0.0039379 0.00369605 1.14747 
0.00026034 -0.00246768 0.871979 
-0.00126224 0.00386699 0.550682 
-0.000425917 -0.00181223 0.703011 
-0.000197469 -0.00226913 0.570883 
-0.000100822 0.00146609 -0.00093362 
-6.33766e-06 9.21594e-05 0.0016148 
-2.36852e-05 0.000344414 0.00315793 
0.00279738 -0.00154665 0.38106 
-0.00191629 0.00167007 0.00847107 
0.00096377 -0.0010539 0.00277303 
0.000164104 -0.000169793 0.000154686 
0.00161437 0.00213144 0.544846 
0.00506816 0.00122192 1.13889 
-0.00512687 0.000307658 1.08103 
0.000323009 0.00284507 1.17348 
-0.000518894 -0.0023804 1.03899 
0.00142171 -0.0015814 -0.00473222 
0.00212274 -0.00178191 0.00771159 
-0.00165742 -0.000421545 0.331968 
-0.00222501 0.00220437 0.000504018 
0.00180999 0.000457062 -6.75016e-05 
-0.000374332 -0.000136233 0.00337286 
0.000140192 -6.34881e-05 0.00795913 
-0.00339709 -0.000924621 0.475315 
0.00227495 -0.0022081 0.00272819 
9.54673e-05 -0.000147144 -0.00125016 
-0.00131928 -0.000209703 0.462434 
-0.00298296 0.00327253 0.00587144 
-0.000908267 0.000313544 0.696668 
-0.00185778 -0.00328809 0.510184 
-0.00015817 -0.00128628 0.519315 
-0.00151613 -0.00522378 0.861307 
0.000954094 0.00926571 1.03099 
-0.00326111 -0.00183662 0.884447 
-0.00385032 -0.00428302 0.750273 
0.00571764 0.00246569 0.835248 
0.000160973 -0.00111136 0.406003 
0.00188443 -0.00172801 0.575123 
-0.00213802 0.00141201 0.688694 
-0.00444746 -0.00252079 0.775762 
0.000966103 0.00231536 1.22303 
0.00146977 -0.00183222 1.24663 
-0.00153657 -0.000414733 1.23925 
0.000223405 0.00149687 1.23926 
6.90094e-05 -0.00140748 -0.00285034 
3.34734e-05 0.000840114 0.00745877 
4.58797e-05 -0.000673364 -0.00037167 
0.00485423 0.00120506 0.487175 
-0.00125111 -0.00456196 0.85171 
0.00212104 0.00418617 0.664603 
0.0034901 -0.00186102 0.90463 
-0.000152568 0.00282992 0.550461 
0.000345854 -0.00144413 0.0118155 
0.00248469 0.000986776 0.359265 
-0.0019102 -0.000813832 0.383636 
0.00213921 -0.00346639 0.455426 
-0.000662126 0.00286019 -0.00237311 
0.00465471 0.00283212 0.00957876 
0.00109025 -0.00420459 0.425376 
0.000317712 -0.000763972 0.337691 
0.000748266 0.000204867 0.337553 
-0.000750662 0.000626885 -0.00208565 
0.00137312 -0.000930939 0.399769 
0.000909647 0.00174224 0.0033835 
0.0010963 0.00052829 0.648378 
-0.00191346 0.0013894 0.374871 
0.00414789 -0.00248039 0.61781 
-0.00259478 6.60523e-05 0.410339 
-0.000982488 -0.00272041 0.00430435 
0.00211806 0.00453628 0.00630453 
-0.000680364 -0.00142265 -0.00242986 
-0.00106618 -0.000574944 0.478461 
0.000432977 0.00201885 1.20629 
-0.00120242 -0.00113769 1.16754 
0.00135623 -0.00267175 1.08261 
-7.13545e-05 0.00167272 1.17829 
-0.000533189 -0.00199492 0.00272569 
0.000591266 0.00231003 0.00270688 
-0.000870921 -0.00326104 0.0043052 
0.00296788 0.00521856 0.53184 
-0.00360997 -0.00245554 0.699212 
0.00129182 -0.00295076 0.870385 
-0.002038 -0.00738583 0.513844 
-0.000842374 0.00112322 0.855627 
0.00240909 0.000788294 0.000244953 
0.00236004 -0.00102037 0.00197557 
-0.00219369 -0.000485499 0.399535 
-0.00379578 0.00406784 0.501641 
-0.00175517 0.002304 0.00363381 
0.00101894 0.000963497 0.320605 
-0.00228525 -0.00113919 -0.00138954 
0.000937717 0.00185518 0.495852 
0.00300201 0.000442677 0.349189 
-0.00302485 -0.00119723 0.570458 
1.6627e-05 -0.000848173 0.28118 
0.00331588 -0.00459281 0.544427 
0.000903717 0.00252316 1.21685 
-0.00302975 -0.00174156 1.24488 
-0.000268049 -0.00151079 1.16261 
0.00529349 0.00536859 1.19733 
0.00138359 -0.00234908 0.376428 
0.00119948 0.00518589 0.387292 
0.000273335 -0.000527047 0.00439933 
-0.00449705 -0.000846394 0.395133 
0.00073296 -0.0006079 0.374967 
-0.0006168 0.00302608 0.00620832 
-0.00209662 0.0019097 0.464594 
-0.00049164 -0.00256162 0.467838 
0.000465403 0.00187631 0.613993 
-0.000500245 0.000142413 0.308136 
-0.000449901 -0.00144959 0.353997 
-0.00252661 -0.00208105 0.496794 
0.0038976 -0.00181499 0.00528036 
-0.00063303 0.0016249 0.464087 
-0.000179774 0.000160465 -0.00240033 
-0.00377395 0.0014169 0.00445603 
-0.00039837 -0.000237402 -0.00128096 
0.00281789 0.00148933 0.00312059 
-0.00229174 -0.00100254 0.00398914 
-0.00132424 -0.000948518 0.432965 
0.00247682 0.000191029 0.000204755 
0.000645284 0.000110185 0.00693928 
-0.000930016 -4.29563e-05 0.00320251 
-3.02135e-05 0.00403032 0.500264 
-0.00329912 0.000812155 0.00764213 
0.000201045 -4.57532e-05 -0.000128995 
0.00087073 -0.000230728 -0.00349199 
-0.00120032 -0.00634056 0.499704 
0.000971365 -0.00194428 -0.00448801 
0.000401291 0.00177875 0.359188 
0.00114756 -0.00334653 0.00701064 
-0.00147393 0.0034519 0.000924562 
7.32488e-06 -0.00309834 0.310809 
-0.000315843 0.00159603 0.375691 
0.00279453 0.000584607 0.00532894 
-0.00277926 -0.000585127 0.407039 
0.00145952 -0.00141987 0.645881 
-0.00143842 0.000759155 0.405169 
0.00101764 -0.000949874 0.380882 
-0.00321982 0.00142335 0.494759 
0.00111476 0.00103818 0.336911 
-0.00216845 0.00235303 0.665314 
0.00199217 -0.00158501 0.349213 
0.00518608 9.70465e-05 0.543418 
-0.0017615 -0.000857347 1.21367 
0.000312055 -0.000270448 1.23997 
-0.000766031 -0.00216925 1.18644 
0.000240986 0.00121912 1.23444 
0.000389869 0.00175534 1.07125 
-0.000140202 0.000909375 1.176 
0.00203562 -0.00105403 1.02897 
-0.00112215 0.00230645 1.10898 
0.000464423 -0.00135768 0.306334 
0.00214363 -0.000771829 0.617789 
-0.000553858 0.00063716 0.378027 
-0.00268745 -0.000396523 0.406155 
-0.000731302 -0.00218479 1.19158 
0.000774799 0.00058902 1.23683 
0.000759633 -0.000741423 1.18107 
-0.000298477 0.000287559 1.23338 
-0.0002552 -0.00378662 0.392614 
-0.00441331 0.000721806 0.00743736 
-0.000200845 0.00236215 -0.00159911 
-0.000262221 -0.000953673 0.352451 
0.00215419 0.00212232 0.0024949 
0.000257642 0.000276883 0.00315011 
0.000189893 0.000194206 0.001101 
-0.00767112 -0.00242244 0.468088 
2.50354e-05 -0.0029568 0.00620813 
0.00397369 0.000667076 0.463024 
-0.000782881 -4.45319e-05 0.375522 
0.000200315 0.00324512 0.479658 
0.00446554 0.00855415 0.470279 
0.00363365 -0.000925227 0.74552 
0.000572721 0.000826123 0.473469 
-0.00122553 -0.00537408 0.838189 
-3.84639e-05 -0.00295746 0.521513 
-0.001783 -0.00223318 0.510653 
-0.00478221 -0.00113219 0.697602 
-0.00181224 -0.00277784 0.856595 
0.000635186 -0.00129184 1.18756 
0.000208715 0.000299482 1.24427 
-0.00229509 0.000826936 1.22103 
-0.00175762 0.000595089 1.1917 
-0.00106701 -0.00545974 0.694123 
0.00366204 -0.00190446 0.774553 
-0.00459647 0.000565448 0.525345 
0.000972363 0.00104937 0.855718 
0.00325925 0.00261172 0.462552 
-0.00430505 0.00324345 0.00914282 
0.00138725 -0.00066868 0.376608 
0.000793213 -0.00293144 0.469322 
-7.52654e-06 -8.9722e-05 0.00430488 
-0.000109834 -0.00130929 0.00109205 
7.94862e-05 0.000947525 0.00316817 
0.00115097 0.000340442 0.508877 
0.00210761 -0.00202215 0.401002 
-0.00273551 9.46157e-05 0.68886 
0.0011868 -3.0407e-05 0.424467 
-0.00628272 -0.0022756 0.77995 
5.09655e-05 -0.00440266 0.482075 
0.00170645 -0.000436309 0.00668064 
-0.000707227 0.00123444 0.376397 
-0.00149535 0.00142074 0.457427 
-0.00194147 -0.0062615 0.514284 
0.0014832 -0.000224699 0.871007 
-0.00179626 -0.00154561 0.697572 
-0.000971048 -0.00218305 0.855949 
0.000488228 -0.000495087 0.00201785 
-0.00093249 0.000955916 -0.00185287 
0.000908383 -0.000903798 0.00711692 
-0.000407818 -0.000831683 0.41806 
-0.000650091 -0.00103325 0.377534 
0.00404953 -0.00358446 0.00836509 
0.000972725 0.0019723 0.481902 
-0.0039258 0.00171093 0.477508 
0.00333444 -0.0028484 0.93684 
-0.000117702 0.00172035 0.938815 
0.00269887 -0.000806681 1.07231 
-0.000164317 -0.00026867 0.868389 
0.00176318 -0.00231653 1.12744 
0.000545818 0.00134203 0.940227 
-0.00149254 0.00175661 1.0186 
0.00224354 0.00192444 1.14588 
0.0019786 0.0028136 -3.17116e-05 
-0.000341362 -0.000483007 0.00345954 
0.000493307 0.000705434 0.00562689 
-0.000179406 -0.0043788 0.462008 
0.00101853 -0.000743205 0.00195505 
-0.00114061 0.000831073 0.000428827 
-0.000783887 0.000570465 0.00179491 
0.000956653 -0.00258778 0.4153 
0.000609173 -0.0013809 0.00189207 
-0.000303774 0.00296235 0.37681 
-0.00303469 -0.00263662 0.00431094 
0.00658564 0.00460076 0.512525 
-0.000389504 1.88167e-05 0.375619 
0.000392359 0.000586305 0.00459225 
-0.00086383 0.00164178 0.485737 
0.00721045 0.00122749 0.400012 
0.00383073 -0.0025526 0.712762 
0.00315942 -0.00396507 0.45836 
0.00186152 0.00318656 0.713053 
-0.00303849 -0.00209666 0.541846 
-0.00289312 0.000880891 -5.63106e-05 
0.00348021 -0.000823547 0.00699259 
-0.00201431 0.000539106 -0.0022157 
0.00358865 0.001287 0.548275 
-0.000250113 0.000613012 -0.000261433 
0.00119607 -0.00329847 0.00670574 
-0.000731863 0.00159327 0.00221519 
2.24309e-05 -0.00116102 0.466777 
-3.76514e-05 2.97586e-05 -0.000927755 
0.00138605 -0.0030239 0.00275845 
-0.001206 0.00308798 0.00503799 
-0.00178094 0.000292445 0.456027 
-0.00270545 -0.00116317 0.0063777 
0.000988516 -0.000645589 0.378032 
-0.000810179 0.00166277 0.453655 
0.00291038 0.00145723 0.472216 
0.00218827 0.00110903 0.00795468 
-0.00233115 -0.00161248 0.00108189 
4.6904e-05 0.000120385 -0.00197136 
0.00111708 0.00086146 0.385098 
0.00275573 0.00253399 0.00602457 
-0.0015656 0.00224675 0.483847 
-0.000256395 -0.000157932 -0.00237082 
-0.00221046 -0.00240821 0.00390383 
-0.000261306 0.00436989 0.937514 
-0.00246279 -0.00231839 1.05153 
-0.000432706 -0.00318167 1.08612 
0.00424611 0.00296142 0.874681 
0.00177652 -0.000727795 -0.00149278 
-0.00201354 0.000649155 0.00831767 
-0.000210786 0.000172986 -0.00308905 
0.000220064 0.00145748 0.328098 
-0.000345686 -0.00132855 0.3522 
0.000571631 -0.00139223 0.602974 
0.000361721 0.00178535 0.616229 
-0.00227106 -0.00149355 0.496802 
0.000118313 -0.00122956 0.00277787 
-0.000143121 0.00161956 -0.0022093 
0.000234102 -0.00207085 0.00864917 
7.6928e-05 -0.00250028 0.461239 
-0.00210133 0.00651658 1.16985 
0.00465951 -0.000605789 1.17461 
0.000334396 -0.00751313 1.03208 
-0.00130131 -0.00115473 1.13711 
-0.00378149 0.00136857 0.395636 
-1.21628e-06 -0.000607765 0.412341 
0.00482905 -0.00260998 0.748246 
-0.00475022 5.73893e-05 0.546453 
-0.00229393 0.00700146 0.713827 
-0.00178751 -0.00197085 0.87135 
8.95997e-05 -0.00667543 0.713506 
0.00360195 -0.00024331 0.565618 
-0.00198548 -0.0014701 0.814966 
0.00231378 0.002502 0.994362 
-0.00199185 0.00062505 1.03666 
-0.00132834 0.00048629 0.865394 
0.0032664 0.00145662 0.00761918 
-0.0030546 0.00156389 0.3753 
0.00137393 -0.000991926 0.000305586 
-0.00497084 -0.00340905 0.498353 
0.000621404 -0.000647155 0.00236665 
-0.000798113 0.000827412 0.00300098 
0.00115273 -0.00119854 0.0012523 
-0.00443581 -0.00132313 0.543202 
-0.000288156 0.00140811 0.332949 
-0.00240434 1.75457e-05 0.431816 
0.00151088 -0.000499021 0.676213 
-0.000849307 0.00186893 0.54361 
0.00149528 -0.00010283 0.00417298 
0.000301494 -2.07336e-05 0.000814987 
-7.59876e-05 5.22562e-06 0.00105465 
0.000210242 0.00238966 0.465924 
-0.000115345 -0.00157546 0.00371536 
-3.81148e-06 -5.20597e-05 0.000855129 
-1.49676e-05 -0.000204437 0.0018784 
0.00298768 -0.000640897 0.466728 
0.00164624 -0.000781797 0.555065 
-0.00245696 0.00107703 0.401005 
-0.000234947 -0.00107754 0.76341 
0.00155467 0.0027723 0.486157 
-0.000133057 0.0018793 0.00394246 
1.44744e-05 -0.000204437 0.00045926 
3.6859e-06 -5.20597e-05 0.00104146 
0.00241739 -0.000640897 0.465858 
0.00264465 0.000844041 0.359641 
-0.00337201 -0.0019675 0.00400941 
-0.000353862 0.00192183 0.00161778 
0.00665997 -0.00522129 0.465504 
0.000137164 0.00199454 0.00492563 
-1.22048e-05 -0.000177474 0.000851415 
-1.70672e-05 -0.000248179 -0.000187066 
-0.00226574 -0.000302241 0.462054 
0.00304975 -0.000265453 0.00256947 
4.631e-05 -9.55892e-06 0.00139176 
0.000960379 -9.58364e-05 0.00380533 
-0.0039004 -0.00215601 0.524676 
0.00278347 -0.00082204 0.749035 
-0.00174435 0.000931194 0.40619 
0.000229168 -0.000411245 0.646866 
-0.00218251 0.000579628 0.493863 
0.000301494 2.13462e-05 0.00142592 
-7.59876e-05 -5.38005e-06 0.00138737 
0.000210242 0.00287586 0.466123 
-0.00197715 -0.000139985 0.00329994 
0.000799912 -5.85644e-05 -0.00358661 
0.000268421 -1.96521e-05 0.0025338 
0.0018355 -0.00128973 0.462228 
-0.00462445 0.000338573 0.00666375 
0.0012094 -0.00368748 0.936439 
0.0024111 0.00462961 0.940456 
-0.000274835 0.00014359 1.08933 
-0.0012298 0.000362263 0.866757 
-0.000217681 -0.00155226 0.672592 
-0.000416397 -0.00345236 0.550651 
0.000422414 0.00068973 0.872029 
-0.0064981 0.00311973 0.570508 
8.12428e-05 -0.00115792 0.00422354 
1.74129e-05 -0.000248179 0.00199006 
1.2452e-05 -0.000177474 0.000372928 
-0.00297935 -0.000302241 0.462601 
0.00156186 0.000109584 0.00390208 
0.000799912 5.61239e-05 0.000164402 
0.000268421 1.88332e-05 0.000661228 
0.0018355 -0.000690284 0.464228 
0.00128798 -0.000934952 0.000224999 
-0.000281109 0.000192752 0.00158091 
-0.00104673 0.000707809 0.00731644 
-0.00436522 0.00150373 0.518298 
-0.00230613 0.00340426 0.778172 
0.0042314 -0.00141572 0.75454 
-0.00133508 -0.00605426 0.573617 
-0.00735317 0.00175884 0.460925 
0.00315378 0.00283579 0.489052 
-0.00114161 -0.000596181 -0.000453639 
-0.00167289 0.00190425 0.00702589 
-0.00038382 0.000497474 0.329962 
-0.00041194 -0.00478573 0.712958 
0.00144635 0.000171139 0.712049 
0.00201662 0.00295395 0.938179 
-0.00106988 -0.000890621 0.869077 
0.00134168 0.00369543 0.00647899 
-5.73345e-05 -0.000157796 -0.000274817 
0.0024896 -0.00155714 0.484434 
-0.00104843 -0.00243201 0.00263009 
0.00460003 0.00146699 1.03022 
0.00137203 0.00248944 1.13849 
-0.000919065 -0.00425481 1.04813 
-0.00332148 0.000181222 1.16987 
0.00300864 -0.00184117 0.00783322 
0.00108588 0.000936591 0.000515095 
-0.000603202 0.000234561 0.374644 
-0.00173175 0.00234957 0.488626 
-0.00493489 -0.00402519 1.25048 
0.00567197 -0.00262468 1.17142 
-0.00517312 0.00770843 1.16946 
0.00175493 0.000427799 1.14315 
0.00366271 0.00107542 1.10617 
-0.000452459 -0.00131093 1.0761 
-0.00212437 5.12911e-05 1.17405 
0.00143347 -0.000920751 1.15742 
-0.000925178 1.80866e-05 0.00521648 
0.00285612 -0.000234484 0.0021566 
0.00252061 -0.000202792 0.00147938 
-0.00306614 -0.00210444 0.512865 
0.000539464 -0.00260159 0.00663786 
0.00199397 0.00102232 0.377282 
-0.00101346 0.00058808 0.00177019 
0.000516289 0.00222183 0.38591 
0.00437573 0.000471577 0.0026498 
-0.00226788 -0.000784508 0.384113 
-0.000677827 0.00205947 0.000905944 
-0.000128285 -0.00806949 0.466522 
0.00213235 0.00212625 0.00305268 
0.00333928 -0.00255541 0.308225 
-0.00275166 0.00301097 0.00386204 
-0.00374077 -0.00410608 0.413612 
0.000680302 -0.000230897 0.714205 
-0.000917642 -0.00129184 0.460932 
0.00243313 -0.00038171 0.379973 
-0.000164254 0.000926389 0.378245 
0.000338489 -0.000312808 1.02863 
0.00332353 0.00245952 1.17533 
-0.000646446 0.00135719 1.15834 
-0.00415831 -0.00115555 1.1105 
-0.00269775 0.00381119 0.378093 
-0.00147081 -0.00254891 0.479201 
0.00317301 0.00160687 0.00676774 
-0.0051092 -0.00232676 0.56333 
-0.00279008 0.00204245 0.377984 
0.00140846 -0.00419439 0.458767 
0.0010398 0.00217865 0.00609674 
-0.00342759 -0.00310101 0.547895 
0.00293243 0.00344362 0.794406 
-0.00216669 -0.00351305 1.00117 
0.000140512 -0.00125022 1.0277 
0.00144022 -1.2875e-05 0.878352 
0.00104343 0.00083653 0.563723 
-0.00343934 0.000824766 0.753953 
0.00311221 -0.000379227 0.792088 
0.000489144 0.00518971 0.879012 
-0.00254131 0.00235483 0.00359643 
0.002226 -0.00237755 0.00427299 
0.000141526 -6.28411e-05 -0.00181035 
0.00121793 -0.000552955 0.461206 
0.000894566 0.00262402 0.371312 
0.000751474 5.16787e-05 0.000402433 
-0.00028119 -1.93372e-05 0.0015221 
-0.00254128 -0.000174763 0.000846787 
-0.000206105 0.00103923 0.00276557 
7.82962e-05 0.000305717 0.00691985 
0.000549417 -0.00236843 -0.00279985 
-0.00101736 -0.000562998 0.458264 
0.00223011 0.0016134 0.00421591 
0.0036035 -0.00102467 0.00279672 
-0.00164278 0.00244111 0.518751 
-0.000249907 0.00181902 0.431124 
-0.000197035 -0.000305312 0.00111584 
-0.000968204 -0.00173696 -0.00159853 
0.00129075 0.00239496 0.00450519 
0.00109356 0.000523593 0.420503 
0.00146441 -0.00383031 0.849481 
-0.00189401 0.00371733 0.97063 
-0.00187593 -0.00138655 1.08173 
-0.000488165 0.00199019 0.899602 
-0.000961248 -0.00239329 1.2237 
0.00200219 0.000622117 1.15897 
-0.00413967 0.00237585 1.24035 
0.00105118 0.00199598 1.17349 
0.00273802 0.00269718 0.718012 
-0.00304997 -0.00184774 0.713209 
0.00035124 0.000437171 0.463905 
0.000786861 -0.00171939 0.745573 
5.21753e-05 -0.000902971 -0.00229154 
8.116e-06 2.21879e-05 0.000776325 
0.000248681 -0.00178622 0.00661199 
0.00351722 0.00275879 0.527258 
-0.00432436 0.000418308 0.440533 
3.99938e-05 -0.000546264 0.00330984 
-3.35689e-05 0.000458505 -4.17925e-05 
8.19166e-05 -0.00111887 6.39951e-05 
-0.00174067 0.00243846 0.697287 
0.00167336 -0.00163582 0.397001 
0.00224415 0.000772123 0.582809 
0.00228176 -0.00200623 0.566208 
0.000592452 -0.000947753 0.938775 
-0.00198489 0.00144221 0.937697 
-0.000810153 -0.00537267 0.713652 
-8.32916e-05 -0.000848595 0.79619 
-0.000622961 0.00218159 0.00352573 
-5.76199e-05 0.000256067 -0.000925576 
0.000389138 -0.00158172 0.00284675 
0.00246986 0.00282042 0.525406 
-0.00141137 0.00132509 0.913794 
0.00111858 -0.00453612 1.00262 
-0.00121142 0.00286819 0.754761 
-0.00163815 0.00185924 0.878366 
-0.000110149 -0.00156992 0.000710668 
1.76644e-05 0.000251763 0.00142257 
-1.41499e-05 -0.000201674 0.000756781 
0.0027999 0.000987833 0.410691 
-0.0027105 -0.00128969 0.00590358 
0.000390676 -0.00195696 0.453413 
-0.00110437 0.00313171 0.377469 
0.000940655 7.2865e-05 0.457298 
0.00130224 -0.000822425 0.00318722 
-0.00203196 0.00203693 0.37508 
-0.00041891 -0.00286442 0.00621503 
0.000254637 0.00314609 0.467402 
0.000327305 -0.000211553 0.00226171 
-0.00184218 0.00128548 0.00536524 
0.000765416 -0.000525366 -0.000560126 
-0.00253914 -0.00470038 0.543638 
0.0023005 0.000197974 0.00372877 
0.000146627 1.26182e-05 0.000526366 
-0.00128654 -0.000110716 0.00377995 
-0.00176038 0.000343841 0.549933 
-0.000253507 -0.00101611 0.0034691 
-0.000280032 -0.00114014 0.00476095 
0.000559306 0.00209023 0.00029211 
-0.00282544 0.00244951 0.533613 
0.00295121 -0.000404689 0.944601 
-0.00310613 -0.00208134 0.710973 
0.00341921 0.00313601 0.714958 
-0.000188541 -0.0025731 0.747107 
-0.000582457 -0.000226648 -0.00101242 
0.0012536 0.000506413 0.000361072 
0.00130276 0.000504747 0.00247839 
-0.00118631 -0.000310759 0.396313 
-0.00123049 -0.000425105 0.00435901 
0.00153516 -0.00173422 0.00720958 
0.00059072 0.000978788 0.376347 
-0.00250227 0.00300252 0.463406 
-0.0060144 -0.00141427 0.721058 
0.00183568 -0.00117506 0.469436 
0.00470215 7.26907e-05 0.709082 
0.00061226 0.00292313 0.83413 
-0.00177211 0.000843574 0.00523403 
-0.00204731 -0.00216771 0.461225 
-6.49062e-05 -3.37826e-05 -0.0025033 
0.00219413 -0.000800085 0.00370222 
0.00135174 -0.000675016 0.372692 
0.000477466 -0.000193332 0.582442 
-0.00134123 -0.000323526 0.327456 
0.00026756 -0.00340826 0.494937 
-0.0024793 -0.00140658 0.00100261 
-4.41934e-05 -8.80874e-06 0.000863936 
0.00165594 0.00103555 0.00432911 
-0.000678656 -0.00143457 0.395468 
-0.00221293 0.000842359 0.00567802 
-0.000119868 1.33616e-05 0.00346023 
0.00189669 -0.000757319 -0.00141399 
-0.000342873 0.00373696 0.456654 
0.000173982 0.00405406 0.790623 
0.00559353 0.0042285 0.886232 
-0.000947766 -0.00739478 1.0235 
-0.000910222 -0.000957392 0.836626 
0.00174136 2.438e-05 0.462197 
-0.000532274 0.00396299 0.00748989 
-0.00375619 0.00106566 0.377073 
0.000200768 -0.00307813 0.48403 
0.00040244 0.00029295 0.000751953 
-0.000324071 -0.000234982 -0.00259831 
-0.00025252 -0.000186478 0.00528965 
-0.00070621 -0.00439029 0.435136 
0.00148087 0.000856106 0.710741 
-0.000914905 -0.00127326 0.474466 
0.000446717 0.000364624 0.375865 
0.000530969 0.000644547 0.480015 
-0.00114445 0.00138451 0.385886 
-0.00142955 0.000532686 0.368181 
0.00194206 -0.000487417 0.000463962 
0.00159301 0.00253946 0.00476629 
0.00433495 0.00109787 0.38137 
0.00173337 -0.00104751 0.472256 
-9.8569e-06 -0.00185648 0.0044131 
0.000897557 -0.000417277 0.392353 
-0.00099338 0.000725657 1.22261 
-0.000163719 0.00118519 1.15455 
0.00165932 0.00190626 1.17471 
-0.00404448 -0.000928788 1.1128 
0.00017989 -0.000656559 0.00103086 
0.000298318 -0.000926516 0.00495814 
-0.000470112 0.00199847 0.00296446 
-0.00175193 -0.00039185 0.4788 
-4.65272e-05 0.00103337 1.10665 
-0.00320278 -0.00062788 1.0901 
0.00423411 0.000259509 1.20995 
0.00433173 0.00184934 1.16834 
2.06228e-05 0.00388473 1.1056 
-0.00158734 0.00205017 1.06974 
-0.00101865 -0.00474908 1.19393 
0.00134467 -0.00196585 1.18868 
-0.000380734 -0.00211854 0.319973 
0.00352833 0.000214582 0.399959 
-0.0042383 -0.000406507 0.646038 
0.00212542 -0.00601904 0.566902 
-0.000183921 -0.000431268 1.24182 
0.00410213 -0.00200569 1.1316 
-0.00411368 0.00133534 1.16719 
-0.000387293 -0.00113787 1.14009 
0.00170376 -0.00167464 0.00234026 
0.000352726 -0.000347293 0.00151402 
-0.000200943 0.000196489 0.00148644 
-0.000368705 0.00332726 0.431531 
-0.00119079 0.00020815 0.00290883 
-0.00241846 0.000579998 -0.00169082 
0.00556173 -0.00138316 0.00627242 
0.00109475 0.00564914 0.493962 
0.000132336 0.00428769 0.00608304 
0.000835107 0.000297356 0.50795 
-0.00198071 0.000339034 0.00681323 
-0.00331223 -0.00165397 0.415805 
-0.000985053 -0.00520137 0.744085 
0.00242474 0.00343454 0.520509 
-0.00688105 0.000136738 0.582014 
0.00710984 -0.00191543 0.884656 
0.0024124 0.00017662 0.000777448 
-0.000382246 -2.79857e-05 0.00143963 
0.000303559 2.22246e-05 0.00161468 
-0.0008052 -0.00292478 0.401541 
7.00885e-05 -6.03956e-05 0.00683484 
-0.00129081 -0.000358416 0.00120649 
-6.04176e-05 4.58024e-06 -0.0017889 
0.00188745 0.00573987 0.518545 
0.00163619 5.99284e-05 0.00611687 
0.0030777 0.00069917 0.378809 
-0.000854134 -0.00216346 0.466968 
-0.00141387 -0.000406771 0.375707 
0.000964449 0.00186246 0.00602986 
0.000552695 0.00154217 -0.00427768 
-0.0017379 -0.00163051 0.354413 
-0.000888438 -0.00200984 -0.000763914 
-0.00163095 -0.000778026 0.857081 
-0.000983797 -0.00454694 0.578431 
0.000787539 0.00445431 0.666314 
0.00222963 0.00021815 0.544594 
-0.000240855 0.00266067 0.71435 
0.00188268 -0.00238328 0.720827 
-0.00265994 -0.00187084 0.472287 
-0.00151424 -0.00119496 0.554321 
-0.00106966 0.00226445 0.00344995 
-6.80693e-05 0.000220923 -0.00103156 
0.0002447 0.000803714 0.483129 
0.00127462 -0.00314143 0.00310496 
0.000332747 -0.00269474 0.83671 
0.00130292 0.00126207 1.05361 
-0.000494214 0.00328793 0.8571 
-0.00276218 0.000974343 0.862919 
0.000325007 -0.00258664 0.836091 
-0.000421451 0.0030346 0.85723 
-0.00185856 0.00114594 0.61918 
-0.00255949 0.000217818 0.86366 
-0.00172102 0.00100148 0.405179 
0.000349898 -0.000401912 0.325175 
-0.000398605 4.18289e-05 0.573807 
-0.00288267 -0.00163851 0.45972 
-0.00158764 -0.0022339 0.691122 
0.00214111 0.00378522 0.582086 
0.00556828 0.00323998 0.519831 
-0.0058015 -0.00304261 0.886517 
0.0019784 0.000509864 0.00355721 
-0.00123261 -0.000347583 0.00366064 
-0.00087978 -0.000222275 -0.00245753 
0.0039058 -0.00312565 0.479635 
0.00190577 -0.00200717 0.00454967 
0.000382958 0.000186279 0.311157 
-0.00074396 -0.00149765 -0.000852479 
0.0015671 0.00134159 0.377294 
0.00344312 -5.47915e-05 0.635653 
-0.0035801 -0.00126593 0.417258 
-0.00242775 -0.000771494 0.33181 
-0.000768651 0.00441349 0.549185 
0.000633898 0.000411666 -0.00413201 
-0.000150774 -0.000158592 0.00268791 
-0.00113572 -0.000707026 0.00654508 
0.00217694 -0.00449332 0.469386 
-0.0019301 -0.00410936 0.723661 
-0.00349334 0.00301716 0.71379 
0.00219401 -0.00288487 0.929762 
-0.00271768 0.000737213 0.865469 
0.00367702 0.00314673 0.712355 
0.00297394 -0.000784895 0.948872 
0.000178752 -0.00405376 0.935991 
0.00150398 0.00157599 0.827801 
0.00217088 0.000393393 0.00143617 
-0.00040623 -0.00160152 0.330526 
0.000455357 0.00323197 0.00323571 
-0.00277003 -0.00256252 0.41727 
-0.000108609 -0.000749129 0.00292996 
0.00193887 -0.00147924 0.473846 
-0.000529116 0.00181772 -0.00148631 
0.000776406 -0.000606513 0.39177 
0.000833438 0.000234665 -0.000576378 
0.00302978 0.00110009 0.00514984 
-0.00352175 -0.00103579 0.00113923 
0.000452645 0.00141552 0.520972 
0.00109316 0.000301044 0.286641 
-0.00183192 0.000736677 0.40056 
0.0016901 -0.000806948 0.555679 
6.36491e-05 0.00358808 0.485253 
0.000283335 0.000562027 1.12773 
0.000365312 0.000219491 1.17423 
0.00147463 -0.00394258 1.01704 
-0.00344869 0.0018769 1.15333 
0.00342646 0.00187692 0.71585 
0.000987442 -0.0016938 0.936138 
-0.00233104 -0.000617601 0.718943 
0.000902342 0.000127634 0.825671 
-0.00114568 -0.0026179 0.00284637 
0.00159786 0.00305222 0.00420184 
-0.00165469 -0.00318261 -0.00405346 
-0.00122509 0.00537762 0.484125 
0.00449286 -0.00188251 1.18464 
-0.00331743 0.00107319 1.02596 
-0.00243012 -0.00133794 1.05507 
-0.000637361 -0.00234656 1.12338 
0.00210385 0.000975138 0.00361287 
-1.41381e-05 -0.000955615 0.46946 
-0.000432447 0.00370532 0.00365389 
0.00135182 -0.00476268 0.380899 
-0.000201022 0.00176878 0.326003 
-0.000526191 3.72552e-05 0.00154115 
7.74011e-05 -5.48003e-06 0.00162058 
0.00162013 -0.000114707 -0.000171967 
-0.000538897 0.00142073 0.463901 
-0.000738428 -0.000307432 -0.0004351 
0.00409875 0.00164736 0.00464258 
-0.00244055 -0.00112936 0.00283257 
0.00495586 0.000793338 0.694095 
-0.00291176 -0.000414758 0.604315 
-0.00331489 3.86792e-05 0.344599 
-0.00199714 0.000328568 0.422976 
0.000842182 1.57753e-06 0.00627012 
-0.000544235 -4.37982e-05 0.000320712 
-0.000785683 -4.2931e-05 -0.00161176 
-0.00109224 -0.00395688 0.477539 
0.000343229 0.00125789 -0.000773471 
-0.000831484 -0.00259722 0.00699463 
-0.000251492 -0.000852049 0.00135906 
-0.00257791 0.000794192 0.489909 
-0.000603569 0.0014359 1.09573 
0.00279194 0.000108266 0.93866 
-0.00381205 -0.000294197 0.94275 
0.00161014 -0.00202052 0.966007 
-0.00520513 -0.00172937 0.380645 
0.00307365 0.000582589 0.00209206 
-0.00138096 0.000176197 0.461769 
0.00303818 -0.0016858 0.00308632 
-0.000203776 0.000227189 0.00221742 
0.00120169 -0.00121767 0.0016616 
-0.000846944 0.000912195 0.00534602 
-0.00352288 0.00290681 0.516197 
-0.000446159 -0.00201631 0.939336 
-0.00109844 0.00134545 0.939697 
0.00193437 -0.0010295 0.711886 
0.00163122 0.000673435 0.821209 
-0.00138703 -0.0018512 0.962775 
0.00407868 -0.00146122 0.907285 
-0.0034812 0.00133231 0.675361 
-3.68351e-05 0.0013158 0.806639 
-0.00241008 0.00259798 0.00774382 
0.000437722 -0.00306535 0.472983 
0.0011742 0.00398838 0.379938 
0.00424039 -0.00142156 0.498709 
0.000572343 -4.9254e-05 0.00177901 
-0.00241437 0.000207773 0.00177302 
-1.66477e-05 1.43271e-06 0.0013532 
0.00339462 0.00087283 0.52862 
-0.00267424 -0.00117275 1.01824 
9.94713e-05 -0.00156795 0.9412 
0.00397814 0.00247898 0.717361 
0.00461537 -0.00228776 0.842128 
0.00650317 0.000612838 0.715969 
-0.00377609 0.00138822 0.452776 
-0.0027095 2.91538e-05 0.794626 
0.00165438 0.0022991 0.83865 
0.000423271 0.00162622 0.000140257 
2.73618e-05 0.000245222 -0.00150292 
-0.000695278 -0.00319229 0.00539251 
0.00244924 0.00375175 0.510574 
0.00121306 0.00126846 0.709242 
0.000672781 -0.00152118 0.468581 
-0.000377833 -0.000214129 0.373147 
-0.0029545 -0.000663246 0.476491 
-2.69534e-05 -0.000162917 0.00113252 
-0.00022394 -0.00263485 0.00197053 
-8.63773e-05 -0.000373569 0.00449172 
-0.00353602 0.00340291 0.506732 
-0.000398833 -0.00121814 0.58747 
0.00356377 -0.000540104 0.707197 
-0.00227532 -0.000218891 0.816026 
-0.00123491 -0.00198743 0.867363 
-0.00280405 -0.000221793 1.17752 
0.000727089 0.000436466 1.18838 
0.00292914 0.000943845 1.10732 
0.00196673 -0.00070285 1.15464 
0.00236303 0.00101057 -0.001942 
-0.000972974 -0.000879769 0.281035 
-0.00156343 -0.00162841 0.449467 
0.000914733 -0.00195035 0.00362531 
0.000409767 0.00204125 1.23872 
0.00199892 -0.000776886 1.21145 
-0.000848247 0.00120102 1.17845 
0.00166668 0.0005965 1.19255 
0.000157534 0.00222501 -0.000541537 
-1.79446e-05 -0.000253449 0.00159791 
4.29937e-06 6.07258e-05 0.00239443 
-0.00193884 -0.00156629 0.328209 
-0.00277275 0.00153581 0.00366807 
-0.000423871 0.00210894 0.00241724 
0.000680647 -0.0018548 0.398656 
-0.000468331 -0.00361146 0.424564 
-0.000411929 0.000696692 -0.000585783 
0.00116373 -0.00198624 0.0011152 
-0.00063703 0.00116208 0.00162762 
-8.70604e-06 -0.001607 0.465557 
0.000770311 -0.001718 0.77273 
0.00147732 0.00363587 0.423621 
-0.00120503 -0.00328629 0.640909 
0.00141671 0.00104727 0.416644 
0.00106028 0.00262329 0.0083036 
-0.000817936 -0.00182532 -0.0026309 
0.000610372 0.00111735 -0.00269428 
-0.00101859 -0.00156801 0.468393 
0.00245079 -0.00079795 0.492283 
-0.000298229 0.000869379 0.575034 
0.000360014 -0.00053363 0.324461 
-0.00295653 -0.00195944 0.459938 
0.000222104 0.000229752 -0.00401917 
-0.00189244 -0.00381986 0.00814944 
0.000694938 0.00188454 0.00375919 
0.00596995 0.00212675 0.509036 
-0.0017284 0.000923771 0.343888 
-0.000383477 -0.000446185 0.0100701 
0.00126987 -0.00101302 0.397279 
-0.00275226 -0.00168525 0.418374 
-0.00305125 -0.00219343 0.474674 
0.00158438 0.00390513 0.00498229 
0.00347245 0.00144936 0.00469508 
-0.00397037 -0.00175741 0.380815 
-0.000341675 -0.00112501 1.1187 
-0.000780699 -0.000164063 1.07335 
0.0005587 0.00153476 1.21117 
-0.00200379 -0.00145537 1.14259 
0.000558796 0.000251688 0.0012619 
-0.000330426 -0.0002343 0.00617421 
0.000869418 0.000400162 0.00126985 
-0.00177241 0.00099832 0.469737 
-0.00062987 0.00268314 0.328896 
0.000358095 -0.00278218 0.00438363 
-0.00144893 -0.000802334 0.00173119 
0.00575895 0.00293457 0.455361 
0.00147896 -0.00124978 -0.0027229 
-0.00168033 -0.00154545 0.00397804 
-0.00283291 0.00148654 0.327805 
-0.000824856 -7.95765e-05 0.356119 
0.00118415 -0.00375013 0.00222907 
-0.00157129 0.0014341 0.462754 
0.0035004 -0.00115778 0.00424172 
-0.00251593 0.00452324 0.379636 
0.00149311 0.000203828 0.00585654 
0.0010583 0.00027264 -0.00213899 
-0.000334116 0.00267525 0.387136 
-0.00231499 -0.000478856 -0.00108902 
-0.00147026 -0.000304834 0.711181 
0.000765019 -0.000798186 0.377267 
0.000163142 8.14128e-05 0.459821 
0.00287916 0.00115831 0.469472 
-0.00033815 -0.000661675 0.00332322 
-4.01412e-05 -7.9516e-05 -0.00105922 
0.000633204 0.00124481 0.00244942 
0.000754924 8.11718e-06 0.480598 
0.00227301 -0.00586528 1.19906 
0.00383714 0.00165836 1.23267 
-0.00246455 -0.00207921 1.13922 
0.00105619 0.00494483 1.16742 
-0.00171183 -0.00205193 1.20815 
0.00295083 0.00044822 1.15135 
-0.00234925 0.00110845 1.2366 
0.00119004 0.000164701 1.19462 
0.000944262 -0.00011888 0.00450415 
-0.00150817 -0.00343023 0.448829 
0.00225887 -0.000562741 -0.0029085 
-0.00357276 0.000853561 0.0028058 
3.67851e-05 0.000436878 0.00732095 
-0.000842818 0.00183028 -0.00182076 
0.00157623 -0.00339203 0.0038386 
-0.00315779 0.0020651 0.513177 
0.0019423 0.00211017 0.994157 
-0.00206835 -0.000893896 0.818341 
0.00284134 -0.00116549 0.710608 
-0.00156301 -0.000430599 0.861814 
-0.00126265 0.00119485 -0.00105716 
-0.00148525 -0.0013948 0.00421563 
-9.66682e-05 -0.0014153 0.316068 
0.00148331 -0.0023321 0.400137 
-0.00189447 -0.00269808 0.380332 
0.00123233 -0.000843029 0.00363248 
0.00172707 -0.00164415 0.473818 
4.19984e-05 -0.000845246 0.390159 
0.00284219 0.00115 0.00578266 
-0.00402555 -0.00196107 0.00134311 
0.00222209 0.00108529 -0.000821345 
-0.000370732 0.00128289 0.430863 
0.00409205 0.000519955 0.93678 
-0.000291652 -0.00466296 0.720621 
-0.00246639 0.000271276 0.939094 
0.000886119 -0.00244553 0.969457 
0.000247539 0.0028767 0.329781 
0.000133532 -0.00342814 0.43545 
-0.00219259 -0.00140434 0.00617886 
0.00340143 0.00144626 0.450801 
-0.000489952 0.000915237 0.0045405 
-0.000882338 -0.000786289 0.00282785 
0.000568698 -0.000463881 0.375658 
0.00357852 0.000481028 0.479243 
0.00260974 0.000264456 0.308458 
0.000382771 -0.00159172 -0.001878 
-0.000614833 0.00282267 0.000191755 
0.00024551 -0.00165333 0.00551274 
-0.000529944 -0.000361269 -0.00220632 
0.0013888 0.000945899 0.0040647 
0.00017594 0.000119634 0.000120436 
-0.000201504 0.000110107 0.473605 
-0.00154308 -0.00031842 0.788598 
0.0018488 -0.00292286 0.434954 
-0.00173616 0.0021824 0.591197 
0.000951444 8.29069e-05 0.450397 
0.00417269 -0.0014274 0.904892 
0.000769548 0.00141584 0.632258 
-0.00341192 0.00123514 0.678576 
-0.00127513 0.00167804 0.80522 
0.00186385 0.000153292 0.000999146 
0.00191377 0.000155215 0.000857553 
-0.000316708 4.03649e-05 0.00495134 
-0.00115125 0.00232385 0.48683 
0.0018082 0.00119736 1.203 
0.00240176 0.00248894 1.22368 
-0.00100041 -0.000517108 1.24152 
-0.00124779 0.00161829 1.23498 
0.000385781 -0.00013875 0.00363885 
-0.00110143 0.00351086 1.26385e-05 
0.00220384 -0.00204927 0.474181 
0.0011503 -0.00177513 0.39049 
-0.00157176 0.00127046 0.343779 
0.00115856 0.000888028 -0.000239403 
0.00226552 -0.00318225 0.00256388 
-0.00730802 -0.00122472 0.428489 
0.00398854 -0.000861864 0.382884 
-0.00227929 0.00104652 0.00304825 
-0.000255711 -0.00236302 0.00471695 
0.00233683 -0.00134071 0.472849 
-0.000378412 0.000548313 0.00388039 
0.00029695 -0.000434468 0.00304428 
0.000306442 -0.000446075 -0.000172613 
-0.00120297 0.00119802 0.446064 
0.0016538 -0.000795395 0.00894604 
-0.000122058 7.03717e-05 -0.00183382 
0.000404821 -0.000164683 -0.000829244 
-0.00250698 -0.00331582 0.476483 
-0.0016398 -0.00223137 0.378 
0.00224812 -0.000908453 0.470289 
0.000960008 0.000964032 0.71493 
0.000541143 -0.00169961 0.395622 
0.00103035 -0.00274698 0.851607 
0.00210516 0.000519294 0.672016 
-0.00185679 0.00316119 0.971526 
0.00029229 0.000131122 0.895573 
0.000294107 -0.000107315 0.0042901 
6.19264e-05 -0.000950806 0.37501 
0.000494416 -0.000532284 0.00227147 
-0.00420331 -0.000393851 0.487702 
-7.07962e-05 -0.00367452 0.485509 
-0.000343933 0.00184626 0.373212 
-0.000634292 0.0018137 0.708272 
-0.00165944 -0.00122312 0.452861 
-0.00165939 0.00226511 0.00364655 
-0.00170707 -0.00387734 0.382174 
0.00116708 0.00248301 0.003354 
-0.000682026 3.1223e-06 0.454396 
0.000580472 0.00242747 -0.00193243 
0.000229719 0.00140257 0.0040781 
0.0022562 -0.000132612 0.403586 
-0.000875428 -0.00379029 0.00149695 
0.00022745 -0.00017821 -0.00240243 
0.000225869 -0.000126831 0.00232567 
-0.00123398 0.000901799 0.0069225 
-0.00253153 -0.00324524 0.475918 
-0.00132344 -0.00111183 0.331769 
0.00211823 0.00218989 0.424678 
-0.00104719 -0.000794247 0.0090381 
-0.000428409 0.00123472 0.410159 
0.00270434 -0.00161041 0.00457707 
0.000211656 -0.00032675 -0.0056627 
-0.000962733 -0.00246443 0.376246 
-0.00257776 0.00181052 0.00390122 
0.00157125 0.0026502 0.00469309 
-0.00166506 -0.00232128 0.00455353 
0.000195102 -2.70505e-06 -0.00590559 
0.00241763 -0.00138407 0.379961 
0.000441499 -0.000530695 0.00193567 
-0.00146183 0.00130587 0.00408749 
0.00019459 -6.17787e-05 -0.00315027 
-0.00326692 -0.00211053 0.430992 
-0.000432533 -1.20249e-05 0.00359173 
0.00147895 -0.000108354 -0.000138571 
0.000506956 -5.87863e-05 0.00171085 
-0.00197961 -0.00590966 0.4942 
-0.00387649 -0.000989155 0.00677951 
0.00210426 0.000460209 0.00236334 
0.00171615 0.00039455 0.000413546 
-0.00055105 0.000370243 0.488024 
0.000829416 0.00140226 0.00322002 
1.70044e-05 -0.000128031 -0.00310619 
-0.00101163 -0.00135653 0.00323118 
-0.00143245 -6.38921e-05 0.422068 
0.00139729 -0.00132624 0.400886 
0.00178339 0.00247382 0.00600521 
-0.00119998 0.00316937 0.00121255 
0.00119448 -0.00242918 0.405661 
-0.00116288 1.81953e-05 0.00173986 
0.000859695 -5.10085e-05 0.376114 
-0.00137778 0.000452707 0.00624241 
1.71574e-05 -0.00266176 0.474259 
3.62489e-05 0.000311605 0.457679 
-0.00246455 -0.00023852 0.709277 
-0.00290784 0.00142393 0.381278 
0.00217976 0.00307923 0.546036 
-0.00199365 -0.00104758 0.384762 
0.00200047 0.000518921 0.360917 
-0.000194527 0.0010135 0.627385 
0.00225257 -0.00252513 0.45047 
-0.00150951 -0.00294966 0.00408116 
-0.00231255 -0.00174144 0.0048808 
0.00176834 -0.000557113 0.482999 
0.00298351 0.00169698 0.37983 
-0.000504979 -0.00220781 1.11814 
0.00051315 0.00133308 1.20891 
0.00124757 -3.95822e-05 1.19062 
-0.00179598 -9.91858e-05 1.14376 
0.00115969 -0.000190929 0.400568 
-0.000980802 0.00214532 0.699103 
-0.00202198 -0.00115767 0.650627 
0.00307553 -0.00440763 0.560046 
-0.000555762 0.000765312 0.483231 
0.00327003 0.000160046 0.00265228 
-0.00423893 -0.000437244 0.381653 
0.00146167 0.00241084 0.00417284 
0.00131097 -0.00375962 0.380834 
0.000109219 -0.00207544 0.456887 
-0.00102216 0.00366818 0.00259678 
-0.00227445 -0.00088474 0.00479675 
-0.00449332 0.00277042 1.21998 
-0.00080739 1.73503e-06 1.07723 
0.0040391 0.00075292 1.11104 
0.000281874 0.00179008 1.18639 
-0.00311023 -0.000390265 0.398748 
0.00234143 -0.00156792 0.75116 
0.00173293 0.000949762 0.639906 
-0.00315031 0.00139637 0.539279 
0.000333113 -0.00180645 0.280996 
-3.18238e-05 2.23274e-06 0.00110567 
0.000549745 -3.85716e-05 0.000283881 
-0.00227479 0.000159605 0.000353575 
2.70244e-05 0.00082641 1.06837 
-0.00169132 0.00415741 0.944552 
0.0016789 -0.00355113 0.937042 
-0.000647706 -0.000438697 0.889171 
0.000121871 -0.00108272 0.460466 
0.00177192 -0.00201856 0.00321062 
0.000246239 -0.00332281 0.00258594 
0.000231385 0.00438221 0.381629 
-0.000947402 -0.000498045 0.330452 
-0.00194058 -0.00222486 0.43726 
0.000545474 0.00183998 0.000991864 
-0.000341949 0.00186984 0.00496123 
0.00183992 0.00423686 0.381986 
-0.00015358 0.00106469 0.48223 
-0.000786927 -0.00215776 0.00335688 
0.000833175 -0.00298199 0.0023831 
0.000582605 0.000275806 0.00129196 
-0.00095947 -0.000445646 -0.000408148 
-0.00114906 -0.000518507 0.00256098 
0.00402816 -0.00107908 0.472076 
-0.000976301 0.00318767 0.00640306 
-9.16604e-05 0.000201301 0.00165854 
0.000479603 -0.00170532 -0.00164111 
-0.00238 -0.000185006 0.416782 
-0.00109203 -0.00016942 0.00439393 
0.00260091 0.000588842 0.000450085 
-0.00169291 -0.000404677 -0.00155359 
0.000483886 -0.00205103 0.313484 
0.00349981 0.00344788 1.20197 
-0.00282006 0.00148297 1.24159 
-0.000591378 -0.000889517 1.23862 
0.00207703 -0.00053559 1.16654 
-0.00010162 -0.00294577 0.00288361 
-0.00256715 -0.00269067 0.00358644 
0.00255301 0.00237287 0.425347 
0.000150287 0.00359355 0.416286 
0.000190183 -6.06447e-05 0.00248424 
0.00168925 -0.00134499 -0.0022382 
-0.000414401 0.00038327 0.00215623 
0.000860209 0.0022075 0.415423 
0.00294454 0.00196873 0.00473247 
0.000506251 -0.00144033 0.483276 
-0.00134302 0.00348379 0.00483448 
0.00155497 -0.00464271 0.381008 
0.00134326 -0.000870078 0.00346346 
-0.00419394 0.0020069 0.381711 
-0.000696484 0.00117304 0.463352 
0.0036693 0.00150074 0.00360883 
-0.000298341 0.00146349 1.18395 
0.00181738 -0.00159894 1.20644 
-0.00132224 -0.000695085 1.118 
0.000647928 0.00196891 1.19043 
-0.0044101 -0.00374925 0.00458874 
0.00419582 -0.00363296 0.00579313 
0.00353967 0.00358512 0.377311 
0.000156968 0.000143728 0.465936 
-0.00204699 0.001806 0.0036623 
0.0018193 -0.00140376 0.00259395 
-0.000195432 0.000621446 0.404105 
0.000475742 -0.000504558 -0.00331512 
0.000154523 0.000151695 0.000110986 
-0.000615948 -0.000606379 0.00250242 
-0.000456323 -0.000448508 0.000600101 
-0.000614566 0.000707954 0.470946 
-0.000497585 -0.00196889 -0.00260395 
-0.000191892 -0.00128 0.00466586 
-0.000928863 0.000873303 0.353336 
0.000442896 0.00197294 -8.27048e-05 
0.00102334 -0.00215954 0.71186 
0.00103887 0.00211093 0.94258 
0.00288746 -0.00123874 0.938509 
-0.0010511 -0.00280762 0.861527 
-0.00102718 0.00273042 0.711722 
0.000985026 0.0005248 0.465699 
0.000922698 -0.000367182 0.374049 
-0.000567286 -0.00238863 0.463323 
0.00245606 -0.00522518 0.377981 
0.000276672 -0.000393074 0.463802 
-0.00227117 0.00449738 0.00509841 
-0.00301771 -0.00429751 0.00504118 
0.00356711 -0.00104487 0.815573 
0.000294266 0.0016237 0.98388 
-0.00270112 0.000597945 0.693283 
-0.00251293 -0.00209176 0.768728 
-0.00310754 -0.000384278 0.398781 
0.00266987 0.000819649 0.636275 
0.000530369 0.000741962 0.337417 
-0.00366897 0.00146791 0.541285 
0.00106789 -0.000803182 0.377981 
-0.000918437 -0.0002565 0.711853 
0.000241591 -0.00034362 0.453227 
0.00179986 0.00128766 0.465707 
6.75857e-06 -8.3584e-06 -0.00052329 
-0.0014951 0.000380597 5.90102e-05 
0.00116559 -0.00023913 0.00449137 
-0.00107357 0.00229305 0.455081 
-0.000921693 -0.00291807 0.578735 
0.000854735 -0.000487412 0.348882 
-0.000704531 0.00330457 0.671842 
0.0041573 -0.00152774 0.536362 
-0.00110454 0.00131539 0.371803 
0.000899576 -0.00203571 0.458857 
-0.00108079 0.00021669 0.71033 
0.00022571 0.00127593 0.453056 
-0.000372365 0.00161222 -0.000712546 
0.000608148 -0.00270781 0.000180214 
-0.00103008 -0.00043225 0.330572 
-0.000243764 0.00135132 0.00342792 
-0.00219855 0.000562798 0.459118 
-0.00662882 -0.00254126 0.382375 
0.00361272 0.00193183 0.00220239 
0.00190393 -0.00262128 0.00446501 
-0.00010411 0.000248021 0.00695822 
9.39201e-07 0.000447836 -0.00278366 
2.35631e-05 -5.59674e-05 -0.00157584 
-0.00489321 0.000351733 0.416826 
-0.00373062 0.00293607 0.00408883 
0.00269856 -0.00400637 0.377586 
0.00362418 0.00320864 0.00529815 
0.00153169 -0.000890939 0.465603 
-0.00083862 0.00166487 -0.00176821 
-0.000936904 0.00163552 0.00216231 
0.00107187 -0.00221101 0.00379132 
-0.00166655 -0.00129992 0.430625 
0.000951533 -0.000325494 -0.0013955 
0.00146789 -0.000319289 0.00477128 
-0.00179153 0.000614647 0.00269604 
0.000998877 0.0029095 0.493128 
0.00447534 -0.0037616 0.00408848 
-0.00347744 0.00296135 0.378912 
-0.0045123 -0.00238373 0.0054943 
0.000404192 -0.000373411 0.462675 
-0.0032679 -0.00416904 0.379252 
0.00365845 -0.00331584 0.00607555 
0.00414843 0.00430839 0.00468351 
0.000792474 0.000972774 0.463147 
0.00205767 -0.000695571 0.00284129 
-0.0016194 0.000391603 0.0039658 
-0.000359065 -0.00213984 0.44632 
-0.00104672 0.000360485 -0.00171026 
0.00406065 0.00353053 0.378788 
-0.0036554 -0.00362286 0.00546124 
0.0013701 0.00183281 0.46494 
-0.00425395 0.00283681 0.00562188 
-0.000103119 -0.000368982 -0.00248928 
0.000437221 0.00178473 0.00413146 
-0.000206201 -0.000996502 0.00256538 
-0.00738532 0.000915536 0.48885 
-0.000191216 -0.000261184 -0.00405163 
0.00287181 0.00201069 0.00286897 
-0.00299317 -0.00186361 0.00404712 
0.00224604 -0.00305016 0.380616 
-0.000542251 0.00265215 1.12022 
-0.00248366 0.000351494 1.02906 
0.00354227 -0.00171682 1.18521 
-0.000429343 -0.00162006 1.11849 
-0.00171426 0.000723699 0.345327 
0.00107161 -0.000894328 0.397486 
0.00170067 0.00110559 0.698438 
-0.00260084 -0.00161056 0.416962 
-0.00499548 0.000456365 0.942981 
-6.42482e-05 0.000416612 0.939869 
0.00596785 0.000461422 1.1433 
-0.00105649 0.000224468 1.05 
-0.00167328 -0.00360619 0.381108 
0.00324858 -0.00311041 0.0058267 
0.00153514 0.0043526 0.00401485 
0.000462778 -0.000529998 0.472691 
-0.000790477 0.00181943 0.464049 
-0.000897405 0.00208197 0.711747 
0.000956712 -0.000509668 0.374228 
-0.000804074 -0.00144677 0.46176 
-0.000964079 0.000855652 -0.00215439 
0.00171832 -0.00166612 0.00855471 
-0.000900565 -0.000700897 0.378238 
-3.04782e-05 0.000105146 -0.00267852 
0.00124436 0.00121541 0.00825263 
-0.00111267 -0.00128049 -0.00206563 
0.000158737 0.000275665 -0.00225605 
0.00126899 -0.00129437 0.38117 
0.0038492 0.00336884 0.00653208 
-0.00475729 0.00372621 0.379276 
0.00475593 -0.0041509 0.00527922 
-0.00175413 0.0017641 0.463956 
-0.00452893 0.00242974 0.00536178 
-0.00493397 -0.00425401 0.378148 
0.00402965 0.00351938 0.0045564 
0.000289296 -0.000371125 0.461985 
-0.000405585 0.000575219 0.380055 
0.00169069 8.45961e-06 0.4564 
0.00172558 -0.00174017 0.712146 
0.00130383 0.00229476 0.474322 
0.001146 0.00148998 0.00223071 
-0.00183632 -0.00206397 0.00413828 
0.000290167 0.000150315 -0.00484538 
0.00132143 0.000213638 0.401239 
-0.000465976 0.000149949 -0.0036356 
-0.000738198 0.000365005 -0.00108458 
0.00283723 -0.00130074 0.00791493 
-0.00153457 0.00146943 0.379394 
-0.000125796 -0.000406132 -0.00334827 
-7.07889e-05 -0.000259139 -0.00248402 
0.0012229 0.00277118 0.00947505 
-0.00212322 -0.000627167 0.381876 
-0.000525131 -0.000153019 0.00280977 
-0.000575022 -0.000131442 0.0044313 
0.00019261 -2.77118e-05 -0.00417511 
-0.000215025 0.00247573 0.395688 
-0.000730607 -0.00134148 0.0041312 
-0.000869344 -0.00106646 -0.00429711 
0.00176071 0.00223339 0.00742553 
-0.0021919 0.00123129 0.463177 
0.000696221 -0.00407158 0.00377997 
0.00421546 -0.00165777 0.00369653 
-0.00471805 0.0029859 0.380419 
-0.00230035 0.000883913 0.454946 
-0.000604047 0.000153821 -0.00103183 
1.98126e-05 -5.72712e-05 0.00414723 
0.00248989 -0.000622878 0.00337307 
-0.00358418 0.00489554 0.45286 
-0.00535587 -0.000481962 0.00345445 
0.00225075 0.000740998 0.467684 
-0.00210692 -0.00331518 0.00518922 
0.00610236 0.000712436 0.380937 
0.00101109 0.000550025 0.401754 
0.00053664 0.00159059 0.00215495 
-0.000300748 -0.00139531 0.00487641 
-0.000356348 -0.000860892 -0.00378922 
0.00319718 -0.00230471 0.00325446 
0.000126738 6.37117e-06 -0.00329487 
-0.00220726 0.00148052 0.00162785 
0.00125387 0.00258022 0.3753 
-0.00256435 0.00226736 0.376674 
-0.0017168 -0.0026135 0.00319605 
7.54624e-05 0.000262728 -0.00372385 
0.00190684 0.00264507 0.0026967 
-0.00176514 -0.00582563 0.379279 
-0.000119221 0.000166694 0.461544 
0.000585084 0.00432201 0.00305257 
-0.00331529 0.00100658 0.00378079 
-6.96125e-05 -0.000597693 0.376029 
0.000775187 0.00143163 0.481026 
0.00174625 0.00121098 0.708807 
-0.00438444 -6.08825e-05 0.473647 
-0.000459349 -0.00216384 0.643518 
0.00216176 0.00233229 0.425932 
-0.00123279 -0.00108732 0.331042 
-0.000543861 0.00110633 0.409892 
-0.000367429 0.00174424 0.00105289 
-0.00339079 -0.00064074 0.37939 
-0.000215122 0.000600606 -0.00399296 
0.000736315 -0.00281633 0.00533193 
-0.00121784 -0.000344031 -0.00356567 
0.00380498 0.000963464 0.00566359 
-0.00194308 -0.000428843 0.000212986 
0.00218792 -0.00308733 0.379134 
-0.00140938 0.00228733 0.00354021 
-0.00375814 -0.00145827 0.378424 
-0.000397307 0.000367812 -0.00460649 
0.00192017 -0.0026669 0.0042698 
0.000601045 -0.00109884 0.353629 
-0.00114859 0.00232505 0.00345413 
0.00100845 -0.00176715 0.00234318 
-0.000624659 0.000977817 -0.00374143 
0.0040833 0.00192349 0.00546988 
0.000199396 0.000165011 0.00258382 
-0.00183764 -0.000881525 -0.00297918 
-0.00568361 -0.00179733 0.46956 
0.000495853 -0.000359499 -0.000692023 
0.000213984 -0.000168823 0.00250596 
-0.00101119 0.000731012 0.00184481 
0.000639054 -9.86624e-05 0.415548 
0.000889908 -0.00134042 0.325251 
0.00151308 -0.00189448 0.00139325 
-0.00144186 0.00160237 0.00423949 
-0.000826581 0.0011368 -0.00355553 
0.000996778 0.00373515 0.379818 
0.000239161 -0.00256139 0.4688 
-0.00115797 0.00113465 0.712971 
0.00411117 -0.000959456 0.495297 
-0.00168426 0.00072451 0.947305 
0.00253586 0.00028194 1.14014 
0.00103476 -0.00214182 1.08113 
-0.00212735 -1.80823e-05 1.04651 
0.00246897 0.00181317 0.378078 
-0.00203914 0.00294562 0.00274063 
0.00034992 -0.00027554 -0.00464284 
0.00218667 -0.00352044 0.00362485 
0.00351784 0.00215825 0.00436074 
-0.00308526 0.00280087 0.37841 
0.000218119 0.000324191 -0.0049758 
-0.0027017 -0.0019111 0.00363861 
-0.00133046 0.00118983 0.935345 
0.00324319 0.00200587 0.714836 
-0.00281809 -0.00524497 0.721027 
0.00218025 -0.00135988 0.787965 
-0.00114563 -0.00223613 0.382825 
-0.000622745 0.00145188 0.00725705 
0.00043655 -0.001406 -0.00039973 
-0.000326782 0.00122861 -0.00182749 
0.000882209 0.000263346 0.000169911 
-0.00150268 -0.00063112 0.00697695 
-0.000445166 -8.88773e-05 -0.0018374 
0.00407842 -0.000952563 0.383028 
-0.00234055 -0.0027816 0.00522013 
0.0016182 -0.00633956 0.00339144 
-0.0017587 0.00551229 0.382739 
0.000638259 0.00120903 0.474805 
-0.000719223 -0.000150252 0.00172931 
0.00221028 0.00057104 0.00561382 
-0.000706358 -0.000186839 -0.00222867 
-0.000795071 -0.00513831 0.4753 
0.00159622 0.00148479 0.361854 
-0.00387881 -0.00193652 0.00501588 
0.000732062 0.000408529 0.000632096 
0.00177833 0.000873527 -0.00282472 
0.00157529 0.00239012 0.712341 
-0.000380667 -0.00301605 0.942335 
-0.00138146 0.00329832 0.945374 
0.00141252 -0.00033646 0.882552 
-0.00168533 -0.00193745 0.00795556 
5.68925e-05 0.000180926 -0.0040661 
0.000285164 0.00022457 0.00204805 
-8.02939e-05 0.00253578 0.38519 
0.00130181 0.00173553 0.0030518 
0.000177739 0.000600369 -0.00498758 
-0.00105832 -0.0018015 0.00332728 
-0.00144187 -4.60968e-05 0.422071 
-0.00255181 0.0028902 0.00355764 
-0.000174015 -0.00012396 0.46235 
-0.00423059 -0.00273702 0.00178509 
0.00495571 0.00458842 0.381577 
0.000547379 -0.00222224 0.371671 
0.00241277 0.00121707 0.00250305 
-0.00262302 -0.00147031 0.00235441 
0.000326784 0.000196108 -0.000739332 
0.00486868 0.00428368 0.712501 
0.0015703 0.00108443 0.474384 
-0.00429576 -0.00621163 0.719198 
0.00212312 -0.00310897 0.794021 
0.000773237 0.00178035 0.00779598 
-0.000341849 -0.00107151 -0.000562078 
0.000271212 0.00111457 -0.00223636 
0.00175632 -0.00309026 0.383131 
0.00071025 -0.00103094 -0.000583343 
0.000330304 -0.000415792 0.00304072 
-0.00118926 0.00172504 0.000914382 
0.00245458 0.00455808 0.446269 
-7.21209e-05 -0.00307378 1.00557 
0.00157836 0.00131271 0.795829 
-0.00169879 0.00178975 0.757489 
0.00041444 0.00213803 0.870741 
-0.00073007 0.00291516 0.00401265 
0.000436732 -0.001862 -0.000232773 
0.000258161 -0.00129095 0.0033539 
0.00423656 0.00257112 0.479022 
-0.000109018 0.00118772 0.331289 
0.00138875 0.00108935 0.00168346 
-0.00165681 -0.0015045 0.00483995 
-8.47317e-05 9.717e-05 -0.00557232 
0.0013557 0.000288213 0.000835826 
-0.00061657 0.00338367 0.379888 
0.00130074 0.000378724 -0.00413612 
-0.00323779 -0.000851998 0.00591211 
0.000474522 -0.00232499 0.00238804 
0.00410428 -0.00114088 0.376418 
0.000192346 -0.000579701 -0.00298179 
-0.000771334 0.00310374 0.00347408 
0.000592013 -0.00216459 0.437459 
-0.000369621 0.00200804 0.32649 
-0.0010643 0.000939098 0.592579 
0.00228906 0.00023465 0.444618 
0.0040857 0.00347784 1.11055 
-0.00303275 -0.00322942 1.13812 
-0.00143901 0.00280841 1.05476 
-0.0016336 0.00224831 1.16521 
-0.00220825 0.00107819 0.711699 
0.00177392 0.000560092 0.457943 
-0.00315719 0.00094307 0.37874 
-0.000660926 -0.00259083 0.479142 
0.000922511 0.0032819 0.381463 
-0.000340517 -0.00493928 0.00246073 
-0.000617074 0.00369662 0.481466 
-0.00309777 -0.000992329 0.00337896 
0.00480483 -0.00150231 0.381301 
-0.00458369 0.00205588 0.0037581 
0.000821191 -0.00143534 0.479926 
0.00037812 0.00332138 0.00404099 
-0.000200724 2.73216e-05 -0.0018813 
-0.0014571 -0.000195959 0.00209526 
0.00199959 0.000100151 0.00386682 
0.000356306 -0.00187836 0.402259 
0.00282239 -0.000898265 0.81591 
-0.00298495 0.000785547 0.691512 
0.000289617 -0.00121891 0.578153 
-0.00183171 -0.00229084 0.769357 
-0.00177824 -0.000599824 0.00201946 
0.00171002 0.000390477 0.00428804 
-6.43104e-05 0.00010677 -0.00422203 
0.000351953 -0.000792694 0.31237 
0.000950368 0.000467489 0.0067863 
-0.0014445 -0.000426601 0.000438672 
-0.00206404 0.00137279 0.382797 
0.00165536 0.000444097 -0.00219842 
0.000734762 -0.00179131 0.00724738 
-0.000277002 0.00086431 -0.0005611 
0.000770666 0.0018485 0.382169 
0.000134726 -0.000685835 -0.00277664 
-0.000375564 0.00270746 1.02168 
-0.00290929 0.000390939 1.17025 
0.00370952 -0.00198373 1.13202 
-0.00156486 -2.22746e-05 1.13614 
-0.00200998 -0.000917235 0.440888 
0.000127865 -0.00189212 0.00233677 
-0.000289644 0.00213386 0.00317512 
3.46726e-05 -0.000105021 -0.000971944 
-0.000455438 0.00194816 0.00170624 
-0.000249992 0.000967485 0.00390726 
0.000224027 -0.00100936 0.000650075 
0.00256482 -0.00207603 0.455094 
0.000195294 0.000986206 0.00147731 
-0.000683973 -0.00273305 0.0043139 
0.000202216 0.000638138 -0.00351122 
0.00399749 -0.000656956 0.37846 
0.00133257 -0.00194458 0.378878 
-0.00221676 0.000925342 0.00895049 
0.001859 -0.00090926 -0.00291039 
-0.000535998 0.00033161 -0.00155575 
0.00117442 0.00230071 -0.0019083 
-0.00102223 -0.00234618 0.00799485 
-0.000383553 -0.000635518 -0.00151261 
0.00111255 0.000511932 0.381345 
0.000127587 -9.94033e-05 0.00203775 
-0.000180792 0.000186938 0.000508141 
0.00152879 -0.00147957 0.00315991 
-0.00181397 0.00230959 0.430737 
-0.00129168 0.00109124 0.379717 
-0.000291142 0.00256061 0.711101 
-0.00229896 -0.00110933 0.47866 
-0.0020674 -0.00238068 0.551922 
0.00023731 0.000209003 -0.00228746 
0.00218108 0.000890988 0.0076517 
-0.00197435 -0.00102278 -0.00090584 
-8.81508e-05 -0.00291944 0.3837 
0.00329216 -0.000622651 0.459077 
-0.00499858 -0.000444336 0.00291509 
-0.00124564 0.00324337 0.00319215 
0.00548099 -0.000133725 0.38037 
-0.00216754 -0.00471955 0.00377454 
0.000599789 0.00218093 0.462022 
0.00109567 0.00532227 0.381069 
-0.00390839 -0.000673926 0.00448608 
-0.000261606 -0.000727866 0.35001 
-0.000412826 -0.00116551 0.00224465 
0.000562942 0.00223706 0.00438016 
-8.72249e-05 -0.000686813 -0.00458678 
-0.000461828 0.00177637 0.372318 
-0.00253598 -0.000137097 0.00379933 
0.00213155 0.000274116 0.00216398 
0.00039335 -2.40786e-05 -0.00211826 
0.000147694 0.000227407 -0.00270901 
0.00137773 0.00114926 -0.000474101 
-0.00231261 -0.00216272 0.0067552 
0.00232907 -0.000241667 0.383408 
-0.00165903 0.000502374 0.796899 
-0.00202714 -0.00341583 1.02335 
0.00480226 0.00191077 0.719929 
0.00123196 0.000319783 0.831115 
0.00012258 0.00151075 -0.00104733 
-6.94649e-05 -0.00264755 0.00764229 
-7.22159e-05 -0.00020163 -0.00209167 
0.00239892 0.000161064 0.379898 
-0.000184807 -0.00284958 0.00350764 
0.000296726 0.00240298 0.0021976 
1.66937e-05 0.000598825 -0.0015474 
0.00156046 -0.000194719 0.411469 
0.000461372 0.000235649 0.00191686 
0.00162058 0.000825353 -0.000248555 
-0.000365519 -0.000186911 -0.00216409 
-0.00197474 -0.00301592 0.432801 
-0.000423551 0.000397723 -0.00282194 
-0.000806482 0.000914178 -0.00163352 
0.00239884 -0.00258346 0.008094 
-0.000339929 0.00152565 0.380515 
-0.0025138 -0.000720274 0.381142 
0.00246507 0.00230278 0.00812606 
-0.00106963 -0.000936664 -0.00170912 
2.98735e-05 -5.97314e-05 -0.00244721 
-0.00414219 -0.00105066 0.381671 
-0.00131287 0.000402487 -0.000141521 
0.00222904 -0.000888564 0.0071012 
0.000872192 -0.000201128 -0.00212136 
-7.34368e-05 1.25844e-05 -0.00243445 
0.000255299 -0.00207233 0.00172617 
-0.0001397 0.00270002 0.00425636 
0.0017022 -0.000528175 0.381458 
-0.00479841 -0.00329907 1.14821 
0.00592615 -0.000438623 1.20759 
-0.000923664 2.32413e-07 1.23759 
0.00165612 0.00154718 1.16452 
-0.00233527 0.00164226 0.381374 
-0.00122573 0.00236727 -0.0011025 
0.00121192 -0.00280389 0.00798498 
0.000509273 -0.000788741 -0.00244125 
-0.000583546 0.00182524 0.000998501 
0.000445663 -0.00201414 0.00552739 
0.000106565 0.000119018 -0.00477004 
-0.000161953 -9.81087e-05 0.3294 
-0.000349862 0.000305679 -0.000473314 
-0.00266442 0.00206737 0.00304224 
0.00294201 -0.0025025 0.00224642 
-0.00139208 -0.00210295 0.39527 
0.00126791 -0.00323206 0.936346 
-0.00167171 0.0016701 0.712367 
0.00247217 0.00343909 0.941323 
-0.00273976 0.00141041 0.861756 
-0.00139403 0.00136392 0.00700713 
0.00113971 -0.00135587 -0.000688061 
-0.002096 -0.00175955 0.380435 
-0.0003905 0.000599171 -0.0025822 
0.00045112 -0.000154854 -0.00318311 
-0.0018659 -0.00403405 0.377015 
0.00157293 -0.000320077 0.00184988 
-0.00257119 0.000637987 0.00373566 
0.00229245 0.00272174 1.11308 
0.00497098 -0.00112098 1.20983 
-0.00359763 -0.00191286 1.14364 
0.000221017 0.00255471 1.16115 
-0.00190876 -0.00019133 0.383039 
0.00170896 0.00132775 0.712943 
0.00273708 -0.00375709 0.454157 
-0.00334229 0.000126925 0.537312 
-0.000637015 -0.000727323 -0.00102334 
-0.00218395 -0.00283872 0.00371751 
0.00228596 0.0026822 0.00216166 
0.00232827 -6.95622e-05 0.429953 
-0.00164357 -0.000423868 0.00232642 
0.00406765 0.00134556 0.00347688 
-0.00095958 0.000404681 0.387306 
-0.00116066 -0.000451874 -0.00310766 
-0.000103495 0.000275881 -0.00384352 
0.000388515 -0.00158027 0.00361503 
-0.000108678 0.0006289 0.00269871 
-0.00596121 -1.14165e-05 0.41467 
-0.00239892 0.00227755 1.21941 
0.000730091 0.00149609 1.11179 
-0.000298559 -0.00352825 1.19312 
0.00123661 0.00081795 1.18303 
-0.000747414 -0.00391307 0.380162 
-0.00155259 -6.6985e-05 0.00878508 
0.000815083 -2.4941e-05 -0.00221075 
0.000103425 5.46554e-05 -0.00259044 
0.000286228 0.00222069 0.38161 
0.00224659 0.000171961 -0.00181603 
-0.00317261 -8.37936e-05 0.00842231 
0.000263922 -3.17628e-05 -0.00212718 
0.00256547 -0.00249392 0.379103 
9.41637e-05 -0.00128984 -0.00121077 
-9.54371e-05 0.00314695 0.00790041 
-9.76829e-06 -0.000559041 -0.00238765 
0.000124215 9.78874e-05 -0.00457395 
-0.00246984 0.00120984 0.00307144 
0.00204722 -0.00119522 0.00281081 
0.000213604 -0.000146353 0.349007 
0.000627731 -0.000362496 0.33344 
0.0014504 0.00241718 0.00440986 
-0.00118584 -0.00232223 0.00154294 
-0.000231037 -0.000198632 -0.00347653 
-0.000136932 0.00172281 -0.00119846 
9.86324e-05 -0.00316946 0.00781402 
-0.00221032 0.000139403 0.380768 
1.05415e-05 0.000514853 -0.0022414 
-0.00100022 -3.38495e-05 -0.00236632 
0.00374649 0.000139126 0.00841194 
-0.00181438 -0.000119343 -0.00217216 
0.000936872 -0.00202473 0.381759 
0.00278045 0.00106742 0.00355783 
-0.000619529 -0.000339979 0.00282198 
-0.00182406 -0.000711996 -0.00191861 
-0.00176527 -0.000556629 0.395892 
-0.00161479 0.00302198 0.381953 
0.00445362 -0.000177792 0.00879575 
-0.00211794 0.000133549 -0.00253063 
-0.000737562 2.5166e-05 -0.00160091 
1.7745e-05 0.00234008 0.00717322 
-7.57255e-05 -0.000977193 -0.000691906 
-0.00397428 -0.000470164 0.381264 
1.36952e-05 -0.000516319 -0.00217652 
-0.00224538 0.00219899 0.0078723 
0.00103737 -0.000919636 -0.00150907 
-0.000406769 0.000202152 -0.00290968 
0.00384535 -0.000166206 0.380468 
0.00123384 0.00330133 0.380845 
0.00142016 0.00167384 -0.00102697 
-0.00295845 -0.00319309 0.00746783 
-0.000185789 -0.000361288 -0.00244646 
-0.00159181 0.000405812 -0.00239968 
-0.00168776 0.000715473 0.00633721 
0.00133493 -0.000378084 0.000836566 
0.0010838 0.00261043 0.38129 
-0.000803938 0.00234119 0.383853 
0.000511823 0.00162503 -0.00058777 
-0.00143704 -0.00396453 0.00729982 
-2.86707e-05 -0.000291263 -0.00185861 
-0.00148448 0.00039984 -0.00385467 
0.0032868 -0.000827166 0.00568235 
3.45645e-05 0.00473516 0.378969 
-0.0015978 0.00033559 0.00050206 
0.000658178 0.00274482 0.0031458 
-0.0045193 0.000374339 0.379585 
-4.26787e-05 0.000100863 -0.00316587 
-0.000462714 -0.00234628 0.00221364 
-0.000769944 -0.000598745 -0.000731893 
-0.000444514 -0.000366225 -0.00165875 
0.00122045 0.000952368 0.00135785 
0.0012416 0.00113739 0.38486 
7.44661e-05 -4.5143e-05 -0.00290634 
8.60264e-05 0.00212534 0.00454116 
-0.000189715 -0.00157613 0.00126991 
-0.00144613 -0.000294305 0.329249 
-0.00040338 0.00101164 -0.00300527 
0.000876385 -0.00285599 0.000312364 
-0.00063487 0.00263924 0.00516124 
0.0014856 -0.00128769 0.304647 
0.00285113 -0.000765944 0.381375 
0.000842963 -0.00176527 -0.00252655 
-0.00155801 0.00355128 0.00854457 
-0.000128917 6.63179e-05 -0.00234765 
-0.000188557 0.00284779 0.381817 
0.0019773 0.000959939 -0.00243512 
-0.00347539 -0.00152625 0.00832339 
-0.000297134 -0.000235997 -0.0019384 
-0.000717238 0.00121265 0.325113 
-0.00169656 0.00016408 -0.000111125 
0.00337979 -0.000181922 0.00555977 
-0.000957416 1.74162e-05 -0.00283153 
0.003067 0.00255833 0.000912854 
-0.00305314 -0.00232592 0.00397152 
-0.000702216 -0.000653374 -0.00170328 
-0.000423365 0.00210916 0.315744 
-0.000156497 0.000222639 0.34649 
-0.00186752 0.00234746 0.00130365 
0.00302225 -0.00346853 0.00388253 
-0.000943369 0.000953533 -0.00355381 
0.00254522 -0.000291041 0.00147686 
-0.00235451 0.000135284 0.00353552 
-0.000878158 -0.00112474 0.281812 
0.000293919 3.52815e-05 -0.00235044 
0.000853728 -0.000575006 -0.00298085 
0.0032607 -0.00165381 0.00223724 
-0.00318161 0.00182103 0.00302455 
-0.0011954 0.0014713 0.325767 
-0.00166584 0.000650542 0.2709 
-0.00174243 -0.00309493 0.00221419 
0.00160064 0.00317665 0.00244426 
5.68537e-05 -4.65055e-05 -0.00205234 
0.00100842 0.00201398 1.132 
0.00136995 -0.000592742 1.12406 
-0.00238758 -0.00196133 0.945365 
0.000940295 0.00127117 1.08668 
0.00338759 -0.00107392 1.13947 
0.00256965 -0.000379724 0.950375 
-0.00308766 0.00209379 1.11413 
0.000328403 0.00186171 1.11849 
0.0113606 0.0032785 0.48467 
0.00247397 -0.00999002 0.586691 
-0.000351863 0.00296289 0.0142631 
-0.00267494 -0.000794633 0.309301 
0.00816887 -0.00583216 0.0172181 
0.011357 0.00773062 0.585785 
-0.00846216 -0.00986535 0.482778 
0.00186872 0.00155367 0.613224 
-0.026816 -0.00542104 0.572445 
0.00884417 -0.0179946 1.0604 
0.020311 0.00239736 0.976313 
0.000588187 0.0142116 0.675251 
-0.00592506 0.00407447 0.567365 
0.0143586 -0.0177721 0.987764 
-0.00498224 -0.00715345 1.05395 
-0.0094354 0.0120026 0.870746 
0.000499018 -0.000360101 0.421715 
0.000691578 0.000985852 0.00150789 
-0.000967504 -0.00107322 0.00482799 
0.000427319 0.000407823 -0.00363305 
0.00633087 0.00194847 0.505456 
-0.0038642 0.000371542 0.00869768 
0.000815307 4.54701e-05 0.012282 
-0.00270522 0.000156766 -0.00568924 
0.00124278 -0.00255684 0.500857 
0.00175769 0.00141208 0.0182412 
-0.00257838 0.00200942 0.0146522 
-0.000218711 -0.00214977 0.566498 
0.00992469 0.0029614 1.17319 
-0.00914722 -0.000754617 1.26165 
-0.00256403 -0.00853423 1.21801 
0.00030708 0.00833693 1.19824 
0.00139242 0.00288664 1.1782 
-0.00274953 -0.00250711 1.20705 
-0.00136466 -7.13046e-06 1.25585 
0.00205171 0.000278515 1.19096 
0.00102876 0.000748589 1.21965 
0.000534153 -0.0024466 1.05761 
-0.00405939 0.0017457 1.04069 
-0.00390572 -0.000459913 1.09127 
-0.00169539 -0.00491979 1.21898 
0.000418087 0.0043944 1.03806 
-0.00395368 0.00165331 1.06405 
-0.0017448 -0.00147088 1.14791 
-0.00728213 0.000771852 0.516782 
-0.00746089 0.00140415 0.498885 
0.0128325 0.00302078 0.0145701 
0.00378446 -0.00326418 0.00268672 
0.00738766 0.00580767 0.0314864 
-0.00677303 0.00011639 0.494669 
-0.000927645 -0.000165276 0.502183 
-0.00487135 -0.00234418 0.784964 
-0.000963957 -0.00139192 0.97062 
0.00939902 -0.0123137 0.806795 
-0.00905825 0.0100912 1.17704 
0.00297156 0.003171 1.02783 
-0.000291375 -0.0018313 0.970549 
0.00460705 -0.00440367 1.17636 
-0.00236513 0.00285455 0.807023 
-0.00141483 0.00137853 0.934377 
-0.0106041 0.00497757 0.856972 
0.00818361 0.000442417 0.546381 
-8.94248e-05 0.000161431 0.795327 
0.00289551 -0.00373619 0.952609 
-0.0099228 0.00415272 0.853806 
0.00338244 0.000484589 0.796629 
0.0085795 0.00120881 0.549339 
-0.00179937 0.00154019 0.54518 
-0.00278786 0.00315111 1.03013 
-0.000915114 -0.00782039 1.24034 
0.00238088 0.00825061 1.11497 
0.00170921 -0.00171441 1.18762 
-0.00442901 -0.00561015 1.02641 
-0.00560073 0.00466752 1.11971 
0.00748729 0.00578599 1.24111 
0.00522843 -0.00469365 1.05483 
-0.000303729 -0.00307193 1.04634 
0.00104689 0.000829712 1.1457 
-0.00167998 0.00195497 1.03815 
0.00526863 0.00139917 0.981262 
-0.00726399 -0.00031405 1.04746 
-0.00509875 0.00789315 1.14809 
0.00702084 -0.0102739 1.04249 
0.00449878 0.000680522 1.17593 
-0.000679477 0.000530032 0.97933 
0.00251891 0.000940711 0.950115 
-1.72571e-05 -0.000589831 1.01572 
0.00173692 0.000763053 1.07321 
-0.0034902 -0.00261209 0.984849 
0.00245418 -0.00105232 1.02435 
0.000236635 0.00219621 0.938673 
-0.000782874 -0.000622352 0.801531 
-0.00116161 -0.00259624 1.16698 
0.0003725 -0.000443268 1.01864 
0.00389628 -0.000139801 0.942535 
0.000703352 0.000994681 1.07242 
0.00288834 -0.00196262 1.17972 
-0.00151754 0.000965028 0.928324 
0.00184289 -0.00122522 1.0218 
-0.0006309 0.000748119 0.807619 
0.00122119 0.00284 0.402758 
-0.00424442 -0.00208798 0.527978 
0.00191847 -0.00274705 0.0226346 
-0.00442978 0.00194464 0.666397 
-0.00433999 -0.000507709 0.416063 
0.00634998 0.00092927 0.00819287 
-0.00391891 -0.00342677 0.533041 
-0.00190009 0.00358869 0.00219788 
0.005814 -0.000176422 0.566843 
-0.000363294 -0.000104762 0.933792 
-0.0109493 0.00386875 0.989611 
0.00245971 -0.005465 0.869455 
0.0177489 0.0019179 0.569086 
-0.0191963 -0.00135211 0.981002 
-0.00159171 0.00248079 0.938801 
0.000229505 -0.00685002 0.706264 
0.00698827 0.00229742 1.21466 
0.00055938 -0.00250229 0.977629 
-0.00107099 -0.00402755 1.07601 
0.00132 0.00295223 1.14433 
0.0116922 -0.0057327 1.22246 
-0.0014787 -0.00469058 1.07617 
-0.00222373 0.00418493 0.971817 
-0.00639113 0.00529072 0.913214 
0.00205175 -0.00402971 0.795027 
-0.00169609 0.00266903 0.883377 
0.00147542 0.000819358 0.976496 
-0.00099982 0.000398863 0.680042 
0.00164127 2.7231e-05 0.971912 
-0.00178575 0.00330642 0.88604 
0.00173724 -0.00546781 0.801133 
0.00340001 0.000425864 1.02854 
0.000388846 0.00105326 0.756232 
0.000822124 -0.00337202 1.05344 
-0.00586479 -0.00264348 1.03804 
0.00124339 -0.00105979 0.860604 
-0.0031359 -0.00131248 0.75665 
-0.00155278 -0.00291661 1.04058 
0.000552008 0.00174412 1.04837 
0.00492423 0.00125352 0.979911 
-0.0033218 0.00528255 0.69259 
-0.00209055 0.000381654 0.55777 
-0.00484198 -0.00529269 0.997596 
-0.00223327 -0.00266218 0.598388 
0.000761125 0.00257153 0.685473 
0.000264015 -0.00426908 0.990466 
-0.00864235 0.00275299 0.568397 
-0.000986002 -0.00076129 0.866997 
0.00440998 0.000556752 1.06489 
0.00554899 0.00210035 0.985362 
-0.0123261 -0.00558875 0.569339 
-0.0013028 -0.00342345 0.597815 
0.00215802 0.000601604 1.05339 
-0.00735191 -0.00363415 0.577504 
0.00456497 0.00207417 0.980723 
-0.00356184 -0.002888 0.870405 
-0.00535793 -0.0038267 0.483654 
0.00412693 0.00798179 0.675564 
0.00450898 -0.00203577 0.0160638 
-0.000819876 0.00148912 0.58114 
-0.00304363 0.00578958 0.4889 
-0.00408689 -0.00178611 0.0185323 
0.000732483 -0.00125961 0.670838 
0.00424068 0.00274137 0.491229 
0.00221896 0.00295533 0.00262386 
-0.00096393 0.00156407 0.320693 
0.0010415 -0.000664137 -0.00142454 
0.000197802 0.000478334 0.357561 
0.00060819 0.000490159 -0.0024317 
-0.00198746 0.00367942 0.318222 
0.00257758 0.00168584 0.00341003 
-0.0040515 -0.0029206 0.00412554 
-0.000710234 0.00130597 0.497655 
-5.4589e-05 -0.000665438 0.00754602 
5.27446e-05 0.000642955 0.00825237 
-1.13517e-06 -1.38373e-05 -0.00462028 
0.00135696 0.00287206 0.495052 
0.00102274 0.00137782 0.0122513 
-8.63418e-05 -0.000689493 0.0133665 
-0.00196646 -0.000494717 0.592734 
-0.0011952 -0.00108887 0.437344 
0.00100271 -0.00251565 0.00606125 
0.00168314 0.000312132 -0.00422977 
-0.00161195 -0.000665525 0.323157 
-0.00375121 -0.00163721 0.433324 
0.000820909 -0.00144088 -0.00355219 
0.00188275 -0.00249611 0.00766477 
-0.00249191 0.00397645 0.00301113 
0.00115429 -0.000201428 1.16679 
-0.00138469 0.000303969 1.16554 
0.00167242 0.000587235 1.24875 
0.000238433 0.00136366 1.17605 
0.000130061 0.000986064 1.16144 
0.00184382 0.000459458 1.25074 
-0.000748501 -0.000717426 1.16448 
-0.00094887 -0.000474205 1.13572 
0.00236016 0.00145976 0.950548 
-0.00372841 0.00223185 1.14877 
0.00556366 -0.00159548 1.11919 
-0.000712599 0.00177217 1.13895 
0.002996 -0.00372314 1.1149 
0.00206948 0.00203522 1.15627 
-0.00198428 0.00630541 0.946994 
-0.00295541 -0.0003862 1.01585 
0.000123774 0.00221103 0.418375 
-6.98348e-05 0.000773881 -8.56045e-05 
0.000110049 -0.00212565 0.0053481 
-6.73494e-07 0.000554745 -0.00314946 
-0.00706708 0.0015075 0.407925 
0.000242008 0.00346573 0.00866187 
0.00153049 -0.000514389 0.00143148 
4.75829e-05 -0.000615699 0.524449 
-0.00736633 0.000793773 0.4346 
0.000568801 0.000782619 0.359254 
0.00196748 0.00150787 0.595621 
-0.00216868 -0.00100945 0.341361 
-0.00659413 0.00437709 0.438471 
0.00151875 0.00138688 0.595492 
0.000557434 -0.00259035 0.355608 
-0.00267065 -0.0058531 0.508548 
-0.005027 0.000197659 0.485039 
0.00378448 1.85273e-05 0.00433685 
-0.00086675 0.00209772 0.00625713 
-0.000704653 -0.00132288 0.529766 
0.00156463 -0.00123097 0.492178 
-3.20562e-05 -0.000214006 0.00626924 
-0.000302044 -0.00111445 -0.000933768 
0.000238743 0.000901902 -0.000660003 
0.00371955 0.00152429 0.725655 
-0.00115647 -0.00278498 0.831672 
0.00330466 -0.000116488 1.05486 
0.000781234 -0.000931651 0.930725 
0.00608516 0.00360588 1.05439 
0.000297938 0.00539611 0.827411 
0.000275771 -0.00675233 0.728599 
-0.00327785 -0.00375303 0.66061 
-0.0111536 0.0032474 0.594009 
0.00525498 -0.00443852 0.0092313 
-0.000180722 0.00541517 0.416186 
-0.000336955 -0.00198671 0.00439308 
-0.0010833 -0.00230738 0.591535 
-0.00467523 0.00200202 0.404591 
-0.000606065 -0.00076375 0.0116232 
0.000166168 -0.000784093 0.517049 
-0.00641444 -0.00664579 0.897357 
0.00386839 0.00522978 1.20253 
0.00352415 0.00375101 1.10264 
-0.00151701 -0.00109116 1.02074 
-0.00742852 -0.00726224 0.89816 
0.00302884 0.00402169 1.10569 
0.00395717 0.00574374 1.2046 
0.0010726 -0.00287992 1.01741 
-0.00584303 0.0107486 0.909038 
0.00568786 -0.00887223 1.16887 
-0.00204412 -0.000956358 1.10162 
-0.00185189 -0.00139808 0.987145 
-0.00139481 -0.000754791 1.09934 
0.00329197 -0.00909258 1.17635 
-0.00406918 0.0085139 0.907796 
0.002337 0.00425892 1.07772 
-0.00359738 -0.00103859 0.460351 
0.000387498 -0.000811972 -0.00369011 
-0.000105041 0.0001093 0.012034 
-0.000609895 0.00140261 -0.00660168 
-0.00126125 0.00643188 0.449586 
0.00304974 -0.00516589 0.0147286 
-0.00839422 -0.00470082 0.0096404 
0.00817731 0.00819929 0.696436 
-0.00103661 0.00132746 0.52862 
-0.00170344 0.00153027 0.726957 
0.000734904 0.00124524 0.392619 
-0.000899186 -0.00106094 0.641096 
-0.00207759 0.00700837 0.53947 
0.000221569 0.00130238 0.393084 
-0.000324115 -0.00296416 0.71798 
-0.000385169 0.000432972 0.545658 
-0.00148415 0.000809388 0.310236 
0.00107225 -0.0028727 0.0120011 
-0.00424928 0.00791481 0.595527 
0.00102666 -6.08637e-05 0.000454954 
0.000137885 0.00154837 0.315477 
-0.00833486 0.00780057 0.587778 
0.00425677 -0.00514658 0.0106686 
0.000556188 -0.00254228 0.371067 
-0.000711494 -0.00185749 0.506292 
0.00353359 0.00120607 0.462905 
-0.00127114 0.000485173 0.0117764 
0.00596652 -0.00180222 0.66366 
0.00779405 0.00496018 0.512275 
-0.00780715 -0.00326218 0.00857525 
-0.000962141 0.000897004 0.462826 
0.000497135 0.0023512 0.37314 
0.00033119 0.00126443 0.348131 
0.00138946 -0.00235362 0.00836543 
0.000151155 -9.50813e-05 -0.00299109 
-0.000835651 0.00132971 -0.00295151 
-2.48639e-05 -0.000558914 -0.00178969 
0.00157078 -0.000623998 0.00377598 
0.000955653 0.000397813 0.350596 
0.000157991 -4.20402e-05 0.351152 
-0.00398074 -0.00167355 1.05541 
-0.000290738 0.00277396 0.726041 
0.00615363 0.00578563 0.87996 
-0.00141379 0.00215134 0.932893 
0.00277973 0.00231499 1.05614 
0.00546479 0.00971041 0.882807 
-0.00486955 -0.00428356 0.722608 
-0.00440773 -0.00837822 0.771429 
-0.00440095 0.00193369 1.19372 
-0.000974683 0.0041299 1.13205 
0.0101292 -0.000263654 1.25798 
-0.00153447 0.0015059 1.21136 
0.00297654 -0.00452766 1.19148 
0.00774486 0.00123444 1.25823 
-0.00478705 0.00474421 1.13101 
-0.00366677 -0.000262146 1.11917 
0.000329136 0.000917489 0.407322 
-0.00405362 -0.00112839 0.00547265 
0.00167136 -0.00215188 -0.00406351 
-0.00201065 0.00180233 0.270746 
0.000889041 0.00223825 0.405227 
-0.00109655 -0.00141892 -0.0044696 
-0.00135105 -0.00242238 0.00672621 
0.0013066 0.00202165 -0.000679318 
-0.00411501 -0.00204487 0.560957 
0.00180648 -0.00299536 0.38507 
0.00348432 -0.0011356 0.714073 
-0.00225342 -0.00164525 0.470908 
0.00108239 -0.00646513 0.568825 
0.00185914 0.000641484 0.711219 
-0.00270625 -0.0017403 0.380813 
-0.00348448 0.0037028 0.545354 
-0.00841866 -0.000112189 0.5555 
0.00210966 -0.00234548 0.406372 
0.00695015 0.00023924 0.010374 
-0.0041477 0.000659583 0.396251 
-0.00136071 0.000648187 0.556674 
-0.000637656 0.00220635 0.00559989 
-0.00105161 -0.00158367 0.404456 
-0.00407711 0.00169808 0.505124 
-0.000808903 -0.000464115 0.781038 
-0.000855141 -0.00243289 0.399184 
-0.00420025 0.0030001 0.471032 
-0.00013922 -0.00292695 0.429507 
-4.86086e-05 -0.00484072 0.779371 
-0.00193204 0.000906081 0.467515 
-0.00369541 0.000356619 0.40361 
-0.000905319 -0.000290079 0.572879 
-0.00143947 0.000615924 1.07195 
-0.00530599 -0.000392152 1.06902 
0.00532363 -0.000601382 1.05793 
-0.000385194 0.000829139 1.22006 
0.00219803 -0.00115361 0.82795 
0.000736235 0.00218078 0.694073 
0.00332056 0.000498513 1.04863 
0.00217782 0.000717303 0.470948 
0.00354947 0.00353686 1.06936 
-0.00269994 -0.00323712 1.22859 
-0.000391549 0.00186697 1.17199 
0.00184732 -0.0017014 1.04918 
-0.000327576 0.00147628 0.700892 
0.00106186 0.00238571 0.724755 
-0.0015987 0.000937257 1.08859 
-0.00382104 -0.00368489 0.648466 
0.00575305 -0.00453578 1.08401 
-0.00263832 0.00100666 0.714665 
-0.000190919 0.00518856 0.712242 
-0.00379728 -0.00216199 0.958613 
0.00254589 -0.00289841 0.838933 
0.0124236 -7.30193e-05 1.04788 
-0.00403792 -0.00284756 0.589262 
-0.0038476 0.00180046 0.466937 
-0.00217043 -0.0005816 0.00411474 
-0.000976332 0.00268501 0.000715933 
0.00191049 -0.00392423 0.370779 
0.00590043 -0.00190054 0.633852 
-0.000336301 -0.0015515 0.327105 
0.00392495 0.0129435 0.51278 
0.00164897 -0.00256401 0.0155415 
-0.0101536 -0.00447727 0.484697 
-0.000847901 0.00166447 1.14512 
0.00276283 0.000433832 1.23723 
0.000531807 -9.22955e-05 1.18388 
0.000868234 0.000205291 1.22829 
0.0010664 -0.000183922 1.2227 
0.00114642 0.000481366 1.18615 
-0.000473572 0.0010738 1.14329 
0.000326179 -0.000417751 1.23308 
0.00659672 0.00775114 0.996988 
0.00197721 -0.00276409 1.09674 
-0.00839143 -0.00648073 0.747356 
-0.00148661 0.00311806 0.828301 
-0.000120092 -0.00219564 0.621477 
0.00145278 0.00257544 0.621855 
0.00238961 0.00149218 0.0138395 
-0.0057498 0.00135532 0.49845 
0.00220852 0.00061726 1.07564 
0.00320539 -0.00210507 1.05439 
0.00231268 -0.00135574 1.09271 
-0.00317766 0.00425252 1.22041 
0.0035434 -0.000331475 1.22834 
0.00344016 -0.000990726 1.23301 
-0.00694646 0.002338 1.14478 
-4.57363e-05 -0.00326338 1.07323 
0.00416579 -0.00261407 0.984526 
0.00826057 0.00657078 1.10735 
-0.00857926 -0.00406162 1.12851 
-0.00290505 -0.00039891 1.17792 
0.0059002 -0.00238498 0.590273 
-0.0201051 0.00173933 1.04342 
0.0078307 0.00757633 0.704347 
0.0196838 -0.00260263 0.471234 
-0.00121395 0.0026096 0.872045 
-0.0014464 0.00284924 0.98661 
0.00347188 -0.00592014 0.741429 
0.000234786 0.000870626 0.515478 
0.000291437 0.00135666 0.0033423 
0.00102446 0.000740381 0.0031683 
0.00442938 -0.00613887 0.631794 
-0.00107265 0.00748915 0.626796 
0.00199887 -0.00112285 0.00890728 
0.00846892 -0.00335935 0.630414 
0.00217006 0.00483759 0.00983703 
-0.000236813 -0.00323129 0.565566 
-0.000250204 0.0016894 0.870835 
0.00139487 -0.00373905 0.734708 
-0.000600847 0.001817 0.996147 
-0.00100108 6.91526e-05 0.837338 
-0.00240224 -0.00606246 1.01954 
-0.00654443 0.00316799 1.22843 
0.0025926 -0.00713153 1.0199 
0.00567467 0.00977441 1.19023 
0.00306936 2.72431e-05 0.688842 
-0.00190337 -0.00141003 0.946372 
0.00014718 -0.00109993 1.06594 
-0.000151737 -0.00192962 0.867241 
0.00528375 0.00618942 1.0875 
-0.00338586 0.00462088 1.17002 
-0.00221162 -0.00140531 1.22941 
0.000975721 -0.00524028 1.26062 
0.000714242 0.00219642 0.0191517 
-0.00527576 -0.00599561 0.552949 
0.0049863 -0.000911306 0.640862 
0.000860117 0.000300536 0.794775 
-0.000523418 -0.00456867 0.990536 
-0.00355648 0.00130962 0.627649 
0.00290408 -0.00298306 0.844402 
-0.00243037 -0.00036009 0.902586 
-0.00392044 0.00402318 1.23893 
0.0021437 -0.00206652 1.13185 
-0.000608922 0.00107441 1.18909 
0.000519374 0.00020115 1.0723 
-0.0168564 0.00276955 0.717486 
0.00785626 0.000474693 1.1278 
-0.000194424 0.00962375 1.01208 
0.00347469 -0.00758681 0.993543 
0.00338001 0.00475039 1.06573 
-0.000453959 -0.00466186 0.689922 
-0.00178635 -0.00187981 0.807077 
-0.00294113 0.001588 0.948908 
0.00231367 9.2682e-06 1.22531 
0.00235907 0.000739207 1.18521 
0.00101662 -0.00033927 1.23593 
-0.00242451 -0.00118272 1.22573 
0.000157941 -0.000535087 1.11096 
-0.00446079 0.000210114 1.18832 
0.000324742 -0.0017646 1.17387 
0.000821991 -0.000408507 1.00749 
0.00321732 0.00920217 0.612279 
0.00323794 0.000457486 1.06338 
-0.00176757 -0.00322047 0.837257 
-0.00407614 -0.00895958 0.935508 
0.00127201 0.000684054 0.00236961 
0.000566741 0.000287802 0.00198364 
0.000298759 0.000153024 0.00097414 
0.00381547 -0.00475788 0.639034 
0.00183961 0.00379592 0.030027 
-0.00280236 0.00163289 0.639187 
0.00108381 -0.00516499 0.71649 
0.00588083 0.00270405 0.592034 
-0.015664 -0.00500927 0.0328304 
0.00704729 0.0017499 0.591448 
0.0181517 0.00583656 0.714382 
0.000953725 0.00272482 0.453052 
-0.0011414 0.00342902 1.10603 
-0.00186513 -0.00096652 1.1752 
-0.000961249 -0.00384235 1.22531 
0.00168402 0.0011466 1.04913 
-0.0115937 -0.00479186 1.18351 
0.00619175 0.00122201 1.00279 
-0.000438125 0.00157112 1.1204 
0.00511134 -0.0045334 1.01718 
0.0146089 -0.00674046 0.997317 
-0.0116105 0.00662422 0.506741 
-0.00254322 -0.00608647 0.619221 
0.00222076 0.00241866 0.816446 
-0.0164285 0.00274331 0.84232 
0.0162332 -0.00290632 0.628396 
-0.00383935 -0.015989 1.00061 
0.00353209 0.0129419 0.554023 
-0.000473692 0.000763212 0.330285 
0.00216245 -0.0047266 0.668931 
0.00649683 0.0176664 0.513733 
-0.0106441 -0.00853359 0.480544 
0.00407366 0.00245422 0.972833 
-0.00557098 0.00496832 1.17379 
-0.000280519 -0.00362887 1.09748 
0.00265442 -0.000754912 1.033 
-5.55079e-05 -0.000227029 1.10517 
-0.00226284 -0.00290635 1.06149 
-0.00106893 -0.000396353 1.07477 
0.00449299 0.00181422 0.924482 
-0.0079277 -0.00120168 1.13592 
0.00995158 0.00831576 1.10873 
-0.000294765 0.000501575 1.25394 
-0.00413964 -0.00347909 1.17124 
0.0025609 0.000870466 1.11705 
0.00187056 0.00116936 0.969187 
-0.00166527 -0.000631644 1.14526 
0.00090656 0.00131931 1.23674 
-0.00348437 0.00609546 1.06359 
-0.00898305 -0.00032236 0.921904 
0.0103049 -0.00688447 0.582594 
0.00408964 -0.00207341 0.813759 
0.0038332 -0.00182189 0.997036 
-0.00157741 0.0109838 0.748998 
0.00101127 -0.0046127 1.09632 
-0.00323625 -0.0015137 1.02442 
0.000515128 0.000528121 0.847003 
-0.00220457 -0.00179965 0.879603 
0.000404995 0.00149354 0.899305 
0.00334706 -0.00124474 1.09123 
-0.00309493 -0.0020311 0.0129987 
0.00100195 0.00186134 0.646119 
-0.00618056 0.00443478 0.017365 
0.0112154 0.0057686 0.80171 
0.00198348 0.00193006 0.0161291 
-0.0017058 0.00217847 0.615353 
0.00270824 -0.00238909 0.624448 
-0.0011837 -0.00240984 0.545099 
-0.000946602 -0.00215171 0.940609 
0.00261491 -0.0021044 1.02353 
0.00213934 0.00311209 0.757836 
0.0086676 0.00030391 0.505707 
-0.000539552 0.00344972 0.00917924 
0.0014788 -0.00347968 0.370362 
-0.00229461 0.00481004 0.00523045 
0.00755659 -0.00449312 0.628762 
0.00366036 -0.00296314 1.07298 
-0.00542998 0.000754336 1.15077 
0.00883963 -0.00660761 0.965858 
-0.00631025 0.00761774 1.2425 
-0.000248675 -0.00518205 1.02173 
0.000253266 0.00458204 1.19218 
0.00114126 -0.00469705 1.01081 
-0.000181764 0.00470315 0.98974 
-0.0104194 0.0173681 0.0192699 
0.0162573 -0.00577061 0.570983 
0.00278894 -0.0136651 0.760727 
-0.0176436 -0.00415412 0.503746 
-0.00349682 -0.00200772 0.691987 
-0.00046298 -0.00174323 0.590926 
0.000118672 -0.00312812 0.836816 
0.0119541 0.00481832 1.03811 
-0.000920944 -0.00227938 0.75038 
-0.00205516 -0.00152029 0.947789 
0.00129047 -0.000424575 0.68949 
0.000776537 -0.00130401 0.859503 
0.00264802 -0.00290992 1.06971 
0.00500387 -0.00212073 0.96144 
-0.00630882 7.53028e-05 1.10212 
-0.00199273 9.32744e-05 1.24288 
-0.00147959 0.00394469 0.877439 
-0.00806383 0.00210532 0.988941 
0.00257476 0.00279576 1.09494 
0.00901873 -0.00180337 0.84177 
0.00114723 -0.00060791 0.0130799 
0.00146739 -0.0024017 0.0127671 
-0.00697266 -0.00326015 0.574183 
-0.00232637 0.00625937 0.504953 
-0.00111451 -0.000987445 0.698775 
-0.0015011 0.00563788 1.06351 
0.000495332 -0.00235878 0.753224 
-0.00311619 -0.000837075 0.521543 
-0.00146251 0.000530379 1.06716 
0.00518676 -0.000458008 1.06537 
-0.00406908 -0.000492364 1.06757 
-0.000544799 0.00129534 0.87078 
0.00388755 -0.00232487 0.00799343 
-0.020055 -0.00752242 0.782155 
0.0138501 0.00395954 0.00752671 
-0.00828376 0.00168577 0.493835 
0.000501854 0.00408036 0.0105816 
0.000269773 -0.000732399 0.365404 
-0.00998946 -0.0073645 0.576083 
0.00477162 -0.0034567 0.507424 
0.00950755 -0.000382457 1.08618 
-0.000558217 -0.00762699 1.17153 
0.00160089 0.00806411 1.17455 
-0.00942805 0.00128737 1.25863 
-0.00107578 -8.22157e-05 0.930308 
-8.49821e-05 0.00020073 1.17563 
0.00107312 -0.000662037 0.96551 
6.75067e-05 0.000800579 1.03137 
9.76542e-05 0.000554352 1.16003 
-0.0032676 -0.00321587 1.2309 
0.00329603 0.00324998 1.06811 
-0.000125886 0.00186624 1.18889 
-0.00761672 0.00135461 1.08796 
0.00562584 -0.00206576 1.25819 
0.00120767 -0.000506439 1.2299 
-0.000239303 0.00241593 1.18701 
0.000598367 -0.00259291 0.274071 
-0.00372201 0.00759161 0.619442 
0.00148294 -0.00292347 0.0199261 
0.00242773 0.00332815 0.507247 
0.000168432 -0.0033003 0.763969 
-0.00135405 0.00708136 1.04961 
-0.000557142 -0.00234065 0.706771 
0.00149533 0.00289837 0.889456 
-0.000616381 -0.0015357 0.0108823 
0.000592715 0.000947092 0.373205 
0.00372674 0.00909932 0.647639 
0.00229296 -0.0029535 0.523908 
0.00293083 -0.00123127 0.93523 
-0.0041833 0.00382355 0.58197 
0.00288431 -0.00490192 1.06472 
0.00181153 0.000438235 0.921183 
0.00916994 0.00021645 0.0121244 
0.000803978 0.000273736 0.553647 
0.00272571 0.00318745 0.504748 
-0.0120566 -0.00903881 0.498966 
-0.00130519 0.00472296 1.12645 
0.0015876 0.0023566 1.10569 
0.000760828 -0.000416315 0.979647 
-0.00528363 0.00109215 0.956871 
-0.00542398 0.00105046 1.10436 
0.000673324 0.00357671 0.974974 
0.00422732 -0.000313416 1.11711 
0.00179908 0.000449886 1.1666 
0.00138937 -0.00062821 1.25489 
0.0035924 0.00488251 1.18302 
0.000100616 -0.00306569 1.09333 
-0.00185004 -0.00217609 1.04984 
0.00196009 0.00221012 0.0154641 
-0.000115372 0.00015386 0.586237 
-0.00420379 0.000905486 0.664239 
-0.00563305 -0.00115011 0.535534 
0.0104697 0.00521961 0.743473 
-0.00583276 -0.000731607 0.998965 
0.0120009 -0.0142904 0.566113 
-0.00997782 0.00881098 1.03255 
0.00240543 -0.00160926 0.612907 
0.00348458 -0.00118746 0.996234 
-0.00100385 0.00161018 0.61654 
-0.00299415 0.00252399 0.507383 
-0.0183915 0.00955995 0.0214091 
0.0074491 0.00246682 0.648326 
0.00778451 -0.00516012 0.489004 
0.0173997 -0.00513377 0.78877 
-0.00554786 -0.00275136 1.12579 
0.00464519 -0.00535096 1.17574 
-0.00329368 0.00483797 1.17491 
0.00485601 0.0063206 1.24608 
-0.0018916 -0.005146 0.84411 
0.00114487 -0.00066719 0.58354 
-0.00298708 -0.000991107 0.691595 
-0.00113112 0.0054585 0.462102 
0.00121525 0.000727047 0.650178 
0.000127168 -0.00210703 0.88298 
-0.000292988 0.000317564 0.72356 
-0.00258166 -0.00136151 0.514748 
0.00341653 0.0070015 1.0042 
-0.00470391 -0.00235218 0.75003 
0.00346441 0.00145418 0.615755 
-0.000689608 5.20955e-05 0.815477 
-0.0149057 0.0143357 0.0194414 
-0.00562638 -0.0170236 0.570112 
0.0149556 -0.0110873 0.770444 
0.0142355 0.014804 0.503932 
0.00550559 -0.00155285 1.14466 
0.0025955 -0.000207405 0.955016 
0.000829999 0.00121856 1.09561 
-0.00138743 -0.00159185 1.06283 
0.00247351 0.00168541 0.012195 
-0.00898856 -0.00647254 0.699907 
-0.000651666 0.000973439 0.340174 
-0.00144162 -6.01623e-05 0.470094 
0.0127486 0.00750468 0.0191458 
0.00430473 0.0098908 0.0209496 
0.00234975 -0.0125411 0.56084 
-0.0128234 -0.00520592 0.79436 
0.000603469 0.000988495 1.04821 
-0.000361834 -0.00078665 1.06343 
0.000927557 -0.000938838 1.11227 
0.0013483 0.00188659 0.913374 
0.0119444 -0.00397555 0.747967 
0.00428513 0.00965608 1.00588 
-0.0103539 0.00337189 0.617841 
-0.000103538 -0.0109622 0.552707 
-0.00469051 -0.000841592 0.0165278 
0.00602977 -0.00382459 0.542781 
0.000594594 0.00104167 0.503152 
-0.00320763 0.0049467 0.529423 
-0.0113603 0.00485524 1.25786 
0.00435348 0.00167431 1.10741 
0.0117327 -0.00522449 1.13034 
-0.0033887 -0.00124861 1.22902 
0.00225111 0.00380922 1.09541 
0.0161377 0.000593456 0.989188 
-0.00421329 -0.00967195 0.743661 
-0.0154683 0.00188243 0.842564 
-0.0112824 0.00228785 0.0175287 
0.00934925 0.00459188 0.645387 
-0.00370084 -0.00144339 0.0135188 
-0.00204668 -0.00286855 0.498 
0.00233633 -0.00726526 0.0255281 
-0.00476635 0.00462581 0.768458 
-0.00418053 -0.00478465 0.56285 
-0.00112536 0.00241616 0.478262 
0.00135672 0.00229368 1.00534 
-0.000150858 0.000326021 1.12776 
-0.00317048 0.00189548 0.716522 
0.00161491 -0.00197069 1.04311 
0.00483966 0.00379362 1.15684 
-0.0011467 -0.00255839 1.03215 
-0.00170491 -0.00224377 1.04429 
0.00122033 0.000612294 0.898133 
0.00157334 0.00552746 0.0157499 
-0.0154321 -0.0161628 0.514922 
-0.00520096 0.00371671 0.683854 
0.00727839 0.0126259 0.482546 
-0.00136132 -0.00234637 1.14628 
-0.00485451 0.00460129 1.23164 
0.00361115 0.0032723 1.14429 
0.00522057 -0.00497632 1.07294 
-0.00127266 0.00259455 0.714971 
0.000396099 0.00701754 0.655168 
0.00696332 -0.00610936 1.04267 
0.00257556 -0.00525179 1.01783 
0.00233146 0.00656532 1.01124 
-0.00451101 -0.00979975 0.628114 
0.0120906 -0.00531739 0.652889 
-0.00950417 0.00819665 1.04513 
0.000870502 0.00207918 0.0100956 
-0.00411303 0.00859801 0.525966 
0.00284452 -0.00727692 0.646299 
-0.00239824 -0.00258972 0.515474 
0.000368219 0.00216221 0.702534 
-0.0033834 0.00278041 0.642377 
0.00446782 -0.00327019 0.520182 
-0.00279449 0.000314813 0.884232 
-0.00035062 0.000505022 0.00919165 
-0.00196908 0.00280003 -8.93763e-05 
-0.000865651 0.00123616 0.00740831 
0.00134804 -0.00419456 0.643906 
0.00876552 -0.00126209 0.0139771 
-0.00990871 0.00193998 0.589385 
0.000298379 -0.00348098 0.53402 
-0.00549125 0.00151269 0.482025 
-0.000190891 -0.00116166 1.08179 
-0.00300471 -0.00185614 1.1629 
0.000681357 0.000392143 1.26536 
0.00160929 0.000753458 1.18142 
0.000498414 0.000575842 0.843827 
0.000898891 0.00119407 0.897702 
0.00142383 0.00162829 0.956976 
0.000493494 0.000542262 1.09561 
-0.00174088 0.000360152 1.10034 
0.00324867 -0.000578252 1.02694 
-0.00202309 0.000835548 1.178 
0.000316553 0.00129682 0.922548 
0.000400178 0.00125551 1.23801 
0.000357188 -0.00205486 1.03845 
0.000157472 -0.000517912 1.12819 
0.00336127 -3.86409e-05 1.07816 
0.00121996 -0.00329266 0.886122 
0.00187577 -0.0001281 0.647955 
-0.000732662 0.000734557 0.720509 
0.00081405 0.0037142 0.827841 
0.00567319 0.00100585 0.722131 
0.00262706 -0.00902663 1.03775 
0.00250401 0.00322295 0.932365 
0.00108067 0.000806377 1.01694 
-0.00914086 -0.00480529 0.715105 
-0.000138876 -0.00398801 0.646822 
0.0194513 0.00962586 0.0239266 
-0.00325909 0.00406658 0.43259 
-0.00380762 -0.00277195 1.18948 
-0.00544366 -0.00279886 1.24006 
0.00890607 0.00149418 1.02622 
0.00195755 0.00243409 1.04874 
-0.0020681 0.0046887 0.744738 
-0.00234757 -3.69169e-05 0.926153 
0.000297379 -0.00111935 0.972178 
0.0067545 0.00158103 1.03388 
-0.0019702 0.000503375 0.653039 
0.00138814 -0.000247476 0.620573 
-0.00273231 -0.000645194 0.884355 
0.0012876 -0.000567173 0.510898 
0.00122216 -0.00258138 0.929453 
0.00209852 0.00197824 1.06404 
0.000544262 0.00268438 0.768153 
0.00260098 -0.000248206 1.01834 
0.00184706 0.00435834 1.14094 
0.00363879 -0.0032216 1.15388 
0.000799641 0.00360461 1.08212 
0.000557796 -0.00119535 1.06081 
0.0028821 0.00353996 0.757072 
0.00601755 0.000570216 0.565428 
-0.00703347 -0.00567808 0.0256045 
-0.000154705 0.00288849 0.499516 
-0.000113452 -0.000903703 0.0180869 
-0.00182424 -0.00517031 0.622816 
0.00346138 -0.000424915 0.462173 
0.00182454 -0.000972547 0.539666 
0.014369 -0.00575335 0.0253657 
-0.0069545 0.00358307 0.707448 
-0.00228375 -0.00268927 0.557764 
-0.00708627 0.00424754 0.789641 
-0.00251348 -0.000280555 0.340342 
0.000161074 0.000940303 0.000824868 
0.00133427 0.00268212 0.0090271 
-0.00754815 -0.00667702 0.716518 
-0.00616418 -0.00095147 0.562526 
0.0120412 0.00513402 1.06162 
-0.00434905 -0.00546216 0.701869 
-0.00499897 0.00105043 0.520761 
-0.000536471 -0.00408165 0.00890059 
-0.00134229 0.0016349 0.0101541 
0.00649293 -0.000177485 0.627493 
0.00169344 0.00520532 0.504734 
-0.00440831 0.00469608 0.708876 
-0.00691362 -0.00249089 1.00179 
0.00361841 0.000911549 1.00798 
-0.00485828 0.00117103 0.772181 
-0.0015231 0.00453378 0.0146869 
0.00191517 -0.000563808 0.644268 
-0.0023766 -0.00557993 0.545886 
0.00483965 0.00625541 0.493831 
-0.000415235 -0.00105232 0.840715 
0.00285412 0.00104171 0.875413 
0.000618871 0.00218416 0.576524 
-0.0010836 0.00250657 0.912877 
-0.00131019 8.67153e-05 0.0110917 
-0.00111756 -0.00141856 0.0108945 
0.00539883 0.00581966 0.646304 
-0.00465264 0.0019373 0.525542 
-0.00149567 -9.88076e-05 1.10431 
-0.0013136 0.00116697 1.16865 
-0.000586377 -0.00317957 1.06266 
0.00111496 0.000668448 0.924599 
-0.00237038 -0.00223938 0.711219 
-0.001059 0.00145895 1.063 
-0.00232102 -0.00589276 0.61436 
0.00207777 0.00748701 0.933246 
0.00280078 -0.000629619 0.00754028 
-0.000857317 0.00032508 0.00668437 
-0.00324073 0.000949047 0.00625845 
-0.00324166 -0.000421375 0.782586 
0.00117962 -0.00377331 0.348652 
0.00792355 0.000685571 0.0127508 
0.00139299 0.000350877 0.390008 
-0.0148743 0.000874844 0.698398 
-0.00331374 0.000506921 0.974768 
-0.0018505 0.00075422 0.951406 
0.00176143 0.0024476 1.10306 
0.00307274 0.00250405 0.833522 
0.00804566 -0.00602059 0.720694 
-0.00202306 0.00218779 1.02669 
-0.00605488 0.00253863 1.08205 
-0.0020753 -0.00248828 0.834398 
0.00425173 0.00483422 0.0261298 
-0.00514866 -0.00246438 0.759982 
0.00456178 -0.00145077 0.526534 
-0.00555942 -0.00474995 0.482078 
0.00117925 -0.00133379 0.720664 
0.000810913 -0.000906014 0.934309 
0.00123093 -0.00373062 0.937713 
0.00545988 0.000495417 1.03131 
-0.000175675 -0.00172045 0.00785692 
0.000166115 0.00220291 0.00443138 
-6.21738e-05 -0.000416189 0.00674809 
0.00122675 -0.00270739 0.723421 
0.00464549 0.00230443 0.0150412 
0.00261829 0.00215964 0.0072229 
0.00159386 -0.0123332 0.627871 
-0.00796928 -0.000727038 0.540695 
0.000168935 0.000955119 0.673756 
-0.0070683 -0.00226329 0.515556 
0.000512742 0.00130682 0.657326 
0.000200659 0.00356935 0.484442 
0.00291146 0.000163232 0.942371 
-0.00496212 -0.00307676 0.53805 
0.00106671 0.00257178 0.871101 
-0.00185251 -0.00203837 0.827934 
-0.0043997 0.000555653 1.02241 
0.00307045 0.00310604 1.18334 
0.00130696 -0.00378912 1.22698 
0.0014334 0.000238267 1.16125 
-0.00167623 0.000835486 0.551744 
0.00351609 0.0102607 0.611049 
-0.00175802 -0.00320662 0.836642 
-0.00399459 -0.0086292 0.936367 
0.000552981 0.000540769 1.14883 
-0.00180004 -0.000359653 1.14126 
-0.00117276 -0.0019118 1.00318 
0.00116914 0.000769196 1.10559 
-0.000264954 0.00376408 0.74208 
-0.00222967 -0.000289034 0.926785 
0.00241607 -0.00763288 0.585775 
-0.00258996 -0.000400687 0.979636 
0.0056995 0.0023148 0.0120135 
-0.00356443 0.00229368 0.572875 
-0.000824078 0.00548112 0.0136403 
-0.00058944 -0.00558284 0.504833 
0.000724717 -0.000374226 -0.00203047 
-0.00123505 0.000554413 0.00794026 
0.00087681 -0.00041793 -0.00432917 
-0.000442937 -0.00116283 0.531601 
-3.04093e-06 0.00797255 0.759828 
-0.00133032 -0.0019318 0.510272 
0.0041718 0.00406988 0.54616 
-0.0106244 -0.0072301 0.497022 
-0.0031739 -0.00497468 0.00968278 
0.00428852 -0.000377767 0.00265703 
-0.00160728 0.00505814 0.573924 
0.00447386 0.00319262 0.485737 
-0.00261669 0.00329657 0.706078 
0.00491394 -0.00118148 1.03071 
-0.00229628 0.0019019 0.63513 
-0.0010499 -0.000274032 0.88311 
-0.000806384 -0.0033105 1.14638 
0.00248798 -0.00422149 1.04062 
-0.00511512 0.00331287 1.0683 
0.0019307 0.00267765 0.94543 
0.00112825 -0.00255361 0.273565 
0.00970379 -0.0045079 0.017555 
-0.00437653 0.00228416 0.397891 
-0.00939592 0.00492897 0.512354 
0.00202626 -4.33449e-05 0.99102 
-0.00394944 0.00956522 1.05256 
-0.00351409 -0.0013746 0.768487 
0.00126423 -0.00573117 0.891519 
0.00321635 -0.00200758 0.61696 
-0.00267391 0.00165346 0.606084 
0.00454186 -0.00100384 1.00343 
-0.000460329 -0.00204286 0.554976 
0.00107303 0.000216542 1.16013 
-0.00197774 -0.0069783 1.03022 
-0.00595794 3.83016e-05 1.1305 
0.00233393 0.00749443 1.25251 
0.00601843 -0.00138011 1.2431 
-0.00253934 0.00133235 0.96416 
0.00355472 0.00136721 1.13094 
-0.000788788 0.00892858 1.09236 
-0.00705147 -0.011164 0.0103307 
0.0042614 -0.0129586 0.0171824 
0.00645695 0.0104766 0.717438 
0.00106842 0.0120757 0.564503 
0.00422108 -0.000788732 0.939029 
0.00529593 0.00543936 0.710363 
0.00521791 0.000272722 1.04447 
-0.00824649 -0.00122028 0.506188 
-0.00208959 -0.000473365 1.111 
6.83755e-05 -0.00128492 1.06532 
0.000333921 -0.000797449 1.05529 
0.00105304 -0.00164836 1.25181 
-0.00583292 -0.0131988 1.08595 
0.0103764 -0.00709069 0.965244 
-0.00847082 0.00670393 1.24152 
0.00583128 0.0139656 1.0954 
0.00149242 -0.000100767 1.16474 
0.00199598 0.000767633 1.03636 
-0.00300968 -0.00023082 1.10083 
0.00155285 -0.00124796 1.23062 
-0.0147978 -0.00216011 0.0157337 
0.0157958 0.00903704 0.769044 
-0.00877113 0.00613312 0.0169544 
0.0123952 -0.00982594 0.5378 
0.00122846 -0.00488349 0.623105 
0.000599275 0.002392 1.00177 
-0.000299683 0.000956863 0.90919 
0.00282112 0.0019236 1.02561 
-0.00109851 -0.00157232 0.930855 
0.00134087 -0.00233718 1.00122 
0.00266784 0.00500633 0.625031 
-0.000338407 -0.00127062 1.0243 
0.000589958 -0.0121107 1.25795 
0.000579072 0.00104082 1.16358 
4.8703e-06 0.00124211 1.18211 
-0.000381354 0.00968876 1.04705 
-0.00126495 -0.00480514 1.08039 
-0.0010545 -0.00176924 1.17024 
0.00334092 0.00545291 0.878988 
-0.00105718 -0.000671051 1.02971 
-0.000681309 -0.000609816 0.0147359 
-0.00242143 0.00468434 0.575308 
0.00455679 -0.00230794 0.625369 
0.00552742 0.00102676 0.476303 
0.00101918 -0.00100687 0.384192 
-0.0122297 0.0038779 0.709855 
0.0017393 0.000363155 0.0160849 
-0.00247684 -0.0017527 0.524802 
0.00469781 -0.00163596 0.00164853 
0.000653206 0.0045819 0.654053 
0.00100921 -0.00205885 0.0101025 
0.00265291 0.00629135 0.598298 
-0.00486763 0.00554846 0.834611 
-0.00516033 -0.00544113 0.612743 
0.00641506 -0.00679461 0.928249 
0.00608566 0.00722216 1.02599 
-0.00180346 0.000418466 0.0107456 
-0.00125033 -0.00257487 0.48003 
0.00789147 0.00670536 0.574574 
0.00196623 -0.00969892 0.506008 
0.00171772 -0.00817331 0.714292 
-0.00824557 -0.0031096 0.646716 
0.00952695 0.00469466 1.08601 
-0.00202542 0.00567364 0.881899 
-0.00399098 -0.00175604 0.0117435 
0.00454902 -3.09596e-05 0.627418 
2.48735e-05 0.00119116 0.695796 
0.00103506 -0.00220979 0.523587 
-0.00941649 0.000552484 0.0108615 
-0.000871152 0.0042385 0.00329803 
0.00326014 -0.00434159 0.516598 
0.00807862 -0.00223936 0.540356 
0.00245711 0.00355825 1.02266 
-0.00216341 -0.000975662 1.19763 
-0.00496236 -0.00185867 1.22403 
0.000433683 0.00134924 1.18816 
-0.000562643 -0.00374161 1.08378 
0.0024635 0.00439558 0.873494 
-0.00313766 0.000659129 0.831826 
-0.00130491 -0.00112726 1.0289 
0.00292589 -0.00264183 0.907623 
0.00430528 0.00317067 0.881857 
-0.000889087 0.00542671 1.09448 
0.00322902 -0.00414096 0.834202 
-0.00675296 0.0140116 1.07653 
0.0128376 -0.0150725 0.567317 
-0.00448258 -0.00335979 0.763058 
0.00178271 0.00119175 0.816952 
0.00401661 -0.000416722 0.0141458 
0.000595263 -0.00423856 0.0170234 
-0.00551528 0.0110047 0.764227 
-0.00787388 -0.00306703 0.507829 
0.00552599 -0.00562669 0.751139 
0.000562494 0.00681684 0.529931 
-0.0063148 0.00405516 0.687957 
-0.00447823 -0.00656812 0.955065 
0.00190937 -0.0012936 0.0164087 
0.00230005 0.00362071 0.687479 
-0.00769653 0.0114372 0.544925 
0.00501433 -0.00555298 0.527959 
0.000949363 -0.00139997 1.15474 
-0.00348492 0.000925345 1.12947 
0.0025216 -0.000640829 1.11578 
-0.00323761 0.00226944 1.19696 
0.004421 -0.000142187 1.00912 
-0.00648215 0.00397085 0.703582 
0.00275631 0.00160648 0.568676 
0.00136152 -0.00111167 1.05325 
0.0061647 0.00920342 1.08689 
-0.00492568 -0.00886195 1.09431 
-0.00761237 0.00404276 1.24122 
-0.00124913 0.000170645 1.02579 
-0.00553829 -0.006775 0.684625 
0.00392445 0.00882172 0.6256 
-0.00934188 0.00910119 0.997652 
0.00754189 -0.0077238 0.504673 
0.0140708 -0.00484397 0.0296305 
-0.000267437 0.00193857 0.494927 
-0.00623995 0.00145683 0.697495 
-0.00446416 0.00389862 0.79071 
-0.00104821 0.0016556 0.700356 
0.00376854 -0.00301375 0.759476 
0.00070787 0.000141442 1.08111 
0.00199205 -0.00084513 0.563932 
-0.00194686 -0.000300298 1.10555 
-0.000180484 -0.000557484 1.15825 
0.00227438 0.000880284 1.11832 
-0.000468222 0.00160757 1.18834 
0.00358018 -0.000770634 1.13665 
0.0101725 -0.00353169 1.24542 
-0.0100784 -0.00858306 1.08442 
-0.00631549 0.00355222 0.961344 
0.00320852 -0.0023072 0.868091 
-0.00213713 -0.00163882 1.09903 
0.00677502 0.00378109 0.957288 
-0.000755258 -0.000983237 1.06213 
0.00079961 -0.000693038 0.911779 
-0.000357855 0.00383276 0.884548 
0.00103249 -0.00109758 1.07619 
0.00182199 0.00256463 1.08851 
-0.000159753 0.00130293 1.18497 
0.000501611 0.000292419 1.06093 
0.00129419 -0.000309797 1.03098 
0.00129302 0.000532486 1.13173 
-0.00275303 0.00383301 0.717014 
0.00136329 0.00213481 0.933672 
-0.00721422 -0.00215405 1.06141 
0.00594714 0.00274991 0.927687 
0.00171799 -0.00189245 0.614956 
0.00120943 0.00111047 1.04534 
-0.00134895 0.00493309 0.709056 
0.00353952 -0.00382252 0.503416 
0.00317275 0.000466178 1.10477 
-0.00175496 0.00107323 1.15964 
-0.00113671 0.00404705 1.19529 
0.00373013 -0.00102249 1.04482 
-0.00133726 -0.00068363 0.00208039 
-0.00273385 -0.00138927 0.000506194 
0.000322556 0.000158086 0.00256287 
0.00677918 -0.000853625 0.63665 
0.00349945 -0.0021641 1.10851 
-0.000516624 -0.000808958 1.06363 
-0.00259002 -0.00168501 1.18759 
-0.000494777 0.00198839 0.915796 
-0.00417836 -0.00176784 0.830752 
-0.0076815 0.0105258 0.564113 
-0.00232436 -0.00912867 0.999747 
0.00773748 -0.00458341 1.03339 
0.00281366 0.00628808 1.1649 
-0.0048661 -0.00272724 1.23804 
-0.00433616 -0.00413137 1.18463 
0.00349329 0.00461197 1.05366 
0.00170386 -0.00377481 1.13823 
-0.000605275 -0.000645029 1.03379 
0.000926113 0.000627937 0.951843 
0.00337032 0.00292312 1.07054 
0.00125614 0.00102955 1.08648 
-0.00122681 0.00194379 1.21146 
-0.000203893 0.000681523 1.12613 
-0.00039662 0.00465003 1.0272 
0.00389592 -0.000223739 0.699978 
0.00233935 0.00162466 0.625869 
-0.00307375 0.00157468 0.0158187 
0.00679707 -0.00603207 0.565363 
0.0023337 -0.00333136 0.639858 
-0.00597668 0.00930702 0.692776 
-0.00410505 -0.00370299 0.396817 
0.00165881 -0.00455079 0.518502 
-0.00303861 0.00392423 0.726688 
-0.0104883 -0.00359977 1.08962 
0.00596267 0.00306796 0.648047 
0.00230606 -0.00316967 0.830368 
-0.00297373 -0.00157791 0.680871 
-0.00108563 0.00488039 0.530352 
-0.000861248 -0.0037851 0.812679 
0.00144949 6.18984e-05 0.953335 
0.0103586 -0.00348086 0.0122951 
-0.00436075 0.015038 0.700749 
0.00395272 -0.0100253 0.00789653 
-0.0111165 0.00381367 0.537788 
0.000593767 0.000543549 0.0033979 
-0.00155466 0.00251108 0.382263 
-0.00124999 -0.000746996 0.00213097 
0.000488114 0.000155893 -0.0040058 
-0.000247492 -0.00262815 1.09529 
-0.00312448 0.00337381 1.17069 
0.000925271 -8.32796e-05 1.25753 
-0.00121594 -0.00194392 1.0457 
-0.0017085 -0.00416709 0.0103201 
0.00127963 0.0024023 0.37113 
0.00181118 -0.00139196 0.00321396 
0.00316056 0.0077662 0.647724 
0.00343345 -0.00709167 1.08639 
-0.00785512 -0.00119191 0.875659 
0.00683999 0.00232589 1.17312 
-0.00303689 0.00483071 0.968103 
-0.000171578 0.000724905 -0.00557899 
-0.000423235 0.00139714 0.012249 
-2.86686e-05 0.000135493 -0.00188813 
0.00443376 0.00290573 0.580355 
0.0018206 0.0020625 0.83808 
0.000952888 -0.000940355 0.660117 
0.00151191 0.000479224 0.953691 
-0.000603505 0.000289175 0.906055 
-0.00109237 -0.000623266 1.07488 
-0.00120777 0.00155452 1.09737 
-0.000451736 0.000518844 1.18711 
0.00216328 0.000407911 1.21408 
-0.000840803 -0.000833547 0.701917 
0.00869303 -0.00399306 1.05478 
-0.00069142 0.00595538 0.648645 
-0.00178555 0.00314544 0.49341 
0.00153925 -0.00348312 1.06374 
0.000398198 -0.00108585 0.936039 
0.00142887 -0.000602343 1.04632 
-0.00221999 -0.00162882 0.875596 
0.00408411 0.000778515 0.920664 
0.00125108 0.00237009 0.977194 
0.00173782 -0.00246014 0.645103 
-0.000412252 -7.14308e-05 0.833981 
-0.0017408 0.00158256 0.0319008 
0.00265493 0.00190519 0.472571 
-8.57548e-05 0.00410434 0.495674 
0.00514612 -0.00192253 0.788669 
-0.000338558 -0.00149037 0.844165 
-0.000605783 0.00188918 0.690645 
-0.000590116 0.00105168 0.591022 
-0.00423997 0.00103571 0.463091 
-0.00223948 0.00321371 0.0172899 
0.00479999 -0.00619481 0.708065 
-0.00230562 -0.000871893 0.556642 
-0.00346247 0.00443993 0.521058 
-0.000597633 -0.000229669 0.927141 
0.001819 -0.00497985 1.10683 
0.000487039 0.00103631 0.97194 
0.00173542 0.00278543 1.16885 
-0.00237656 0.00091515 0.00664193 
-0.00260956 -0.000693767 0.706384 
-0.00116566 0.000404044 0.00547915 
0.0080412 0.00295308 0.631215 
-0.0113466 -0.00351742 0.566889 
0.00989511 -0.00513782 0.510278 
-0.00122023 -0.00482628 0.375942 
-0.000746291 0.00348261 0.79448 
-0.000434824 -0.00387283 1.09342 
0.00422937 0.00522127 1.18818 
0.00356889 0.00160655 0.985533 
-0.00478605 -0.00476784 1.03479 
-0.00221023 0.00266709 0.0116954 
0.0013789 -0.00224186 0.00275439 
0.000387962 -0.000380904 -0.00357022 
0.00462761 0.00353924 0.647548 
0.00850146 0.00980913 0.0125236 
-0.0108774 -0.0144269 0.716808 
-0.00266825 0.00582239 0.00649316 
0.000182138 -0.00582823 0.518866 
-0.00636488 0.000753512 0.617516 
-0.0110858 0.00347527 0.543613 
0.00692618 -0.00478421 0.0194234 
0.0110687 0.00340446 0.51291 
-0.00891695 -0.00117364 0.00639601 
-0.000700681 -0.0108235 0.00749481 
0.0112307 0.000667206 0.631843 
0.00463031 0.0121556 0.568704 
-0.00151963 0.000682077 0.87292 
0.00031392 -0.00184522 0.628266 
-0.00169258 0.00802059 0.986695 
0.000428656 -0.00214554 0.515313 
0.000709077 0.000847782 1.10729 
-0.0027845 0.00475265 0.922756 
0.00287408 -0.00800452 1.17851 
-0.00375326 -0.00327441 1.01837 
0.00456559 0.00142352 0.9999 
-0.00511628 -0.00165576 0.676682 
-0.0015158 -0.00251324 0.502894 
0.00208863 -0.00035045 0.812619 
0.00191111 -0.001192 0.949283 
-0.000770361 -0.00127537 0.934081 
0.002884 0.00147602 0.859222 
-0.00086229 -5.89248e-06 1.03812 
-0.00143034 0.00231756 0.283659 
-0.000524228 0.00114712 0.609841 
-0.00163709 0.00185403 0.573309 
0.00123049 0.000258944 0.467634 
0.00113275 -0.000470453 0.0142951 
-0.00208939 0.00246731 0.01492 
-0.000228607 0.00439661 0.665084 
0.00170736 0.00158134 0.586537 
-0.00118682 0.00559448 0.014206 
0.00334306 0.000409339 0.520072 
-0.00401814 0.00145692 0.500402 
0.000905632 -0.000507999 0.429472 
0.00241342 -0.00133155 0.867505 
0.00168339 0.000356443 0.92401 
-0.000936743 -0.00169027 0.766368 
0.000459912 -0.000719495 0.496889 
-0.00233185 -0.0035506 0.852085 
0.00262088 0.00187434 0.873226 
0.000216089 0.00138534 1.0919 
-0.000922652 0.0006094 0.876111 
-0.000862369 -0.00078686 0.731346 
0.0026746 0.00475399 0.616323 
-0.000670801 -0.00105272 0.960046 
0.00101008 0.00450535 0.520784 
0.0025276 -0.00308562 0.692875 
0.00465295 0.00382002 1.05214 
-0.00216009 -0.000818584 0.564817 
-0.00223725 0.00280875 0.530538 
-8.27069e-05 -0.00103402 0.0023411 
-1.09153e-05 -0.000378557 0.00996033 
-7.87369e-05 -0.00080731 -0.00483077 
-0.00676612 0.00175545 0.506558 
0.000118683 0.00179933 1.11144 
-0.000995782 -0.000222946 1.23493 
0.000750956 0.00195262 1.1896 
-0.00137752 0.00470351 1.07635 
0.00387534 0.00929528 0.650915 
-0.0153581 -0.00571441 1.05043 
0.00281405 -0.00990898 0.626307 
0.0131177 0.00352842 0.495773 
-0.000204658 0.000211877 0.00489933 
-0.0016138 0.000836897 -0.00474447 
0.00295246 -0.00153197 0.00863575 
-6.68314e-05 0.00248117 0.531211 
0.0016408 -0.00709319 1.02699 
0.0124754 0.0130635 1.24041 
-0.00636509 0.00540836 1.16992 
-0.00827159 -0.00905469 1.04958 
0.000302932 0.000314579 0.707303 
-0.000784478 0.00311589 0.627915 
0.00262598 0.00258812 0.380402 
0.00442873 -0.00522395 0.525068 
0.00111931 0.00581928 0.925406 
0.000311916 0.00252155 1.00185 
-0.00283437 -0.00648729 1.18471 
0.00320241 -0.00172431 1.01501 
-0.00242692 -0.000957712 1.24099 
-0.00272452 -0.000522641 1.22938 
0.0022518 0.00417764 1.23895 
0.00435595 0.000736307 1.23714 
0.000735588 -0.0011106 0.771398 
0.00163299 -0.00280001 0.874947 
0.00227183 0.00285669 0.556956 
-0.0034503 0.00110411 0.799985 
-0.00969689 -0.00650497 1.1047 
-0.0145361 0.013323 0.961464 
0.0127137 0.00686854 1.12522 
0.0149633 -0.0122577 1.24256 
0.00432554 -0.00171838 0.961703 
-0.00275756 -0.0036163 1.09539 
0.00239653 0.00210265 1.08627 
0.00266714 -0.00115017 1.02107 
-0.000496172 0.00134894 0.396925 
0.00592596 -0.00792676 0.664063 
-0.00330918 0.00137513 0.0150826 
0.00151049 -0.0016072 0.573157 
-0.00116226 0.00154897 1.06762 
-0.000392025 -0.000279682 0.835449 
-0.00188217 0.000171456 1.02159 
-0.00090955 -0.00301701 1.03472 
0.00203135 0.00468778 0.716071 
-0.00111331 -0.000284482 1.12818 
-0.00483363 -0.0025319 0.983001 
-0.00123055 0.00249765 0.880955 
-0.000565371 0.00165407 0.834029 
-0.000223351 0.00296083 0.582509 
0.00290198 -0.000686043 0.662331 
-7.14209e-05 0.000518583 0.908868 
0.00965627 -0.00658839 0.0133397 
-0.00141873 -0.0115978 0.0150504 
-0.0183646 0.00908657 0.71365 
0.00226719 0.0106942 0.525229 
0.00161404 0.00252197 1.25759 
-0.00233911 -0.00166476 1.16863 
-0.00165385 0.00197247 1.09781 
0.000164546 0.00230489 1.18418 
-0.00191601 9.38957e-05 1.0014 
-0.00465098 -0.00192084 1.12022 
0.0026526 0.000835901 1.13141 
0.000728862 0.00172924 1.034 
0.0099274 -0.000716962 0.0131973 
-0.00921813 0.00310133 0.498668 
-0.00109286 0.00500479 0.00405827 
0.00253229 -0.0117397 0.508446 
0.00208796 0.00106467 0.3313 
0.00446422 -0.000462224 0.672371 
-0.00175199 0.000974665 0.429184 
-0.00270256 0.00810972 0.504724 
0.00282559 -0.00120172 0.0148652 
0.00456851 -0.00189284 0.0141502 
0.000477414 0.00190469 0.622127 
-0.00218546 0.00161914 0.523304 
-0.000140113 -0.00312638 0.631176 
0.00308574 0.000702607 0.704289 
-0.0016189 0.0107455 0.985532 
0.00089844 -0.0041883 0.513228 
0.00101292 0.000203421 1.02983 
0.00528824 -0.00243981 1.14438 
-0.00112209 0.0028191 1.05465 
-0.00367383 0.00198359 0.899636 
0.00014209 -0.00154812 0.772984 
-0.00109724 0.000719116 0.957344 
-0.00112453 -0.000940712 0.863232 
0.00640178 0.0019603 0.805069 
0.00102104 0.0117265 0.761914 
-0.00127725 -0.000439586 0.0192589 
0.0206401 -0.00165588 0.544214 
-0.0146032 0.00186717 0.51244 
-0.00160361 -0.00189657 0.0132651 
0.00487458 0.00379406 0.624141 
1.82474e-05 0.000435372 0.46065 
-0.00337449 0.00218408 0.523141 
-0.00159665 0.00246753 0.936117 
0.00104314 -0.00176945 1.09338 
0.000474984 6.27075e-05 1.07652 
0.0038691 -0.00138318 1.05197 
0.00236513 0.00076356 1.10692 
0.00180336 0.000352302 1.0699 
-0.000266216 0.000334272 1.02149 
0.000480615 -0.00193293 0.922344 
-0.00258079 -0.00327821 0.707824 
-0.00214961 -0.00534145 0.613256 
0.00124836 0.00385626 0.551345 
0.0017856 0.00647918 0.934235 
0.000525456 0.000324755 1.15793 
0.00171567 -0.000893016 1.11205 
-0.000714836 0.000789934 0.963821 
-0.000275239 -0.00161063 0.956633 
0.0027482 -0.0010704 0.938123 
0.000801005 0.0042234 1.1759 
-0.00375474 -8.02548e-06 1.02303 
0.000858385 0.00143681 1.00634 
0.000617328 -0.00132773 1.23258 
0.00480963 0.000492532 1.25134 
-0.00213844 0.00675463 1.23485 
0.00130472 -0.0035003 1.23049 
-0.00223093 0.00585207 0.0110669 
0.00206616 0.000393209 0.37624 
-0.000177479 -0.000659764 0.471324 
0.00264521 -0.00685702 0.615113 
0.00104044 -0.00320629 0.271303 
0.00138384 -0.00279929 0.0113635 
-0.00370264 0.00757225 0.624504 
-0.00240684 0.00061647 0.47176 
0.000342745 0.000858329 0.499636 
0.00530065 -0.00347338 0.540769 
-0.0029669 -0.00135536 0.808374 
-0.00344 0.00588441 0.536428 
0.00553501 -0.00122919 0.631281 
-0.002712 -0.00502227 0.551448 
0.00201611 0.000592506 0.64725 
0.00524477 0.00467223 0.483914 
-0.00267891 -0.00377474 1.16415 
0.00226441 0.000923054 1.08133 
0.000984791 0.00218052 1.06323 
0.000294001 -0.000348014 1.02913 
0.000651288 -0.000381681 0.716454 
0.00326286 -0.0111976 0.64805 
0.000107758 0.0083808 0.974206 
-0.000286218 0.00304356 0.839762 
0.00509384 0.00286279 0.0181662 
-0.00323642 0.00338031 0.559648 
-0.00543338 -0.00446588 0.709092 
-0.00351001 -0.000532902 0.510333 
-0.000854106 -0.0020308 0.593709 
0.00752855 0.00216993 1.03767 
-0.00176563 -0.000989479 0.693098 
0.0012271 0.00172082 0.923539 
-0.00114929 -0.00339564 0.772897 
0.00259322 -7.55214e-05 0.862791 
-0.0022443 -0.0025446 0.911824 
0.000279459 0.00103599 0.915327 
-0.00197831 -0.00120502 0.939795 
0.00633937 0.0007185 0.867805 
-0.00280383 -0.00200536 1.0095 
0.00230869 0.00318719 1.04521 
0.000933936 0.00140964 0.0141639 
0.00144396 -0.000484273 0.609055 
-0.00225759 0.0036524 0.574484 
0.00696189 -0.00377463 0.504115 
0.00296706 0.00257848 1.07972 
0.00142234 0.000388864 1.09098 
-0.000725952 0.00514613 0.879331 
-0.0073114 -0.00283914 0.979395 
0.00229576 -0.00087435 0.63806 
-0.00127767 0.000801732 0.52368 
-0.000427237 0.00120824 0.729044 
-0.000375535 0.00174433 0.493052 
-0.000537173 0.00218179 0.647838 
-0.000304555 0.00193304 0.947571 
-0.000496626 -8.77932e-05 0.708135 
-0.00240492 -0.000210795 0.676739 
-0.000281599 -0.00131656 0.986765 
0.00877071 -3.4725e-05 1.02708 
-0.00507159 0.0096484 1.17833 
-0.000963999 -0.00512347 0.916596 
-0.00201001 0.00117114 0.995149 
-0.00270724 0.00398062 1.04301 
0.00568478 -0.00113296 0.655333 
0.00179004 -0.00407797 1.01781 
0.000191533 -0.000141968 0.000369059 
0.00060909 -0.000449225 0.000713553 
0.000475921 -0.000369087 0.00426345 
-0.00421676 4.67085e-05 0.52227 
-0.00246711 -0.00377976 0.01106 
0.0014496 -0.000199539 0.492191 
0.00354544 -0.000470959 0.587244 
0.000495772 0.000996395 0.438641 
0.000104976 0.00402025 0.927369 
0.0077294 0.0124602 0.591034 
0.00381362 -0.00589028 0.836023 
-0.00594682 -0.0085392 1.03696 
6.38601e-05 -0.00277489 0.717567 
0.00251952 -0.0011177 0.752497 
0.00158261 -0.000980939 0.93569 
0.00476241 0.00304067 1.06746 
-0.000695086 -0.000285824 0.94667 
0.00447039 -0.00118327 0.74161 
-0.0008444 -0.00162849 0.719513 
0.00379377 -0.00175854 0.5026 
0.000362018 -0.00158321 0.932079 
-0.000570295 -0.00203306 0.997069 
0.00432248 0.000483868 0.882982 
-0.00192225 -0.000197374 0.707892 
0.000191284 -0.00205458 1.18464 
-0.00208205 0.00230957 1.13555 
0.00202447 -0.00471345 1.21547 
-7.74227e-05 0.00483985 1.03847 
-0.000254077 0.00286604 1.0576 
-0.00212775 -0.00116089 1.02602 
-0.00333466 -0.00186942 1.17217 
-0.00141862 -0.00510387 1.04272 
-0.000106392 -0.000896201 0.0095547 
0.00734522 0.00284138 0.561537 
-0.00632601 0.00380731 0.0018624 
0.00166377 0.00245566 0.502393 
-0.000481037 0.00139843 1.1218 
0.00108869 0.000669478 1.03687 
-0.00191791 -0.0030197 1.12968 
-5.33739e-05 0.000509734 1.19229 
0.00470907 0.0014093 0.742661 
0.00120872 -0.0109987 0.987324 
-0.00153002 0.0020462 0.578883 
-0.00131156 0.0044162 0.514767 
0.000652694 -0.000340945 1.16551 
0.000635942 -0.0116357 1.26163 
0.0010957 -0.000130426 1.16987 
-0.000545716 0.0116714 1.0407 
-0.00144413 -0.000382998 0.823193 
-0.000692383 -0.000866939 0.591245 
0.00480464 0.00446983 0.738225 
0.000229272 0.000634739 1.03737 
0.00373834 -0.00530192 0.646356 
0.00307389 0.00676146 0.633071 
0.00311655 0.00242859 1.0121 
-0.00661701 -0.00368337 0.56774 
0.00170646 0.00146571 0.871093 
0.000366855 0.000224871 0.931185 
-0.000606589 -0.00300209 0.830997 
0.000819894 0.001937 1.03224 
-0.00104368 1.69153e-05 1.13943 
0.00130998 0.00280384 1.22897 
0.00138829 0.000272618 1.06915 
-0.000626796 -0.00688388 1.04907 
-0.00167067 0.00139371 1.23939 
0.00521943 -0.000169875 1.22365 
-0.00330667 0.000661768 1.18668 
-0.00137883 0.00269993 1.26316 
0.000534943 0.00242197 1.2387 
-9.38974e-06 0.00175166 1.25493 
0.0011857 -0.00175027 1.22114 
0.000894561 2.65452e-05 1.22295 
-0.00261307 -0.000667574 0.011222 
0.00433549 -0.00131763 0.525493 
0.00109819 0.00888149 0.66611 
0.00367468 -0.000620439 0.411321 
0.0012158 0.00592585 1.02535 
0.00305153 -0.00290857 1.18278 
0.00091684 0.000206893 1.05358 
-0.000124246 0.000197537 0.983601 
0.00224518 0.00196167 0.00850705 
8.14865e-05 -0.00287662 0.373269 
0.0058966 -0.00359819 0.629021 
-0.00186013 -0.00361799 0.564728 
-0.000497034 -0.000611917 0.00206003 
0.00611614 0.00384884 0.651982 
-0.00225905 -0.000881292 0.00366728 
0.000511704 0.00368277 0.589084 
0.00143758 -0.000605037 1.04728 
0.000662669 -0.00095878 0.935485 
-0.000637478 -0.00152614 0.747848 
-0.0013214 -0.00115682 0.867957 
-0.00804199 -0.00635698 0.0139494 
0.0208692 0.00806702 0.781073 
-0.014106 -0.00572402 0.0120608 
0.00734473 0.014051 0.500504 
-0.000705086 -0.00266513 0.773711 
-0.000660057 -0.000938242 0.918384 
0.00102753 -0.00224732 0.858447 
0.00127148 0.000552493 1.07023 
-0.00237779 -0.00065665 1.08096 
-0.00327297 -0.00503731 1.09445 
0.00200863 0.00357422 1.2028 
0.00210923 0.0036034 1.23496 
0.0112659 0.0119744 1.02132 
-0.00643424 -0.0019919 1.11897 
0.00305753 -0.00260782 1.20004 
-0.00889897 -0.00586757 1.18875 
-0.00233636 -0.00112623 1.11165 
-0.00698502 -0.00257228 1.19288 
0.00509923 0.00654514 1.02155 
0.0018046 -0.00142775 0.989121 
-0.0018534 -0.000955035 1.08461 
0.000279615 -0.00164009 0.877382 
-0.000453928 0.000602627 0.868637 
-0.000496432 0.000190359 0.828914 
-0.00131267 0.00082525 1.23751 
-0.00242408 -0.000272094 1.18446 
0.00192215 -0.00537769 1.17373 
-0.00167505 0.00374881 1.26769 
0.00129839 0.00259815 1.17574 
0.000660443 -0.00553717 1.17253 
0.000247002 0.00375757 1.07277 
-0.00285536 -0.000279766 1.02834 
0.000250791 0.000839211 0.719112 
0.00127592 0.00420933 0.577145 
-0.00515299 -0.000329252 0.646623 
0.00144881 0.00129549 0.43989 
-9.90612e-05 0.000600775 0.709263 
-0.00334903 -0.00317429 0.682736 
-0.000279232 0.00355793 0.937318 
-0.00332972 -0.000458638 1.05285 
0.00283189 -0.00292824 0.401084 
-6.57708e-05 0.00205336 0.00819726 
-0.000689832 0.000423823 0.000672704 
0.00224592 -0.00628149 0.682048 
-0.00171882 -0.000834237 0.872337 
-0.00222413 0.000681205 0.633935 
0.00344355 0.000441994 0.704253 
5.07703e-05 0.00832982 0.984028 
0.00011686 -0.00228029 0.706256 
0.0026555 -0.000933855 0.940904 
0.00825808 0.000525769 1.04211 
-0.00481036 -0.000937525 0.503667 
0.000997475 -0.00181718 1.0552 
0.00308693 0.00212359 1.17905 
-0.00470495 0.00040605 1.02208 
0.0012047 0.000654322 1.1633 
-0.00036114 0.00389552 0.65906 
0.00496638 0.00173934 0.577183 
-0.00131367 0.00187976 0.0120999 
0.00125807 0.00129439 0.418179 
-0.00252195 0.00115494 0.0030126 
1.48645e-05 5.54607e-05 0.00663137 
0.00315802 -0.00412198 0.55232 
0.0030121 0.00268262 0.491734 
-0.00105377 -0.000766908 0.775183 
0.000998706 -0.00208783 0.857859 
-0.00137436 0.00107446 0.956786 
0.0019202 -0.00298848 1.07004 
0.00520822 0.0021436 1.06719 
0.00289134 0.00565164 0.871702 
-0.0125434 -0.00688518 1.06567 
-0.00302017 -1.71266e-05 1.01871 
-0.000488161 0.000763604 1.22143 
-0.000246631 0.00135056 1.14044 
-0.000251952 -0.000714001 1.111 
0.00148587 0.00225548 1.23112 
-0.000931678 -0.00368248 0.0156936 
0.00479538 0.00705084 0.644731 
-0.0016295 -0.00249839 0.364028 
-0.000642158 0.00334906 0.518857 
-0.000244118 0.00158029 1.08054 
0.00197635 6.07264e-05 1.21246 
-0.000491113 0.000826242 1.18572 
-0.00255008 -0.00152978 1.15893 
0.0157761 0.00513582 0.716309 
-0.000709229 -0.0117518 1.04626 
-0.0143482 -0.00109761 1.12758 
-0.002208 0.0109546 0.889195 
0.000141282 -0.000382992 0.00383556 
0.00165441 0.000275225 0.00359096 
-0.00450992 0.000290283 0.513653 
-0.00288865 0.00420691 0.528267 
0.00285582 0.00169874 0.761139 
-0.00795466 -0.00136098 1.04964 
-0.00470271 -0.00223211 0.934673 
0.00632855 0.00364575 0.530938 
-0.00645102 -0.00314274 0.0105112 
0.00823162 0.00743402 0.632463 
-0.00520333 -0.00200154 0.0106617 
0.00683376 -0.000578081 0.548444 
0.00402024 0.00138883 1.1727 
-0.00516198 -0.0024419 1.07141 
0.000347808 -0.00274631 1.11112 
8.58925e-05 0.00566718 1.24499 
-0.00164416 0.00332197 0.7013 
0.0105568 -0.00656579 1.02523 
-0.00058695 -0.00288349 0.94173 
-0.00250556 0.00384804 0.508693 
0.0091479 -0.00609869 0.0213441 
-0.000258386 0.00343428 0.444531 
-0.00895292 0.00420796 0.715351 
0.00102052 0.00274894 0.429264 
-0.00259884 0.00565124 0.383107 
-0.00374983 0.000991762 0.0143372 
0.00839792 0.000207323 0.623117 
0.00251998 -0.00540218 0.488174 
-0.00169535 -0.00139799 0.0142296 
0.000759409 0.000906371 0.012351 
-0.00174323 0.00184444 0.62933 
0.00177184 0.00374595 0.574105 
-0.00532149 -0.000200946 0.982466 
0.00605285 -0.00171195 0.616017 
-0.00150992 0.00141489 0.952549 
0.0054511 0.00461599 0.83017 
0.00107815 0.00058414 1.18788 
-0.000434828 0.00386373 1.06248 
0.00225872 -3.85729e-05 0.977404 
-0.00287788 -0.00342055 0.916586 
0.000513196 0.00216279 0.677757 
0.000775195 0.00158319 0.67786 
-0.00200912 -0.000587899 0.882546 
-0.00587594 -0.00219173 0.49584 
0.00672099 0.0021012 0.0103657 
-0.0118243 0.00543056 0.782168 
0.00882105 -0.00834617 0.0139284 
-0.0040892 0.0027448 0.484047 
0.00268543 0.00298622 1.06068 
0.00167763 0.00111837 1.08532 
0.00201038 -0.0026024 0.849809 
-0.00519978 -0.00365353 1.03275 
-0.000865054 -0.00153003 1.20357 
-0.00220031 -0.00442496 1.1646 
1.92313e-05 -0.00353822 1.21777 
0.00737281 0.00929951 1.2607 
-0.00340214 -0.00200402 1.18279 
1.85433e-05 0.000673623 1.20293 
0.000686065 -0.00177576 1.14566 
-0.0027488 0.00128944 1.23403 
-0.00164269 -0.0030518 0.697 
0.000659666 0.00516754 0.710475 
-0.00314355 0.00070837 0.968416 
0.00201293 0.00245215 0.456517 
-0.00150207 0.00292789 0.935973 
0.00328507 0.00259927 0.715054 
0.00303001 -0.00779526 0.605159 
-0.00380016 0.00593092 1.06224 
0.00166358 -0.000744384 0.513178 
-0.00312685 -0.00311274 0.495724 
0.000862582 -0.00448501 0.679381 
-0.00534514 -0.00122249 0.422785 
-0.000318317 -0.000490488 0.00173525 
0.00210973 0.00287215 0.00818251 
-0.00176946 -0.0024389 -0.00530428 
0.00402184 -0.00523391 0.508395 
0.00732935 0.000646109 0.752337 
-0.00140252 0.00128875 0.540506 
-0.00459035 0.00331219 0.597249 
-0.000229272 0.00536205 0.520485 
0.00250282 -0.00269537 1.06245 
-0.00499268 0.00502608 0.927385 
0.00214907 -0.000978298 1.16721 
-0.00280898 0.00365344 1.02892 
0.00947395 -0.00682726 0.0165652 
-0.00987303 0.000131129 0.624735 
0.00666464 0.00102591 0.00309814 
-0.0100056 0.00583544 0.539317 
-0.00191489 0.000248826 0.00766824 
0.0021651 0.00231143 0.484295 
0.00242174 -0.000832165 0.547938 
-0.00240897 0.00118029 0.442358 
0.000257284 -0.000301242 0.929668 
-0.00238894 -0.000614258 0.719864 
-0.00185904 0.003138 1.02482 
0.000705771 -0.00233637 0.924741 
-0.00131731 0.00340143 0.576596 
0.00111784 -0.00768776 0.986703 
0.000509986 -0.000925067 0.633255 
-0.00148368 0.00237939 0.517003 
0.00324395 0.00139569 1.21814 
0.00953046 0.0099024 1.16632 
-0.000882758 0.000111637 1.21599 
-0.00839129 -0.00862263 1.25824 
-0.00313311 -0.00125943 1.06163 
0.00259886 0.00234282 1.21523 
-0.00395224 0.000667989 1.07863 
0.00330009 -0.00327454 1.15828 
0.00281273 0.00034722 1.22594 
0.00335567 0.00232984 1.23178 
-0.00294978 -0.000456342 1.24339 
-0.00317838 -0.00195316 1.22648 
-0.00245792 -0.00275852 0.911006 
-0.000485157 5.14783e-05 0.909188 
0.00523437 0.00283508 0.876799 
-0.00104478 0.00195655 1.06569 
-0.00488916 -0.00360385 1.23428 
-0.00500456 0.00577669 1.01637 
0.000858053 0.00300361 1.02449 
0.00614636 -0.00331154 1.11195 
0.00143994 0.000749743 1.14764 
-0.00161491 -0.00219861 1.112 
-0.00254477 0.000610747 1.03634 
0.00149198 0.00113423 1.22532 
0.000493132 0.00551284 0.615893 
0.0019485 -0.0018914 1.00391 
0.000830223 -0.00166322 0.939042 
0.00036738 -0.000695425 0.703396 
-0.00434632 -0.00412512 1.06606 
0.00425288 0.00237473 1.22675 
-0.000376123 0.00411587 1.14487 
-0.00455967 -0.00103972 1.10802 
0.002833 0.00533654 0.00945086 
-0.00596059 -0.0047022 0.675547 
0.00622974 0.00413621 0.00461575 
-0.00421718 -2.41929e-05 0.530355 
-0.00272591 -0.00319497 0.802535 
0.000628335 -0.00314484 0.69514 
0.00293215 0.00414648 1.06341 
0.00157946 0.000206919 0.918562 
-0.000142458 -0.0068424 0.414206 
-0.00368004 0.0014462 0.0119719 
0.00835333 -0.00155968 0.664829 
0.00123045 0.0026013 0.486547 
-0.00329962 -0.00135818 0.00591404 
-0.00221862 -0.001043 0.00022168 
0.000455832 0.0003035 0.00253567 
0.00489357 0.00651237 0.64087 
-0.00244793 -0.0088274 0.847026 
-0.00639048 -0.000905342 0.919596 
0.00788099 0.000918091 1.0652 
-0.00415577 0.00563938 1.03233 
0.00182219 -0.000163893 1.00614 
0.011003 0.00202526 0.572432 
-0.00762871 -0.00559972 0.687061 
0.00174473 -0.00095824 1.05124 
0.0107519 0.0033312 0.0103487 
-0.021372 -0.00065945 0.696005 
0.000825949 0.0137265 0.0159505 
0.0012387 -0.0182547 0.50268 
0.0023954 -0.00448259 1.08499 
-0.000804966 0.00187646 1.16051 
-0.00346093 0.0024223 1.16816 
0.00454111 0.00289297 0.980318 
0.00126268 -0.00469723 0.925376 
-0.00138034 -0.00130575 0.609686 
0.00767127 0.000925926 0.841165 
-0.00227641 0.00574792 0.581302 
0.00123083 0.00607394 1.14827 
-0.00624825 0.00263276 1.22837 
0.00779043 -0.00262778 1.14727 
0.000638265 -0.00317853 1.22724 
-0.00114068 0.00191576 0.701943 
0.00391361 -0.00475504 0.757078 
0.00180391 -0.00104637 0.567209 
0.0095031 0.00016893 0.508402 
-0.00205716 -0.000851664 0.0102831 
0.00607827 -0.00558288 0.630302 
-0.00235214 0.00142175 0.00892838 
0.00760719 0.00388724 0.510183 
-0.00339115 -0.000318574 1.00698 
0.00483423 -2.57967e-05 1.2318 
-0.00238644 0.00840101 1.03416 
0.00221483 -0.00633828 1.01825 
-0.00385157 -0.00188273 1.11313 
0.00294491 -0.00155075 1.22835 
0.00319178 -0.000501362 1.22598 
-0.00418474 0.00301956 1.07968 
0.00429468 0.00459384 1.24685 
0.00341428 -0.000276156 1.22391 
-0.00516833 -0.00108988 1.2533 
-0.00356335 -0.00645964 1.22905 
-0.00400672 -0.00441553 1.00899 
-0.0106898 0.00875123 0.577752 
0.00656585 0.00710007 0.632419 
0.0100338 -0.00828036 0.92782 
0.00337351 -0.00103541 0.933218 
-0.00274991 0.000182787 1.0278 
0.00253759 -0.00235163 0.832036 
-0.00125011 0.00114905 1.00692 
0.00258916 -0.00106761 0.640482 
-0.00013077 0.00119344 0.486578 
-0.00158103 0.00258808 0.733034 
-0.0020702 0.000814802 0.824964 
-0.000482109 0.00624821 0.928857 
0.00839412 -0.000237855 1.18415 
-0.00259618 0.000324782 1.00052 
0.000345101 -0.00617898 1.17024 
-0.000464512 -0.0014291 0.00442772 
-0.000515138 -0.00043086 0.0053504 
0.00384189 0.00131108 0.522616 
4.48864e-05 0.00350912 0.43409 
-0.00107862 -0.00066331 0.934831 
0.00841714 0.00612421 1.06083 
-1.75831e-05 -0.00400236 1.07368 
-0.00463807 -0.00212493 0.870909 
0.0176168 -0.00175065 0.571525 
-0.0170863 -0.00090499 0.924191 
-7.67357e-05 0.00588049 0.615852 
0.00161673 -0.00475323 0.819347 
0.0020689 0.00362218 0.710124 
0.0042947 -0.0071318 1.07256 
0.00354286 -0.00219445 0.9386 
-0.00430555 0.00596808 0.566577 
-0.00118695 -3.11038e-05 0.742232 
0.0102977 0.00133349 0.987238 
0.00103537 -0.0028727 1.09667 
-0.00269423 0.000258516 1.02042 
-0.003447 -0.000966039 0.869807 
0.00539802 -0.0020235 1.01115 
0.00288727 0.00145618 1.17671 
-0.00379222 0.000571239 0.958612 
-0.00746931 0.00078035 0.992428 
0.00427256 0.00173656 0.621741 
-6.76629e-05 0.00160107 0.686405 
-0.000888256 6.87535e-05 0.950686 
-0.000788148 -0.00113923 0.761505 
0.00179856 0.000344228 0.563628 
0.0020713 -0.00198363 0.874647 
0.00158519 -0.00122616 0.490828 
-0.0175902 -0.00399323 1.06173 
-0.000426439 -0.000614636 1.22017 
0.0113948 0.00174566 1.06627 
-0.00182956 -0.00438288 1.02637 
0.000882344 -0.00147932 0.0110388 
0.00296766 -0.00191286 0.50268 
-0.000688875 0.00253209 0.623345 
-0.000663718 0.00552494 0.463721 
0.00142324 -0.0010766 0.00651444 
-0.00177447 0.00125169 0.00493929 
-0.00119478 0.000832295 0.00483756 
0.00203999 -6.83562e-05 0.704507 
0.00135617 -0.00200223 1.00264 
-0.00176137 0.00131819 1.16513 
-0.000948128 0.00573268 1.16764 
0.00204918 -0.00265439 0.971655 
-0.00272547 0.00020813 0.869678 
0.00112419 -0.000758654 0.94878 
-0.000120894 -0.0014806 1.07659 
0.00310032 0.00270173 0.813042 
-0.00439178 0.0055983 1.14266 
-0.00678439 -0.0118836 1.18505 
0.00262389 -0.00441855 1.08774 
0.00471075 0.0130243 1.03972 
-0.000851981 0.000491647 0.707305 
-0.00229275 0.000181927 0.398292 
-0.000384197 0.0022418 0.650434 
-0.00213443 -0.000959643 0.675145 
-0.000228654 0.00521351 0.00733516 
0.00298437 0.00747446 0.00884087 
-0.0005497 -0.00296556 0.653303 
-0.00279437 -0.00714668 0.555947 
-0.00219128 0.00111863 0.926948 
-0.00457855 0.00379944 0.744469 
-0.00106363 -0.00619292 0.587887 
0.00543626 0.00973303 1.03984 
-0.00250113 -0.00108776 0.712393 
-0.00248211 0.00107429 1.02525 
-4.28675e-05 -0.00268717 0.716982 
0.00223459 0.00221396 0.923624 
0.0017016 0.00108754 1.10604 
-0.000471114 -0.0014766 0.933222 
0.0029693 -0.000706426 1.07182 
-7.29977e-05 -0.00194313 0.921816 
-0.00110271 -0.00123866 0.0112107 
-0.00074699 0.00210726 0.624541 
0.00576093 -0.00205076 0.507202 
2.3212e-07 0.00304227 0.496418 
-0.00261471 0.00175744 0.779961 
0.00203744 -0.000140525 0.609303 
-0.000520078 0.0011243 0.70896 
0.000100789 -0.00193111 1.06181 
0.000102881 0.00554524 0.582768 
-0.00248784 0.00147332 0.845317 
-0.00116438 0.00149324 0.95385 
-0.00474736 -0.00341594 0.829286 
0.00205309 0.00282083 1.14917 
-9.8739e-05 0.00385895 0.947544 
-0.0051298 -0.00345742 1.06329 
-0.00139071 -0.00171069 1.10799 
-0.00248436 0.00439338 0.0238367 
-0.0043466 0.00203606 0.52919 
-0.00173139 -0.00375043 0.686369 
0.00241962 -0.00434109 0.402019 
0.00149367 -0.00429341 1.16567 
0.00337522 0.000436564 1.16071 
-0.00480022 0.000735184 1.10171 
0.00150239 0.00243094 1.19696 
0.000478629 0.00188265 0.729804 
-0.00571855 0.00259811 0.49422 
0.00475978 -8.24958e-05 0.522455 
0.00168678 -0.00116066 0.433086 
-0.00192355 0.00168568 0.816015 
1.00443e-05 0.0148679 0.629967 
-0.00283782 -0.00837831 1.06729 
0.00239602 -0.00169088 0.941614 
0.000532847 -0.00285303 1.02927 
0.00204116 0.00127295 0.95023 
0.000355083 -0.00104129 1.14346 
0.0015599 -0.000527121 0.949252 
-0.00459445 -0.00048285 0.740156 
-0.00686348 0.0160386 0.522778 
0.0063406 -0.0106102 0.957185 
0.00596527 -0.00340653 0.954045 
0.000576714 0.00118772 0.636477 
-0.00340348 0.00136633 0.770708 
-0.00106177 -0.0133361 0.926448 
0.00274654 0.00610347 0.494217 
-0.00159804 -0.00138581 0.00525719 
0.000895738 0.000597598 0.00216653 
0.00166014 0.00103025 0.00622189 
0.00277953 -0.000954981 0.633985 
-0.0105569 0.00235279 1.18532 
0.00118027 -0.00501161 1.14673 
-0.0021694 0.00343581 1.22708 
0.00539807 -0.00151994 1.23023 
-0.00186479 -7.03492e-05 0.0153018 
0.00605804 0.00111262 0.644753 
-0.00038178 -0.00121447 0.454365 
0.00370676 0.00256476 0.499151 
-0.0096739 0.0075737 1.1166 
-0.0024848 0.00432516 0.974658 
0.0143831 -0.00677399 1.10573 
-0.000493365 -0.00479959 1.19352 
0.000349636 0.000443815 1.13484 
-0.00080448 -0.00125901 1.05808 
-0.00160558 0.00281458 1.05928 
0.00427601 -0.00420436 1.2521 
0.000258084 -0.00174706 1.1636 
-0.000852229 0.00046248 1.16954 
-0.000435388 5.30284e-05 1.03151 
0.000147343 -0.000344159 1.09329 
0.00277373 -4.14714e-05 1.06952 
-0.000326738 -0.0014551 1.16136 
-0.00244627 0.000310571 0.966936 
0.00310313 -0.00270764 0.953053 
0.0091567 0.000305126 0.613787 
0.000215262 0.00532944 0.600355 
-0.00235589 -0.00673679 0.0191219 
0.00165927 0.00324731 0.443961 
-0.0142742 0.00987123 0.0157924 
0.0188341 -0.0140482 0.709881 
0.000587657 0.0144831 0.0118364 
-0.00201474 -0.0116292 0.56493 
0.000516814 3.80988e-06 0.719839 
-0.00344771 -0.00197834 0.650219 
-0.000211228 0.00237371 0.693581 
-0.000746773 -0.000380529 0.432874 
0.00235607 0.00137671 0.0178729 
0.00536604 -0.00214687 0.705036 
-0.00482629 -0.00188277 0.0188672 
0.000376163 -0.00337265 0.49801 
-0.00727082 -0.0034256 0.782516 
-0.00598969 0.0146024 0.96097 
0.0099835 0.00731028 0.625956 
0.00477954 -0.0127207 0.517352 
0.00100282 -0.00020079 0.0102491 
0.00217931 -0.000233675 0.00580818 
0.00267383 -0.0001754 -0.0019155 
-0.00721676 -0.00362571 0.574677 
-0.00206631 0.000282258 1.10276 
-3.33292e-05 -0.00174564 1.07672 
0.00312967 0.00376461 0.940392 
0.00363741 0.00278337 0.922969 
3.76335e-05 -0.000799253 1.07472 
0.00379566 0.00177354 1.03392 
-0.00841012 -0.00896849 1.14771 
-0.00181939 0.00749332 0.956824 
0.000796951 0.000225133 1.06511 
0.000494141 0.00528004 0.629192 
-0.00185893 -0.00191763 0.815807 
-8.48373e-06 -0.00457987 0.890095 
-0.00302127 -0.00460366 1.20644 
-0.00397593 0.00200782 1.12896 
0.00299968 0.0103828 1.03079 
-0.00393971 -0.00845228 1.25391 
-0.00248959 -0.000265864 0.354125 
-0.00202728 0.000104555 0.396939 
0.00026154 0.000271283 0.70848 
-0.00196743 -0.0010172 0.673709 
-0.0010779 0.000956505 1.10593 
0.00221121 0.00223518 1.03865 
-0.00160617 -0.00464461 1.2379 
0.0015727 1.48456e-05 1.07761 
-0.00144568 -0.00217715 0.00942326 
-0.00950195 -0.0065593 0.0138969 
0.0104197 0.00619805 0.728996 
0.00483161 0.00414332 0.45496 
0.000562807 0.000245846 0.618897 
0.000173105 -0.00414069 0.539276 
0.00431701 -0.00262704 0.0128342 
0.0016402 0.00504159 0.496747 
0.000754702 0.0020231 1.19768 
0.00173304 0.0032967 1.23308 
-0.0018699 -0.0055074 1.10491 
0.00235593 -6.66327e-05 1.19052 
-5.43406e-05 0.000522687 -0.000522892 
0.000178943 -0.001035 0.00650106 
0.000609577 -0.00560145 0.00768975 
0.00609577 0.00307585 0.657119 
0.00273047 0.00330022 0.00174012 
-0.00502225 0.00999657 0.0118257 
-0.00219172 -0.00664196 0.587477 
0.0039078 -0.00474147 0.418482 
0.00222889 0.00137536 0.00352741 
0.00930888 -0.00266208 0.592792 
-0.00876159 0.00729307 0.016184 
-0.00351402 -0.00543095 0.463982 
0.00086751 -0.00371296 0.707586 
-0.0129686 -0.00131749 0.57271 
0.00275831 0.0036385 0.943744 
0.0114379 0.000843298 0.922184 
-0.000704137 0.002319 -0.00427244 
-0.00475976 0.00222312 0.400722 
0.00988891 -0.00476034 0.0207895 
-0.00998708 0.00530095 0.509113 
0.00135107 0.00445962 1.08378 
-0.00934543 -0.00447337 0.724236 
0.00147235 -0.000355217 0.952387 
0.00364485 -0.00140997 1.02437 
-0.00186541 -0.00115505 1.07686 
-0.00700353 -0.00300636 1.05577 
0.00210257 0.00299672 0.937543 
0.00672247 0.00248835 0.924591 
-0.00140826 0.001251 0.842956 
-0.000634458 -0.00126076 0.621951 
0.00357916 0.00144282 0.687572 
0.000894142 -0.00225643 0.458664 
0.00285551 0.000766518 0.633186 
0.00222916 -0.00246338 0.583809 
-0.000816079 6.1335e-05 0.919292 
-0.00239581 -0.00159208 0.97931 
-0.000917683 0.0015219 0.973657 
0.00390312 -0.000814236 0.702133 
0.000489602 -0.00127497 0.836154 
0.00273894 0.00221545 1.02621 
-0.000314272 -4.11774e-05 0.714481 
-0.000743472 -0.0004084 0.684008 
-0.00616504 -0.0033962 1.05054 
0.00151114 -0.00104044 0.846253 
-0.00498167 -0.00773139 0.00710691 
0.00579851 0.0165537 0.668285 
0.00450466 -0.00545294 0.00575322 
-0.000702891 0.00459271 0.420964 
0.00164411 -0.00121302 0.937082 
-0.00134865 -0.00152366 1.1244 
0.00212982 -0.00104575 0.94286 
0.00272163 5.10846e-05 1.02115 
0.00046428 0.00463798 0.58177 
-0.00755453 -5.60773e-05 0.833978 
-0.00176988 0.00357853 0.955992 
0.00799323 0.000530093 0.487907 
0.00339398 -0.003304 0.415076 
0.00208337 0.000558449 0.650129 
-0.000428025 -0.00251393 0.642889 
-0.000598097 0.000344284 0.486768 
0.000253982 0.00300123 1.07954 
0.00216228 -0.0026097 0.71487 
0.00253661 -0.000272063 1.02503 
-0.000163163 0.00147801 0.960229 
-0.00339789 -0.00202203 1.21267 
0.00693814 0.00404873 1.25107 
-0.00208473 0.00187184 1.18908 
0.00327415 -0.00346642 1.24046 
-0.000616482 0.000447184 0.693798 
-0.00269069 0.00220229 0.58714 
-0.00200958 -0.00214285 0.496295 
-0.000740979 0.00340317 0.824816 
-0.000449906 -0.00163102 0.00320563 
-0.00304632 0.00124404 0.498033 
-0.000469791 -0.00105776 0.00249363 
2.66627e-06 0.00409279 0.43741 
-0.00780198 0.000503199 0.0105984 
-0.00296265 0.00125424 0.48461 
0.00217492 0.000608908 0.372471 
0.0121103 0.00186907 0.568876 
-0.00260924 -0.0027761 1.16273 
-0.00211254 0.00523775 1.02693 
0.00133594 -0.00505499 1.11096 
0.00483886 0.00417606 0.926108 
0.00254181 0.0052947 0.844703 
0.00526905 -0.00809213 1.06161 
-0.00716105 0.0115432 0.603955 
0.000380155 -0.00306158 0.876693 
0.00268439 0.000502265 1.11511 
-0.00445859 -0.00508925 1.03238 
-0.00227488 -0.00129009 1.15694 
0.00365717 0.00622953 1.18234 
0.00385663 -0.000607484 1.15815 
-0.00323253 -0.00323322 1.10882 
0.00139885 0.00308632 1.22114 
-0.00402552 0.0009766 1.20103 
0.000169769 -7.77088e-05 1.07103 
-0.00472464 -0.00558851 1.15304 
0.00345797 0.00143473 1.03362 
0.00097917 -0.000337853 1.19278 
-0.00753077 0.00193925 0.833256 
0.00752076 -0.0136479 0.510451 
0.0106128 -0.00295304 0.608617 
-0.00829612 0.0171901 1.03763 
0.000613221 0.00263358 0.0141769 
0.00502919 0.0040854 0.689404 
-0.00160061 -0.0045732 0.0140322 
0.000237949 -0.00631433 0.524588 
-0.00258632 -0.00141543 1.2246 
0.00350532 0.00122959 1.11592 
-0.000939246 0.00270779 1.19982 
0.00112515 0.00320883 1.22447 
0.00106544 0.00103333 0.876435 
-0.000743329 -0.00250484 0.842554 
0.00397964 -0.00129956 0.578588 
-0.00195154 -2.98905e-05 0.881012 
0.000780599 0.00228947 1.10873 
0.000589778 -0.00291209 0.977669 
0.00047319 0.00192933 1.03312 
0.00107926 -0.00118041 0.846326 
0.00167748 -0.00461949 0.883549 
0.00249005 0.00301882 0.996635 
-0.00384058 0.00173801 0.924158 
-0.00252397 -2.17817e-06 0.707668 
0.00126142 0.00451496 1.14751 
0.00282262 -0.0043098 0.908279 
-0.000491068 -0.00299351 0.883179 
0.00215843 0.00618871 1.08245 
-0.00546316 -0.00291211 1.23432 
-0.00272206 -0.00142224 1.20179 
0.00221581 0.00451498 1.01292 
0.00337446 0.00254528 1.11112 
-0.00493726 -0.00205258 0.957553 
0.00359145 -0.00462092 0.910177 
-0.00127088 0.00434633 1.13941 
0.00310269 0.00706424 1.08673 
0.00222598 -0.00134874 0.744094 
0.000679933 0.00560005 0.607871 
-0.0022513 0.000374976 0.533746 
-0.00277246 -0.00174627 0.951859 
0.00287857 0.00393476 0.00411417 
-0.00470263 0.00801877 0.425677 
0.000569962 0.0010809 0.449749 
0.00617397 -0.00687683 0.449662 
0.00237425 -0.00183281 0.639443 
-0.000182821 -0.00120946 0.773079 
-0.00131752 0.000402205 0.913362 
-0.00361723 -0.00538476 0.918434 
0.000354842 -0.00119799 0.932982 
0.000380759 0.0036577 0.830318 
0.000321411 -0.0014002 0.92207 
0.000288193 0.00269737 1.01683 
0.00352915 0.00178277 0.385156 
-0.00778235 -0.00557761 0.0127131 
0.00112929 -0.00359019 0.368037 
0.00547058 0.00518481 0.521297 
0.0048366 -0.0094242 0.640591 
-0.00348947 0.00980494 0.519225 
0.00130296 0.00269762 0.812048 
-0.00319493 -0.00276548 0.520484 
7.95521e-05 -0.000694445 0.930925 
-0.00101044 0.00221279 1.01856 
0.0018188 0.00184361 1.07021 
0.000843869 -0.004271 0.923551 
-0.00497891 0.00129672 1.16475 
0.00979996 0.00634942 1.08416 
-0.00611269 0.00220864 1.2397 
-0.000438349 0.000585176 1.02581 
0.00641344 0.00397775 0.0259966 
0.010616 0.00563085 0.492809 
-0.00475448 0.00264639 0.770331 
-0.00814396 0.00218098 0.472231 
0.00124025 -0.00225047 0.0189069 
0.00892045 -0.000199062 0.605581 
-0.00189617 0.00308548 0.608638 
-0.000406797 0.00388864 0.71466 
-0.00125735 0.00641596 0.987241 
0.00733317 0.0021012 1.06172 
-0.0102792 -0.0023651 1.17973 
0.00243005 -0.00567995 1.17873 
-0.00399394 -0.00606639 0.00862953 
-0.004898 0.00395708 0.466319 
0.00220821 -0.00355886 0.0024558 
0.00850737 0.00783072 0.502151 
0.00145647 0.00110649 0.577978 
-0.0025879 0.00607578 0.958532 
-0.00248017 0.00204217 0.847765 
0.00641746 -0.00233141 0.48193 
0.000200873 0.00267402 0.0127483 
-0.00120948 0.00171039 0.0100796 
-0.0059992 -0.0068118 0.69878 
0.000818907 -0.00249077 0.470145 
-0.00185055 0.00216397 0.0113998 
0.000301459 0.0061054 0.00985412 
-0.00358427 -0.00472195 0.665178 
0.00335836 0.00323107 0.52561 
-9.25973e-05 -0.000957502 1.14935 
0.00264847 0.000919749 1.1193 
-0.00128351 0.00162784 1.22669 
-0.00120353 -0.00225119 1.20099 
0.00184031 0.00342078 0.378922 
-0.00194854 0.0018203 0.627391 
0.00158562 0.000513714 0.705615 
0.00329792 -0.00228369 0.512914 
0.000504635 0.000482461 1.11612 
-5.61751e-05 -0.00278731 1.07944 
-0.00255905 -0.00182629 1.18732 
-0.00149865 0.00230868 1.15863 
-0.000884144 0.00325184 0.00519364 
9.46703e-05 -0.000940166 0.0114611 
0.000175798 -0.000916839 0.00445374 
-0.000919046 0.000374391 0.715583 
0.000370719 -0.00285967 0.000506552 
-0.0051105 0.00537967 0.520692 
0.00224662 -0.000172773 0.00475852 
-0.00360056 0.00438509 0.529574 
0.00203085 0.00158141 0.835995 
0.00259741 3.26195e-05 0.587284 
0.00158724 -0.000357117 0.490332 
2.09732e-05 0.00123634 0.438392 
-0.000949904 4.85325e-05 1.21273 
0.00557686 0.000299629 1.16677 
0.00103527 -0.00420595 1.13024 
-0.00725331 0.000272966 1.25219 
-0.0054188 0.00327282 0.643511 
0.000181343 -0.000184303 0.809185 
0.00507104 0.00465856 0.52085 
-0.00239753 -0.0033558 0.883567 
-0.00129311 -0.00104704 1.21569 
-0.000512429 3.74323e-05 1.07658 
0.000591227 0.000306769 1.07969 
0.000271839 -0.000890188 1.08184 
-0.00130723 -0.00340123 0.836344 
-0.0030892 0.00404525 0.573973 
0.00168661 -0.000655292 0.606981 
0.00852634 -0.00449698 0.505734 
-0.00230449 -0.000266266 0.707037 
0.00071953 9.91694e-05 0.932522 
-0.000622448 -0.00286038 0.715503 
-0.00166646 0.00441157 0.449086 
0.000580938 0.00247382 0.708675 
-0.0062261 -0.000556246 0.996959 
-0.00186762 -0.00286077 0.686735 
-0.000683357 0.00177802 0.875761 
0.00688897 -0.0015437 0.00632895 
0.00667263 0.00617297 0.00884064 
-0.00365498 -0.00911563 0.629347 
-0.00981118 0.000511667 0.541182 
0.00500089 0.000208181 0.939006 
-1.17116e-05 -0.00488169 1.03129 
-0.00111466 -7.38714e-05 1.12176 
-0.000541577 0.00241601 1.01242 
0.00557197 -0.0101337 1.14891 
-0.0133695 -0.00852858 1.08298 
0.01062 0.00735043 1.23233 
-0.00265763 0.0076398 1.19137 
-0.00270934 0.00339711 0.708201 
0.00691399 0.0068624 0.567109 
-0.00231968 -0.00386422 0.478453 
0.00284637 -0.00922902 0.509973 
0.00304328 0.00509399 0.936636 
0.000585506 -0.00194439 0.622997 
-0.00314218 0.00509792 0.596849 
-0.000853205 0.000264793 0.452899 
-0.00986108 0.00418507 0.882046 
0.00259449 0.000895522 0.595212 
0.00597874 -0.00482057 0.928591 
-0.00417769 -0.00124548 0.970372 
-0.00194449 0.000184877 0.611263 
0.00243864 0.000577137 0.492341 
-0.00406414 0.00234986 0.588458 
0.00168845 0.00190067 0.822362 
0.00071525 5.72338e-05 1.1586 
-0.00091926 0.000346995 1.10565 
-0.000335802 -0.0014622 0.997855 
0.00170861 -0.00121697 0.888209 
-0.0040395 0.00131732 1.08286 
-0.00126411 0.000550121 1.01824 
0.00247596 -0.001946 0.723655 
-0.000551326 -0.00152386 1.02504 
-0.00257228 -0.000695979 1.10231 
0.00439326 8.43387e-05 0.950449 
0.000430185 -0.0032525 1.07382 
-0.000675911 0.00298994 0.834129 
-0.00086295 -0.000862555 0.633663 
-0.00035201 0.00238596 0.987299 
0.000450813 0.0035668 0.698164 
0.00182908 -0.00185544 0.515956 
0.00242322 0.00772673 0.850607 
0.00528936 0.00134639 0.953702 
-0.00231018 -0.00171523 0.538108 
0.0040403 -0.0044979 1.03601 
0.00304321 -0.00285179 0.907426 
-0.000221851 0.00435297 1.09406 
-0.00321109 -0.0016657 1.07972 
0.00269369 -0.00364261 0.832454 
-0.00285787 -0.0126858 0.707598 
0.00207574 0.0113702 0.68721 
-0.0147231 0.00597234 1.00491 
0.00913786 -0.00335448 0.497822 
-0.00935631 -0.00305973 0.84667 
-0.00193895 0.00305869 0.549291 
0.00246409 -0.00595284 0.924308 
0.00668354 0.00208418 0.529412 
-0.00238909 0.00348065 1.0764 
0.00766473 0.00552687 1.17353 
-0.00267906 -0.00189766 1.02335 
-0.000519457 -0.00390577 1.02317 
0.00145259 0.00170183 0.73016 
0.000334083 -0.00163632 0.584844 
0.00164315 0.00337025 0.837226 
0.000251392 5.90637e-05 0.43757 
0.00384774 0.00121059 1.13812 
-0.00303458 5.05005e-05 1.11055 
-0.00405872 -1.72266e-05 1.05476 
0.00779055 -0.00629007 1.25578 
0.00314395 -0.000813527 0.915131 
0.000647733 -0.00141046 0.975567 
-0.00241547 0.00252437 0.968167 
0.000970923 0.00205295 0.841691 
0.000155986 -0.00264373 0.959377 
-0.000596037 -0.000339377 0.958272 
-0.000121656 0.00548239 1.12109 
-0.00145327 -0.000220338 0.886399 
-0.000883425 0.0011372 0.839985 
0.00322439 0.000108469 0.696885 
-0.00027957 -0.00089831 0.617668 
0.00258662 0.00199219 0.898732 
0.00235418 0.00227521 1.1537 
-0.00475565 -0.00208977 1.02566 
-0.00166558 -0.00336008 1.0543 
0.00486936 0.0025916 1.23095 
-0.00190186 0.00236985 1.01006 
0.00661489 0.00259761 0.632926 
-0.00393583 -0.00130151 1.02795 
0.0001783 -0.00452487 0.91914 
0.00256235 0.00460213 0.011194 
-0.000489678 -0.0040056 0.495775 
-0.00248567 -3.08517e-05 0.520131 
-0.00194331 -0.00192457 0.418276 
-0.00357106 -0.00227413 0.882181 
-0.000356865 0.00143775 0.928989 
0.00050135 0.00202997 0.990254 
-0.000742175 -0.000914542 0.962125 
-0.000469595 0.00449346 0.879111 
-0.00763435 -0.00429438 0.933239 
0.00513865 0.00314075 0.595292 
0.000702556 -0.00160563 0.705092 
0.000980766 0.00366477 0.71566 
-0.00995274 -0.00311135 1.03238 
0.00622176 0.00161078 0.538562 
-0.00214767 0.00166697 0.834124 
0.00025841 0.00361386 0.675812 
-0.001563 0.00154692 0.957236 
0.000164493 -0.000404036 0.669623 
-0.00144585 -0.00109984 0.887695 
-0.00205388 -0.000650618 1.08622 
-0.00163377 0.00225164 0.87767 
0.000505495 0.00169037 0.647445 
0.000886592 -0.00145531 0.819287 
-0.0036883 0.00287542 0.718997 
5.45949e-05 0.00293603 0.934193 
-0.002831 -0.00429015 1.0252 
-0.00100353 0.00254835 0.83391 
-0.00106229 0.00667287 1.17177 
-0.00603524 0.00228705 1.02874 
0.00271572 -0.00628659 1.17626 
0.00776393 -0.00081948 1.23371 
-0.0012139 -0.00451256 0.0188709 
-0.00126116 -0.00150692 0.363596 
0.00413903 0.00545186 0.638723 
0.00300076 0.00215052 0.517984 
0.0012814 -0.00228797 1.11695 
-0.00167047 0.00298997 1.01498 
-0.0037978 -0.0030937 1.03996 
0.00309463 0.00396162 1.16884 
0.00201005 -0.00226278 0.0188368 
-0.00537845 -0.00262262 0.607645 
0.00119413 -0.0012778 0.0197648 
-0.00240483 0.00478809 0.71504 
0.000322432 -0.00165061 1.08216 
-0.00276304 -0.00165723 1.20802 
0.00213725 0.000433435 1.09042 
-9.81097e-05 0.0011204 1.19192 
-0.00191667 -0.000633317 0.654739 
-0.00065511 -0.0011923 0.584772 
0.00579803 0.00205767 0.84372 
-0.00616412 -0.000521011 0.53833 
0.000672344 0.000730672 0.97076 
0.00663872 -0.000338036 0.70213 
0.000453244 0.00326764 1.03014 
0.0015927 -0.00241195 0.923739 
0.00106664 0.00551517 0.00950795 
-0.00294873 -0.00433727 0.525513 
0.00149552 -0.00961396 0.662894 
-0.00275398 0.00555647 0.528409 
0.00103981 0.000340382 1.13784 
-0.000675614 -0.000765907 1.21136 
0.00361703 0.00094007 1.06518 
-0.0025655 0.00220178 1.23044 
0.000513881 -0.00163084 0.659402 
3.3217e-06 0.00176977 0.961645 
0.000521299 0.00367087 0.676725 
-0.0004725 0.00334715 0.47529 
-0.00172074 -0.00185692 0.710012 
0.000432742 -0.000549996 0.860011 
0.00149665 0.000941353 0.945083 
0.00167028 -0.00247942 0.540389 
0.00614151 -0.00396793 0.0100327 
-0.00338013 0.000599456 0.733611 
0.00277161 0.00155923 0.00776382 
-0.00127232 0.00354637 0.427206 
0.00076801 -0.000976527 0.767145 
0.00017726 -0.00193147 0.592565 
-0.00488109 0.00068886 0.891498 
-0.00190728 -0.00291036 0.492511 
0.00258233 0.00385809 1.08807 
0.0024724 -0.0016559 0.878569 
-0.003891 -0.00204091 0.868323 
-0.00308258 0.00136394 0.968153 
0.00221229 -0.00169374 0.699313 
-0.000292658 0.000553451 0.611689 
-0.00351061 -0.00167211 0.571894 
0.00138161 0.00068427 0.925165 
0.000345834 -8.8471e-05 -0.00032966 
-0.00154286 0.000358211 0.00462312 
-0.00177478 0.000402355 0.00615633 
0.00485855 -0.00431323 0.637329 
-0.00216526 0.000271292 0.35817 
0.00236368 -0.00144491 0.0134326 
-0.00477473 0.00549469 0.521131 
0.00294533 0.00165336 0.499788 
-0.00102794 -0.00142952 0.00115763 
8.91843e-05 6.48142e-05 0.00608597 
-0.000688495 -0.000965231 0.00158604 
-0.00105897 0.00759475 0.683429 
-0.00171762 -0.000929859 1.24404 
0.00204348 -0.00779766 1.17766 
0.00280726 0.00187428 1.16742 
-0.000716369 0.00569 1.25665 
0.00191571 0.000253281 0.955541 
0.0136957 0.003815 0.836778 
0.000429893 -0.00436011 0.61246 
-0.0168078 0.000711972 0.48574 
0.0127627 0.0156428 1.18186 
0.0071422 -0.00651167 1.21812 
-0.0087611 0.00634074 1.05047 
-0.0155078 -0.0154743 1.04128 
0.000348447 0.00116841 0.917211 
-4.50438e-05 0.000187025 1.07617 
-0.00268193 -0.000391789 1.07968 
0.00301852 -0.000353 1.08241 
0.000429255 -0.000403744 0.00790714 
0.000153006 -8.24432e-05 0.00064309 
-0.00293543 0.00114063 0.00327066 
0.00564802 0.000763445 0.635968 
-0.00242401 0.0012887 0.0107148 
-0.000730026 0.00656205 0.00344308 
0.00555035 0.000390686 0.598876 
0.00667076 -0.00485681 0.731078 
0.00305178 -0.00274157 0.993149 
-0.00213909 -0.00400693 0.833343 
0.0069371 -0.00077564 1.02917 
-0.00463135 -0.00240294 0.905335 
0.00312049 -0.0019216 0.746504 
-0.00931865 -0.0106318 0.509991 
0.00136852 -0.000127452 0.566979 
0.00290215 0.00112739 0.793157 
0.00200372 2.0361e-05 0.990923 
-0.00668391 -0.00372417 1.12362 
-0.0031951 0.00418012 1.04713 
-0.00032056 0.00017161 0.888498 
-0.0010788 0.000466198 1.02678 
-6.30028e-05 -0.00379654 1.16588 
0.00164118 0.000858336 1.09983 
-0.00151722 0.00155143 0.928114 
0.000895764 0.00143197 0.00439226 
1.12908e-06 2.40372e-05 -0.000673911 
-0.000697548 -0.0011469 -0.00244825 
-0.00123559 -0.000650162 0.449656 
0.00479971 0.00617258 0.819927 
-0.00355277 -0.00144799 1.05524 
0.0018664 -0.00137373 0.946521 
-0.00224293 -0.00156588 1.11091 
0.00175364 0.00200949 0.717879 
-0.00471478 0.000923908 0.911723 
-0.00484547 -0.00770342 0.856655 
-0.00381906 0.00383128 1.0317 
-0.0015095 -0.00163468 1.17934 
0.00214793 -0.000389307 1.09572 
0.00349116 -0.00303232 1.05206 
-0.00331089 0.00391983 1.21853 
-0.00167377 -0.00693298 0.00573374 
-0.00663144 -0.000703853 0.00427799 
0.00244683 0.00355142 0.552293 
0.00453968 0.00643432 0.532504 
-0.00109267 0.000231328 0.987456 
-0.00533693 0.000741695 0.945764 
-0.000830082 0.00163563 0.687899 
0.00245828 0.000834349 0.990852 
-0.00517002 -0.00769171 0.856044 
-0.00608942 -3.50398e-05 0.911319 
0.000396634 0.000406111 0.718902 
0.0134421 -0.00198471 0.538619 
-0.00325256 -0.0102267 0.930307 
0.00500085 0.00868104 1.17948 
0.00769433 -0.00241052 1.17524 
-0.0056604 0.00856967 1.03171 
0.000759701 0.00113382 0.552981 
-0.00141678 -0.0028805 0.665985 
0.00291797 0.000598371 0.763473 
-0.00322844 0.000532756 0.417839 
0.000560353 0.000615306 0.558427 
7.78513e-05 0.000208958 0.799421 
-0.000578357 9.41865e-05 0.761435 
1.83823e-05 -0.00227786 0.662328 
0.0014339 -0.00131601 0.703891 
-0.000931969 -0.00111556 1.03364 
-0.00353443 -0.000594175 0.712694 
-0.000549276 0.000681705 0.538943 
0.00479331 -0.0055861 0.00760386 
-0.00929144 0.0116057 0.549184 
-0.00731258 -0.00339374 0.00787791 
0.00499316 -0.00377884 0.461037 
0.00277109 -0.0102532 0.0104945 
-0.00746561 -0.00285707 0.00580949 
0.0111826 0.0111736 0.460221 
-0.00119369 0.00567409 0.439603 
-0.000166167 0.000402945 0.0115175 
-8.74688e-05 0.000438215 -0.00579025 
6.88128e-05 -0.000394811 0.00717963 
-0.000283468 0.00145471 0.579446 
-0.00154907 -0.00121458 0.00203989 
-0.00149102 -0.00120178 0.00381008 
0.000873438 0.000526938 0.00776253 
0.00198138 -0.000721386 0.56891 
-0.00403477 -0.00393446 1.06304 
0.00216196 -0.00166288 1.20187 
0.0050134 0.00268373 1.23525 
-0.00491128 -0.00119081 1.10493 
0.000547743 0.00149644 0.380418 
0.00124688 0.000274228 0.381231 
-0.000683397 -0.0033026 0.707014 
0.00412335 0.00222059 0.509586 
-0.00215148 0.00173399 0.00844118 
-0.00395584 -0.00137005 0.512709 
0.001718 0.00105983 0.543498 
0.00212921 0.0027768 0.435099 
-0.000143291 -0.00142347 0.457155 
0.00686537 0.00105896 0.644741 
-0.00289578 -6.6194e-05 0.0162478 
0.000680234 0.00267031 0.497129 
-0.00052826 0.00120425 0.00139214 
-0.00127384 0.00274869 0.0100266 
-0.000356458 0.000809114 0.00108912 
-0.00648716 -0.00518447 0.715418 
0.00182294 -0.00226454 0.00688541 
0.00182776 0.00212124 0.549262 
-0.00119317 0.00262326 0.521782 
-0.00472908 -0.00143704 0.450285 
0.0111624 -0.00853475 0.0140795 
-0.00567272 -0.012871 0.523788 
-0.0114195 0.00640521 0.703945 
-0.000835832 0.0129591 0.495226 
0.00263593 0.00197545 1.01096 
-0.00535856 -0.00180612 0.568462 
-0.00498292 0.0048272 0.70377 
-0.00334852 -0.000246673 0.770623 
-0.00152841 0.000125382 0.00735971 
-0.000858204 7.04025e-05 0.00620498 
-0.00213204 0.000174901 -2.98529e-05 
0.00503477 -0.00043186 0.521361 
0.000928156 -0.000454424 0.831831 
0.0035849 -0.000509339 1.02821 
0.000562671 0.00295886 0.710126 
-0.000659606 -0.00110203 0.898705 
0.00105405 -6.70232e-05 1.15917 
0.000267191 0.000159455 0.966651 
0.000272528 -0.000133908 1.10701 
0.000322146 -0.000652049 0.886711 
-0.000580143 -0.00334986 1.1825 
0.000994632 0.00324618 1.15296 
0.000650703 3.31958e-05 1.06195 
0.00380927 -0.000109649 1.226 
-1.9791e-05 -0.00503161 0.849251 
0.00419119 0.00290966 0.537452 
-0.00760118 0.000971987 0.581002 
-0.00499475 0.00226203 0.482319 
0.000166195 0.0013071 0.679104 
0.00316319 -0.000943104 0.621483 
0.00546636 -0.000725144 0.577124 
-0.00174049 -0.000609842 0.929121 
-0.00678108 0.00561059 0.00638853 
-0.00403826 -0.0125383 0.66205 
0.00503467 0.0100235 0.00683764 
0.00267553 -0.00713617 0.534209 
-0.00282332 -0.00194269 0.711781 
-0.000927853 0.00205288 0.935761 
0.00192515 -0.00621613 0.604449 
-0.0034222 0.00530769 1.0616 
0.000330568 -0.00462075 0.00667788 
-0.000467791 0.00178993 -0.00184302 
0.00290695 -0.000252479 0.501398 
-6.83369e-05 0.00534895 0.469853 
0.0123311 0.00369967 0.651333 
-0.00674345 0.000471745 1.02366 
-0.00128335 -0.00206576 0.765676 
0.00100424 5.49046e-05 0.763286 
0.00024281 9.99539e-05 -0.00241445 
0.000449415 9.42223e-05 0.00166925 
-0.00342112 -0.000993797 0.00599106 
0.00182244 0.00445789 0.560734 
0.00171699 0.00221449 0.938421 
0.000478429 -0.00344867 0.869343 
-0.00260421 -0.000709281 0.709862 
-0.00123903 0.00198742 0.711261 
0.00214259 0.00356637 0.00547827 
-0.000903191 -0.00123581 0.367602 
0.00205567 -0.000495556 -0.00159877 
-0.0100237 -0.00727815 0.576316 
-0.00139596 -0.00146231 0.712637 
0.00314554 0.00209179 1.08156 
0.00138246 0.000110842 1.0244 
-0.00112514 -0.000607713 0.882096 
0.000851212 -0.00323595 0.713652 
-0.00197467 -0.00430922 0.937697 
-0.001626 0.0032331 0.938775 
-0.00432012 0.00470555 1.05783 
-0.00239388 0.00407645 0.635696 
0.00140199 -0.00304781 1.03199 
-0.00126581 -0.0022734 0.818675 
-0.00183335 -0.00339583 0.88275 
0.00109124 -0.000307939 0.548391 
0.000397011 -0.00375667 0.481675 
-0.0030045 -0.00126048 0.679808 
-0.00344048 -0.00205079 0.415363 
-0.00666593 -0.0128513 0.629822 
0.0124178 -0.0045647 0.893921 
0.00272482 0.0121977 1.06384 
-0.0107794 0.00661928 0.877208 
0.00291125 0.00218422 0.00362534 
0.000219995 -0.00602524 0.00455833 
0.000412256 0.01136 0.428948 
0.00459387 -0.00684627 0.448958 
0.000654038 -0.00130002 0.654134 
0.00183219 -0.000759805 0.645392 
0.0021259 -0.00216829 0.407147 
0.00187846 0.000450464 0.570464 
-0.00279961 0.00167848 1.04117 
0.00217409 -0.00145644 1.08324 
0.000894151 -0.00130752 1.18293 
-0.00568817 -0.000234124 1.04121 
0.00107783 -0.000670182 0.00499492 
0.00026746 -0.000104348 0.00706097 
-0.00254787 0.00176041 0.00474704 
-0.00216087 -0.00278094 0.737092 
0.00362774 0.00146018 0.00515583 
-0.0033678 -0.00169691 0.00286182 
-0.000271955 -8.50514e-05 -0.000933468 
0.00505206 -0.000945838 0.63929 
8.57969e-05 -0.000870194 0.0036255 
-3.64969e-05 0.000482561 0.00116887 
5.5136e-06 -1.2537e-06 0.0015517 
0.00372142 0.00317404 0.567961 
0.00554116 0.00191456 0.958659 
-0.0037608 -0.00631511 0.521175 
-0.0043145 0.00147926 0.776167 
0.00133492 0.0046962 0.952475 
0.00989345 0.00511927 0.852243 
0.0101253 -0.00813242 0.541197 
-0.0123273 -0.0104602 0.722136 
-0.00936494 0.00352815 1.03248 
-0.000732333 -0.00533779 1.00723 
0.000202652 0.00452508 1.00304 
0.00181635 -0.000135148 1.00551 
-0.000761673 -5.20129e-05 0.772952 
-0.000283505 -0.000232448 0.911906 
-0.00165038 -0.00333581 0.638311 
-0.00117619 -0.00103316 0.973121 
0.00681675 0.000941162 0.848487 
0.0102705 0.0118613 0.767025 
-0.0107292 0.00969217 1.02852 
-0.000752481 -0.0128057 0.649527 
0.015763 -0.011181 0.499052 
0.012495 -0.00260039 0.0246536 
-0.000931294 0.00379145 0.444063 
-0.0090228 0.00670689 0.71624 
0.00104999 0.00293223 0.439767 
-0.000127422 -0.000591062 0.007649 
-0.0013933 -0.00076974 0.00332083 
0.00157425 0.00174186 0.458938 
0.00197283 0.00123523 0.634732 
-0.00435441 0.00296415 0.00953733 
-0.00225653 0.00153585 0.00449268 
0.000112151 -7.43392e-05 0.00375661 
0.00862825 0.00244173 0.732577 
-0.00134201 -0.000239387 0.00951849 
-0.00103584 0.00176085 0.526009 
-0.000491609 -0.00164733 0.00874478 
0.00243387 -0.001351 0.496653 
0.0011737 0.00127399 0.0149759 
0.00222232 -0.00792403 0.664212 
0.00293813 0.0016325 0.0112155 
-0.00304174 -0.000724828 0.572676 
0.000271717 -0.00128038 0.64607 
0.00210939 -0.00123369 0.64489 
-0.00123672 0.000290212 0.750841 
0.0031071 -0.00220409 0.905337 
-0.000844058 -0.00300151 0.663715 
0.00503328 0.00400954 0.58786 
-0.00333432 0.00255957 0.0145869 
0.00323056 -0.00287957 0.569894 
-0.00416054 0.00381766 0.0236284 
-0.00595542 -0.00461689 0.554098 
0.00953838 0.00443935 0.607388 
0.00199956 -0.00068396 0.472443 
0.00212141 8.60382e-05 0.711201 
-0.00291721 0.000626481 0.937813 
0.00743094 0.000761081 0.609418 
-0.00517493 -0.0040003 1.02801 
-0.00138777 -0.000933488 0.933797 
-0.00398426 0.00312861 0.720477 
0.0082816 0.00608956 1.06218 
-0.00465038 -0.00203468 0.873048 
0.000526329 0.000436195 0.920746 
0.000787258 -0.00123183 0.97438 
0.000376297 -0.00249013 1.10936 
-0.000967016 0.00163673 0.965769 
-0.000311792 0.000853429 1.11439 
-0.000109453 -0.0019089 1.05344 
-0.00239846 -0.00123857 1.07637 
0.000882329 0.000487374 1.1608 
0.00090112 -0.000699631 0.942335 
-0.00159665 -0.00123794 0.712341 
-0.000143018 0.000424935 0.945374 
0.00166024 0.000720463 0.852283 
-0.00025631 -0.0050155 0.636595 
-0.000410913 0.00248926 0.758824 
0.00142857 0.00336098 0.944366 
0.00295438 -0.00361865 0.52244 
-0.00386136 0.00635449 0.00937167 
0.00471076 0.00393892 0.00622777 
0.00232369 -0.00764419 0.546506 
4.52709e-05 0.00267739 0.462013 
-0.00275352 0.00624504 0.0203235 
-0.00645139 -0.00538364 0.608666 
0.000307436 0.00156691 0.371581 
-0.000686122 -0.00828015 0.716568 
-0.00067171 -0.00547914 0.706275 
-0.0151792 0.000705546 0.971382 
0.00504039 0.004875 0.527798 
0.00910369 0.00223938 0.45561 
1.1597e-05 -0.000144865 0.00233824 
0.000124971 -0.000506887 0.000889333 
0.000255168 -0.00111858 0.00374376 
-0.00289149 0.00332913 0.593884 
-0.000648572 0.0092901 1.18494 
-0.000141897 0.00397862 1.01704 
-0.000102239 -0.0035779 0.835067 
0.00625288 -0.00941115 0.923688 
-0.000311093 -8.89943e-05 0.454615 
-0.00457696 -0.000101694 0.376841 
0.00575909 0.00703099 0.00949096 
-0.00502088 -0.00423721 0.607641 
0.000632818 0.00727305 0.00637132 
-6.17721e-05 -0.0118614 0.645404 
-0.00149897 0.00438551 -0.000333663 
0.00252612 -0.00733672 0.525195 
-0.00589586 9.14435e-05 0.698892 
0.0012131 -0.00395081 0.500987 
-0.00365428 0.000805957 1.00506 
-0.00342478 0.004542 0.778882 
0.00193299 -0.00335311 0.769312 
0.000416094 0.00228065 0.888472 
-0.00191686 9.72441e-05 0.694228 
-0.00423042 0.002442 0.487552 
0.00482553 0.000188022 0.730052 
0.00115514 -0.00102784 0.558511 
-0.00179469 0.00246692 0.819157 
0.000435556 0.000863901 1.04364 
-0.014492 -0.00369642 0.718629 
-0.00208754 -0.00181598 0.539047 
0.00664041 0.000149237 0.950429 
0.00223104 -0.00324952 1.03495 
-0.00072639 0.00124995 0.770584 
0.000832923 0.0002785 1.06109 
-0.00241304 0.00157757 0.718292 
0.000621361 0.00104324 0.872919 
0.00287552 0.00293096 0.713233 
-0.00124078 0.00586031 0.893086 
0.0032546 -0.00830745 0.624868 
-0.00418588 -0.00210131 0.879303 
-0.00110322 -0.000957328 0.713489 
-0.0040698 -0.00109667 0.348204 
0.000396345 0.000484195 0.677444 
-0.00350295 0.000125174 0.474467 
-0.00200767 -0.00734779 0.748501 
0.00507189 -0.00103183 0.946631 
-0.00036137 0.00168968 1.04114 
-0.000568987 -0.000330649 0.947802 
-0.00876548 0.0075063 0.023966 
0.00954818 -0.00212363 0.722226 
0.00250988 -0.00158873 0.525951 
-0.00173149 0.000814015 0.437902 
0.000551301 0.00136559 0.645205 
-0.000911649 0.00120663 0.871267 
0.000793318 -0.00257204 0.876352 
0.000168255 -0.000593904 0.824392 
-0.00525157 -0.00104082 1.20022 
0.00692354 -0.0160305 1.19023 
0.0105825 0.0035124 1.254 
-0.00685041 0.0146104 1.23843 
9.80086e-05 0.00277328 0.386143 
0.00274302 -0.00216922 0.604508 
-0.000294564 0.00362824 0.718676 
0.00123371 -0.00137987 0.490582 
0.0024524 0.0037329 0.370386 
-0.00235233 0.00751 0.00840126 
0.000991303 -0.00299361 0.311204 
0.00368675 -0.00950207 0.503159 
-0.000624991 -0.000578487 0.00572159 
0.000643866 0.000842819 -0.000297096 
0.000249696 0.000237872 -0.00213272 
-0.0041237 0.00383254 0.540355 
-0.000149656 0.000374521 0.00471684 
0.00144543 -0.00309936 0.00249529 
0.000776401 -0.00163879 0.00375399 
-0.00430424 0.00213372 0.640921 
0.000607584 0.00224255 0.700064 
0.00151041 -0.0060788 0.647533 
0.00445711 -0.00355075 1.0297 
-0.000254736 0.00199744 0.498011 
-0.00442883 0.00637416 0.875194 
0.00757108 0.00928213 1.07721 
0.00347972 -0.00288113 1.03658 
-0.00588344 -0.0110879 0.811502 
-0.00247329 0.00101528 0.704508 
0.00232836 -0.000678455 0.601829 
-0.00149844 0.00196781 0.78468 
-0.000270099 0.00183245 0.441818 
9.55223e-05 -0.000105609 1.01991 
-0.000340375 0.000563706 1.17604 
0.00155975 0.000175003 1.00952 
0.000261245 -4.03359e-06 1.04092 
-0.00140148 0.0023899 0.716448 
0.00621222 -0.00944378 0.926205 
0.00161299 0.00439572 0.55613 
0.00106559 0.00546732 0.524562 
-0.000472173 -0.00371448 0.887814 
0.00130029 0.00476502 1.14767 
0.00181907 0.0047365 1.07707 
0.000372569 -0.00273765 1.05643 
-0.000540869 0.000704962 0.986875 
-0.000756562 -0.00177436 1.12071 
-0.00343078 0.00325315 0.948261 
0.000992043 -0.00138431 0.987456 
-2.96113e-05 0.00420461 0.71301 
-0.00078309 -0.00360779 0.931539 
-0.0050415 0.00711175 0.892193 
0.00674662 -0.00405861 0.884255 
0.000146105 -0.000138167 0.00254042 
0.00208644 -0.00214354 0.00323664 
0.0012905 -0.00131731 0.00365104 
-0.00205781 0.00718482 0.531936 
0.00416874 -8.34645e-05 0.00743875 
-0.00933413 -0.00154401 0.62309 
0.0068437 0.00084348 0.00518975 
-0.00647057 0.00307668 0.531571 
0.00346088 -0.00607509 0.0106435 
-0.000437259 0.00166285 0.617342 
0.004782 0.00115755 0.00401614 
-0.00350898 0.00370353 0.582274 
0.00153719 -0.00160499 0.696453 
-0.000848611 0.000895764 0.588795 
-0.00189292 0.00168166 0.394547 
-0.00528917 0.000381449 0.493077 
-0.000116502 -0.00415851 1.15222 
0.00236478 -0.00360153 1.22922 
0.0053174 0.0045546 1.14102 
-0.000748016 0.0065586 1.08868 
0.00624847 -0.00479197 0.00675973 
0.00681792 0.00576612 0.00926067 
-0.00570123 -0.00888959 0.560225 
-0.00877513 0.00660424 0.51137 
0.0066985 0.00171013 0.025556 
-0.00300403 -0.00105806 0.526234 
-0.000985505 0.00412303 0.719872 
-0.00406948 0.000451032 0.436386 
-0.00139019 0.000995647 0.0108714 
0.00217956 0.00118915 0.546626 
0.00134131 -0.00154354 0.529716 
-0.00535982 -0.00231501 0.513223 
0.00130643 -0.0025156 1.1079 
0.00020398 0.000414293 0.964502 
-0.00182213 5.27177e-05 0.977903 
-0.00140519 0.00497103 0.847151 
-5.26884e-05 0.00240612 0.0120789 
0.00113266 0.00131781 0.533966 
-0.00685293 -0.00149236 0.562571 
0.00443105 -0.0022362 0.493649 
-0.000572752 -0.000352461 -0.00156898 
0.000882012 0.000535756 0.00202132 
-0.00199572 -0.00109731 0.00189361 
0.00553034 -0.00173245 0.639057 
-0.000665184 -0.00308134 0.928005 
0.000220869 0.00467304 1.05992 
-0.000256844 0.00402473 0.895422 
0.00215276 -0.00032027 0.876511 
-0.000432742 0.00314351 1.19211 
0.00296095 -0.00241877 1.12685 
0.00072132 0.000968444 1.03389 
0.000369217 -0.000862269 1.07106 
-0.000107897 0.000264433 0.00274351 
-0.00139955 0.001853 -0.000169688 
0.00118161 -0.0013132 0.0058401 
-0.000157737 0.00275104 0.427642 
0.000237529 -0.00795767 0.00946511 
-0.00436559 -0.00269489 0.464646 
-0.00264644 3.47511e-05 0.374135 
-0.000232268 0.00856119 0.521466 
0.00330331 0.00318243 0.000723921 
-0.00732165 -0.00451266 0.467624 
-0.00481785 0.00630814 0.0109748 
0.00780377 -0.00838213 0.502572 
-0.000732808 0.0017087 0.00757147 
-0.000503996 0.00144534 0.00210396 
0.00130215 -0.00466243 0.00522667 
0.00163399 0.0029406 0.667927 
0.000624832 0.00747164 0.0207107 
-0.00159791 -0.00141385 0.66268 
0.00135264 -0.00394699 0.479345 
-0.00406972 0.000131377 0.451265 
-0.000508705 -0.0140199 0.662315 
0.0150479 -0.00175281 0.968855 
0.000972421 0.0130145 0.715318 
-0.0138593 0.00341965 0.455411 
0.000345381 -0.00980366 0.719031 
-0.0159527 -0.00141612 0.539553 
0.0140416 0.00294491 1.0317 
-0.00136286 0.000706748 0.83394 
-0.000332442 0.00104641 0.370399 
-0.000291421 0.00062597 0.00598556 
-0.00380551 0.00951373 0.547079 
-0.00327882 -0.008776 0.463236 
0.000884709 0.00140217 0.557912 
-0.00104695 0.00132157 0.499251 
-0.000262576 -0.00455136 0.0121527 
0.00110044 2.30254e-05 0.434005 
-0.00011726 0.0018907 0.949501 
0.0027584 -0.00169043 0.709058 
-0.00130355 0.00214279 0.821543 
0.000618746 -0.000558437 0.508877 
0.00252319 0.000840568 0.0112037 
-0.000997748 -0.00179705 0.0121141 
9.9492e-05 0.00576395 0.698783 
-0.00346177 0.000504971 0.524757 
-0.00269989 0.00320282 1.17511 
-0.00265103 0.00438549 1.23212 
0.00176549 -0.000490496 1.24482 
0.0076759 -0.00899286 1.24834 
0.00527425 -0.00112803 0.943369 
-9.8948e-06 0.000687105 1.02515 
0.00358138 0.00050477 0.71292 
-0.000990191 -0.00127565 0.882823 
0.00232801 -7.63053e-05 0.722139 
0.000991795 0.00253035 0.937141 
0.00128155 -0.000996785 0.935175 
0.00386459 -0.00386349 1.06199 
0.00148901 0.000950094 0.00498994 
0.00142282 -0.00101137 0.00618774 
0.000581374 0.0076388 0.55624 
-0.000320781 -0.000532537 0.440542 
-0.00365457 -0.00352199 0.758819 
0.0127817 -0.0073049 0.496906 
0.0132681 0.00159539 0.657848 
0.00157997 0.0013004 0.763685 
0.000901407 0.00220507 1.25889 
0.00133383 0.00077629 1.11108 
0.003003 -0.000373863 1.1546 
-0.00274516 0.00147855 1.19134 
-0.000575497 -0.000486025 0.00934855 
-0.000381258 -0.000368369 0.000455084 
0.00154499 0.00158489 0.00955295 
-0.000845012 0.00206895 0.588013 
0.00148797 -0.0020745 1.22788 
8.79248e-05 -0.00215686 1.23659 
-0.00185584 0.00686668 1.23278 
-0.00159063 -0.0016318 1.18942 
0.00246464 0.00190296 0.873823 
0.00429862 0.00604184 0.519346 
0.00474647 0.00122131 0.558501 
-0.0014007 -0.0107569 0.957625 
-0.000670784 -0.000928751 1.16414 
0.00153318 -0.000130651 1.16336 
0.00249069 -0.000966517 1.0607 
-0.00250606 0.00227382 1.2545 
-0.00122768 0.0015303 0.925451 
0.000654757 -0.00231565 1.17488 
-0.000254518 0.00310299 0.990788 
0.000988885 -0.0014015 0.968058 
0.00088118 0.000696823 0.00915233 
0.000334438 0.00021891 -0.00366485 
0.000542719 0.000363956 -0.00458202 
-3.16292e-05 0.00420552 0.507316 
0.00189094 0.000846785 0.81652 
-0.00395248 -0.00224512 1.03211 
0.00516041 0.00124068 0.636508 
0.000393152 -0.00279683 0.911824 
9.57574e-05 -0.000617403 0.00734842 
0.00314146 -0.00123005 0.588054 
-0.00038337 8.611e-05 0.00188814 
-0.00203145 -0.00260598 0.44272 
-0.00219308 -0.00230085 1.11147 
-0.00229514 0.000401999 1.23133 
0.000456919 0.00218269 1.11466 
-0.000424549 0.00362371 1.07639 
0.00037082 0.00202953 1.17165 
0.00059887 -0.00665435 1.0557 
-0.00168977 -0.00050856 1.07574 
0.000344548 0.00281371 1.22827 
0.0051732 0.00125306 0.984874 
0.000445299 -0.000433575 0.991279 
-0.00489974 -0.00158501 0.688481 
-0.00043329 -9.26264e-05 0.816321 
-0.00342143 -0.00106089 0.413659 
0.00044708 -0.00279195 0.370621 
-0.00366155 0.00481638 0.0101261 
0.00321329 -0.00754013 0.490488 
-0.000412942 -0.00153916 1.15252 
-0.0045096 -0.00225496 1.17172 
-0.00365435 0.00450402 1.23036 
0.000301617 -0.00421056 1.08746 
0.00151983 0.00216469 0.00295792 
0.000167845 0.000227598 0.000975388 
0.00217518 0.00302823 0.00818858 
0.00341881 -0.00641329 0.682388 
0.000107517 0.00149319 0.617263 
-0.000344224 -0.00172228 0.908485 
0.00342224 0.000788678 0.714562 
-0.00102055 -0.00332131 0.538657 
0.000385315 0.00246035 0.00394696 
-0.00361228 3.63112e-05 0.531024 
-4.85189e-05 0.00197212 0.00171247 
-0.00176095 -0.00277251 0.445016 
-0.00268291 0.00172859 1.18315 
0.000521974 -0.000669572 1.18669 
0.000555822 -0.000143827 1.09825 
0.000825718 0.000891429 1.2105 
0.00182075 -0.00382807 0.00605812 
-0.00761713 -0.00843158 0.0118658 
0.00304642 0.00850758 0.490694 
0.00609422 0.00819509 0.498525 
-0.0014299 0.00418374 0.703165 
0.00523945 -0.000869992 0.941814 
-0.00241643 -0.00870223 0.723864 
-0.00197807 0.00274143 0.505655 
-7.00113e-05 0.00258871 1.15341 
-0.00334785 -0.00238011 1.22653 
0.00432807 0.00305535 1.03366 
0.00134584 -0.00290443 1.19402 
0.00129001 -0.00146107 1.16582 
-0.000809074 0.00271556 1.05368 
-0.00100861 0.000203169 1.0222 
0.000663912 -0.00150017 1.19423 
0.00663444 0.00049163 0.607564 
-0.00132913 0.00332115 0.508948 
-7.47586e-05 0.000571607 0.703638 
-0.0011678 -0.00309763 1.03824 
-0.00742399 -0.00246609 1.03375 
0.0069858 0.00258491 1.2251 
-0.00231366 0.0102837 1.15653 
0.00830562 -0.00804262 1.18056 
-0.00312034 -0.00132813 1.11599 
-0.000186884 -0.00079249 1.17223 
0.00293311 0.000253413 1.22325 
0.00118633 -0.000288855 1.21679 
-0.00597938 -0.00997385 0.9324 
-0.00380714 0.00790941 0.598465 
0.00842194 -0.000918492 0.610766 
0.00420017 0.0077176 0.454786 
0.00219557 0.00405632 0.996565 
-0.00217346 -0.00300015 0.929369 
-5.96109e-05 0.00106417 0.770891 
-0.00469516 -0.000677965 1.0388 
-0.00150254 0.00240989 0.00511859 
-0.000328286 8.47756e-05 0.00100766 
0.00506604 -0.00334221 0.522281 
0.00350441 0.00210224 0.439599 
-0.00450731 -0.00405295 0.0149596 
0.00220393 0.00116834 0.384407 
0.000396292 0.00156985 -0.0023761 
0.00481479 0.00490429 0.522436 
-0.00437705 -0.0030317 0.635556 
4.64038e-05 0.00135773 0.440039 
0.00269686 0.00552567 0.582674 
0.00015185 -0.000378766 0.450967 
0.00219273 -0.00321367 0.0183341 
6.49958e-05 -0.000932434 0.512103 
0.00180104 0.000703951 0.637694 
-0.00208263 -0.00126455 0.442087 
0.00371598 -0.000679825 1.1413 
0.000199891 0.003845 1.06118 
-0.00328312 0.00546362 1.10955 
-0.000263482 -0.00418528 1.232 
0.000551584 -0.000360071 0.00244758 
-0.000540657 0.00248377 0.545234 
0.000231689 0.000129906 0.00652347 
-0.0026064 0.00188053 0.515112 
0.00160019 -0.00126078 0.546214 
0.00243509 0.00211204 0.480148 
0.000990856 -0.00212682 0.730493 
-0.00230104 0.000993072 0.439211 
-0.00206783 -0.000770951 0.655831 
0.00136528 -0.0012317 0.9118 
0.000794168 -0.00150227 0.74643 
0.00290082 0.00125786 0.903884 
-0.000276822 0.00263593 1.25045 
0.0014015 0.000522005 1.22932 
-0.0019906 -0.000538017 1.24161 
0.00313828 -0.000140861 1.19613 
-0.00033328 -0.00164631 0.00395768 
0.00022616 0.000489584 0.00882962 
4.59037e-05 0.0001881 0.000164097 
-0.00293898 0.000970186 0.547884 
-0.000872064 -0.0156465 1.18478 
0.00614139 0.00026951 0.923652 
0.00268235 0.0108104 0.836498 
-0.00489082 0.00127659 1.01548 
-7.30169e-05 -0.00141249 0.573494 
5.52417e-05 -0.00313493 0.46122 
0.00119534 0.00495336 0.585578 
0.00161267 0.000952766 0.936063 
0.00463076 -0.00268283 1.24968 
0.00298361 0.00257004 1.22488 
-0.0051868 -0.00268735 1.23458 
0.000106787 0.000690386 1.2243 
-0.00109228 0.00249716 1.16691 
0.00109411 0.00219353 1.25669 
-0.00153463 -0.000920569 1.1627 
-0.00012034 -0.00143218 1.18773 
-0.00183298 0.000834009 1.07903 
0.00362172 0.000927411 1.09955 
-0.00177631 -0.000713156 0.97658 
0.00263183 -0.0026723 1.19385 
-0.000464632 -0.000386287 0.419196 
-0.00176715 0.000883676 0.64352 
0.00110857 -0.00108957 0.369148 
0.00224682 -0.0056692 0.485024 
-0.000296898 0.00206451 0.569956 
-0.00173292 0.000854877 0.601118 
-0.00175081 0.00169489 0.845443 
0.000805386 0.000310598 0.482281 
-0.00174103 0.000626551 -4.36891e-05 
-0.00754676 -0.00357829 0.01141 
0.00463075 -0.00192397 0.570658 
0.00235527 0.00387766 0.508859 
-0.00207223 -0.000450267 0.684949 
0.000487195 -0.00367076 0.483065 
0.00194642 0.00223936 0.0183987 
0.000633678 0.00488402 0.468556 
-0.00569951 0.00939814 0.708056 
-0.0105804 -0.00927309 1.03839 
0.0131144 0.00724651 0.590939 
0.00294171 -0.00462373 0.882207 
0.000709942 0.00196792 1.02118 
0.00138161 -0.00128007 0.912498 
0.00406257 -0.00317456 1.14729 
-0.00200168 0.00101088 0.905171 
0.00173995 0.00110797 0.00948252 
0.00469806 0.00383259 0.565171 
-0.00246645 -0.00118041 0.628338 
-0.00207045 0.00321925 0.48987 
-0.00142582 0.000855095 0.00391418 
0.00129349 -0.000446559 0.00346274 
0.000382655 -0.000364868 -0.00393501 
0.00085729 0.00473836 0.542061 
-0.000803489 0.00112277 0.0137019 
0.00253508 0.00254291 0.546381 
0.00145642 -0.000735591 0.627288 
0.00117248 -0.00383127 0.531021 
-0.00300551 -0.000478586 0.751361 
0.00186886 -0.00149042 0.671187 
-0.000211061 0.00159844 0.803119 
-0.00152707 -0.00155495 0.869924 
-0.0011033 -0.00211317 0.310929 
0.00202082 -0.000339539 0.348252 
-0.00635393 0.000931025 0.0056471 
0.00345731 -0.00148134 0.462091 
-0.00256374 0.00215216 0.363448 
-0.0072602 0.00387234 0.516422 
0.00304862 -0.00383722 0.646286 
0.00691852 0.000155047 0.495787 
0.0103206 -0.00312851 1.25718 
0.00114516 -0.000161079 1.20286 
-0.0116646 0.00172311 1.12758 
-0.00406363 -0.00542163 1.17964 
0.000118344 -0.000295284 0.0027356 
-0.000178193 0.000645449 -0.000510879 
0.00124898 -0.00425886 0.00834547 
-0.00578044 0.0040654 0.6634 
-0.000205909 -0.00239391 0.00287539 
6.30815e-05 0.000733387 0.0060346 
-9.97984e-05 -0.00116026 0.012012 
0.00481029 0.000940359 0.569517 
-0.00176733 0.00296178 1.21247 
0.00394675 -0.00258836 1.1808 
-0.00132558 -0.00212747 1.25167 
-0.00513169 0.0011657 1.23335 
-0.00249789 0.00322586 0.60646 
0.000940539 -0.00189906 0.489743 
0.00492175 -0.00439915 0.705427 
0.00534323 0.000437272 0.461258 
-0.00142009 -0.0149271 1.1461 
0.00350094 0.013555 0.885559 
0.00396603 -0.000347653 0.908979 
-0.00247707 -9.1495e-07 1.06404 
-0.000646498 0.00353632 0.00590026 
0.000251305 -0.000780449 0.369675 
0.00199599 0.000520718 0.00542502 
-0.0047737 -0.00907917 0.73882 
0.00174963 3.00239e-05 1.20829 
-0.00200796 -0.00222963 1.23892 
0.00335831 0.00108117 1.24413 
-0.000249173 -0.00383691 1.21801 
0.00143171 -0.00230799 0.465551 
0.00130509 0.000379549 0.606547 
0.000558611 -0.00108392 0.716868 
0.00242454 -0.000477104 0.538923 
0.00347055 -0.00275856 0.366897 
0.00257489 0.00187074 0.310547 
-0.00331411 -0.00432416 0.00876409 
0.00129096 0.0064208 0.49453 
-0.00433316 0.00601831 1.17469 
0.00211664 -0.0026443 0.98512 
-0.0092329 -0.00539926 1.18771 
0.00762648 0.00859533 1.03564 
0.0015203 0.000467897 1.20772 
0.00202724 -0.00397544 1.22122 
0.000409847 0.00331357 1.23876 
0.00135402 0.00368795 1.25021 
-0.00197492 0.00432846 1.01674 
0.00809764 0.00563366 0.996969 
0.00712342 -0.0076892 0.755868 
-0.00717465 -0.00300533 0.774467 
0.00292045 0.000295883 0.00390359 
-0.00305935 -0.000589221 0.510963 
9.95097e-05 0.00391598 0.00399322 
-0.00557853 -0.00101341 0.449252 
0.0019122 -0.000451833 -0.0051952 
-0.00149915 0.000538901 -0.00278133 
-0.00407859 0.000873948 0.0144135 
0.000565884 -0.0029439 0.548303 
0.000737934 -0.00101565 1.17443 
-0.00281319 0.00453741 1.21674 
0.000660545 -0.00497655 1.05995 
0.000190851 0.00105976 1.22186 
0.00350518 -0.00164839 0.327058 
-0.00823599 0.00354514 0.0143456 
-0.0025098 -0.00335201 0.400761 
0.00670024 -0.0022439 0.4656 
-0.000803779 0.0038006 1.21899 
0.00744713 0.00279695 1.16005 
0.00149844 0.00208294 1.21827 
-0.00603428 -0.000259712 1.21733 
-0.00219717 0.00161643 0.93678 
0.00432309 -0.00040621 0.939094 
0.000190402 -0.00144055 0.720621 
-0.00129025 0.00509886 1.05323 
0.000617964 0.00130615 0.00392553 
-0.0114795 -0.0100658 0.634143 
0.0023466 0.00220906 0.00908687 
0.0068659 -0.00311563 0.525599 
0.00110535 -0.000328904 0.989495 
-0.00434843 1.3686e-07 1.18048 
-0.00358506 -0.00272248 1.11883 
0.00207151 -0.00134737 0.988486 
0.000181947 -0.00170354 1.10617 
0.0009018 0.00278943 1.17405 
-0.00192777 3.47844e-05 1.0761 
-1.96747e-05 0.00284796 1.22753 
-0.00215105 0.000442346 0.645884 
-0.00197982 -0.0106838 0.53965 
0.00178212 0.000816749 0.0100716 
-0.00403124 0.00428354 0.536079 
0.00441679 0.00756618 1.03622 
-0.00540975 0.00598163 1.01549 
0.00772013 -0.00876529 1.233 
-0.00278589 -0.00805959 1.17218 
0.000405772 0.000619005 -0.000869712 
0.00194666 0.00265642 0.0153516 
-0.00099787 -0.00143871 -0.00306868 
0.000261109 0.000187893 0.504605 
-0.000444119 -0.00350784 0.684724 
0.0100606 -0.00265284 0.575676 
-0.00452468 -0.00304112 1.00889 
-0.00837226 0.0038945 0.929368 
-3.27129e-05 2.98185e-05 -0.000692603 
0.00141798 -0.00456234 0.0007573 
-0.00118351 0.00467943 0.00716763 
0.000425812 -0.000975424 0.421845 
0.00506772 0.000152448 0.0114046 
-0.00637969 0.00883939 0.687829 
-0.00418653 -0.00114774 0.0113877 
0.0106762 0.00390361 0.475671 
-0.00116732 0.00216969 0.00955079 
-0.00104931 -0.00129132 0.540453 
-0.00145125 0.00130699 0.0120715 
-0.00174416 -0.00344801 0.536048 
0.0027197 0.00417184 0.00330635 
0.0052057 0.00215531 0.00530683 
-0.00594101 -0.00155541 0.60373 
-0.00654496 -0.00529655 0.550062 
-0.001626 -0.00189696 0.0179549 
0.00496856 0.00393953 0.583276 
-0.000648812 -0.000513004 0.395559 
0.000734941 0.000218918 0.465826 
-0.000403845 -0.000817055 0.994592 
0.00136162 -0.00116591 1.03726 
-3.05506e-05 -0.000222728 0.974072 
-0.0015874 5.31027e-05 0.844694 
0.000345171 -0.00616629 1.22132 
0.00268595 0.00053162 1.16541 
0.000449149 0.00165602 1.17368 
-0.00465506 -0.000698079 1.24393 
-0.00174399 -0.00050172 1.15986 
-0.00562959 0.00224721 1.24042 
0.000302443 -0.00657312 1.09119 
-0.00262243 0.00121989 1.02637 
0.000133676 0.00247137 1.01115 
0.00273714 -0.00383393 0.638953 
-0.00355689 -0.00378367 0.568992 
0.00122982 0.00081885 0.76948 
0.00460258 -0.00411762 0.710556 
0.00100023 -0.00151066 0.484091 
-0.00204311 0.00209141 0.606955 
-0.000127313 -0.000234005 0.90139 
0.00881113 0.00105659 0.017374 
0.00540289 -0.00600459 0.0144512 
-0.00464675 0.00992285 0.645935 
-0.0100086 -0.00229016 0.51683 
0.000150739 0.000381064 0.0115571 
0.000455697 0.00159929 0.00858229 
0.000226902 0.000940833 -0.00424123 
-0.00162541 -0.00493737 0.507585 
0.00189832 0.00279313 0.00653087 
-0.000911959 -0.00133862 0.00621717 
-0.00200323 -0.002943 0.00620012 
-0.000366271 0.00382082 0.700057 
-0.00454664 -0.00142469 1.23713 
0.000495217 0.00184479 1.22888 
0.00251008 -7.25065e-05 1.14427 
0.00256381 0.000482497 1.21727 
0.00113049 -0.00496114 0.711696 
0.00650536 0.00587587 0.58634 
-0.00298269 0.000679888 0.635948 
0.00182872 0.000954321 0.881843 
-0.00136706 0.00254437 1.24947 
-0.00144525 0.00236693 1.25225 
-0.00180768 -0.00390007 1.16647 
0.0032011 -0.000907095 1.19344 
-0.0023961 0.00125784 0.717432 
-0.00224938 -0.00351762 1.04502 
-0.0017918 0.00313785 0.941461 
-0.00176072 -0.000974037 0.850862 
0.000766203 -0.000514752 1.23769 
0.00666139 -5.46533e-05 1.22937 
-0.00161804 -0.00031329 1.24341 
-0.00698559 0.00133098 1.23746 
-0.00208757 -0.000878151 0.0165501 
0.000528786 -0.000463115 0.487204 
0.0012361 0.00138428 0.689022 
-0.00600248 -0.00266559 0.493005 
0.00388958 0.00183828 0.00179133 
-0.00059381 -0.00032918 0.00365639 
-0.000434219 -0.000286748 0.00640119 
-0.00400957 0.00241487 0.552569 
-0.00324913 0.00425822 1.17415 
-0.00067966 -0.00402428 1.00841 
0.00280733 -0.00294133 1.18657 
0.000931733 0.00162404 1.15756 
-0.000536522 0.00046529 1.12015 
0.00117392 0.00157162 0.892113 
-0.000177865 -0.00271255 1.05846 
0.00123234 3.78765e-05 1.15686 
-0.00921637 0.00780141 0.0205007 
0.0106681 -0.00265091 0.720037 
-0.00228843 0.00103228 0.441297 
0.00132858 -0.000841598 0.438375 
-0.00177431 -4.45772e-05 1.13236 
0.00482985 0.00282955 1.06401 
0.00174043 -0.00328037 1.2219 
0.000437205 0.00286269 1.02388 
0.00699515 0.00719382 0.0102511 
0.0107825 -0.00108427 0.00806847 
-0.0149907 0.00104499 0.631086 
-0.0047683 -0.00437341 0.49832 
-0.00814186 0.00734308 0.545536 
-0.00323604 -0.0031797 0.513553 
0.00585482 0.00434109 0.876159 
0.00791187 -0.00237688 0.964307 
-0.00331812 -0.00311609 0.806155 
0.0015543 0.00317142 0.528454 
0.00250459 -0.00473084 0.685329 
-0.000451635 0.00368114 0.927004 
-0.000678418 -0.000706301 1.10598 
-0.00192871 -0.00676107 1.0305 
0.000873306 -0.000724239 1.15869 
0.00205834 0.00686787 1.25379 
0.00555966 0.00141211 0.0109786 
-0.00111224 -0.00747738 0.621512 
0.00417963 0.00302678 0.0133437 
-0.0061276 0.00080709 0.547421 
0.000875374 -0.000453514 0.708902 
-0.000422944 0.000200109 0.610254 
0.00298092 -0.00354874 0.379634 
-0.00357974 -0.00369617 0.561954 
-0.00296989 0.00147211 1.22136 
0.00260098 -0.00475009 1.25035 
-0.00402378 0.00208284 1.18375 
-0.00233926 -0.0010453 1.23255 
-0.0030191 -0.00253801 1.21317 
-0.00027622 -2.67634e-05 1.19209 
-0.0018316 0.000979567 1.19582 
0.000200457 0.000398545 1.23607 
0.00308221 -0.000695637 1.07101 
0.000442178 0.00185605 1.03092 
-0.00454267 0.00526816 1.11115 
0.00322283 -0.000769367 1.19332 
0.00120689 0.00331222 0.477377 
0.00202215 0.00417374 0.552015 
-0.000667961 -0.00217492 0.708388 
-0.00545546 -0.00421289 0.601867 
-0.00207801 0.00143122 0.423699 
-0.00299803 0.00579059 0.526813 
0.00303735 -0.000647977 0.00847001 
-0.00367502 -0.0062318 0.497642 
-0.00568815 0.000112903 1.15335 
4.46182e-05 0.00218692 0.951747 
0.00282144 0.00052199 1.03346 
0.00425582 0.00112362 0.899141 
-0.0010115 -0.00158546 0.844376 
-0.000886262 0.00138305 0.593387 
0.00145658 -0.00183705 0.620625 
-0.00292793 0.000761985 0.459884 
-0.00545679 -0.00336797 0.654698 
-0.0029763 0.00349955 0.525713 
0.0043695 -0.00371217 0.970211 
0.000670523 0.00337752 0.455497 
0.000594981 -0.00131806 0.00143602 
0.000474976 -0.00108749 0.00465973 
0.00100439 -0.00224979 0.00489181 
0.00156201 0.00780379 0.712585 
0.00281043 -0.00135202 0.326881 
-3.16773e-05 0.00128854 -0.00149163 
-0.00536499 0.00226999 0.0143042 
0.00577788 -0.00177933 0.466453 
0.000373891 0.00166639 1.22051 
0.000614619 0.000417243 1.11642 
-0.000289024 0.00150298 1.14499 
-0.0009294 -0.000462761 1.22692 
0.00181899 0.00174998 1.07397 
-0.00233065 0.00386939 1.11665 
0.00100866 -0.000465395 1.02506 
-0.00149678 -0.0013085 0.883497 
-0.000895491 0.00155517 0.360381 
0.000487556 -0.000983946 0.623264 
-0.00127796 -0.000449213 0.656486 
-0.000847573 0.00127063 0.504261 
0.00147856 -0.00314543 0.944864 
-0.001468 0.00102047 0.703592 
-0.000249745 0.00195177 0.537567 
-0.000974382 -0.00132119 0.828133 
0.00199174 -0.000571765 1.15989 
-0.000821909 -0.0015661 0.997865 
4.46407e-06 0.00106904 0.967356 
0.00334906 -0.0018195 0.88957 
0.00187661 -0.00206053 0.00770089 
0.00533802 0.00258085 0.550211 
-0.00285342 0.00223 0.574673 
-0.00906042 -0.00029912 0.494808 
0.000427473 -0.00297488 0.00626314 
0.00108575 0.00182903 0.499786 
0.00288717 -0.00144114 0.500737 
-0.0043911 0.00136288 0.448563 
-0.00650334 0.00331395 1.26342 
0.00342395 -0.00272786 1.12264 
0.00219381 0.00158443 1.20353 
-0.00247693 -0.000867992 1.2214 
0.0017032 -0.00394411 1.05697 
-0.00199431 0.00252553 0.875813 
7.94332e-05 0.00293908 1.00235 
-0.00184021 -0.000228602 0.85036 
-0.00203841 -0.00338519 0.666499 
-0.00183454 0.00305461 0.85327 
-0.00274947 0.00633475 0.958912 
0.00508579 -0.00285166 0.475953 
-0.00507543 -0.00273995 0.0188805 
0.00251286 0.000248265 0.573647 
0.00177206 -0.000769874 0.645339 
-0.00303522 0.00309357 0.512042 
0.000370832 0.000209422 0.69955 
-0.00207292 0.00200526 0.511077 
0.00369556 -0.00356022 0.634034 
-0.000281155 0.00185659 0.890339 
-0.000472262 -0.000427134 0.852098 
0.00243071 0.00337502 1.09165 
-0.000358897 -0.00116153 1.04708 
0.00088425 -0.00197649 0.87525 
0.00124081 0.0026334 1.18057 
0.000897636 -0.00724552 1.1653 
-0.000459581 -0.00220122 1.20521 
3.91047e-05 0.00563907 1.17406 
0.00111499 -0.000229682 0.740312 
0.00160903 -0.00326042 0.536433 
-0.00103841 -0.000589113 0.625983 
0.000887773 0.00401703 0.483198 
0.000745055 0.000845647 0.742166 
0.00124564 -0.00187356 0.643858 
0.00117595 -0.000189358 0.652246 
0.001305 -0.000780972 0.57284 
-0.00159679 0.000130854 1.20995 
0.00118656 0.00267145 1.0901 
0.000923161 -0.00122781 1.10665 
0.000105683 0.00563618 1.02633 
0.00515393 0.000945449 0.526585 
0.00717558 -0.00242653 0.424513 
-0.00198808 -0.00433907 0.00667435 
-0.00720517 0.00665361 0.450632 
0.00100906 0.000549289 0.0146023 
0.00398711 -0.00222072 0.662442 
4.98945e-05 0.00328571 0.0143884 
-0.000367508 0.00384902 0.486115 
0.000727113 -0.00476658 0.681291 
-0.00336967 0.000285563 0.986762 
0.00362759 0.00546514 0.956617 
-0.00337229 0.000580627 0.885939 
0.000958336 -0.0050672 0.987303 
-0.0011691 0.00289636 0.616689 
-0.00534358 -0.00205789 0.915386 
0.00326157 3.0435e-05 0.818084 
0.0024017 -0.00134741 1.03554 
-0.00297785 -0.0051865 1.07866 
0.00141566 -0.00102289 0.952247 
0.00456285 0.00505749 0.80935 
-0.00416934 0.00120446 0.37405 
0.000322436 -0.000144689 0.327512 
-0.00121684 0.00268114 0.00504192 
-0.000622267 -0.0091524 0.559022 
0.00819195 0.00242187 0.847109 
0.00161673 0.00383124 0.955277 
-0.00612781 -0.00121996 0.650134 
-0.00375001 -0.00026008 0.539076 
0.00179486 0.00236793 1.17297 
-0.000948791 -0.00153721 1.17015 
0.00455988 -0.00390127 1.07268 
-0.00330919 0.00432425 1.24293 
0.0111623 -0.00133342 1.00359 
-0.0125963 0.00473179 0.504535 
0.00030368 -0.00178081 0.747507 
-0.000185992 -0.000220452 0.777163 
0.00437153 0.00524139 0.817655 
-0.00345969 -0.00202992 1.05108 
-0.0022581 -0.00103119 1.1142 
-0.000769743 0.00148955 0.917262 
5.79762e-05 0.00194355 1.25442 
-0.000624433 -0.000474082 1.22561 
0.00135023 0.000907655 1.22484 
-7.5873e-05 0.000157051 1.23024 
0.00155103 0.00438778 0.958834 
-0.00351447 -0.00242425 0.977888 
-0.00125508 0.00119515 1.12028 
-0.00218886 0.00195726 0.887289 
0.00152635 -0.00261066 0.708588 
-0.00113583 0.00445227 0.702704 
0.000198888 0.000379178 0.445167 
-0.00131473 -0.000210979 0.434337 
-0.00423057 0.00299332 0.649613 
0.0022031 0.00431981 0.530906 
0.00379823 -0.00281736 0.871373 
-0.00084711 -0.00266259 0.882135 
-0.00165827 -0.0016909 0.925557 
0.00215651 0.000477682 1.104 
0.00295752 -0.00258511 1.17539 
-0.00061323 -0.000291085 0.967651 
0.00378781 -0.00151789 -0.000721008 
-0.00581116 0.00103375 0.590412 
0.00136352 0.000689783 0.00809184 
-0.00779848 0.00180046 0.484296 
-0.00105426 -0.00280544 0.820391 
0.00226164 0.00538064 1.10761 
-0.00193473 0.00107178 1.05863 
-0.000365939 -0.00294532 0.882863 
-0.0015888 -0.00184915 1.06629 
0.0015962 -9.82761e-05 0.932647 
-0.00260936 0.00380902 0.62769 
-0.00390044 0.00597134 0.872134 
-0.00425285 -0.000840214 0.379503 
-0.000564435 -0.00336976 0.599476 
-0.00192524 0.000776329 0.452781 
0.00118451 -0.00598945 0.712081 
-0.00262785 0.00014013 0.939799 
-0.00497935 0.00281716 1.00912 
0.00225378 -6.3779e-05 1.0663 
0.00554629 -0.00584684 1.04811 
4.33342e-05 0.00635681 0.681928 
-0.00451951 0.00153385 0.884578 
-0.000361286 0.000682088 0.776958 
0.00279593 -0.00252676 0.495803 
0.00556833 0.00207709 0.76599 
0.001655 0.0041626 1.02026 
-0.00253398 0.000859821 1.06544 
-0.000213584 -0.00188495 0.979435 
6.84095e-05 0.00216032 0.00236733 
-0.00329237 -0.0034923 0.497177 
0.00161371 0.00135858 0.000993624 
-0.0039719 0.00208889 0.444438 
-0.00227002 -0.00295582 1.00468 
0.000160407 -0.00195864 1.01199 
0.00992657 0.00209209 0.650026 
-0.000604926 0.00185176 0.768701 
-0.000724277 -0.00307492 0.71746 
0.00472156 0.00221871 0.961572 
0.00227065 0.000594524 0.661148 
0.000925993 0.00141877 0.895242 
-0.0021304 0.00840026 1.08087 
-0.00140821 -0.00110282 1.10437 
-0.00497768 -0.00396605 0.984647 
0.00223098 0.000718405 1.19497 
-0.00151332 0.00284754 1.06165 
-0.00101582 0.00171253 1.10149 
0.00136955 -0.00222172 1.02701 
0.00456973 0.00225757 0.891525 
0.00105174 -0.000733884 0.706406 
-0.00345366 0.000895355 0.607791 
0.00257764 1.12214e-05 0.942223 
-0.000391744 -0.0015278 0.701899 
-0.00188545 0.00113799 0.278418 
0.00147444 0.00160313 0.00623775 
0.0015899 -0.0102484 0.487625 
-0.00156463 -0.00052421 0.417158 
-0.00397219 0.0113967 1.08451 
-0.00620039 -0.000396396 1.11381 
0.00776671 5.09661e-05 0.882131 
0.00211464 -0.00800242 0.97067 
-0.00139337 0.00351078 -4.38445e-05 
0.00240197 -0.000610771 0.540979 
-0.00425387 -0.00613753 0.0117514 
0.00612093 2.46559e-05 0.495583 
0.00104103 0.0021245 1.11179 
0.00256207 7.52157e-05 1.21941 
-0.00281292 0.000920558 1.19312 
-0.000429666 0.000739513 1.15648 
0.00241244 0.000313461 1.11841 
-0.00169774 -0.00458257 1.16778 
0.000383635 -0.000838697 1.07338 
0.000174654 0.00368438 1.0041 
-0.000612349 0.00793249 0.00739144 
-0.00341249 -0.00652723 0.704478 
0.000821878 0.000608318 0.00347286 
0.00109782 -0.00718233 0.410782 
0.00322856 -0.000531964 0.610102 
0.00540004 0.00213528 0.604245 
-0.00714751 -0.00333124 0.926321 
-0.000602021 -0.00161214 0.702213 
0.00156196 0.000775805 0.682155 
0.00146031 -0.00149029 0.930574 
0.00343994 0.00278209 0.529723 
-0.0035283 -0.00391575 0.838895 
-0.000792482 0.0019807 0.945181 
-0.000236659 0.00108576 0.822557 
0.00178438 -0.000352117 0.710504 
-0.000334244 -0.00401078 0.914231 
0.00373424 -0.00191345 0.938251 
0.000606419 -0.00279637 1.05595 
0.00036749 0.00158249 1.0502 
0.00104412 0.00281411 0.916195 
-0.00489022 0.00744575 0.608416 
0.00447792 -0.00717128 1.06255 
-0.001638 -0.000324286 0.780509 
-0.000625852 -0.000523351 0.871153 
0.000309562 0.00176253 1.23492 
0.000496957 -0.000316988 1.21965 
0.0015465 -6.3277e-05 1.2298 
-0.000147766 -1.18923e-05 1.1929 
0.000218098 -0.010521 0.0158548 
0.00233156 0.0136236 0.593019 
0.000545571 -0.00184496 0.00687327 
-0.00320346 0.000399944 0.454209 
-0.00210505 -0.00670451 0.00482698 
0.00243411 0.00943523 0.533575 
0.00912653 -0.00319355 0.00885978 
-0.0115773 0.00463726 0.448429 
-0.0038471 -0.00175484 1.18771 
0.00161765 0.00552224 1.16661 
0.00197206 -0.000720362 1.21714 
-0.00300705 -0.00529014 1.22849 
-0.00139945 0.000205424 0.484074 
0.00114171 0.00057697 0.503616 
-0.000623583 0.00380796 0.463346 
0.00483113 -0.000550872 0.856968 
-0.00726065 -0.00100435 1.25371 
0.00369823 0.00273572 1.2041 
0.00472993 -0.00654109 1.23182 
-0.00378197 0.00233152 1.23149 
0.000201614 -0.00160994 0.662959 
-0.00224595 0.00528806 0.770615 
-0.00049387 -0.00171745 0.498913 
-0.0012424 -0.000994269 0.822266 
0.000265952 0.00417628 1.02856 
0.00291247 0.00109301 0.959903 
-0.00292242 -0.00435356 0.713527 
0.00288418 0.00267917 0.896153 
0.00182745 0.000257252 0.308003 
-0.00560454 -0.00196118 0.00800301 
0.00785965 0.00230561 0.494221 
-0.000227289 -0.00173948 0.463355 
5.24785e-05 -0.000639711 0.00511822 
0.000225553 -0.00274948 0.00709635 
-0.000106579 0.00129919 0.00510144 
0.00271888 0.00259141 0.655493 
0.00514778 -0.0038785 1.06175 
-0.00662065 0.000788407 1.20561 
0.00224579 0.000376777 1.00791 
-0.000548245 -0.00180143 1.03433 
0.00354985 -0.00155828 0.327758 
-0.00473996 0.00119144 0.0145888 
0.000317319 -0.000670969 -0.00358811 
0.00464441 -0.000852499 0.497971 
0.000285571 0.00156916 1.19163 
0.00214653 -0.000757566 1.03383 
-0.0001779 0.00150052 1.11262 
-0.000990619 0.00445361 1.07347 
0.00162961 -0.00404495 0.787837 
0.000968766 0.00146921 0.878605 
-0.000931715 0.00232198 0.681291 
0.000744298 -0.00115304 0.847637 
-0.0031627 0.00460578 0.00338118 
-0.000588615 0.000850662 0.000289663 
-0.00107969 0.00164374 0.00487051 
0.0081227 -0.00261304 0.529622 
-0.00112942 -0.00411849 0.875354 
-0.00201986 0.000527458 0.498274 
-0.00123704 0.000500771 0.703829 
-0.000476907 -0.00128021 0.713569 
-0.00208481 -0.00120192 0.344402 
0.00136889 0.00111221 0.401353 
-0.0051291 -0.00107256 0.00901998 
0.00713654 0.000904634 0.583755 
0.00521524 4.11527e-05 0.528271 
-0.00714921 -0.00128426 0.888154 
-0.00476231 0.0070337 0.649859 
0.00865542 -9.76114e-06 0.424831 
0.00280573 0.00144361 0.00931522 
-0.0043969 -0.00184932 -2.45394e-05 
0.00239488 0.00111103 0.00367471 
0.000195232 -0.00308015 0.547451 
-0.00168035 0.00343136 0.423161 
0.000981133 -0.00284611 0.594723 
-0.00191978 0.00725882 0.523257 
-0.00397803 -0.00919772 0.497287 
0.00507179 0.00251596 0.574499 
-0.000673513 0.00271401 0.643395 
0.00171119 0.00191135 0.885114 
0.000610427 -0.00313246 0.427398 
-0.00107686 -0.000711884 1.07047 
-0.00134386 -0.00238405 1.12801 
-0.00123883 -0.000297981 0.939195 
0.000444998 -3.87023e-05 1.0457 
-0.00185037 -0.00229285 1.23874 
0.000844974 0.00595419 1.24141 
0.00193297 -0.00768063 1.21981 
0.000588108 0.007176 1.24772 
0.000720661 5.68196e-05 0.625552 
0.0021967 -0.00562496 0.37871 
0.00647442 0.00288916 0.501194 
-0.00520918 -0.00595637 0.800021 
0.00224803 -0.00178743 0.454157 
0.00404753 -0.00330934 0.712943 
-0.000156126 -0.0021353 0.383039 
0.00151047 0.00376211 0.515001 
0.000556933 4.54723e-05 0.00606738 
0.00300674 0.000245494 0.00069502 
0.000173991 1.42059e-05 0.00337288 
-0.00436416 -0.000950292 0.496566 
0.00350492 0.00136663 1.17612 
0.000571771 -1.33854e-05 1.21235 
-0.000632166 -0.000420618 1.23083 
-0.00434786 -0.00018814 1.24839 
0.000639957 -0.000432579 0.378 
0.00121148 0.000472979 0.71493 
0.00202394 0.000122905 0.470289 
0.000362038 -0.00319537 0.600889 
-0.00113498 -0.00130843 1.0837 
-0.00138885 0.000872607 1.17225 
0.000177131 6.7346e-05 1.15103 
-0.00112951 -0.00119232 1.19274 
0.00275722 -0.00189517 0.00539371 
0.00203989 -0.00152987 0.00013974 
-0.00166037 0.00122807 -0.000631272 
-0.00301214 0.00185456 0.521217 
-0.00265976 0.00329275 0.708987 
0.00356868 0.00234144 0.972302 
-0.00145361 -0.000461361 0.637293 
0.00187312 -0.00148555 0.848947 
0.000461439 -0.00251528 0.703656 
-0.000100965 0.000900112 0.542042 
-0.00273926 0.00160844 0.701958 
-0.00214454 0.00328208 0.459084 
-0.000907219 0.000609612 0.553622 
-0.00547118 -0.000554319 0.543752 
0.00238716 -0.00495164 0.0111329 
0.00274266 0.00213926 0.511793 
0.000464249 0.001249 0.000456442 
0.000772225 0.000693424 0.00768428 
0.00280832 -0.00258211 0.492532 
0.000379248 0.00573288 0.473282 
0.000795883 -0.000365158 1.13179 
-0.00168845 0.00346487 1.0626 
0.000709725 0.000916754 1.16381 
0.00230755 -0.00306403 1.25222 
0.000275481 -0.00196945 0.643984 
0.000806309 0.00112117 0.485186 
0.00266004 0.00147764 0.656771 
0.00135835 -5.16518e-05 0.900574 
0.00196821 -0.00269992 1.06005 
0.00420867 -0.000446864 1.00901 
-0.00427748 -0.0043841 1.20942 
0.00579305 0.00476171 0.93083 
-0.00227055 -0.000741542 0.0110027 
0.00521881 0.00731038 0.534477 
-0.000135029 -0.000913828 0.543649 
-0.00354217 -0.00467312 0.484762 
-0.00137381 -0.00324478 0.82041 
0.00175068 -0.00215971 1.02757 
0.00370933 0.0069744 1.11009 
-0.00159024 -0.00424439 0.880444 
-0.00316029 0.00101431 0.0134779 
0.00824775 -0.000860201 0.49052 
0.000870653 -0.00161437 0.334065 
-0.00227805 -0.0066022 0.580767 
0.00016602 0.00370841 0.69172 
-0.000618899 -0.000261957 1.06183 
0.0026668 -0.00335706 0.921171 
-0.00413478 -0.00127236 0.840721 
-0.00341025 -3.90741e-05 0.74654 
0.00177097 -0.00165204 0.672362 
-0.000626464 -0.00198046 0.875824 
0.000393312 -0.000527323 0.430911 
0.0075412 0.000820981 0.0191543 
-0.0036713 0.00134897 0.521293 
-0.00776642 -0.00189813 0.665194 
0.00120462 0.00161987 0.448926 
0.0128948 -0.00287693 0.844859 
-0.00136408 0.0081895 0.909781 
-0.0148445 0.0017204 0.627577 
0.00382556 -0.0111361 0.53485 
0.00103244 0.00191368 0.402292 
0.00259163 0.00346159 0.575938 
-5.98253e-05 -0.00218907 0.574077 
0.000145259 -0.00381464 0.461114 
0.000923648 0.00346866 0.631924 
0.00292674 0.00242366 0.511517 
-0.000619233 -0.00148906 0.809206 
-0.00136804 -0.00273259 0.891399 
-0.000399841 -0.000160655 1.23263 
0.00185315 -0.00405865 1.21846 
0.000200237 0.00112311 1.22156 
-0.00140037 0.0031391 1.2566 
0.00161745 0.00220376 0.726864 
0.00156934 0.00272385 0.833855 
0.00137446 -0.00339362 0.548057 
0.000624467 0.00206824 0.440146 
0.00271215 0.000130115 0.735228 
0.00143968 -0.00120126 0.911579 
-0.00359653 -0.0013337 0.659961 
0.00146049 -0.00321777 0.570388 
0.00101174 -0.000617207 0.00283251 
-0.0032057 -0.00264207 0.453905 
-0.00107458 0.00102716 0.00514358 
-0.00060952 -0.000448322 0.620294 
0.0006605 0.0038629 0.375726 
-0.00194417 0.00304237 0.582447 
0.00306522 0.000382684 0.628071 
-9.99964e-05 -0.000939954 0.508851 
-0.000414774 0.000114043 0.00128094 
-9.12801e-05 4.49175e-05 0.00472649 
-0.0015579 0.00041768 0.00241882 
0.00366594 -0.00505707 0.591458 
0.000509682 0.00187221 0.634951 
0.00284356 0.00279153 0.499033 
-0.000787465 -0.00847294 0.924084 
0.000483331 -0.00411555 0.569568 
-0.00222844 0.00499502 0.843783 
0.0147115 0.0097078 0.603214 
-0.00881527 -0.00523095 0.551394 
0.000536237 -0.00594588 0.481847 
-0.00625035 0.000986108 0.57536 
0.00270131 0.015247 0.92345 
0.0101067 -0.00180969 0.873258 
-0.00286162 -0.014366 0.49563 
-0.00231879 0.000787731 0.856212 
0.00113898 -0.00297137 0.885601 
0.00353606 0.00063258 0.539111 
-0.00305385 6.32831e-05 0.971974 
2.54904e-05 -0.00402584 0.80819 
-0.00312865 0.00557353 0.540493 
-0.0020336 -0.000703665 0.674458 
0.00290007 0.000529853 0.53588 
0.00238528 0.00384242 1.03215 
0.00473383 -0.00773143 1.14002 
-0.00139639 0.00215896 0.908703 
-0.00374516 -0.00282367 1.06614 
-0.00033878 -0.00196368 0.628436 
0.00299987 0.00296682 0.543952 
-0.000255882 0.0022633 0.842723 
0.00060106 -0.004154 0.530015 
-0.00188047 0.00245171 0.677071 
0.00400024 -0.00677541 0.988584 
0.00367385 0.00557903 0.758769 
-0.00242568 -0.00177708 0.822903 
0.00107408 0.00257965 1.18329 
0.00332397 0.00156792 1.1168 
0.00109154 -0.00715949 1.16209 
2.68772e-05 0.00552119 1.1745 
-0.00154003 -0.00109738 0.00709225 
-0.000134243 -7.15895e-05 0.00846823 
0.000623875 0.000439502 -0.0045209 
0.0013619 0.00232465 0.506918 
-0.00336135 0.00194503 1.08219 
0.000115327 -0.00170252 0.9729 
0.00028123 -0.0029569 0.995961 
-0.000199068 0.00477158 1.20294 
0.00354577 0.00302622 0.875687 
-0.00907991 -0.00166741 0.539055 
0.00395039 0.00170052 0.553312 
0.00127152 0.00209116 0.516482 
-0.00577604 -0.00196786 0.00983175 
0.0026242 -0.00192975 0.45579 
0.00123756 -0.00348295 0.379516 
0.00558353 0.00108252 0.519395 
-0.00420818 0.00928604 0.0140604 
-0.00724389 -0.00764257 0.497371 
0.00503461 -0.0067961 0.687199 
0.00622874 0.00714814 0.500565 
-0.000726453 0.000590329 0.339647 
0.00742768 -0.00190533 0.591224 
-0.00189855 -0.000632275 0.00786924 
0.00240735 0.00151271 0.461926 
0.00539379 -0.0121051 0.0143345 
0.00880253 0.0133046 0.650563 
-0.00456646 -0.00770719 0.00820132 
-0.00357563 0.00954414 0.4984 
0.000500648 -0.000948209 0.971924 
0.000189487 0.00342113 1.02315 
-0.00430172 6.98653e-05 1.16609 
0.00180806 -0.00203074 0.92782 
-0.00172329 -0.00212453 0.708404 
0.000479527 0.00109507 0.463659 
0.00381388 0.00208829 0.616541 
-0.00275808 0.000257243 0.517006 
0.000221572 0.00149588 1.25636 
0.000673376 -0.0035046 1.22769 
-0.000972189 0.00269 1.20151 
0.000332676 0.00364041 1.2271 
0.00229872 0.00118552 1.04863 
0.00353283 -0.00239887 1.11023 
0.00119695 0.000867527 0.93908 
-0.000759553 -0.000164082 0.910092 
-0.00034225 0.000857843 0.930894 
0.000677595 0.000724279 0.596723 
-0.00141195 0.00225075 0.578655 
0.00412982 0.000933163 0.461289 
-0.000409624 -0.000847373 0.321121 
0.00279955 -0.00534261 0.395559 
0.00390541 0.00101095 0.00479514 
-0.00819717 -0.00246104 0.52113 
0.00412132 0.0025824 0.00552362 
0.0027177 0.00679016 0.0123644 
-0.0054613 -0.000791703 0.550132 
-0.0012829 -0.00685949 0.451755 
0.00121677 0.00257183 0.582332 
-0.00109948 0.00130462 0.577362 
-0.00129719 -0.000813414 0.691695 
0.0066886 -0.00119455 0.931936 
0.000277736 -2.26574e-05 -0.00329458 
0.000162477 -1.32547e-05 -0.00164012 
-5.04443e-05 4.11528e-06 0.00959463 
-0.000607042 0.00174697 0.57645 
-2.21136e-05 -0.00221431 1.21145 
-0.00214139 0.00288525 1.23872 
0.00145504 0.00197524 1.17845 
0.00163064 0.00194854 1.16782 
-0.00250428 0.00230991 0.625285 
0.0012947 -0.00370468 0.491188 
-0.00237816 -0.00155811 0.682212 
0.000246019 0.00583037 0.464373 
0.00424641 -0.00511429 0.00530242 
-0.00562807 0.00556905 0.655614 
-0.00212763 -0.00418854 0.00630005 
-0.00323052 0.00294716 0.533626 
0.00116676 -0.00117492 0.766894 
-0.00204354 -0.00266409 0.594958 
-0.00116874 0.00156994 0.774922 
-0.00320565 0.00110577 0.889766 
0.00305844 0.000104997 0.870272 
-0.000702965 -0.00247669 0.945958 
-0.00202464 0.002497 1.04083 
0.00735965 0.00518421 1.07384 
-0.00149079 0.0114808 0.0192553 
-0.000996958 -0.00905709 0.644433 
0.00509116 -0.00284866 0.576961 
-0.00289339 -0.000365649 0.456051 
-0.000283748 0.00229024 1.25455 
-0.0014392 -0.00171261 1.24335 
0.00185809 -6.84619e-05 1.22639 
0.000219033 0.000933898 1.23076 
-0.00612476 -0.0032583 0.756318 
-0.00485134 0.0111677 0.493064 
0.00743407 0.00197995 0.485102 
0.00366636 -0.00986497 0.77382 
-0.0089678 0.0048788 1.08393 
0.00483825 0.00254383 0.980338 
0.00914566 -0.00467824 1.16958 
-0.00614053 -0.00405091 1.19869 
-0.000239052 0.000904814 1.01516 
0.000337627 -0.000776577 1.04612 
0.00146241 -0.000177229 1.01305 
0.000439952 0.00200141 0.844435 
-0.00225645 -0.00137648 1.07125 
-0.000132793 0.00199946 1.05371 
4.11784e-05 -0.000602846 0.935041 
0.000784708 -0.0015743 0.869514 
-0.000135217 0.00029516 0.00952465 
-0.00173835 0.000408131 0.00810158 
0.00122306 0.00264427 0.593503 
0.00125217 -0.00243446 0.536637 
0.000417819 0.00430995 0.708279 
-0.00194361 -0.00672186 0.719935 
-0.00707505 0.00354479 0.930264 
0.00668089 -0.00159179 0.454009 
0.00169115 0.00154486 0.00744112 
0.00124245 0.000775188 0.0013309 
-0.00512971 0.000977396 0.538077 
-0.00342563 -0.00061801 0.523014 
0.00111438 0.000455178 0.0109496 
-0.000320606 0.00193759 0.533566 
2.16579e-06 0.000183173 0.0108668 
0.00225969 -0.000576494 0.485106 
0.00526263 -0.00262811 0.39328 
0.00413793 0.00730791 0.0117795 
-0.00400068 0.00340316 0.000598695 
-0.0057022 -0.0112574 0.530791 
0.00278581 -0.00139933 1.06451 
-0.0034794 0.00273108 1.01757 
-0.00204349 -0.00197468 1.16908 
0.00196897 -0.00307 1.03739 
0.00148319 -0.00205763 0.758339 
-0.00250924 0.00183132 0.422171 
0.00279951 0.000982313 0.597347 
-0.00351782 0.00370362 0.52068 
0.00244973 0.00135659 0.832575 
0.00119129 0.00196473 0.498276 
-0.000916632 -0.0002036 0.551058 
-0.000337252 0.000158063 0.43848 
-0.00875258 -0.00292143 1.17356 
0.00639752 -0.00704644 1.01227 
0.0110633 0.00500084 0.873653 
-0.00623988 0.00633385 1.04165 
0.00056148 -0.00896495 0.55249 
0.00837196 -0.00526928 0.928221 
0.000725533 0.0133378 0.720038 
-0.0102701 0.00526742 0.449079 
-0.00307464 0.00275224 1.0596 
0.00294411 -0.00348957 1.03559 
-0.000287673 -0.000843747 1.0185 
0.00242802 0.00204219 1.19587 
-0.000718765 -0.00248837 0.941782 
-0.00257922 -0.00367142 0.892287 
0.000119707 0.00238364 1.12158 
0.00287083 0.00345147 1.15842 
-1.13836e-05 -0.00248767 0.477 
-0.000921871 0.00554574 0.703266 
0.00083444 -0.000997623 0.723757 
0.000605034 -0.00472423 0.495419 
-0.00442323 0.000951984 0.572185 
-0.00785648 0.00186743 0.503023 
0.00372367 3.17882e-05 0.541089 
0.00433926 -0.0020283 0.88759 
0.00129612 -0.00216066 0.935691 
-0.00323297 0.00101477 0.916178 
0.000105265 -7.24883e-05 0.940867 
0.00317331 0.000239277 1.02338 
-0.00261545 0.00582443 0.0102031 
-0.00377593 -0.00190539 0.338313 
0.000459401 -0.00275223 0.393038 
0.00293122 -0.00878636 0.577464 
5.46485e-05 6.99979e-05 0.00378712 
0.00409254 -0.00169311 0.0114243 
-0.00277169 0.00136074 0.000664903 
0.000938398 0.00141621 0.656637 
-0.00222903 -0.0025031 1.05586 
0.00156349 0.00210406 1.20969 
-0.00481845 -0.000215618 1.10572 
0.00217342 6.62069e-05 0.931215 
-0.00116982 0.00269055 0.00165939 
0.00029438 -0.000407212 0.00779617 
7.77321e-06 1.23415e-06 0.000570706 
-0.00114698 0.000338074 0.715552 
0.00102829 0.00320213 0.00500794 
0.00456849 -0.0047122 0.511576 
-0.000414048 -0.00148049 0.000756363 
0.000669705 0.00379324 0.497765 
-0.00129866 -0.000422542 1.1787 
0.00297597 -0.00125042 1.09838 
-0.000531593 0.000804409 1.07144 
0.00142282 -0.000962458 1.04551 
-0.00389354 9.0156e-05 0.949254 
0.00026318 -0.000494262 1.07364 
-0.000626861 0.00167376 0.934246 
-0.00170553 -8.40165e-05 1.04454 
0.00212396 0.00135207 1.21079 
0.000257326 0.00336241 1.23641 
-0.000407256 0.000302089 1.16923 
0.000647895 0.00235721 1.24834 
0.0026359 0.0053997 1.12671 
0.000897897 0.000192593 1.01011 
-0.00336464 0.00119667 1.20094 
0.000267009 -0.00173961 1.03387 
0.00165376 0.00288432 1.11282 
-0.00159118 0.000163733 1.02483 
0.00122336 0.000622506 0.922183 
0.00229183 0.000373343 0.849207 
0.00130158 -0.000272172 1.0037 
0.00158446 0.000495952 1.0431 
-0.00591826 -0.00407353 0.689258 
-2.86528e-05 0.00772815 0.921959 
0.00154813 0.00624315 1.23165 
5.19092e-05 -0.00217322 1.1053 
0.00139108 -0.00218313 1.02952 
-0.000172292 0.00201479 1.14693 
0.00175215 -0.00353455 0.614336 
-0.000656334 0.00133412 0.91496 
0.000378285 0.00428887 1.00509 
-0.00216813 -0.00128894 0.703723 
0.00241121 -0.000593194 0.938981 
-0.00169407 0.000781269 0.916566 
-0.000618948 0.00261396 1.10991 
0.000866636 0.000783258 1.02561 
0.00186988 -0.0019728 0.963072 
-0.00349285 0.00468366 0.67761 
-0.00456795 -0.0029296 0.955688 
0.00301487 0.00298899 0.887599 
-0.00253619 -0.0025212 0.574496 
0.00374084 0.000859182 0.54593 
0.00319342 0.000768348 0.0135051 
0.000464413 -0.00323179 0.476075 
-0.00265059 -0.00102957 0.32618 
0.00342004 -0.00203395 0.429589 
0.00658609 0.00165824 0.00745706 
-0.00996894 -0.00417023 0.492919 
-0.00196975 -0.000144541 0.38507 
-0.000908844 -0.00337 0.714073 
0.000416837 0.0010939 0.470908 
0.00103723 0.00721988 0.496682 
-0.00528906 0.00422838 1.24704 
0.00498122 -0.00317272 1.10563 
-0.00565615 -0.00109951 1.23305 
0.00383129 0.00187086 1.1901 
-0.00622807 -0.000574904 1.25273 
0.00560667 -0.000528622 1.16247 
0.00661125 0.00278332 1.11589 
-0.00143849 0.000453691 1.19349 
-0.000243032 0.00111494 0.587803 
-0.000529093 -0.000909084 0.708258 
0.000856132 0.00131925 0.374659 
0.000977217 0.00330919 0.621903 
-0.0016697 0.00220812 0.585896 
-0.00301388 0.00396508 0.507772 
0.00349758 -0.000915752 0.00715725 
0.00418109 -0.000890925 0.441512 
-0.00142625 0.00178557 0.687548 
-0.000809792 -0.0016176 0.520979 
0.00316039 -0.0016256 0.0182806 
-0.00449636 -0.00091402 0.477643 
-0.000441799 0.00384605 0.0106318 
-0.000574716 -0.00110605 -0.00361406 
0.000816238 -0.00215274 0.308579 
0.00221813 -0.00743937 0.505057 
0.000302086 0.000511153 -0.000904157 
-0.0012613 -0.0018914 0.000164334 
0.00232476 0.00277852 0.0102198 
-0.000849469 -0.000803982 0.454758 
-0.00143808 0.00377206 1.21395 
-0.00297662 0.000830134 1.13529 
0.000454676 -0.00153456 1.20131 
-0.0027143 -0.00586287 1.24639 
-0.00473381 0.000195236 1.11285 
-0.00135187 0.0032896 1.19432 
0.00728836 0.00245916 1.2563 
-0.000690398 0.00153245 1.19444 
-0.00580605 0.00506683 0.741975 
0.00614238 -0.000327702 0.563188 
0.0029702 0.00584022 0.514765 
-0.00136855 -0.00572914 0.958096 
0.000844592 0.00414587 0.81477 
0.00679436 3.17288e-05 0.51126 
-0.00580342 0.000523669 0.62622 
-0.00339496 -0.00139078 0.525025 
-0.000491065 -0.00265335 -0.00140005 
0.0064751 -0.0061461 0.0145779 
-0.00535239 0.00726641 0.464796 
6.92142e-05 0.00286976 0.413145 
0.00293213 0.00287575 0.777087 
-0.00244182 0.000730829 0.551529 
0.00120321 -0.000940709 0.666495 
0.00126562 -0.00303047 0.798809 
-0.00223087 -0.0106326 0.0102067 
0.0155506 0.00743269 0.694884 
-0.0113159 -0.0065958 0.0110897 
-0.00130739 0.0118433 0.49855 
0.00109291 0.00172762 0.583946 
-0.0060457 -0.00404267 0.544518 
0.00704639 0.00297008 0.499165 
-0.00392831 0.00209557 0.888458 
-0.00043489 0.00164749 0.0012763 
-0.00216142 -0.000133205 0.00766802 
0.00451202 0.00523703 0.591022 
0.00474698 -0.000638146 0.577311 
0.00139501 0.00186842 0.671449 
6.61559e-05 -0.0073564 0.506359 
-0.00305859 0.00708923 0.762848 
-0.00606646 -0.00064303 0.494806 
-0.000315695 -0.00352122 1.2304 
-0.00220805 0.00065592 1.2425 
0.00127247 0.000380689 1.18546 
-0.000827481 0.000765278 1.22297 
-0.00229441 -0.00124101 0.372273 
0.00475185 -0.00295175 0.00681615 
0.00350319 0.00313448 0.00572117 
-0.00611379 -0.0105602 0.463275 
0.000500409 0.000437862 0.938699 
0.00109702 0.00304265 0.934912 
-0.00112385 4.04598e-05 0.72025 
-0.00290214 -0.00101065 1.01832 
0.00103122 0.00164045 0.00714249 
-0.00079786 -0.0011069 0.000915869 
-0.000304621 -0.000401874 0.00117271 
0.00122493 0.00265727 0.684262 
-0.00241569 -0.00208578 1.20784 
0.00238631 0.00811209 1.03007 
0.00191214 0.00198712 1.10951 
-0.00415862 -0.0100566 1.25168 
-0.00210462 0.000799563 0.00269583 
0.00780908 0.00250329 0.537395 
-0.00273199 0.00262162 0.00418886 
-0.00256287 -0.00534466 0.49459 
0.00163294 -0.000703349 -0.00141757 
-0.00168931 0.0020536 0.519961 
0.00386207 -0.00529893 0.0102749 
-0.0020318 -0.00115009 0.441705 
0.00106574 0.0018648 0.809846 
-0.00124034 -0.00452708 0.471903 
0.00269124 0.00342912 0.927547 
0.00280769 -9.97582e-05 0.854063 
0.00506617 -0.0034594 1.00964 
-0.00623173 0.00696259 1.11066 
0.0100635 0.011057 1.21181 
-0.00698579 -0.00980169 0.9288 
-0.00251722 0.00035122 0.532805 
0.00235926 0.00220746 0.515526 
-0.00836731 -0.00209647 0.0155796 
-0.000660363 -0.00508543 0.507133 
-0.00171861 0.000835419 0.685044 
0.0025864 -0.000792345 0.520871 
-0.00461502 -0.000798714 0.754709 
-0.00225268 -0.00555381 0.490456 
-0.000221764 0.00395923 0.623299 
-0.00446799 0.00745287 0.955092 
0.00484513 0.000242839 0.785417 
-0.000522988 0.000644876 0.858038 
0.00214603 0.00788711 0.00658821 
-0.00664063 0.000933189 0.00638125 
-0.000748608 -0.00814641 0.426457 
0.00591135 0.000185382 0.450063 
0.00225173 0.00677056 0.0127244 
-0.000389263 -0.00384468 0.489218 
0.000661773 0.00165386 -0.00103334 
-0.00348405 -0.00121762 0.450626 
-0.00237714 -0.00157784 0.942076 
-0.00103696 -0.00585441 1.04075 
0.00357174 0.000354149 1.00953 
-0.00177041 0.00509921 0.852393 
0.00462211 -0.00359381 0.00812302 
0.00247742 0.000528892 -0.000332733 
-0.00271742 0.000697255 0.359891 
-0.00534071 0.00640723 0.520872 
-0.000109584 0.00129612 -0.00120344 
0.000169281 -0.00108525 0.00984351 
0.000110434 -0.00133094 0.000997006 
0.00191732 -0.00191053 0.503031 
-0.00114727 -0.000102429 0.324688 
0.00397851 0.00165797 0.429383 
-0.000601181 0.00373629 0.0065962 
0.00142989 -0.00777445 0.556871 
-0.00264975 -0.000498111 0.00218923 
0.000750043 0.000874691 0.284459 
0.00151724 0.00357409 0.00552426 
0.000300004 -0.011209 0.485116 
-5.43265e-05 -0.00199732 0.743167 
0.00683002 -0.000377424 1.00141 
-0.00229196 0.00662299 0.682976 
-0.0060585 0.0028544 0.501704 
-0.000910339 0.00448525 0.71036 
0.00488657 0.00344874 0.716047 
0.000544207 -0.00374156 0.938143 
-0.00383687 -0.00259846 0.921674 
-0.00490733 0.000896881 0.573898 
0.000558572 -0.00114202 0.841614 
-0.0105171 0.0037577 0.494783 
0.00846185 -0.00332336 0.887202 
0.00714232 0.00277166 0.592983 
0.000851311 -3.97968e-05 0.872404 
-0.00312036 -0.00519289 1.03841 
-0.00163731 0.00221257 0.924298 
0.00208157 0.000373433 0.874572 
-0.000171161 -0.00729764 0.95609 
0.0018965 0.00125476 0.557238 
-0.00243161 -0.00237706 0.799457 
0.00462009 -0.00596213 0.00925521 
0.00560301 0.00764143 0.654361 
-0.00512325 -0.0119503 0.0108962 
0.00666714 0.0121762 0.441638 
-0.00982887 -0.000897772 0.0145464 
0.0139276 0.000661928 0.603657 
-0.00406663 -0.00580229 0.00546391 
0.0044479 0.00865901 0.486952 
0.00160355 0.00112335 1.00626 
0.00336667 -0.00118234 1.0613 
0.000310883 -0.00338967 1.03265 
0.000374253 0.00797934 0.92511 
0.00234379 0.00648732 0.0114919 
-0.00173106 0.0011746 0.571807 
-0.0058469 -0.00831192 0.485103 
0.00389051 -0.00044244 0.584196 
0.00272558 -0.0011657 0.0104536 
-0.00683576 0.00267079 0.542672 
0.000844807 0.000550035 0.370291 
-0.00272375 -0.00453286 0.536499 
0.00178996 0.00357255 0.00227009 
0.000203201 -0.000104 0.00996396 
-0.00277875 -0.00603263 0.00574433 
-0.00360534 0.00225377 0.505466 
-0.000795386 0.000228597 0.780745 
0.00427754 -0.00161095 0.503098 
-0.0002549 0.00210719 0.628031 
4.45493e-05 0.00282318 0.493536 
0.00340146 -0.00151106 0.495925 
0.000339076 0.00186066 0.499782 
-0.000168718 0.0023695 0.776744 
-0.00254445 0.00127601 0.447707 
0.00208237 -0.000118568 0.00915967 
0.00819521 -0.00493176 0.0112398 
-0.00115362 0.00401273 0.574108 
0.00413075 0.00379912 0.585896 
0.00470226 -0.0038963 0.813763 
-0.00617821 -0.00524158 0.533295 
-0.00611913 0.00648966 0.622154 
0.00604132 0.00928854 0.950643 
0.00226978 0.00153267 0.0105504 
0.0056832 0.00041571 0.00138162 
-0.00580407 -0.00120772 0.656869 
-0.00246132 -0.00266269 0.455361 
0.00140821 0.00557722 1.05743 
-0.000821148 -0.00593802 1.01872 
0.00766568 -0.00329106 0.944806 
-0.00442206 0.0034943 1.16613 
0.000287168 0.00261464 0.683235 
0.00162261 -0.00386092 0.780303 
-0.000682684 0.00251719 0.431635 
0.000676827 0.00378763 0.491818 
0.00226546 0.0122012 0.705415 
0.00451111 -0.00345539 0.883307 
-0.00361118 -0.0136163 0.690453 
-0.00938253 0.00578945 0.490504 
-0.00385324 -0.00105258 1.14782 
-0.0023472 0.000589812 1.08267 
0.00421818 0.00149357 1.2035 
9.04747e-05 0.00394143 1.23223 
0.00143246 0.00117683 1.06704 
0.00041232 0.000677213 0.935813 
-0.000415414 0.000440283 0.942557 
-0.00106865 -0.000488061 1.01104 
-0.00429116 -8.17403e-05 1.23124 
0.00566601 0.000370511 1.23547 
-0.00195522 -0.00112419 1.24172 
0.00106866 -0.000439856 1.19499 
0.00266448 0.0012599 0.0022862 
0.000821182 0.00158345 0.00688143 
-0.00627207 -0.00231029 0.525849 
0.000875706 -0.00320831 0.50312 
0.0012621 0.00303638 0.924052 
-0.00375826 -0.00695708 0.498282 
-0.000979337 0.00215685 0.566551 
0.00300015 -0.000588738 0.56986 
-0.000953133 -0.00407091 0.872896 
-0.00107524 -0.00132013 0.538439 
-0.00103794 0.000580289 0.70129 
-0.00215442 0.000700287 0.502073 
0.000679063 0.00811718 1.04432 
0.000191628 -0.00225083 0.914881 
-0.00171375 0.000580177 1.05768 
-0.00237046 -0.00318903 0.849594 
-0.00297262 0.000742391 -0.00483005 
0.00362081 -0.000633782 0.0138168 
0.00043335 -0.000253053 -0.00354367 
0.000606836 0.00243508 0.547996 
9.5774e-05 -0.00354288 0.0142147 
-0.00296097 0.00228329 0.577336 
0.00269444 0.00119491 0.603665 
0.0051014 0.000531669 0.458235 
0.000928747 0.00418901 0.818457 
0.00266679 0.000250224 1.11294 
-0.00186991 -0.00223648 1.02385 
-0.000713653 -0.00178013 0.915641 
0.000101113 -0.000533527 0.709395 
0.0059049 0.00476409 0.720921 
-0.000394243 -0.00101523 0.546746 
-0.00563645 0.00434731 0.925833 
-0.00098241 -0.00514977 0.00802578 
-0.00123313 0.00193103 0.00544578 
0.00413316 -0.0045138 0.504805 
-0.00447521 0.00312788 0.447153 
-0.0017165 -0.000883335 0.709883 
0.000257544 0.00303501 0.628122 
0.00116933 0.00105826 0.586342 
0.0001596 0.00361769 0.849741 
1.89625e-05 0.00192503 1.14562 
-0.00103749 0.00135865 1.21731 
0.0015967 -0.000438351 1.2287 
0.00180317 0.000654691 1.22885 
-0.00459423 9.10902e-05 0.00582303 
-0.00150202 0.00293087 0.465627 
0.00067628 0.00107773 0.37349 
0.00688134 0.00025045 0.492452 
-0.0020561 0.00329123 0.709602 
-0.00692846 0.00229532 0.538814 
0.00146204 -0.00467724 0.886699 
0.00973895 -0.000701888 0.971504 
0.000853367 -0.00171454 0.000867667 
-0.00106868 0.00243704 0.00442986 
0.00118918 -0.00237726 0.00143703 
0.00258628 0.00390504 0.643226 
0.00187556 -0.000248404 0.323598 
0.000135426 -0.00147915 0.408487 
-0.00192586 -8.51376e-05 0.572412 
0.00256715 -0.00156521 0.455364 
-0.000475249 0.00362418 1.18137 
0.000200195 -0.00254747 0.842834 
-0.000428794 0.00411162 1.0111 
-8.50564e-05 -0.00237113 1.00733 
-0.000975172 0.006251 0.54967 
0.00282064 0.00011518 0.963026 
0.000922745 -0.00133794 0.867109 
-0.00156691 0.000341544 0.87629 
-0.000472884 -0.00022634 0.0142994 
0.000654206 0.00526569 0.596491 
-0.00124982 -0.00114855 0.455686 
-0.00223583 0.00109863 0.450317 
0.0023316 0.000858561 1.07942 
0.00172557 -0.00363682 0.945248 
-0.00106283 -0.000892969 1.00962 
0.00312752 0.00216576 1.16876 
0.00122526 0.00267846 0.0113455 
-0.00163575 -0.000298839 0.491842 
0.00184929 0.000101024 0.00987055 
-0.00361452 0.000402918 0.462473 
0.00178551 0.000266231 0.538877 
-0.00317239 -0.00212385 0.507358 
0.00103885 -0.00333164 0.777092 
0.00154407 0.00346918 0.439834 
-0.00221211 0.00170716 1.05792 
0.00202757 -0.00103108 1.00544 
0.000927006 -0.00275283 1.04509 
-0.00328931 0.0014746 0.849826 
-0.000856379 -0.00084502 0.707033 
0.00184487 -0.000231196 0.4626 
0.00364281 9.25758e-05 0.635851 
0.00158772 0.00280363 0.492055 
-0.00579699 -0.00281405 0.0058399 
-0.00367365 0.00485897 0.00758737 
0.0108678 0.000356446 0.616517 
0.0043677 -0.00130347 0.457248 
0.0019705 0.000671872 0.0114082 
-0.00326395 0.00176406 0.525373 
-0.0022062 3.84037e-06 0.696729 
-0.00261783 -0.00326046 0.469563 
-0.00322989 -0.00193839 0.00756801 
0.00545165 0.00510621 0.594632 
-0.00404494 0.00273844 0.53598 
0.00181869 0.0032158 0.437473 
-0.00319663 -0.00468895 0.712049 
0.00170832 0.00548486 0.712958 
0.00565073 -0.000288622 0.938179 
-0.00744526 -0.00122775 0.505609 
-0.00267772 -0.00149503 0.00365677 
0.00158721 0.00232763 0.4815 
-0.000534483 -0.00518819 0.0113816 
0.00144032 0.00563574 0.557993 
-0.00329058 0.000894094 1.08098 
-0.00168852 0.00221477 1.00227 
0.00404792 -0.000941771 1.16236 
0.00207674 0.00155003 1.19877 
-0.000597493 0.00432748 0.770598 
-0.00199848 -0.00143209 0.422487 
0.00669637 -0.00172686 0.559931 
-0.00182676 -0.0026128 0.488692 
-0.001472 -0.00271935 0.00360766 
0.000456569 -0.00339669 0.00660212 
0.00117622 0.000601767 0.399373 
0.00465552 0.0044305 0.593541 
0.00151195 0.000655874 0.00603388 
0.00124022 -0.000984918 0.00384824 
-0.00159566 -0.002053 0.498112 
-0.0020681 -0.00109094 0.41932 
-0.000645484 0.00412431 1.11327 
-0.000251481 -0.000120869 1.03741 
0.00233858 0.000703145 0.900942 
0.0013771 -0.00223162 0.874958 
0.0027944 -0.00283413 0.455875 
-0.00277187 -0.00306316 0.502697 
0.00172294 -0.00286918 0.38271 
-0.0107191 -0.000512619 0.709899 
-0.00323153 0.00221205 0.489915 
-0.0041638 0.00276536 0.460239 
0.000259176 -0.0049666 0.820411 
0.0100651 -0.000895981 0.856043 
-0.00200159 0.00394675 0.867984 
0.0101269 0.000351784 0.529869 
0.000120463 -0.00249435 0.597997 
-0.00897756 0.000123004 0.979539 
-0.00381777 -0.0006602 0.693759 
0.00260558 -0.00119567 0.57964 
0.00188702 0.00149288 0.346766 
0.000857874 0.00335798 0.45926 
0.00164416 -0.00279127 0.937477 
-4.37469e-05 0.0010224 0.937998 
0.00338525 0.00337577 1.114 
0.0019303 -0.000793898 1.02539 
0.000132234 -0.00288891 0.685358 
0.000694723 0.00119467 0.913356 
0.000429606 0.00717696 1.05227 
-0.00241847 -0.00410048 0.844286 
0.00012989 0.00165474 0.703774 
0.00115163 0.00111872 0.690906 
-0.000106359 -0.00112524 0.489513 
-0.00535666 -0.00121902 0.483787 
-0.005447 -0.00145684 0.00729734 
0.00584302 0.00168579 0.472658 
-0.00308891 -0.00101434 0.00029549 
0.00734172 -0.000936114 0.549198 
0.000122854 -0.00260188 1.19574 
0.000188368 0.00180751 1.23102 
0.000936197 -3.09806e-05 1.23642 
-0.0026243 0.000945209 1.19032 
0.000478 5.76563e-05 0.663827 
-0.000478095 0.00117048 0.714441 
0.00152223 -0.00379127 0.478192 
-0.00457884 -0.000172029 0.448963 
0.000853158 0.00218195 0.582115 
-0.00302033 0.00693494 0.467418 
0.00840219 -0.00605787 0.0180929 
-0.00227478 0.00250161 0.407899 
-0.00343735 0.00203455 0.719093 
0.000116498 0.000445886 0.4999 
-0.000229208 0.00102932 0.770979 
0.00175811 0.000529904 0.867933 
0.000393375 -0.00132711 0.56306 
-0.00253543 -0.0036576 0.956557 
0.00218081 -0.000827981 0.746998 
0.00261257 -0.00116168 0.788324 
0.00124052 -0.00132384 0.46017 
-0.000994213 -0.00602208 0.0100623 
-0.00177734 0.00199876 0.377749 
-0.000792424 0.00618132 0.616984 
0.000941671 0.00210567 0.989756 
0.00199773 0.00150255 1.04728 
0.00152709 -0.00144431 1.17955 
-0.0014508 -0.000762274 0.989014 
0.00193934 0.00641622 0.714348 
0.000620864 -0.000894202 0.994579 
0.00158379 0.000327087 0.969083 
-0.00390775 -0.000359779 0.849072 
-0.00356875 -0.00300518 0.00218079 
0.00164937 0.000630112 0.425966 
-0.00421359 0.00408569 0.00881404 
0.0100692 -0.00492179 0.569536 
-0.0025158 0.00201366 0.770054 
-0.00136596 -0.00643226 0.512804 
0.00388777 -0.00258469 0.542675 
-0.00262651 0.0072146 0.966972 
0.000522152 -0.00485979 1.02722 
0.00505105 0.00242288 1.17602 
-0.0066218 0.00446946 0.925125 
-0.00348832 -0.000929008 1.01935 
0.00428561 0.000371062 0.00308504 
0.00030448 4.04194e-05 0.00425225 
0.000110262 1.58808e-05 0.00189671 
-0.00450907 0.00414127 0.51441 
-0.000383942 0.000453445 0.00255549 
0.000272932 -0.00118194 0.0081619 
-0.00274783 -0.00200573 0.545111 
0.0021801 -0.00180489 0.514588 
-0.0017283 -0.00101226 0.000818109 
-0.00153059 -0.00147523 0.44872 
0.00209785 0.00299085 0.00445526 
0.00442306 -0.00269229 0.43858 
0.00125518 -0.00122365 -0.00137173 
0.0059756 0.000192352 0.584089 
-0.00088237 0.000956141 -0.000262535 
0.00187717 0.00427957 0.581884 
-0.000158278 -0.000601516 0.000429887 
0.00115119 0.00491751 0.00773462 
-0.000301762 -0.00107711 0.00221492 
0.0014973 0.000315345 0.45968 
0.00160896 -0.00168691 0.975064 
-0.00231561 -0.00197816 0.916311 
0.000195648 0.00549242 1.06055 
-0.00266582 -0.000955283 0.819339 
-0.00211861 0.00269954 1.02935 
0.00186629 -0.00243563 0.974931 
-0.000912534 -0.00073709 1.16858 
-0.000965729 -0.00142619 0.925876 
0.00200674 0.00535464 0.00699083 
0.00168435 -0.00255257 0.378637 
0.00153428 -0.0013195 0.45887 
-0.00073816 -0.00616538 0.508 
-0.000296603 -0.00101035 1.07244 
0.000659766 0.000395218 1.12377 
0.00274847 -0.0005007 0.938111 
-0.00022539 -0.000282771 1.01211 
0.0018879 -0.000104687 1.23077 
0.000729377 -0.000431724 1.2194 
-0.000928801 -0.000776803 1.16421 
-1.14784e-05 -9.09412e-05 1.19263 
0.00124717 0.000663367 1.0822 
-0.000696313 -0.000827444 1.00888 
0.000518319 0.00208778 1.12374 
0.00399924 0.0023239 1.16596 
0.00151771 0.00161951 0.937363 
0.00285227 0.00123414 0.942845 
0.0021598 0.00214667 1.05148 
-0.000911325 -0.00281447 0.907154 
-0.00158037 0.00164194 0.771661 
-0.00490004 0.00872482 0.964963 
0.00777804 -0.00462372 0.547817 
-0.000999318 -0.001858 0.876629 
-0.00227198 0.00239702 0.998291 
-0.000247937 0.00297864 1.11465 
0.00252547 -0.00263357 0.903292 
0.00288215 0.00209432 0.874883 
-0.00223615 0.00244584 0.380886 
-0.00020469 0.00309632 0.474995 
-0.00504895 -0.00636377 0.0112198 
0.00138941 0.00568471 0.495739 
-0.000422512 0.000150076 0.00512742 
-0.000790684 0.000130764 -0.00392178 
-3.81107e-05 0.000136493 0.0115362 
0.00159044 -0.00162275 0.50364 
0.00270156 -0.00267985 0.597626 
-0.00555409 0.00107582 0.532247 
-0.000268424 0.0023452 0.703594 
0.0051614 -0.000666849 0.977437 
-0.00216609 0.00742209 0.0107514 
-0.00016096 -0.00185184 0.464306 
-0.00300813 -0.00372052 0.377698 
0.00314063 -0.00516357 0.559342 
-0.00335301 -0.000996935 0.0015178 
0.00176197 0.000552533 0.000318938 
0.00261546 0.000909022 0.00393531 
-0.000121899 0.00157348 0.562591 
-0.000721155 0.00589495 0.717687 
-0.00119628 0.00238612 0.518413 
0.00171424 0.00254143 0.556877 
-0.0052548 -0.00251146 0.442092 
0.00334341 0.00319243 0.00729704 
0.00260558 -0.0033284 0.536642 
-0.00255284 0.00172953 0.59496 
-0.00368842 -0.00249923 0.493113 
-0.0035051 -0.00109808 0.563236 
0.000377489 0.001334 0.526225 
0.00255932 -0.00221893 0.874857 
0.00254595 -0.00243495 0.491595 
0.00324837 -0.00390439 0.710465 
0.00050991 0.00133858 0.512318 
0.0038248 -0.000868795 0.459109 
0.000289332 0.00159614 0.886394 
0.0022933 -0.00348015 1.12093 
-0.000159088 -0.00323797 1.1968 
0.00159859 0.00215487 1.22784 
-0.00209823 0.000889548 1.19928 
0.000810153 0.00014627 0.43844 
-0.000481358 -0.000729028 0.279492 
-0.000599324 -0.0038435 0.479712 
-0.00187685 -0.00209928 0.420473 
0.00354972 0.00789841 0.594887 
0.0124179 -0.00304073 0.491183 
-0.000997268 -0.000713622 0.841859 
-0.0121518 0.00499942 0.890376 
0.00103732 -0.00106353 0.368211 
-0.00331793 0.00684344 0.623457 
-0.00213475 -0.000388519 0.0183182 
0.00123086 0.00298527 0.502094 
0.00312553 -0.00166625 0.867525 
-0.00103761 0.00127821 0.956297 
-0.00036377 0.00137741 1.09722 
-0.00166633 -0.000270515 0.882668 
0.00118082 0.000363303 0.888802 
0.000521596 -0.00264316 0.906264 
-0.000554272 0.00333929 0.648397 
0.00356804 -0.00154994 0.826349 
0.00514779 -0.00256346 1.08075 
0.00118195 0.00082456 0.944581 
-0.0031623 0.00147148 0.847445 
-0.00498203 -0.00254163 0.832445 
0.00289049 0.00135964 0.713838 
-0.000546266 -0.00264766 0.940577 
-0.00671318 0.00169816 0.715618 
0.00364224 -0.00108766 0.599724 
-0.0022462 0.00167259 -0.0036777 
-0.00294217 0.00157256 0.00888958 
0.00202617 -0.00141519 0.00124331 
0.00522114 0.00324271 0.524446 
-0.00303409 0.00133077 0.00354541 
0.00206919 0.000932796 0.545656 
-0.000901459 -0.00179443 0.00542868 
0.00352016 0.00300107 0.443116 
-0.00234191 -0.000141901 0.70811 
-0.000607042 0.0024099 0.776753 
0.00174254 0.00252514 0.500338 
-4.03003e-05 0.000104462 0.446964 
0.00205815 -0.000745588 1.24553 
-0.00210876 0.00217286 1.2224 
-0.00325686 0.00372502 1.21938 
0.00818 -0.00866981 1.25441 
0.00265371 8.66401e-05 0.819247 
0.000764092 -0.00428005 0.946179 
-0.0016351 -0.00172701 1.05534 
-0.00100205 0.00550496 1.11143 
0.00139884 -0.000172189 0.355037 
-0.00176098 -0.000617113 0.690643 
0.000422232 -0.000185417 0.397448 
0.00147204 0.00154579 0.568772 
0.000195595 -0.000772056 0.00157391 
-0.000472041 0.00198484 -0.000966175 
0.000817726 -0.00302158 0.0113823 
0.000213472 8.82266e-05 0.530367 
0.0045166 -0.00526146 1.18069 
-0.0049845 0.0054225 1.17527 
0.000951182 0.00373856 1.16619 
-0.00140515 -0.00210108 1.25384 
-0.000111173 -0.00193918 0.00408016 
-1.01675e-05 0.000511592 0.00259075 
-0.00117416 -0.00112959 0.503932 
0.000525123 0.00102897 0.438588 
-0.00317297 0.000909669 0.714836 
0.0020573 0.000936736 0.935345 
-0.000897705 -0.0019465 0.721027 
0.00209002 0.00493114 0.917594 
0.00680575 -0.00139196 1.25011 
-0.000207624 0.00516608 1.19754 
-0.00155437 -0.00122896 1.21862 
-0.0014091 0.00141596 1.1941 
-6.05673e-05 0.000821071 0.00106253 
-0.000120839 0.000989387 0.00500149 
0.00454416 0.0011783 0.549307 
0.00315857 -0.00339195 0.483056 
-1.82894e-05 -0.000305491 0.00290118 
-8.62783e-05 0.000400104 0.00309302 
-0.000341333 0.00225975 0.0083424 
-0.00196683 0.00374362 0.65555 
0.00607313 0.00105229 0.013001 
0.00387098 -0.00227504 0.381161 
-0.00378284 -0.00351611 0.503657 
-0.0115517 -0.00678724 0.718539 
-0.00236593 -0.00654407 0.942056 
-0.00601081 0.00417646 0.71904 
0.00592635 -0.00447537 0.709618 
-0.000640685 0.00897883 0.51436 
0.00116809 0.00320854 -7.54152e-05 
0.00692754 -0.00218202 0.0116854 
-0.00299679 -0.00458235 0.464453 
-0.00780368 0.00263998 0.452137 
0.00167661 0.000200652 0.703863 
0.000338464 6.56858e-06 0.532061 
0.00125611 -0.00199629 0.833361 
-0.00135616 -0.00148451 0.50559 
0.00013966 0.000571424 0.00576019 
-0.00029743 -0.00109733 0.000993986 
-0.000187911 -0.000694469 0.000495208 
-0.00272682 0.00216522 0.499525 
0.00152697 0.00136927 0.93895 
0.0011482 -0.000174963 1.12381 
-2.87739e-06 -0.000206121 1.08633 
0.000948133 -0.000739487 1.00428 
-0.000896221 0.000715259 1.01414 
-0.000281459 0.00125368 1.10962 
-0.00209583 0.00143985 1.01119 
-0.00144428 -0.00503155 0.926337 
0.00373811 0.00309966 1.14947 
-0.00080019 -0.00127769 1.04942 
-0.000179555 -0.00195286 0.947415 
3.58867e-05 0.00383702 1.10835 
0.00710845 0.0117282 0.685808 
0.00702866 -0.00994132 0.957231 
-0.00916266 -0.00989197 0.620366 
-0.00904117 0.0115776 0.47647 
0.0092651 -0.00465886 0.685448 
-0.00327643 -0.00933313 0.494278 
-0.0085591 0.00168589 0.754103 
0.00119688 0.00433475 0.868891 
0.00363639 0.000322152 0.710153 
-0.0020929 0.00121471 0.376017 
-0.00125563 0.00857576 0.538674 
-0.00244843 -0.0103611 0.460005 
0.00256869 0.0115799 0.0132558 
-0.00956732 -0.000930983 0.488506 
0.0112082 0.00123081 0.0151056 
0.00336828 -0.0087063 0.581367 
0.000295176 0.00086502 1.18395 
0.00250596 -0.000921082 1.118 
-0.00134846 -0.00184517 1.20644 
0.00197601 -0.00478721 1.16102 
0.00239999 -0.000755912 0.832794 
-0.00135589 -0.00207533 0.533031 
0.00440028 0.00159445 0.545186 
-0.00530163 -0.00211279 0.505593 
0.00274665 -0.00143616 0.0159221 
-0.00125078 0.000565199 -0.00271688 
0.000426016 -0.000174483 5.12159e-06 
-0.000106748 0.000679178 0.521053 
-0.000415542 -0.00136484 0.0063456 
0.00384525 0.0012001 0.00331675 
-0.00196765 0.00020697 0.589275 
-0.00355977 0.00271769 0.512836 
0.00227466 -0.000207131 1.24916 
-0.000338208 -0.000578937 1.21476 
0.00231011 0.00209873 1.23005 
0.000746183 0.000425905 1.19637 
0.00277961 0.0114223 0.662771 
0.00851799 -0.00371886 0.484502 
-0.00186881 -0.0116764 0.716731 
-0.00536878 0.00258535 0.90022 
0.000708933 0.000934558 0.00512557 
-0.000756259 -0.00102472 -0.00130129 
-8.03674e-05 -0.000149586 0.00596579 
7.1059e-05 0.0015061 0.539465 
-0.000279264 0.000477833 0.938672 
0.0021271 0.00188849 0.71385 
-0.00179558 -0.00487883 0.717417 
-0.00093034 -0.0016983 0.597236 
-7.369e-05 0.000947439 1.12838 
-0.00163269 0.000807975 1.03595 
-0.000721111 -0.00212068 1.19807 
-0.000520515 -0.00192401 1.19329 
0.0005554 0.0024144 0.584402 
0.00223208 0.000456195 0.634912 
0.000723268 -0.00106593 0.505034 
-0.000348637 0.00134083 0.847081 
0.000500959 0.000185372 0.0124477 
0.00318042 0.00354105 0.00615918 
-0.00641264 0.00342166 0.62564 
-0.0019123 -0.00321373 0.470797 
0.000998098 0.00222874 0.0125188 
-0.00235903 -0.00353305 0.000551746 
0.00122275 0.00204591 0.00344337 
0.000879708 0.00187153 0.570951 
0.00585039 0.00902589 0.93276 
-0.00208388 -0.00238192 0.577639 
0.00069854 -0.00202144 0.628877 
-0.00264072 -0.00243737 0.460455 
0.000411775 0.00135142 1.23372 
-0.00113696 -0.00257431 1.20075 
0.00240633 -0.00129352 1.06465 
-0.000908665 0.000359605 1.18785 
-0.00437109 0.000771795 1.02414 
0.00112769 0.000168436 0.892181 
0.00178862 -0.000917867 1.06679 
-0.0013507 0.000457979 1.15671 
0.000212104 -0.00106832 0.00882702 
0.0098849 -0.00149869 0.592134 
-0.000453715 -0.00084558 0.00507935 
-0.000501955 -0.000933266 0.46129 
-0.000244043 0.000249721 0.00616924 
0.00202648 -0.00210542 -0.000346855 
0.00106934 -0.00111583 0.00756725 
-0.00509859 0.00190275 0.520402 
0.000445422 -0.00204027 -0.000392931 
5.85251e-05 0.000149597 0.0082411 
-0.00013493 0.000752489 0.00278818 
-0.00430831 0.000459244 0.543771 
0.00393123 0.0024748 0.534748 
0.000437556 -0.00138059 0.922819 
-0.00348905 -0.00041753 0.67872 
-0.00257633 -0.00266309 0.839194 
-0.00279783 0.00530602 0.586549 
0.00689194 0.00703149 0.462398 
0.00201825 1.18236e-05 0.713328 
-0.00297718 -0.00932833 0.934361 
0.000374292 -0.00111999 0.77417 
-0.00160994 0.000410816 0.957678 
0.000412498 0.00012277 0.919122 
0.000981978 -0.00550129 1.07346 
0.000430678 0.000443917 -0.000382368 
-0.00171585 -0.00180025 0.00567633 
0.000602932 0.00062853 -0.00146177 
-0.000460775 0.00409452 0.500367 
0.00803305 0.00433885 0.0163951 
1.6706e-05 0.00067258 0.441316 
-0.00802198 -0.00493126 0.641626 
-0.000851201 -0.000248423 0.45144 
0.00232178 0.0031512 0.811768 
-0.00237236 -0.00616978 0.462612 
0.000107761 -0.00225459 0.575374 
0.00381109 0.00479993 0.932761 
0.00518099 0.00271379 1.03556 
-0.00339145 -0.00232164 1.2262 
-0.00168863 0.00120423 1.11138 
-6.3627e-06 -0.00213711 1.18973 
0.00268187 0.00102049 0.483299 
0.00154744 -0.000484085 0.703652 
-0.00331219 0.00208207 0.380544 
-0.00565254 -0.00102226 0.593417 
0.0056248 -0.000739435 0.781027 
-0.001197 0.00132984 0.860494 
-0.00298632 0.00632176 0.952749 
-0.000522468 0.000425779 1.02471 
-0.00162268 -0.00184315 1.1207 
8.28052e-05 0.00119718 0.720066 
0.00231507 -0.00062575 0.953934 
-0.000557061 0.00547256 0.845123 
0.00256238 -0.00469514 1.17545 
-0.00371467 0.00646506 1.2569 
-0.0027208 -0.000539004 1.1714 
0.0023607 0.000774473 1.2238 
-0.00291121 0.000568839 1.03592 
0.00305334 -0.00299607 0.884772 
0.00314144 0.001299 1.09463 
-0.00130414 -0.000785598 1.02804 
-0.00156972 -8.01506e-05 -0.00293091 
-0.00205207 -0.000284349 0.0100072 
-0.00131963 -0.000171983 0.00559738 
0.00390197 -0.00281787 0.512287 
-5.30459e-05 0.00183872 0.849151 
-0.00124076 -0.00278577 0.968806 
-0.00149981 0.000759617 0.679132 
-0.000998813 0.00181888 0.944649 
4.47769e-05 0.00132907 -0.0041806 
4.38785e-05 -0.000926175 0.00858588 
3.06139e-06 0.000168735 -0.000728959 
0.00635381 2.66305e-05 0.50466 
-0.000167821 -0.00206497 -0.000883224 
0.000126874 0.00156113 0.000947398 
1.72711e-05 0.000212512 0.00612507 
0.00191746 0.00292429 0.524746 
-0.000663951 -0.00162786 0.308405 
0.00123889 0.00220919 0.628501 
0.000903908 -0.00118167 0.381011 
0.0034622 -0.00341589 0.490158 
0.000125952 -3.39025e-05 -0.00395338 
0.000693088 -0.00256828 0.0136511 
0.0004111 -0.00083737 -0.00210057 
-0.00155717 0.0031639 0.466954 
-0.00255241 0.00105901 0.77522 
-0.00299729 0.00115538 0.889542 
-0.00102064 -0.00237496 0.594157 
0.00207075 -0.00221042 0.489057 
0.00135351 0.000383782 0.0155081 
-0.00396437 0.000575151 0.370122 
0.00601256 -0.00510785 0.609184 
-0.00145715 -0.00136755 0.506396 
-0.000362321 0.000263919 0.000299949 
0.00054866 -0.000403865 0.00866998 
0.000881565 -0.00064313 0.00140666 
-0.000630131 -0.000952278 0.542603 
-0.00103405 0.00042328 0.00797629 
0.00668511 -0.00321596 0.566554 
-0.000348119 -0.000657338 0.42015 
-0.00312091 -0.0033599 0.491146 
-0.00180363 0.00376856 0.708272 
0.00230612 -0.000663725 0.373212 
-0.00276679 -0.000101983 0.485509 
0.00562559 0.00058707 0.556678 
-0.000586831 0.00217289 0.700522 
0.00263627 -0.000979434 0.9126 
0.00351969 -0.00354471 0.839808 
0.000604464 -0.000241493 0.532334 
0.00444643 -0.00559599 0.718837 
-0.00174222 -0.00285691 0.943579 
-0.000936112 0.0040426 0.708708 
2.12175e-06 0.00122341 0.53654 
0.00124775 -0.00273741 1.1216 
-0.00270844 0.000629391 1.02128 
0.000527844 -0.00077237 1.0694 
0.00147464 0.000261675 1.15241 
0.00430788 -0.00484558 0.726395 
-0.00142677 -0.000421968 0.609337 
-0.000350015 0.00180553 0.707852 
-0.00125801 0.00405293 0.871635 
0.00360895 0.00223092 1.09514 
-0.0041718 -0.00491208 0.957054 
0.00846455 -0.00314136 1.1452 
-0.00828044 0.00834179 0.887743 
-0.00260651 -0.00314985 0.00663699 
-0.00210305 0.00242181 0.536318 
0.00195681 0.00131254 0.00240844 
-0.00165801 0.00693466 0.530364 
0.00396398 0.00130489 0.838313 
-0.00257043 -0.00146637 1.04651 
0.00150978 -0.00316444 1.02309 
-0.000571921 0.00354563 0.901068 
-0.0117123 -0.00161499 0.014813 
0.00990573 -0.00831492 0.61087 
-0.00788814 0.00692871 0.0117672 
0.0110021 0.00146957 0.506697 
-0.00215973 -0.000532039 0.373719 
0.0011514 0.00171777 0.00287328 
0.00606726 -0.0011306 0.0118747 
-0.00733217 0.00236904 0.611164 
-0.00425164 0.00390629 0.00743652 
0.0122176 -0.00380061 0.628978 
-0.0011764 0.00649425 0.0142753 
0.00102299 -0.00715425 0.487501 
2.69313e-05 -8.32514e-05 0.00481532 
-0.00113531 0.00156905 -0.000255258 
-0.00125386 0.00166725 0.00657611 
0.000475597 -0.0050805 0.535786 
-0.0035972 0.00382046 0.0100727 
0.00302444 0.00227449 0.00168519 
-0.00165162 -0.00407236 0.483542 
0.00311993 -0.00789019 0.499961 
0.00016324 -0.0013058 0.646025 
0.00269614 -0.00388106 0.757614 
-0.00173131 0.00182 0.84993 
4.95155e-05 0.00131565 0.899791 
-0.00292414 -0.000190808 0.717269 
-0.00373337 -5.90391e-05 0.942001 
0.0056352 0.000719373 1.01198 
-0.00107772 0.00574067 0.853665 
-0.00181933 -0.00112234 1.14477 
-0.000675929 -0.00401196 0.912481 
0.00139718 0.00188918 0.949709 
0.0038269 0.00220613 0.906862 
0.00327474 -0.00897495 0.652992 
-0.00400086 -0.0021104 0.529998 
0.00466489 0.000719215 0.872242 
-0.00297789 0.00832042 0.528159 
-0.00421025 0.00962503 1.1477 
0.00372662 0.00143312 1.09501 
0.00411541 -0.00700429 0.884862 
0.00131072 0.00551469 1.03054 
-0.00168373 0.000660895 0.00236825 
0.000306957 -0.000130409 0.000537803 
-0.00245106 0.000984546 0.00125317 
0.00537831 -0.0013685 0.635008 
0.00111159 -0.000388075 0.371228 
0.00195328 -0.00285822 0.643711 
-0.00110651 0.00238128 0.310586 
0.00242929 0.00267426 0.486956 
0.00947337 0.00390943 0.472247 
0.000597655 0.00167207 0.70801 
-0.00255067 -0.00511857 0.927607 
-0.00777493 0.000240591 0.853273 
-0.00196159 -0.00133036 0.00557279 
0.000142327 9.83233e-05 0.00318159 
-8.6281e-05 -5.8016e-05 0.00124319 
0.00776629 -0.00134921 0.583008 
-0.00132517 0.00140373 0.93364 
-0.00159012 -0.00312818 1.02307 
3.5733e-05 0.00368156 0.834073 
0.000704972 -0.0025675 1.03539 
0.000729494 -0.00162159 0.00373405 
0.000486849 -0.00103322 0.000594488 
-0.000139702 0.000243245 0.00189115 
-0.0018914 0.000289126 0.642782 
0.00274212 0.00113177 0.87288 
-0.00131733 0.00122918 1.03795 
-0.00106191 -0.00263633 0.945114 
-0.00174303 -0.00589993 0.807754 
0.000945187 -0.00170874 1.02762 
0.000201789 -0.00043153 1.09757 
-0.00129107 0.00289725 1.06237 
-0.000903361 0.000837928 1.15241 
-0.0110721 -0.00515325 0.688974 
-0.00726865 0.0035114 0.479669 
0.0132552 0.00475593 0.0165664 
0.00361407 -0.00791062 0.416399 
-0.00281996 -0.000262332 0.00524972 
0.0012146 0.00316287 0.565483 
0.00399069 0.000422009 0.0029273 
-0.00707449 0.0018214 0.517715 
-0.00868938 -0.000399385 1.17647 
0.00175213 -0.0103168 1.25343 
0.00160935 0.0100099 1.18072 
0.00865446 -0.000487002 1.24118 
0.00241076 0.00517983 0.00542639 
-0.000350061 -0.000659333 0.0028074 
-0.0016496 -0.00346111 -0.000487059 
0.00625723 -0.00519542 0.4962 
-0.00125219 0.000228223 0.710001 
-0.00348177 -0.000699266 0.475727 
0.000485821 -0.00105038 0.680498 
0.000454574 -0.000563857 0.846828 
0.000270054 0.000271612 0.00928147 
0.000102535 0.00012372 0.0028899 
-0.000925761 -0.00187655 -0.00270335 
0.00100504 0.00371777 0.493582 
-0.00179872 0.00337447 0.703581 
-0.00440949 0.00245663 0.927423 
0.000850268 -0.0038124 0.551365 
0.00238769 -0.00212523 0.449814 
3.22983e-05 3.24582e-05 0.00271169 
-0.00293667 0.000348651 0.00625852 
-0.00124782 0.000128327 0.00114094 
0.00569554 0.00295267 0.516381 
0.00384826 -0.00289626 1.14437 
0.00459548 0.00434259 1.2264 
-0.00164137 -0.00116035 1.22044 
-0.00011345 -0.000525819 1.19719 
-0.00591812 0.00128354 0.714804 
-0.000643027 0.00318329 0.89203 
0.00286156 5.18458e-05 0.523583 
0.00630243 0.000401624 0.419336 
-0.00698223 -0.00185318 1.222 
0.00844975 2.02463e-05 1.25322 
-0.00205633 0.0125598 1.22062 
0.003441 -0.015482 1.24885 
0.000605772 0.000174178 0.379788 
-0.0031369 0.000259065 0.45614 
0.000958631 0.00656049 0.00962183 
0.00152919 -0.00741816 0.601925 
0.000328237 0.00032232 7.97226e-05 
-0.000186316 -0.000183587 0.00104415 
-0.00199697 -0.00196479 0.00610657 
0.0012701 0.00529061 0.582671 
0.000867671 0.00211636 1.21673 
-0.000809867 -0.000589701 1.07402 
5.67669e-05 -0.00223385 1.1264 
0.00208994 -0.00194174 1.15814 
0.00163573 0.00098357 0.0026014 
0.000422065 0.000342954 -0.00167173 
-0.00298515 -0.0024366 0.0121122 
-8.25569e-05 0.00156665 0.610379 
-0.00344422 -0.00323316 1.10889 
-0.00261072 -0.00215752 1.22265 
-0.00277199 0.00885786 1.20047 
0.000304462 -0.000729131 1.19177 
0.00676556 0.006428 0.0139713 
-0.0074533 0.00210006 0.5635 
0.00922569 -0.00244886 0.0100537 
-0.00281388 -0.00650954 0.491638 
0.00552867 0.00151069 0.0043362 
-0.00530258 -0.00810618 0.553542 
0.00147061 0.00874566 0.012337 
-0.00420896 -0.00399877 0.484499 
-0.00106112 -0.000639436 0.718649 
0.000961402 -0.00133214 0.718011 
-0.00049665 0.000905151 0.460272 
0.000127062 0.000571853 0.602883 
-0.00109266 -0.00254011 1.20152 
-0.00292048 0.000836933 1.03586 
0.00365975 0.00236863 1.06187 
-0.00152876 -0.00178297 1.19226 
0.000914808 0.00454592 1.14627 
-0.00162723 -0.000431923 0.887702 
0.00179767 -0.00113674 0.951735 
-0.00094251 0.00183486 1.02283 
-0.00163278 0.00191628 0.0038505 
-0.000595888 -0.00146694 0.324235 
0.000854334 0.00106848 0.00236586 
0.000617364 -0.00783886 0.564277 
0.00213681 -0.00160888 0.748605 
0.00368087 0.00135729 0.91243 
-0.00146535 -0.00115387 0.857954 
-0.000327184 -0.00119433 0.901704 
-0.0011398 0.00055537 0.716353 
0.000943975 -0.00118207 0.712337 
0.00186396 -0.000923828 0.464581 
0.00234888 0.00212699 0.627032 
-0.004482 -0.00338994 0.0037819 
-0.00104985 0.00332366 0.653429 
-0.00501345 -9.50312e-05 0.525763 
0.00268726 -0.00590402 0.438254 
-0.00269877 -0.000387208 0.00882046 
-0.000118085 0.000455476 -0.00162606 
0.00197209 0.000987465 0.302335 
0.0047418 0.00024734 0.496579 
0.000967359 0.000749672 0.00321417 
0.00126836 -0.000971733 0.437059 
0.00049628 -0.00382654 0.288955 
-0.0012444 -0.0018829 0.474918 
0.00303813 0.00284918 0.721376 
-0.00202452 -0.0020572 1.1204 
0.00167232 -0.000904617 0.952728 
9.28529e-05 0.00017488 0.918216 
0.00701696 0.0007838 1.16587 
-0.00349225 -0.00359748 0.980145 
0.000299174 0.000131791 1.10086 
0.000967409 0.000583955 1.19917 
0.0116926 0.00186216 0.016873 
-0.00637555 0.0112665 0.625852 
0.00821585 -0.00648662 0.00764829 
-0.0128148 -0.000904234 0.502886 
-0.0122106 -0.00540381 0.724519 
0.0114871 0.00613489 1.11658 
0.00161489 -0.00259455 0.922132 
-0.00399781 0.00486019 0.847197 
0.00117787 -0.00541413 0.793406 
0.00100185 0.00438806 1.00572 
-0.00558094 0.00632389 0.878018 
0.00392339 -0.00421693 0.850251 
0.00156712 0.00389766 0.944552 
0.00320598 -0.00169441 1.06837 
-0.00330093 -0.00035207 0.937042 
0.000929851 -0.005608 1.04113 
0.00183854 0.00148271 1.10927 
0.000603071 -0.00327423 1.07066 
0.001006 0.00129175 1.1589 
0.00367897 -0.00324966 1.03662 
-0.000711919 0.00306831 0.00438113 
0.00290861 -0.00273116 0.460468 
-0.00383986 -0.00148925 0.00885285 
0.0063204 0.00123502 0.519187 
0.00202039 -0.00093618 0.00735563 
0.00194715 -0.000856815 0.00251935 
0.000398309 -0.000218735 0.00488722 
-0.00348782 -0.00273833 0.622083 
-0.000495054 -0.000179079 0.00191524 
0.00114562 0.00299964 0.587559 
0.000170691 -0.000123702 0.00629797 
0.00266082 0.00140693 0.442359 
0.000541555 -0.00140575 0.0100874 
-0.000299913 -0.000793388 0.535666 
-0.00312652 -0.00125856 0.598004 
0.00348743 0.00410546 0.445405 
0.00449185 -0.000184573 0.00684371 
0.00318614 -0.00077208 0.000915935 
-0.00475846 0.00266048 0.598991 
-0.00598792 0.00147666 0.502287 
-0.000599427 -0.00215091 0.940031 
0.00267492 0.000102586 1.06685 
-0.00248428 -0.00340851 0.890947 
0.00288339 0.00323657 1.1606 
0.000168509 -0.000453639 0.0029588 
0.00117051 -0.00249215 0.000261341 
0.00014758 -0.000586463 0.00841652 
-0.00218389 0.00551011 0.537953 
-0.00669323 -0.00857399 0.721079 
0.00343724 0.00294498 0.644444 
-0.00793739 0.00296919 0.535098 
0.00372376 -0.000243034 0.832482 
0.00380311 -0.00115445 0.907612 
-0.000763109 -0.00164224 1.08577 
-0.00483196 0.00111204 0.849351 
0.000889225 -0.00190671 0.826241 
-0.00050279 0.000503295 0.673334 
0.00201232 0.0011505 0.773473 
0.00259075 -0.00152283 0.429437 
-0.00178075 -0.000290728 0.547532 
0.000862455 -0.00204381 0.990791 
-0.00286935 0.00109045 1.08835 
-0.00168053 0.00228329 0.879163 
0.0011959 -0.000558795 0.966877 
0.00547989 0.00696431 0.68841 
0.00965949 -0.0071129 0.876299 
-0.0062694 -0.00797597 1.06333 
-0.00900074 0.00713747 0.849152 
0.00139126 -0.00265764 1.14014 
-0.000475 0.000253498 0.947305 
0.00308534 0.00124615 1.08113 
0.00224529 0.000720539 1.16536 
-0.00211313 -0.000308833 0.0104579 
0.000229667 -0.000286626 0.530228 
-0.00136278 -0.00106501 0.0103356 
0.00188916 -0.000876387 0.513272 
-0.00389184 0.00126129 1.23694 
-0.00451234 0.000705497 1.23613 
0.00611635 -3.95113e-05 1.23061 
0.00020269 0.00173778 1.19532 
-0.00220949 0.0022272 1.02699 
-0.00269583 -0.00320323 0.859531 
0.00476544 0.00294001 0.911977 
-0.000775379 -0.00132076 0.89968 
-0.00185943 0.00425221 0.447026 
-0.0024879 0.00530352 0.42289 
-0.000381944 0.00122692 0.711575 
0.00512456 -0.00564173 0.452525 
0.0022551 0.00488559 1.14315 
-0.000610768 -0.00226137 0.947045 
0.00191336 -0.00135732 1.05534 
-0.00187714 0.00459057 1.02403 
0.00102655 -0.00101206 0.00669015 
-0.000704842 0.000687549 0.00810149 
0.00299427 -0.00294047 -0.000428742 
-0.00171042 0.00590297 0.50462 
0.00169554 0.00295612 1.09182 
-0.000162672 0.000841444 1.12658 
-0.00301223 -0.00209744 0.936504 
8.74179e-05 0.000732158 1.01849 
0.00485294 -0.00367165 0.645987 
-0.00588756 0.00382477 0.873627 
-0.00310476 -0.00803621 0.536554 
0.000669679 0.00195734 0.827808 
0.0123034 -0.007083 0.63464 
-0.00623102 -0.00876906 0.528739 
-0.00864638 0.00546851 0.813174 
0.00661945 0.00673297 0.923571 
0.00142353 0.00324805 0.00783628 
-0.0054008 0.00367097 0.581239 
0.00369911 -0.00233385 0.0020152 
-0.00660675 -0.000527073 0.488248 
-0.00061041 0.000817701 0.00245971 
0.000505392 -0.000681641 -0.00134318 
-0.00155844 0.00208124 0.00724631 
0.000564322 -0.000469896 0.449466 
0.00348373 0.00259336 0.982876 
0.000124502 0.00224688 1.05577 
-0.00191335 -0.000925042 0.990037 
0.00106002 -0.00313789 0.819306 
0.000110004 -0.00136999 -0.00223576 
0.000467392 0.000968631 0.00628144 
0.00227837 -0.000531664 0.462703 
0.00142134 -0.00275715 0.511301 
-0.00121951 0.00130724 0.00635449 
-0.00187625 -0.00214413 0.00499559 
0.00250507 0.00281346 0.551109 
0.00149414 -0.00403066 0.535542 
0.000840447 0.00248496 0.00486899 
-0.000237897 -0.00297674 0.469196 
-0.000161853 0.00122427 0.00589233 
0.00273335 -0.00489564 0.563751 
-0.00172435 -0.00412344 0.723325 
0.000537467 0.00482499 0.713707 
0.000605335 -0.00341637 0.932218 
0.00137073 0.00273943 0.871247 
-0.00448301 -0.000584372 0.00465625 
0.000469586 -0.00215018 0.373742 
-0.00159559 -0.0028349 0.465768 
0.00614515 -0.000769353 0.495434 
-0.00258084 -0.00319434 0.577586 
0.000341008 0.00199236 0.874583 
0.0030397 0.00246123 0.535789 
0.000967061 -0.00448652 0.483857 
0.00128086 0.011225 1.05533 
-0.00079237 -0.000950146 1.21744 
0.00655894 -0.00122471 1.1742 
-0.000754192 -0.00440657 1.22371 
-0.000360925 -0.000676307 0.000238785 
0.000575838 -0.00229039 0.00619243 
-0.000101632 0.000180559 0.460857 
-0.00329972 -0.000158394 0.53699 
6.33157e-05 5.0336e-06 0.00296098 
0.000607241 0.000158998 0.000878177 
-0.00278749 -0.000770009 0.00594616 
7.77863e-05 0.00470205 0.548203 
-0.00150805 -0.00236103 0.00361394 
-0.00122951 0.000343056 0.00190349 
0.00340649 0.000280463 0.56548 
0.00286684 0.00164943 0.511466 
-0.00300023 -0.000949802 0.519823 
-0.00383296 -0.00104474 0.475902 
-0.000754396 0.00182452 0.680778 
0.00360504 0.00118799 0.850747 
0.00200153 -0.000243488 0.00370984 
-2.61852e-05 1.83107e-05 -0.000994302 
0.00211581 -0.000297019 0.00639965 
-0.00614679 -0.00331567 0.517229 
-0.00145547 0.0025253 0.93866 
0.00242791 -0.00102151 1.09573 
0.000433801 0.000301289 0.94275 
0.000273669 0.000801051 1.04185 
-5.98223e-05 0.000595409 0.459106 
7.09113e-06 0.0039963 0.593237 
0.00100545 -0.00392893 0.714933 
-0.00176252 -0.000333808 0.442444 
-0.00216598 -0.000982298 0.00259728 
-0.000623374 -0.000204321 0.00575495 
0.00392951 0.00190424 0.00309192 
-0.00454258 0.00368943 0.635262 
0.00324759 -0.00161236 0.492139 
0.00197402 0.00279643 0.819654 
0.000453642 -0.000186588 0.503482 
0.00068466 0.00177744 0.849047 
-0.000122525 -0.00178257 0.00259415 
0.000250841 0.00303528 -0.00177784 
0.000357149 0.00321687 0.0038248 
0.00484156 -0.00292723 0.438873 
-9.01461e-05 -0.000592835 0.00469147 
-0.000109988 -0.00162671 -0.00118044 
-0.00019963 -0.00170155 0.00741844 
-0.00336113 0.00384444 0.524831 
3.17214e-05 -0.000842596 1.13667 
1.7026e-05 0.00269733 1.05365 
0.0062686 0.000794234 0.946044 
0.000211721 -0.000931091 1.16862 
0.000539371 0.000270339 0.00510345 
-0.00226697 -0.000938467 -0.00164007 
0.00171322 0.000688293 -0.000857407 
-0.00201142 0.00142123 0.546661 
-8.46784e-05 9.82547e-05 1.19218 
-0.0002879 0.00014274 1.20627 
-0.000308397 0.00146468 1.17983 
0.00138406 0.00119467 1.22046 
0.00584933 0.014258 0.0134862 
0.00208484 -0.0011883 0.653513 
-0.00749595 0.0017677 0.00358473 
-0.000900156 -0.0111761 0.439635 
0.00111398 0.00361418 1.12514 
0.00417777 -0.00152933 0.996459 
-0.00182248 -0.00258972 0.934743 
-0.00147152 9.94021e-05 1.02062 
-0.00481656 0.000885334 0.0114069 
0.00340308 0.000756487 0.372681 
-0.000157536 -0.00203525 0.000988659 
0.00927217 0.00185029 0.572524 
-0.0030213 0.000714149 0.754947 
-0.00465142 -0.00491374 0.876128 
0.000699773 0.00153139 0.49401 
0.0026887 0.000902529 0.426374 
-0.00290898 0.00100616 0.711873 
0.00446887 0.000469211 0.422887 
0.00371667 0.000146241 0.519736 
-0.0038584 0.00289464 0.452186 
0.00263403 0.00403562 0.710973 
0.00222843 0.00107585 0.944601 
-0.00502059 -0.00542349 0.714958 
-0.00190098 0.00172026 0.558869 
-0.00126492 0.00214753 0.71642 
-4.47159e-05 0.000497567 0.815886 
-0.00188185 -0.0012409 0.997455 
0.000460911 0.00162125 0.844631 
-0.0014002 -0.000320511 0.000567253 
0.00503319 0.00126217 0.00896528 
-0.00162359 -0.000334915 0.00433029 
0.000999219 -0.000194252 0.568423 
0.000303278 0.00134441 0.978261 
-0.000353447 -0.00193933 1.04883 
-0.00132605 0.00032038 1.16524 
-0.000584388 -0.000310989 1.01339 
-0.00249878 -0.00266645 0.366857 
0.00249442 -0.0044124 0.00864546 
0.00176551 0.00219076 -0.0040894 
-0.000697463 -0.000280419 0.335249 
-0.000556988 5.08853e-05 0.592158 
-0.00181463 0.000151258 0.69601 
0.00274349 0.00154939 0.347273 
-0.00276473 0.00293107 0.45682 
-0.00173896 0.000977076 0.677991 
0.00221717 -0.00354194 0.532946 
0.00412714 -0.000786114 0.621931 
0.000289014 -0.000869648 0.923222 
-0.00157114 -0.00136409 0.948872 
0.00131977 -0.00194441 0.712355 
0.000789926 -0.000441996 0.935991 
0.00140625 0.00109462 0.908049 
0.00228256 -0.0011267 0.373133 
-0.00713205 -0.00279053 0.012964 
-0.00156707 0.00171465 -0.000873992 
0.00592032 0.00454947 0.510858 
-0.00160767 0.000625733 0.323725 
0.000862701 -0.000722678 0.591334 
0.000639757 -0.00221259 0.435457 
-0.00584958 -0.00239461 0.483983 
-0.00106854 0.00178867 0.876629 
0.00106905 0.00448349 0.712696 
0.000270246 -0.0015937 0.993681 
0.00112343 -0.000537295 0.967746 
0.000302181 -0.00359565 1.05982 
-0.000447795 0.00168547 0.939835 
-0.0021242 0.00386183 0.866956 
0.00335186 0.00312149 1.02533 
-0.0121234 -0.00916307 1.05989 
0.00611418 0.00767825 0.871327 
0.00447536 -0.00422893 0.778461 
-0.00273881 0.0018997 1.0226 
-0.000433446 -0.00512732 0.766441 
0.0044833 0.00136506 0.552923 
-0.00129194 0.00708433 0.502244 
0.00136442 -0.00484273 0.820206 
-0.00082056 0.00193949 0.808867 
0.000793552 -0.000315255 0.58209 
0.00208635 -0.00327448 0.695316 
0.00456718 0.00398098 0.929426 
-0.0034332 -0.00173104 0.849318 
-0.000434161 -0.000906502 0.53921 
0.00404598 0.00531789 0.537793 
-0.00183514 -0.00198226 0.48208 
0.000879895 0.000667263 0.583347 
0.000790424 6.86378e-05 0.396868 
-0.00115596 -0.000197848 0.691213 
0.00100219 0.00121902 0.567341 
0.00054778 0.00110858 1.18644 
0.000376574 -0.00238425 1.23997 
-0.000491232 -0.00235416 1.21367 
-0.000399999 0.000643939 1.2067 
-0.00210497 0.0005952 0.00475976 
-0.00254913 0.000662826 0.00119674 
0.00276165 -0.000654104 0.00374472 
0.00632685 0.00171962 0.635507 
0.000173586 0.000954105 0.00330975 
-0.000283398 -0.0013768 -0.00181215 
-0.000347408 -0.00111071 0.00923575 
0.00170595 0.00203386 0.496114 
0.00108753 -0.00054358 0.668676 
-0.00239303 0.000798947 0.552533 
-0.00425084 -0.00476299 0.379877 
0.000928673 -0.00297152 0.796199 
-0.0014915 -0.00151681 1.07723 
-0.000536465 0.000698082 1.21998 
0.00127349 0.00195748 1.11104 
0.00302277 -0.000506204 1.1526 
-0.0018624 0.000256953 1.19873 
0.00226332 0.00140503 1.11662 
-0.00393295 -0.00418337 1.22249 
0.000312794 0.00318959 1.22485 
0.00138164 -0.00164244 0.713338 
-0.000387646 -0.00117753 0.626453 
0.000997974 0.00143233 0.381648 
0.000666445 0.00113056 0.499594 
-0.00318284 0.00599008 0.00980237 
0.00449574 0.00166475 0.378102 
0.00242202 -0.00128846 0.459198 
0.00162577 -0.00366912 0.507307 
0.00365811 0.00164684 0.00505366 
-0.00250378 -0.00124171 0.000356458 
0.000552545 0.000241477 0.00100564 
0.00342487 -0.00118226 0.637847 
-0.00322482 -0.00314826 0.666019 
0.00118318 0.00164586 0.577907 
0.00385874 0.0014898 0.856219 
0.00110665 -0.00224851 0.474631 
0.00223936 0.00142699 1.07074 
0.000256639 4.99046e-05 1.01493 
-0.00171283 7.65062e-05 0.935952 
-0.00189728 0.00135587 1.03918 
0.00254676 -0.00294929 0.995422 
0.000512319 -0.000962981 0.769037 
-0.00258599 0.00209279 0.779632 
-0.00178575 -0.000869661 0.883531 
-0.000106039 0.00385441 0.00772667 
-0.000994146 -0.0025187 0.455027 
-0.000177243 0.00330895 0.00488092 
-0.00413082 -0.00525028 0.536289 
-0.00357049 -0.0020039 0.378351 
-0.000264332 -0.000395445 0.460415 
0.000782368 -0.00467425 0.0093083 
-0.0009258 0.0059714 0.592806 
-0.000761663 0.00378626 1.11422 
0.000745097 -0.00358075 0.957182 
0.00347028 0.000476038 1.03258 
-0.00431233 -0.00293207 1.07249 
0.00573314 0.00265059 0.762033 
0.0014987 -0.00275374 0.984314 
-0.00541873 0.000502548 1.06948 
-0.0020049 0.00366747 0.819606 
-0.000315834 -0.000125227 0.673704 
0.000478561 -0.000762824 0.328948 
-0.00195643 -0.0016384 0.380202 
-0.00118073 -0.00214898 0.542386 
0.000719898 0.00231449 0.776179 
-0.000315456 -0.00398004 0.66984 
0.000160708 0.00334627 0.960114 
0.00507012 -0.0024549 0.800953 
0.0037804 -0.00263507 0.00180015 
0.000915241 0.00539307 0.349901 
-0.000241791 -0.00492809 0.00504176 
-0.00732961 0.00300399 0.479015 
0.0113045 -0.00254417 0.622935 
-0.0102304 0.00150778 0.743046 
-0.000866168 0.00847008 0.488381 
0.000145619 -0.00339464 0.821819 
0.0014695 -0.00114922 0.70616 
-0.00189521 -0.00142919 0.457912 
-0.00190675 -0.00120542 0.597876 
0.00047535 -0.00216948 0.704914 
-0.00111573 0.00227467 0.00593238 
-0.00173707 0.00156513 0.460932 
-0.00224448 0.00335808 0.503103 
0.00520255 0.00110634 0.446539 
-0.00279851 0.00276676 1.02804 
0.00179538 7.00975e-05 0.86319 
0.00221667 -0.00165701 0.748767 
0.00217652 0.00107003 0.909894 
0.00397472 -0.00377991 0.0114474 
-0.00197786 0.000646979 0.530194 
0.00177184 0.000477131 -6.67872e-05 
-0.00442063 -0.0019935 0.476383 
0.00172563 0.00171581 0.952307 
-0.00144364 -0.00490402 0.911846 
-0.000820741 0.00315613 0.656535 
0.00346932 0.00240236 0.904002 
-0.00152216 0.000202622 -0.00021526 
-0.00237715 -0.00273782 0.00640475 
0.00209054 0.00105886 0.311028 
0.00106318 0.00601943 0.496529 
0.000958797 0.00237055 0.474384 
0.00138383 -0.00106281 0.712501 
0.00131552 0.0011796 0.719198 
-0.00141614 0.000990839 0.541554 
0.00115812 -0.000652883 0.000937512 
-0.00102896 0.000132729 0.461567 
-0.000470364 0.00272596 0.00537396 
-0.003772 -0.000151045 0.536277 
-0.00261239 -0.000833792 0.70566 
0.00279013 -0.00319203 0.460481 
-0.000940225 0.00172619 0.507873 
0.00222786 0.00412103 0.887017 
-0.00319459 0.00155161 0.720083 
-0.00108339 -0.000591364 0.453908 
0.00125642 0.00202118 0.713786 
0.000812351 -0.00282538 0.589814 
0.000520709 0.000356588 0.00567727 
-0.00194274 0.00154832 0.462938 
0.000837185 -0.00338185 0.00168312 
-0.0031228 0.00441145 0.503057 
-0.000105489 -0.000946104 0.460932 
-0.00418096 -0.000332561 0.714205 
0.000185175 0.000159147 0.379973 
0.00319588 -0.00400977 0.554956 
-0.000257432 0.000333726 0.00844073 
-0.000976281 0.00102808 0.00333592 
-0.000424249 0.00043175 -0.000362259 
0.0012049 -0.00447306 0.53363 
0.00280817 -0.00484589 1.24936 
0.00374662 0.00372431 1.23022 
-0.00069125 0.0021853 1.20158 
-0.00202661 -0.00163203 1.19426 
-0.00404517 0.00187804 0.00185394 
0.000121417 -0.000133811 0.00500438 
0.00118413 -0.000579249 0.00138449 
0.00367818 0.00114487 0.500894 
0.0029858 0.000608032 0.011643 
8.32342e-05 3.41687e-06 0.0014145 
-0.00230406 -0.000549245 -0.00253814 
0.00386612 -0.000829133 0.496591 
-0.00385018 -0.00340619 0.00831488 
0.00580998 0.0055777 0.533318 
-2.43227e-06 -0.00252417 0.000973206 
-0.00418426 0.00715744 0.446819 
-0.00171414 0.00247234 0.00342938 
0.0035868 0.00444118 0.561787 
0.00211779 -0.00245161 0.00380885 
0.000745577 0.00112624 0.497324 
0.000618621 -0.000185024 0.00375373 
0.00251393 -0.00133346 -0.00293333 
-0.00190989 0.00111032 0.00527038 
-0.00261882 -0.00285537 0.539075 
0.00260127 0.000348218 0.00674241 
0.0024675 0.000227643 1.43765e-05 
-0.000672751 -2.9101e-05 0.002045 
-0.00487286 0.00417761 0.445825 
-0.00309043 -0.00435179 0.00609707 
0.00180134 0.00383822 0.598043 
0.000489331 -0.000552107 0.00512162 
0.00372474 0.00365508 0.433262 
-0.00246671 0.000245959 0.708145 
0.00315001 0.00242567 0.632616 
0.00252757 -0.00133696 0.465493 
-0.00184175 0.000480165 0.490001 
0.0059422 0.00293205 0.01172 
0.00127463 -0.00193033 -0.0010576 
-0.00393579 0.00115072 0.37334 
-0.0060776 -0.00321934 0.514346 
-0.00046219 0.00300285 0.429556 
-0.000690475 -0.00260023 0.326717 
0.00237658 0.00113492 0.00566681 
-0.00599199 0.000540665 0.513202 
0.000159164 0.00183775 0.374624 
0.00459491 -0.00279423 0.00641202 
-0.00114113 -0.00177294 0.000211851 
-0.007114 0.00331913 0.544949 
0.00227632 -0.002127 0.939774 
-0.000385186 0.00172063 1.13814 
-3.88145e-05 -1.43961e-06 1.05594 
0.0015384 -0.000199831 1.04639 
2.11635e-05 -0.000214313 0.00171932 
3.46338e-05 -0.000350721 0.0103069 
-4.11312e-05 0.000416516 9.8344e-06 
0.0012876 -0.000797606 0.442691 
0.000670207 -0.000212936 0.00354399 
0.00334262 -0.000875277 0.00263663 
-0.00298742 0.000648432 0.0084222 
0.000375659 0.00143381 0.617776 
-0.00404715 -0.00427801 0.00848779 
0.000529828 0.00758604 0.597299 
-0.00650514 -0.000174082 0.014469 
0.00859702 -0.000419641 0.449518 
-0.000650518 0.00127594 0.700378 
-0.00138097 -0.00198692 0.538801 
-0.00149948 0.000555875 0.537594 
-0.00158881 -0.00132924 0.831443 
0.00233054 -0.00221273 0.00760926 
0.000102058 -7.77711e-05 0.00269942 
-0.000610769 0.000629957 0.00419886 
-0.00201743 0.00148818 0.597299 
0.00051435 0.0022844 -0.00178214 
0.000257123 0.0007451 0.00835952 
-0.000195454 -0.00104972 0.00491115 
-0.00168097 -0.00335245 0.495001 
-5.04138e-05 -0.000557979 0.00691401 
0.0013344 -0.00198139 0.00722306 
0.00149558 -0.00201558 0.484687 
0.00280685 -1.06226e-05 0.417242 
0.00773 0.00329102 0.718455 
0.000866289 -0.0080224 1.02578 
-0.00500117 0.00656156 0.920364 
-0.00527504 -0.000870197 1.02488 
-0.000404939 0.0017627 0.874386 
0.00557266 -0.00184996 0.578812 
0.000545051 0.00551102 0.538176 
-0.00234462 -0.000158701 0.883159 
-0.000801189 -0.00317827 0.707395 
-0.000824875 0.000884083 0.377639 
0.000464372 -0.00328969 0.466265 
-0.00145037 0.00525817 0.511754 
0.0016391 0.000334419 0.369478 
-0.00340369 0.000615689 0.549517 
-0.000639543 -0.00140235 0.0126977 
0.00191987 0.00278313 0.451645 
0.00371511 0.00914623 0.590768 
0.00117829 -0.00157498 0.43692 
-0.00203686 -0.0033035 0.00824855 
-0.00205952 0.00382325 0.454399 
0.000328876 -0.00703152 0.00913997 
0.00258175 -0.000872701 0.274953 
-0.000977132 0.00287969 0.353176 
-0.00245645 0.00410729 0.47127 
0.000839138 0.00112015 1.1876 
0.00146341 -0.000252964 1.21049 
-0.000611669 -0.00359866 1.20857 
-0.00439833 -0.0017518 1.15747 
0.000413835 3.47158e-05 0.00834605 
-0.00143559 -0.000120429 -0.00300748 
0.000722874 6.06405e-05 0.00136843 
-2.85802e-05 0.00406684 0.513167 
0.00226205 -0.000630734 0.00628475 
0.000290965 -9.08285e-05 0.00321875 
-0.000454625 0.000121172 0.000126939 
0.000758746 0.00515156 0.591584 
0.00151619 -0.000889044 0.4408 
-0.000205493 -0.00423364 0.479224 
0.00105146 0.000765524 0.550254 
-0.00329433 -0.000346032 0.418869 
-0.000777277 0.00139923 0.00956275 
-0.000323083 -0.00537162 0.531856 
0.00151685 -9.52402e-06 0.373367 
0.00445992 -0.000115947 0.513152 
-0.0034247 0.000910169 0.0112357 
6.13022e-05 -2.94745e-06 0.00113321 
0.00197818 -0.000476754 -0.00159269 
-0.00131336 -0.00011605 0.513682 
0.00149784 -0.000505156 0.0123038 
0.00168924 -0.000375563 -0.00141512 
-0.00275325 0.000655697 -0.0011257 
0.00148238 0.00125858 0.510225 
-0.00123762 -0.00197868 0.938509 
0.00455053 -0.00113007 0.94258 
0.00185078 -0.00103749 0.71186 
0.000647239 -0.000851 0.884383 
2.10596e-05 -0.00064482 0.00884724 
0.000931229 -0.000770994 0.00439363 
0.000104535 -0.000978719 0.583828 
0.00605234 -0.00222692 0.416632 
3.06973e-05 -0.000365932 -0.00158788 
-6.82638e-05 0.000813747 0.0058012 
1.77471e-05 -0.000211558 0.00319441 
-0.00349567 -0.000369277 0.466216 
0.00492705 -0.000326799 0.716082 
-0.000434315 -0.000691753 0.46539 
-0.000674172 -0.000541685 0.718369 
-0.000877852 -0.000116271 0.444095 
0.000649628 -0.00255606 -0.00402891 
-0.000586855 0.00231001 0.00369441 
2.54118e-05 2.15275e-05 0.00695944 
-0.00908842 0.0029186 0.575053 
-0.000303385 -0.00174164 0.0107127 
-0.00137966 0.000512367 0.39788 
0.00115632 -0.000601023 0.309218 
-0.00100302 -0.00360115 0.486926 
-0.00194982 -0.00295948 0.753773 
-0.000415608 0.00129726 0.803975 
0.00151221 0.002819 1.0032 
-0.00274668 0.000568498 0.868394 
-0.000412728 -2.26584e-05 0.853802 
-0.00160285 0.000144865 0.488271 
0.000235207 -0.00153939 0.643215 
0.00152768 -0.000846365 0.901944 
-0.00254494 -0.00523403 0.66177 
-0.00488687 0.00235865 0.912145 
0.0049043 0.0054227 0.581866 
0.00359364 -0.00199558 0.568804 
0.000759322 0.000566507 0.951556 
0.000262348 0.00058831 0.942514 
-0.00180876 0.00444276 0.784852 
-1.37279e-05 0.00208652 1.02397 
-0.00137637 -2.38556e-06 0.000637668 
0.00113137 -0.00455984 0.535612 
0.00029978 0.00219474 0.00350474 
0.00246561 -0.0012509 0.501609 
-0.000123392 0.00138241 0.585025 
0.0007209 0.001341 0.696803 
-0.00225692 -0.00344795 0.847405 
-0.002798 0.00320332 0.823847 
-0.00084176 -0.00328127 0.713676 
0.00242495 -0.00125756 0.724019 
0.000664058 4.04658e-05 0.458588 
-0.00293279 0.00186741 0.583565 
0.00373486 0.00327015 0.941228 
-0.000582702 -0.00316998 0.936849 
0.00104489 -0.00025007 1.10892 
-0.0010166 0.0023529 0.912629 
-0.000241564 -0.0028301 0.73393 
-0.00134668 0.00345384 0.510931 
-0.00284958 0.00247345 0.582859 
0.00470743 -0.00166119 0.437452 
-0.00202743 -0.00288926 0.00866004 
-0.00113074 -0.00160724 -0.00146974 
0.000846975 0.00120591 -0.00195341 
-0.00187408 0.00744204 0.567338 
0.00172591 -0.00404165 1.02696 
-0.00450209 -0.000964863 0.885245 
0.00516827 0.00151228 1.11328 
-0.0012337 0.00312426 0.923784 
0.000269994 0.00380318 0.402327 
-0.0102824 0.00298782 0.0125363 
0.00124603 -0.00436632 0.402331 
0.00800558 -0.00429878 0.573214 
0.00111649 -0.000320689 0.888287 
0.00364714 -0.00380433 0.963271 
-0.00368442 0.000925177 1.10976 
-0.000145398 0.0006311 0.916596 
0.000565478 -0.00124092 0.0139644 
0.000532092 0.00033612 0.578137 
0.00056113 0.000267563 0.0121871 
0.000320708 0.0026326 0.457434 
-0.00385345 -0.00389868 0.338541 
0.00199811 -0.00174213 0.00621674 
-0.000449081 0.000736041 0.347306 
-0.00410951 0.00182966 0.467567 
-0.00100099 0.000438537 0.00401666 
0.000107812 -0.00438358 0.440152 
0.00144092 -0.000116204 0.0016169 
0.00261445 -2.44999e-05 0.457667 
-3.30312e-05 0.00050346 -0.000360282 
-0.000244392 0.00224723 0.00626815 
-0.00012987 0.00095594 0.00477114 
-0.00396627 -0.00449398 0.539115 
0.00280056 -0.0012356 0.498717 
0.0007393 -0.00176621 0.819316 
-0.00040022 0.00199313 0.817146 
0.00203128 0.00184411 0.845276 
-0.000102295 0.00125854 0.00654521 
-0.00012973 0.00159606 -0.000794869 
0.000171599 -0.00211118 -0.000559583 
0.00140378 0.00299422 0.523561 
-0.00118869 -0.000112953 0.000367891 
0.00073417 6.06416e-05 0.000466752 
0.00110198 -2.48138e-05 0.00951308 
-0.00131858 -0.00415569 0.559848 
-0.000983342 0.0012735 0.636868 
0.00204133 -0.00143577 0.33578 
0.00488937 -0.000914191 0.484836 
-0.00278191 -0.00443492 0.576292 
-6.66624e-05 0.000774632 0.00268503 
0.000217599 -0.00252854 0.003599 
-5.65794e-05 0.000657465 0.00106718 
0.000841785 0.00220193 0.567224 
-0.00393065 0.00266973 1.15636 
-0.00217324 -0.00147117 1.22615 
0.00239076 -0.00138685 1.22987 
0.0023952 0.001375 1.19827 
0.000243296 -0.0018587 0.45478 
0.00288709 0.00207112 0.710505 
-0.00353716 -0.0050916 0.530165 
-0.00336416 0.00395752 0.502501 
-0.00319448 0.000891113 0.00265065 
0.00100935 -0.000603435 0.30904 
0.000174863 0.00154299 -0.000619008 
0.000636519 -0.00837149 0.49707 
0.00329257 0.000761239 1.24194 
0.00484023 -0.00195454 1.22572 
-0.00372212 -0.00460573 1.22045 
-0.00793948 0.0059896 1.24809 
-0.000239628 0.000325183 0.00570902 
-0.000643878 0.000883916 -0.000685736 
0.000732334 -0.001006 0.00181603 
0.0040986 0.000442836 0.53575 
0.00243414 -0.00234776 0.939869 
0.00180241 -8.35013e-05 0.942981 
-6.09e-05 0.00121764 1.1433 
0.000774851 0.000850307 1.04774 
0.0003145 0.00225136 0.842228 
0.00139573 0.000844844 0.62096 
0.000377534 -0.000850955 0.850644 
0.00113216 -0.00071429 0.894877 
0.000582133 0.000590811 0.00642606 
-0.00138028 -0.00140663 0.00592146 
-0.00135199 -0.00137591 -0.00111853 
0.00579179 0.00436881 0.477033 
0.00164097 -0.000172375 0.841153 
-0.000347736 -0.0018807 1.04926 
0.000493698 0.00190833 0.977821 
-0.00057576 -0.000308036 1.01314 
-0.00129507 0.00187882 0.713477 
-0.000559953 0.00244548 0.587904 
0.000366456 -7.472e-05 0.815729 
0.00121426 0.000770351 0.846222 
0.00330599 0.0013707 0.945369 
-0.000816217 0.000959004 1.11973 
0.00180388 -0.000797091 1.06571 
0.000365104 0.00143972 1.15693 
-0.000492078 -0.00300821 0.400156 
0.00314856 0.00200886 0.00778649 
-5.0447e-05 0.00365542 0.00226507 
0.00103428 -0.00719852 0.583398 
-0.00271601 -0.00171924 0.00662142 
-0.000194765 -0.00146177 0.390066 
0.000420783 -0.00265433 0.367327 
-0.000760223 0.00221012 -0.00140899 
-0.00675631 0.00314292 0.722238 
0.00588809 -0.0049842 0.641808 
2.58382e-05 -0.00795562 0.845613 
-0.00349717 0.00579808 0.441786 
-0.00062043 -0.000411369 0.00647581 
-0.000959998 -0.000721523 -0.0034612 
0.00149168 0.00109224 0.000795888 
0.00523792 -0.00181434 0.505011 
-0.00245882 -0.0011759 0.000573365 
0.00308288 0.00161394 0.375067 
-0.000405262 -0.00718302 0.00963928 
0.00181077 0.00887332 0.45532 
0.00823802 0.00136582 0.463527 
-4.89846e-05 0.0013819 0.503675 
-9.91743e-05 0.00233908 0.71029 
-0.00712459 0.00116642 0.856448 
-0.00220527 0.00078434 0.323377 
0.00374672 -0.00161718 0.640207 
-0.000802514 -0.0010864 0.399307 
-0.00244555 -0.00438661 0.511295 
-0.00118712 -0.00189132 0.706867 
0.00144683 -1.75236e-06 0.937514 
0.000318271 -0.00145861 1.00043 
-9.63237e-05 -0.00163182 0.704058 
-0.00327086 -0.000327967 0.36107 
-0.00128285 -0.0032111 0.0081286 
0.0026593 0.000558338 0.38851 
0.000965662 0.00519077 0.505637 
-0.000395467 -4.7204e-05 0.00346106 
-0.000102964 -2.73569e-05 0.00458804 
-0.00251132 -0.000215404 0.00133693 
0.00376309 -0.00369806 0.513884 
0.00210811 -0.000633965 0.43259 
0.000595672 -0.00130973 0.32927 
-0.000642287 0.000881065 0.674826 
-0.00113727 -0.00196291 0.540989 
0.006282 0.00160797 0.00809408 
0.000861951 -0.00360991 0.376838 
-0.000286814 3.27412e-05 0.460433 
-0.00427451 -0.00119341 0.530379 
-0.00262327 -0.000567508 0.602946 
-0.000744781 -0.00155611 0.528433 
-0.000417751 0.00116785 0.783998 
0.00265781 0.00321629 0.441975 
-0.00150089 0.00212809 1.12546 
-4.38408e-05 -0.00471012 1.02437 
0.00422159 -0.000575798 1.03155 
-0.00354918 0.00140718 1.1953 
1.99665e-05 0.000101923 0.00347006 
-0.00204443 -0.00260644 0.00353283 
0.000929984 0.00127805 0.00262862 
0.000119421 0.000504204 0.554058 
-0.00643017 0.00645672 0.00469243 
0.00593036 0.00714532 0.55721 
-0.00603353 -0.0099959 0.0122984 
0.00803775 -0.00571824 0.441006 
-0.000614016 -0.00253229 -0.00195182 
0.0003467 0.00124442 -0.00266276 
0.000626833 0.00289395 0.00826226 
0.000769811 -0.00433668 0.494331 
-0.00100064 -0.000651222 0.00190873 
-0.00214319 -0.00147346 -0.00330369 
0.00357176 0.00254851 0.0142337 
0.00259387 0.00389076 0.495787 
-0.000342199 0.000552205 0.00662544 
0.000688588 -0.000999293 0.0012456 
0.00145783 -0.00211013 0.00335329 
-0.00279086 0.000838417 0.53185 
-0.00106184 0.000863019 0.94048 
0.000693166 -0.0038513 0.712803 
0.000288592 -0.000636377 0.937645 
-0.00113873 0.000255065 0.995432 
-0.00115139 0.00043563 0.85254 
0.00373057 -0.00218677 1.07591 
-0.000484262 -0.000410767 0.969912 
-0.000385655 0.00143312 0.939901 
0.00335003 0.00241244 0.715668 
0.000644542 0.00776011 0.456712 
0.000298263 -0.00546342 0.584773 
-0.00494029 0.00271591 0.415573 
-0.000135891 0.0006026 0.00135582 
0.000249283 -0.000846446 0.00269742 
-0.000488166 0.00202496 0.00207216 
0.00240641 -0.00184484 0.595847 
-0.00382581 -1.89434e-05 0.00228586 
0.00230418 0.00436934 0.00884887 
0.00210909 -0.00246867 0.462007 
-0.00146625 -0.0063813 0.505031 
-0.00203707 -0.00119941 0.856472 
0.00114968 0.00255008 0.610529 
-0.000830607 -0.00187002 0.644645 
-0.00032844 0.00163302 0.485764 
-0.00197639 -0.00234482 0.494283 
0.00836826 0.00474384 0.873959 
0.00217798 -0.00646628 0.680625 
-0.00894823 -0.00488947 0.428573 
0.000349559 2.8676e-05 0.00632637 
0.000636491 5.22144e-05 0.000340793 
0.000205186 1.68324e-05 0.00282417 
0.00169936 -0.00257915 0.504331 
0.00251859 0.00285594 0.741302 
-0.00448941 -0.00404431 0.645529 
0.00554321 -0.00465413 0.91448 
-0.000771132 -0.00162508 0.568119 
-0.000846928 0.00148455 -0.00360016 
0.0016924 -0.00259668 0.000482487 
0.00293945 0.00026775 0.347622 
-0.00173876 0.00214341 0.00902039 
-0.00266997 -0.00116333 0.00514737 
0.00309268 0.0016397 0.0055056 
0.00151808 0.000789349 0.00209344 
-0.00120878 -0.00160234 0.603684 
0.002809 -0.000402769 0.00849494 
-0.000378122 -0.000383529 -0.00110639 
-0.00260089 -0.00116685 0.324249 
-0.00670285 -0.00213439 0.494979 
-3.23323e-05 0.00168731 0.377888 
0.00118579 0.00158073 0.325896 
-0.00124075 -0.0012569 0.582609 
-0.000361556 0.00426859 0.507483 
0.000267396 0.000188776 0.00254727 
0.00199428 0.00165636 0.0107819 
-0.00138511 -0.001317 -0.00197938 
-0.00157112 0.000417922 0.558899 
0.000237811 -0.00253246 0.712367 
0.00182587 0.00284177 0.936346 
0.00138124 -0.00197653 0.941323 
0.00307253 3.42947e-05 1.00965 
0.00353251 0.00485703 0.870937 
-0.00270247 0.00109554 0.597975 
0.00496213 -0.00282839 0.526259 
-0.0033783 -0.00345724 0.495752 
0.00130812 0.000553705 -0.000931751 
-0.000866544 -0.000321784 -0.00168072 
-0.00198152 -0.00105311 0.0123557 
0.00103014 0.00183097 0.451572 
0.000210231 -0.00282343 0.681153 
-0.00359534 -0.000884445 0.475741 
-0.00308372 -0.000437839 0.52441 
0.0030408 0.000420663 0.848047 
-0.00268382 -0.000490085 0.916934 
0.00378148 -0.000149283 0.746425 
-0.00175214 -0.00204395 0.647688 
0.00138409 -0.00267802 0.905931 
0.00142741 0.00608006 0.712615 
0.00541464 -0.00538072 0.967552 
0.000458258 0.000271728 0.88683 
-0.000881958 0.00127481 0.914475 
-0.00138743 0.000169618 0.00725067 
-0.000335093 1.52525e-05 -0.00117953 
-0.000131798 -3.67237e-06 -0.00156622 
0.000967048 0.00429746 0.522513 
0.000289491 2.35303e-05 0.00261635 
-0.00183958 -0.000149523 0.00442659 
0.000169353 1.37653e-05 0.00249849 
-0.000290096 0.00299231 0.564731 
0.000141384 9.8695e-05 -0.00337001 
-0.000532621 -0.000369227 0.00724755 
-0.000395634 -0.000270355 -0.00288366 
-0.000330127 -0.00178687 0.495033 
-0.00240492 0.00179484 0.638194 
0.00202415 -0.00193074 0.394303 
-0.00154922 -0.000147131 0.339143 
0.00173911 -0.00698501 0.572506 
-0.000168972 -0.000228197 -0.000547124 
0.00151819 0.000458207 0.432742 
0.00142995 -0.000172352 0.328385 
-0.000891104 0.000518358 0.00203932 
0.00060119 -0.000423095 -0.00243498 
-0.000695028 0.000492013 0.00336454 
-0.00075523 0.000538269 0.0043505 
-0.00148686 -0.00513287 0.460279 
-0.00317291 0.00105853 0.941531 
0.00355337 0.00152114 1.12138 
-0.000688544 -0.00105998 1.07216 
-0.000455226 0.000273335 0.997722 
-0.000792816 -0.000140696 0.871726 
0.00244908 0.0021137 0.516847 
-0.0035319 0.00283683 0.538202 
-0.000220627 -0.00626739 0.503302 
0.00244469 -0.00277113 0.00751615 
-0.000581944 0.0030536 0.331427 
-0.00236075 -0.00163532 0.00512883 
0.00396519 0.00601129 0.514269 
-0.000604219 0.00243655 0.0028821 
2.47429e-05 -0.000121955 0.000288888 
5.99857e-05 -0.000576215 0.00584811 
0.00641657 -0.00172218 0.595553 
0.00488553 0.0025241 0.00739789 
-0.00125461 0.00206788 0.00135549 
-0.00151026 -0.00364703 0.490864 
-0.00309562 -0.00110558 0.449049 
-0.000172729 0.00141321 0.465831 
-0.000772525 0.000944826 0.376404 
-0.000887167 -0.0011845 0.708495 
0.00089861 0.0010707 0.604697 
-2.65601e-05 -1.74339e-05 0.00252821 
-0.000895886 -0.000628632 0.00279097 
0.00032999 0.000230493 -0.00317649 
-0.00299531 0.0034753 0.494956 
-0.000337043 0.000537014 -0.00389914 
0.000630569 -0.0015512 -0.00160235 
-0.000697861 0.00216918 0.00913908 
-0.00162516 -0.000706282 0.331669 
0.00257175 0.000235931 0.464985 
-0.0029944 -0.000404172 0.00524489 
0.00031694 0.00162418 0.00178409 
0.000343841 -0.00525155 0.503237 
0.00177751 0.000466651 0.000537998 
-0.00051319 -0.000122958 0.00248417 
0.000689078 0.000207045 0.00607061 
-0.00351229 -0.00515775 0.545968 
0.00552806 -0.000204363 0.00803994 
0.00155759 0.00553636 0.00348672 
-0.0019336 -0.00508495 0.336688 
-0.0103382 -0.00130207 0.47672 
-0.00592117 0.00517679 0.715624 
0.00897297 -0.00547362 0.583351 
0.013674 0.00581477 0.891825 
-0.00916106 -0.00290462 0.419459 
-0.00165231 0.00165524 0.00744294 
-0.0019754 -0.00205811 0.399881 
0.000971276 0.00100248 -0.00220798 
-0.00163221 -0.000394625 0.332493 
0.00221513 -0.000852514 0.000774709 
-0.00304097 0.00482393 0.459024 
-0.000454964 -0.00128763 0.00282648 
-0.00153093 0.00481149 0.417622 
-1.96017e-05 0.00244976 0.328635 
-0.00336749 0.000767707 0.00631861 
-0.000581786 -0.00305768 -0.0020224 
0.000691685 0.000882381 0.433644 
0.0082589 -0.00374635 1.06193 
0.00364839 0.00421056 0.891883 
-0.00813536 0.00588712 1.02723 
-0.00368241 -0.00401323 1.15681 
-0.000838685 0.000193694 0.937241 
0.00104349 0.00161201 1.12555 
-0.00339408 0.00171746 0.944174 
0.00224304 -0.000882853 0.989546 
-0.0008607 -0.00083414 0.00169405 
0.000567598 0.000661417 0.00708652 
0.00129181 0.00132567 0.00289004 
0.00312219 -0.00159474 0.584354 
-0.00520945 -0.000351011 0.00107276 
0.00940132 0.00377393 0.533038 
0.000167739 -0.0088784 0.0104087 
2.95478e-05 0.0103016 0.450136 
-0.000987323 0.000457846 -0.00157744 
0.000638197 -0.000277131 -0.00308567 
0.000280831 -0.000162546 0.00749973 
-0.00052687 -0.00363446 0.464018 
0.00274821 4.82036e-06 0.00187542 
0.000365048 -0.00380606 0.00763125 
-0.0027051 0.000839281 0.374615 
-0.000470636 0.00570343 0.524236 
-0.000565014 -0.00151504 0.00502986 
0.000224548 0.000642279 -0.00359607 
-0.000310111 -0.000805164 0.00171203 
0.000550874 0.00170959 0.449089 
-0.00498824 -0.00270094 0.0105914 
0.00217799 -0.00177896 0.489683 
-0.000715923 0.00387701 0.333122 
0.00550073 0.00267051 0.507002 
-0.00130694 0.00148246 1.00473 
0.00303187 0.00128079 1.13281 
-0.00204873 -0.000445232 0.931682 
-0.000881081 -0.00118798 1.0264 
0.00193244 0.000773817 0.00100778 
-0.000733757 0.00185924 0.530985 
-0.000553287 0.000587634 0.00674892 
-0.00529958 -0.00325404 0.473021 
-0.00139422 -0.00317109 0.717166 
0.00203008 0.0035957 0.883679 
0.0105684 -3.80074e-05 0.585372 
-0.00476405 0.00289522 0.925564 
0.000773526 0.00428643 0.710682 
-0.00149688 -0.00132017 0.495356 
-0.00107131 -0.00307756 0.459987 
-0.00571127 -0.0019671 0.710943 
-0.000642461 0.000645212 -0.000975134 
0.000821432 -0.00189189 0.00922927 
-0.000769608 0.00147899 0.350504 
-0.00330817 0.001815 0.476126 
8.683e-05 0.00106436 0.00604206 
-3.03397e-05 -0.000371903 -0.00119961 
-1.75404e-05 -0.00021501 0.000798496 
-0.00371264 -0.000390503 0.466086 
0.00486287 0.00432773 0.00390181 
-0.00286133 0.00164559 0.502395 
0.00491627 -0.00489461 0.00811568 
-0.00369292 0.00151837 0.447783 
-0.000351871 -3.94562e-06 0.504153 
-0.00467445 -0.00379433 0.846149 
0.00825509 -0.000556773 0.638477 
-0.00168448 -0.00157288 0.444285 
-0.000619353 0.0025188 1.10984 
0.00083056 -0.00226097 0.962782 
0.000733701 4.54542e-05 0.908758 
0.00177182 0.00155902 1.0293 
-0.000984865 0.000608432 0.743415 
0.000364374 0.000826089 0.654442 
0.00185348 -0.00137159 0.40706 
0.00375743 0.000838428 0.572904 
0.00822973 0.000662802 0.780337 
-0.00280404 -0.00537571 0.538725 
-0.00762475 0.00126807 0.601374 
0.00102927 0.00486738 0.877399 
-0.000209716 0.00219182 0.375431 
-0.00087091 -0.000226309 0.709034 
-0.00142005 0.00183674 0.612334 
0.00121371 0.000941294 0.496816 
0.002539 -0.00274953 0.0057617 
0.000123228 0.00155027 0.284296 
0.000613343 -0.000489226 -0.00273287 
-0.00286942 0.00280034 0.000725436 
-0.000424863 -0.000581947 -0.00160869 
-0.000595701 -0.000821393 0.00634015 
0.000742891 0.00101919 0.000240825 
0.00534052 8.61396e-05 0.537499 
0.000407173 0.00152683 5.00185e-05 
-1.35551e-05 -0.000145224 -0.00489469 
0.000320994 0.00136605 0.00845607 
0.00325136 -0.00369193 0.507552 
-0.00228872 0.000149568 0.710932 
-0.00408095 0.000186762 0.531501 
0.0038142 0.00222388 0.586754 
0.00274138 0.00503078 0.442242 
0.00109575 0.00296592 0.00777151 
-0.00323268 -0.00195112 0.43149 
0.0013084 0.0010917 0.327109 
0.0014418 -0.00374644 0.480723 
0.000364883 -0.000141023 0.00143382 
-0.000439718 0.000277088 0.00562071 
0.00301208 -0.00131777 0.00129905 
0.00141159 0.00295175 0.62173 
-0.00030866 0.00187486 0.472287 
-0.00134458 -0.000685723 0.720827 
-0.00526137 -0.00366306 0.71435 
0.0020587 0.00405145 0.489206 
0.00229468 -0.00101418 0.855086 
0.000801093 0.00212123 0.609829 
-0.00392121 0.00107117 0.486114 
0.00274709 -0.00122441 0.901583 
0.00164782 0.00629579 0.848075 
-0.00767064 -0.00447124 1.09111 
0.00621593 0.000539118 0.956707 
0.00196511 -0.00382979 1.02927 
0.00106098 -0.00102906 -0.000216785 
-0.000859129 0.000833234 7.66618e-05 
-0.00105914 0.00102918 0.00379961 
0.000593874 -0.0032014 0.441265 
-0.00133654 -0.00342449 0.875099 
0.00256236 0.00387864 0.590587 
-0.00514892 -0.00148176 0.499599 
0.00478332 -0.00163179 0.712884 
-0.000888855 0.00223924 0.427876 
-0.00081882 -0.00185724 -0.0012815 
0.00255657 -0.00197425 0.00417473 
-0.00462359 0.00651927 0.525882 
0.00226005 0.000286044 0.71933 
0.000407698 0.0024752 0.710079 
-0.000314134 -0.00135322 0.453313 
-0.00396352 -0.00372139 0.524666 
0.00364694 0.000530998 0.0049127 
0.000537424 -0.0021722 0.00229151 
-0.00189619 0.000835089 0.463359 
-0.00256578 0.00519547 0.498948 
-0.00197072 0.00124168 -0.0012917 
0.00109034 -0.000875793 -0.00494928 
0.00267942 -0.00145906 0.00862991 
-0.0013701 0.00035624 0.333954 
0.00259413 0.00133881 0.708821 
-0.000898795 -0.000769327 0.375807 
-0.00357066 0.00292698 0.533365 
-0.00225421 -0.00467556 0.535243 
0.00256195 0.00165786 0.00705755 
-0.00324358 0.00229943 0.352702 
0.00138291 -0.00104318 0.438144 
-0.0028794 -0.00238975 0.468467 
7.50834e-05 -0.000920375 -0.000145859 
-2.43426e-05 0.000298392 0.00512355 
-7.49124e-05 0.000918278 -0.000117521 
0.000526929 -0.00244002 0.53949 
-0.0010839 -0.00283884 0.00763356 
0.00156098 0.00308844 0.00264958 
-0.00110447 -0.00233537 0.000173748 
-0.000342609 0.00384021 0.536061 
0.000381437 0.00140235 0.937259 
0.00114284 -0.000356197 0.712299 
-0.00224821 -0.00370742 0.997376 
-0.000244259 -0.00148169 0.702414 
-0.00241183 0.00102327 0.00354717 
0.00191971 -0.0010379 0.00358737 
-0.00313528 0.00163501 -0.00413463 
0.00344907 0.00160913 0.541071 
6.28249e-05 3.36277e-05 0.00777303 
-0.000741344 -0.00109322 0.001189 
0.000952211 0.00143094 -0.00509843 
-0.00763115 -0.00138476 0.504771 
0.00199672 -0.00104627 1.18723 
-0.00250398 -0.000346974 1.24647 
0.00190334 0.000826727 1.15754 
0.000305132 0.0023095 1.21456 
-0.00126358 -0.00275182 0.389562 
-0.00153393 0.000841148 0.00915365 
0.00159739 -0.000669006 -0.000909777 
-0.00111653 0.0003549 -0.00406056 
0.00058368 0.0038195 0.77932 
0.00494836 -0.00141173 0.881233 
-0.00232845 -0.00773542 1.05215 
-0.00532506 0.00136641 1.02468 
0.000630951 0.00223048 1.23572 
0.00150372 0.000268609 1.23007 
-0.000267661 -0.00236809 1.16689 
0.00218546 -0.000920815 1.19459 
0.00110163 -0.000775753 -0.0021603 
0.000174582 -0.000119171 0.00731548 
-0.000382084 0.000268035 -0.00132935 
0.000320517 -0.00127271 0.444822 
-0.00337035 0.00339586 0.000842034 
-2.21633e-05 0.000115068 0.00681049 
0.00122495 -0.00115658 0.00539123 
0.00119615 -0.00432189 0.482644 
-0.00318501 -0.00140672 0.998205 
0.000172659 0.000572826 0.816383 
0.000626802 -0.000627663 1.03754 
0.000325975 0.001347 0.84135 
-0.00034736 -0.000338244 -0.00257538 
0.00197184 0.00191603 0.0069732 
0.000118383 0.000114104 -0.00132591 
0.000427965 -0.00277824 0.490204 
-0.000521253 0.000231611 1.15778 
0.0042293 0.000473995 1.23368 
-0.00421813 0.000126511 1.13015 
-0.00179974 0.00295198 1.19516 
0.000110974 -0.00160585 -0.000766119 
2.62718e-05 1.26924e-05 0.00209954 
0.000136201 -0.000643392 0.00676707 
0.00308669 0.00151219 0.464978 
-0.00330291 0.000408602 0.00494602 
-0.000371614 -0.00184474 0.00226779 
0.00241694 0.000144352 0.387617 
0.00349553 0.00658582 0.513192 
-0.00368348 0.000253858 0.621466 
-0.000505192 0.00122802 0.499274 
0.00071623 0.0013004 0.701377 
-0.00180914 0.00199317 0.865689 
0.000577889 0.00275765 0.937873 
-0.00255303 -0.000131381 0.824238 
-0.000806702 -0.00101973 0.712801 
-0.000657504 -0.000273838 1.03911 
0.000297733 0.000287576 -0.00172176 
0.000491299 0.00047085 0.00329302 
-2.29763e-05 -2.35505e-05 0.00239116 
-0.00253125 0.00282101 0.492219 
-0.00149974 -0.000999941 0.00452478 
-0.000493675 -0.000312543 0.00466032 
-0.000409511 -0.000271965 0.0014403 
0.00154047 0.00299314 0.583635 
0.000600439 0.000847725 0.285726 
0.00156078 -0.000117692 0.576742 
-0.00118763 0.000820791 0.347839 
-0.00227845 0.00157547 0.463429 
-0.00339016 -0.00198786 0.37628 
8.8664e-05 0.00194977 0.707662 
0.00448673 -0.00102632 0.599963 
-0.00129187 0.000507667 0.50133 
0.0038994 -0.0037415 0.00827373 
-0.000151281 -0.00243366 0.378325 
0.00127516 0.00194922 0.47999 
-0.00376613 0.00366495 0.544363 
-9.53047e-05 0.00429887 0.376234 
0.00354407 -2.31685e-05 0.00718472 
7.77157e-05 -0.000435507 0.460501 
-0.00399561 0.000587286 0.531345 
-0.0015618 -0.00129694 0.715471 
-0.00185478 -2.03231e-05 0.823067 
0.00173166 -0.00145165 0.935865 
0.000335278 -8.7114e-05 1.03718 
-0.00223413 0.00344531 0.720588 
0.00194026 -0.00162073 0.438784 
-0.00148168 0.00113613 0.348725 
-0.00187712 -0.00327716 0.468249 
0.000343434 -3.9051e-05 0.00253036 
-0.000385349 2.03242e-05 0.00290953 
0.00208947 -0.000181823 0.00174914 
-0.0029004 -0.00365283 0.443839 
0.000658799 0.00499867 1.03375 
-0.00213095 0.001147 0.906892 
-0.00141189 -0.00439335 0.915449 
0.00287672 -0.000611194 1.07102 
0.000868376 -0.000485364 0.716459 
-0.00155848 0.00662241 0.723233 
0.000471284 -0.00184035 0.45226 
2.88787e-05 -0.000740704 0.497696 
0.000835344 0.00248641 1.20436 
0.00157123 -0.000879767 1.25283 
-0.000475412 -0.00299489 1.23552 
0.00150805 0.000528859 1.22241 
0.000251581 -0.000842942 -0.00148636 
-0.000818837 -5.57516e-05 0.0015819 
-0.000448843 0.00204968 0.375743 
-0.000572724 0.00150463 0.32949 
0.00040696 0.00313723 0.713209 
-0.00281474 -0.0014028 0.718012 
0.000105922 -0.00172681 0.463905 
0.00140891 -0.0018967 0.547213 
0.00149443 0.00107703 0.936439 
-0.000677603 -0.000213035 1.08933 
0.00136943 -0.001122 0.940456 
0.00148263 -0.000644697 1.00272 
0.00364672 -0.000136407 0.632068 
0.00149448 0.00349728 0.493045 
-0.00376459 -0.00078103 0.756116 
-0.00317001 -0.00485064 0.871539 
-0.00192894 0.00103246 0.904488 
0.00352518 -0.000904829 1.03741 
0.00516867 -0.000119694 0.958795 
-0.0026434 0.0024789 0.797241 
3.89432e-05 0.00861732 0.71569 
-0.00564791 -0.00439807 0.850594 
-0.00010254 0.000113625 0.502601 
-0.00228487 -0.00247102 0.441171 
-0.00249916 -0.00240484 0.717854 
-0.00410866 -0.00162156 0.524767 
-0.000936054 0.00315337 0.652605 
0.000804468 -0.00250311 0.433107 
0.00076114 0.00216511 0.709277 
-0.00155804 -0.00116156 0.457679 
-0.000924857 0.000609226 0.381278 
0.000367114 -0.00310709 0.590458 
-0.0013568 -0.00165269 0.466704 
-0.000516681 0.00230744 0.0086396 
0.00378414 0.00258627 0.376643 
0.00382695 -0.00332188 0.555263 
0.00184887 0.000620412 1.22271 
-0.00170862 0.00582763 1.217 
-0.00118952 -0.000838114 1.25343 
-0.0041579 -0.0026536 1.2246 
0.000120894 -0.00457986 0.380829 
-0.000934492 0.00144275 0.302985 
-0.00161565 0.00291108 0.00882173 
0.0047462 -0.00304835 0.481575 
0.0016755 0.0012213 -0.00325141 
-0.00013546 0.0011036 0.332399 
2.91328e-05 0.000157252 -0.00380483 
-0.00294113 -0.00232655 0.0107426 
-0.000481222 -5.88554e-05 0.440776 
0.000699657 0.00138958 0.551099 
-0.000652998 -0.00077797 0.279816 
-0.00192171 -0.000549116 0.419538 
0.00226446 -0.000578568 0.443256 
-0.00169232 -0.00292365 0.471373 
-0.00231347 0.00445941 0.716456 
-0.00408194 -0.00210221 0.848321 
0.00372344 0.00142854 0.499272 
-0.00213434 -0.00151071 0.872235 
0.00158117 0.000483267 0.62696 
-0.00314065 -0.00482996 0.80072 
0.00381394 -0.0021838 0.00149395 
-0.0033929 -0.00460881 0.00957438 
-0.00297127 0.00350381 0.482768 
0.00301471 0.00574372 0.491621 
-0.000877194 8.03359e-06 1.1179 
1.21431e-05 0.00293463 1.11729 
-0.00085322 -0.00369154 0.95898 
-0.00141364 0.000251324 1.06643 
0.000187834 -0.000380357 1.17872 
0.0039707 0.00118569 1.0871 
-0.000372724 -0.000574889 1.12091 
0.00233405 0.00316093 1.16353 
0.000848103 -0.00207123 0.71585 
0.00468442 -0.000246583 0.718943 
0.000832434 -0.000263672 0.936138 
0.00139513 -0.000547307 0.903595 
0.00170808 0.00226684 0.00243929 
-0.00142601 -0.00150171 0.323625 
0.00128958 -6.73032e-05 0.00224186 
-0.00673153 -0.00172761 0.520641 
-0.000295549 -0.00353765 0.00577791 
0.000454518 0.000480234 0.375012 
0.00195267 -0.000192504 0.465308 
-0.000479206 0.00341654 0.439717 
0.00285521 0.0030179 0.00464993 
-0.00206911 -0.00186443 0.00691176 
-0.0014568 -0.00140526 0.0019158 
0.00363999 -0.000749391 0.562425 
-0.00145276 0.00142108 0.00505093 
0.00217018 -0.00272366 0.000540866 
-0.00161387 -0.000152207 0.495832 
-0.00535104 -0.00227981 0.488586 
0.00646075 -0.00122236 0.716372 
0.00151098 0.000137745 0.94149 
-0.000302252 0.00032206 0.936812 
0.00208339 -0.00072546 0.90775 
-0.00396263 -0.00125904 1.02999 
0.00271143 0.00257142 0.814886 
0.000753785 0.0025404 0.92156 
0.00262438 -0.00280763 0.851013 
0.000322949 0.00103889 0.936985 
-0.00218755 0.00374036 0.715716 
0.00142338 -0.000808689 0.714752 
-0.000287669 -0.0039332 0.703341 
8.49385e-05 1.47676e-05 -0.00331647 
0.000729819 0.000557174 0.00364939 
-0.00148469 -0.000928545 0.00788566 
-0.00116175 0.000569161 0.49471 
0.000201074 0.00233147 0.841167 
0.00048494 -0.00157651 0.853146 
-0.00064267 0.00217931 1.05138 
0.000789749 -0.00121195 0.893378 
0.00336157 0.000415418 0.709644 
0.000454587 -0.00247495 0.500494 
-0.00686862 -0.000684707 0.72364 
-0.00116148 0.00520625 0.869517 
0.00011183 -0.000464164 0.00752782 
-0.000252604 0.000689209 -0.00272063 
-1.44777e-05 5.00517e-05 -0.000575407 
0.00429501 -0.00229723 0.418448 
0.000444438 -0.0007604 0.00217266 
0.00285531 -0.00555256 0.00366697 
-0.00202656 0.00442893 0.00492293 
-0.00285964 0.00454694 0.530272 
-0.000244167 5.68176e-05 0.00163882 
0.000665473 -0.000203606 0.00510958 
0.000430979 -0.00011898 0.000778922 
0.00123493 4.44588e-05 0.592124 
0.00106334 0.000214924 0.00447543 
-0.00266952 -0.000674438 -0.000208794 
0.00184125 0.00042224 0.00365473 
-0.00158928 0.00264011 0.540135 
-0.00110927 0.00167732 0.453304 
-0.0018433 -0.00148282 0.724999 
0.000506868 -0.00220115 0.7141 
-0.000824733 0.00222092 0.492497 
-0.00054425 0.000874076 0.709242 
0.00068718 0.000400459 0.373147 
-0.000519936 0.00164196 0.468581 
0.00444785 -0.000856804 0.482694 
0.00109851 0.001146 0.00474363 
0.001051 0.00109461 0.0014174 
-0.00138117 -0.00143749 -0.000165923 
5.7671e-06 0.00620948 0.564391 
-0.000155878 9.99201e-05 0.00558898 
0.000452465 -0.000171431 0.00757934 
0.000174111 -9.72504e-05 -0.00336143 
0.00107668 0.000626611 0.463075 
0.0113297 0.00388042 0.783574 
-0.00206738 0.00912021 0.498347 
-0.0108616 -0.00129882 0.625394 
0.000501799 -0.00516112 0.866081 
-0.000130621 -6.42753e-05 -0.00301831 
0.00119557 0.00175636 -0.000682733 
-0.00248596 0.00140145 0.406601 
-0.00127896 -0.00219365 0.00835965 
-0.00012758 -0.00155876 0.000787791 
-0.000171886 -0.00167503 0.00352921 
-0.000154804 -0.000877682 0.00684129 
-0.0032627 0.00304472 0.537493 
8.78916e-05 -0.000115624 0.00963667 
0.00143869 0.00104762 -0.00166394 
0.00243069 0.00168668 0.00170406 
-0.00119007 -0.00188717 0.475316 
-0.00269535 0.00821053 0.00941003 
-0.0041599 -0.00272981 9.93015e-05 
0.00440863 -0.0069073 0.442431 
0.00756609 0.00315571 0.458795 
0.000140298 -0.000147306 -0.00271166 
0.00171518 -0.00118718 0.00134225 
0.00142249 -0.000914856 0.00503301 
-0.00142283 0.00187237 0.421839 
0.00107806 -0.0015169 0.325441 
-0.00198083 0.00240566 0.00320524 
-0.00123329 0.000503708 0.000299386 
0.00508077 -0.000323635 0.45954 
-0.00241624 0.00130769 0.457205 
-0.000440297 -0.00332759 0.713221 
-0.00189968 0.00307554 0.499629 
0.00273652 0.00110872 0.445176 
-0.00227677 -0.00022632 1.04166 
0.00210315 -0.00154272 0.749694 
-0.00194708 -0.00130454 0.948731 
0.0021169 -0.00258757 0.792627 
0.00113516 -0.00108279 0.365083 
-0.000201675 -0.00178187 0.315901 
-0.000507521 -0.000276037 -0.000694794 
0.000227895 2.98574e-05 0.00234035 
0.000216669 -0.00254963 -0.000862684 
1.38423e-05 -0.000403993 0.0048771 
-0.000211229 0.00239431 0.00270882 
-0.00621522 0.00358577 0.567952 
-0.00157689 0.00426394 0.712762 
0.0055559 -0.00240466 0.713053 
0.00290096 -0.00468259 0.45836 
0.000250978 0.00338533 0.886188 
0.00144434 -0.00113019 0.719992 
0.00216601 0.00181622 0.719196 
-0.000233319 -0.000546955 0.456541 
-0.00210458 0.00117155 0.520356 
-0.000732916 0.00106022 0.000881937 
-0.00193206 0.00277968 0.0017219 
-0.00112144 0.00180063 0.00842871 
0.00477157 -0.00312052 0.503729 
-0.00171894 -0.000539464 0.00456804 
-0.000781355 -0.000941749 0.411323 
0.000395575 -0.000486571 -0.00229865 
-0.0017442 0.0023081 0.376226 
-0.00248718 0.000151527 0.00596069 
-0.000671801 -0.00102422 0.336651 
0.00104404 -0.00109531 -0.00262939 
-0.00136773 0.00251134 0.398244 
-0.00199371 -0.00767772 0.537629 
-0.00454418 0.00273502 0.539271 
0.000702263 0.000537439 0.634023 
0.00139648 0.000435252 0.831027 
0.000228256 0.00347916 0.711642 
-0.000251334 0.00320927 0.505263 
0.00525092 -0.00243707 0.457508 
-0.00233754 -0.0011123 0.442258 
-0.000833945 -0.00130183 1.07241 
0.0028191 -0.00100589 0.937934 
-0.00341233 -0.00140288 0.939571 
-0.0023792 0.000137949 0.864788 
-0.000837325 0.000863688 0.000544651 
0.000453685 -0.000468402 -0.0010842 
3.60797e-05 -3.58325e-05 0.00249667 
0.00119125 0.00118108 0.535113 
0.00334854 0.000947473 0.00485741 
0.000401269 0.000138808 0.0027727 
-0.000760587 -0.000232353 -0.00258961 
-0.000922984 -0.00686988 0.558201 
7.63389e-05 0.00294271 0.00637511 
-8.93902e-05 0.000416517 0.353391 
-0.00200162 -0.000431872 -0.00320417 
0.00302527 0.000765026 0.440453 
-0.00125624 0.000407037 -0.00345471 
-0.00256351 0.000483223 0.00746951 
0.00274256 -0.000761722 0.00223828 
0.00533416 0.00330119 0.498404 
-7.76394e-05 -0.00092551 -0.000496662 
7.74625e-05 0.000923402 -0.000856903 
-3.5584e-05 -0.000424184 0.00652975 
0.000683191 -0.00243476 0.540529 
-0.0011636 0.00188176 0.936757 
-0.00054696 -0.000705485 1.07719 
0.00226173 -0.000804931 1.09602 
-0.000217674 0.000570941 1.03814 
0.000399386 0.000302198 -0.00261931 
0.00141898 0.0015677 0.00306783 
0.0017813 -0.0011767 0.484379 
-0.00292119 -0.00264472 0.00827776 
0.00249557 -0.000564161 0.311822 
-0.00451231 0.000686564 0.405125 
0.00114363 -0.002362 0.00752375 
-0.00230247 0.00564002 0.485637 
0.00171772 0.00671956 0.762536 
-0.00343297 -0.000698812 0.490945 
0.000310485 -0.00209468 0.396083 
0.00253294 -0.00356725 0.421077 
-0.000891381 -0.000769867 0.715524 
0.00292833 -0.00209019 0.941415 
-0.00320676 0.000954519 0.938046 
0.0013512 -0.00392372 1.01944 
0.00332929 0.00152006 0.00369775 
-0.00209109 -0.00132681 0.399428 
0.00307126 -0.00187281 0.00395227 
-0.00483708 -0.00447118 0.494674 
0.00130218 -0.000275087 0.707299 
-0.00196027 -0.00324356 0.381927 
-0.00229865 -0.00102799 0.455317 
0.000260371 -0.00117595 0.705972 
-0.000869519 -0.00158639 0.0114859 
-0.000473331 -0.00127153 -0.0025379 
0.000658965 0.00164243 0.000780033 
0.00293269 -0.00150881 0.499502 
0.00191767 0.00152274 0.0064805 
-0.000538619 0.00360604 0.45209 
-0.000947543 -0.00020479 0.484973 
0.00426214 -0.00219374 0.51548 
-6.32348e-05 -0.000695631 0.624946 
-0.0016793 0.000292346 0.36509 
0.000681081 0.000535532 0.38641 
0.00128525 0.00230119 0.494777 
-0.00114832 0.00299783 0.939336 
0.00131275 -0.000258101 0.711886 
3.01308e-05 -0.00302757 0.939697 
-0.00324879 -0.000778959 1.04058 
-0.00198201 0.00444255 0.00674205 
-0.00163357 0.00150412 0.502406 
-0.00275211 -0.00227238 0.00303721 
0.00408847 0.00610869 0.448437 
-0.00342222 0.0105749 0.0114887 
-0.00745798 -0.00142126 0.449327 
0.0052906 -0.000621786 -0.000277805 
0.000846114 -0.00598155 0.441701 
-0.0021953 -0.000205945 0.00428603 
-0.00161914 -0.000137641 0.00170425 
-0.00168534 -0.00016822 0.00432425 
0.0023634 -0.00197335 0.563154 
-0.00259098 0.00141558 0.597393 
0.00109135 -0.000947876 0.348859 
0.00088845 -0.00197314 0.6219 
-0.00016363 0.000890567 0.453462 
0.000175715 -0.00156347 0.712971 
-0.000836026 -0.000327625 0.4688 
0.000851531 -0.00284351 0.379818 
-0.00132323 0.000250538 0.448143 
-1.50855e-05 0.000533559 0.713331 
-0.000289812 0.00158635 0.711933 
-0.0049032 -0.00122701 0.46568 
-0.00038184 -0.00385575 0.703095 
-3.18538e-05 0.00148888 0.403842 
-0.00117508 -0.00105419 -0.00318154 
0.00265238 0.00269283 -0.000106123 
-0.00208125 -0.00240473 0.00686867 
0.00338109 0.000311918 0.967741 
-0.0018662 0.00053598 0.781283 
-0.000247954 0.00189807 0.67923 
-0.00242148 0.00218352 0.878905 
-0.00038931 -0.000821287 0.289195 
0.00189434 0.00248511 0.438831 
0.00320797 -0.00195583 0.00431028 
-0.000800157 -0.0011293 -0.00189326 
0.000193891 0.00028746 -0.00247779 
-0.000718242 0.00160236 0.471779 
0.00234023 0.0021302 0.00428745 
-0.00249946 -0.00265543 0.00512976 
0.000450295 9.35693e-05 0.00101793 
0.000408872 -0.000663653 0.352509 
-0.00176317 8.61045e-05 0.00227136 
0.00468093 0.00065679 0.458111 
0.000825646 0.00037831 0.00416661 
0.00473842 -0.00207581 0.531047 
-0.00430771 0.000546262 0.00182038 
0.00379933 -0.00118557 0.415375 
-0.000130989 -0.00300142 1.03339 
0.000361639 0.0011802 0.81808 
0.000390071 -0.00129663 0.819837 
0.000852734 0.00295395 0.842386 
-0.00124688 0.0004614 0.00609275 
-0.00198972 0.000497723 -0.000762999 
0.00279798 -0.000625359 0.00434949 
0.000446049 -0.0024571 0.512867 
0.00149402 0.00035228 0.458857 
-0.0020443 0.000273011 0.371803 
0.00169716 0.00233423 0.71033 
-0.00404256 0.000206632 0.496296 
-0.00145718 -0.00318335 0.618408 
-0.00125602 0.00606488 0.499637 
0.0058201 0.00344127 0.561445 
2.59245e-06 -0.00445486 0.818127 
0.000364397 -0.000531196 0.000897095 
-0.000683283 0.000994306 0.000849012 
0.000915749 -0.00133528 0.00277542 
0.00176756 0.00164532 0.53217 
7.40111e-05 -0.000670093 0.352143 
-0.000113193 0.00154352 0.345892 
0.00186283 8.28508e-05 0.00638946 
0.00184995 0.00056765 0.455088 
-0.000988256 -0.00139504 0.447505 
-0.00284423 0.00327449 0.716992 
0.00124315 -0.00285444 0.791921 
-0.00116631 -0.00230318 0.844372 
-0.0018268 0.00105566 0.698736 
0.000238291 -0.00124472 0.488119 
0.00436731 -0.000451521 0.644017 
-0.00117913 0.00281056 0.826205 
0.00241579 -0.00126549 0.00722189 
-7.34469e-05 0.000125948 -0.0026777 
-0.00101236 0.000362449 0.00169084 
-0.000841488 -0.00442014 0.498904 
0.00034692 -0.000653922 -0.00151657 
0.00128036 -0.00215397 0.00216467 
-0.000962828 0.00173855 0.00192585 
-0.00467352 0.000316949 0.459969 
0.00213271 -0.0019201 0.00443594 
-3.03142e-05 -0.00315415 0.463104 
0.000532371 -0.000637638 -0.00293198 
-0.00259194 0.0027708 0.0057631 
0.00105862 -2.36772e-05 1.03681 
0.00183595 -0.00296657 0.919122 
-0.000728018 0.00265682 1.11659 
-0.000433302 0.0019478 1.06527 
-0.00255657 0.00105083 0.00817397 
0.00124552 0.00157182 0.377024 
-0.00262681 -0.00311448 0.482062 
0.00488894 -0.0020755 0.485802 
0.000533792 0.0010963 0.896812 
0.0009153 -0.00168731 0.872265 
0.000858368 -0.00193148 1.04574 
-0.00167247 -0.000351686 0.794274 
-0.000457375 -0.00206816 0.00176898 
-0.00219565 0.000158025 0.516144 
0.00234826 0.00171756 0.00289778 
-0.00159535 -0.00066975 0.440159 
1.11992e-05 -0.0018801 0.452008 
-0.000895636 0.00355232 0.378551 
0.00274539 0.00307451 0.00705818 
-0.00457983 -0.00397364 0.529456 
-0.0045849 -0.00154524 0.0043982 
-0.00129196 -0.000423371 0.000881528 
0.00344734 0.00101617 0.00101725 
0.00173204 -0.00277387 0.561436 
0.000662507 0.000330635 0.00488141 
0.000607818 0.000274756 -0.00125816 
-0.00038557 -0.000181654 -0.0006794 
-0.000443126 0.000241625 0.552241 
9.22464e-05 -0.00487262 0.79142 
0.000381934 0.00429852 1.01878 
0.000897532 0.0011019 1.0136 
0.00206255 -0.00164535 0.842872 
0.000518227 -0.00260304 0.00643316 
-0.000840006 0.00291553 0.00364346 
0.000433913 -0.001598 -0.000889633 
0.000795989 0.00575501 0.536679 
3.41634e-05 9.38825e-05 1.19147 
0.00111175 -0.00101655 1.23655 
-0.00100552 -0.000383926 1.20511 
0.00164153 0.00148734 1.2219 
-0.00125645 0.00107384 1.0864 
0.00309511 0.00132632 1.16491 
-0.00273817 -0.00110371 1.2083 
0.000491336 -0.00076982 1.18983 
0.000676577 0.00110903 -0.00201709 
-0.000393873 -0.000743168 -0.00174406 
-0.00153304 -0.00254437 0.00362935 
0.00147551 0.000906592 0.450725 
-0.00289482 0.00307415 0.490005 
0.00172099 -0.000854199 0.573351 
0.000171479 -0.00320769 0.822112 
-0.0014528 -8.2997e-05 0.452456 
0.00206878 -8.06169e-05 0.00135318 
-0.000558712 -0.00436726 0.538764 
-0.00344942 0.00317147 0.00596481 
-0.00164844 -0.00453216 0.431859 
0.00193288 -0.00326636 -0.00171014 
3.16342e-05 0.000309274 0.405473 
-0.00251004 0.00425855 0.404122 
-0.00452601 -0.00153121 0.00693448 
0.000401808 0.000415885 0.00557997 
-0.000103065 -8.13405e-05 0.00365299 
-6.81689e-05 -7.32906e-05 -0.00149524 
0.00083428 3.8098e-05 0.491569 
-0.000231711 -0.00305486 0.741359 
-0.0019967 0.00187254 0.87228 
-0.0054467 -0.00661538 0.498119 
0.00327958 7.17768e-05 0.801522 
-0.00223339 0.00429773 0.00645177 
-0.00140118 -0.00414756 0.379883 
0.00420395 0.00459366 0.00599295 
0.00325721 -0.00688129 0.488875 
-0.000722182 0.000524667 0.00638949 
-0.000676761 0.000523532 0.00493389 
0.00283102 -0.00278303 -0.00102948 
-0.000233263 0.000669089 0.514746 
0.0023222 -0.00191273 0.457605 
-0.00208122 -0.00158423 0.00807308 
-0.00358123 0.00140838 0.377457 
0.00328434 0.00209287 0.50971 
-0.0031124 0.000827563 1.03652 
-0.000166676 0.00162781 1.05255 
0.000544577 -0.00165119 0.852761 
-8.683e-07 -0.000281722 0.892782 
-0.00413694 -0.00197263 0.00667325 
-0.000144433 0.0020252 0.473738 
-0.000106739 -3.68852e-05 -0.000354022 
0.00282786 0.00118818 0.00145611 
0.000778806 0.00011094 1.07028 
-0.00398862 0.00115288 0.938281 
0.00442951 0.00146641 1.11072 
0.00228306 0.00213875 1.03759 
0.000583843 -0.000187705 0.35124 
0.00135188 0.000446157 0.000235797 
-0.00204182 -0.00082506 0.00272128 
0.00292522 -0.00156242 0.463835 
0.00033509 0.00071523 1.13126 
0.000653068 -0.00225929 1.02402 
-0.00128379 -0.000161811 0.935608 
0.00090211 -0.00095015 1.02357 
0.00290838 0.000998306 0.430925 
-1.1834e-05 -0.000167148 0.0023772 
-0.000206305 -0.0029139 0.00133915 
6.29426e-05 0.000889012 0.000443166 
0.000518854 0.00623407 0.00596693 
-0.00176671 -0.00267609 0.330385 
0.00194581 -0.00121021 0.00132843 
-0.00796393 -0.000497448 0.488501 
0.000653359 -0.00198906 0.00776054 
-0.000955465 0.00221859 -0.000108617 
0.00199966 0.00169652 0.345029 
0.000529462 -0.0010383 -0.00305215 
-0.00291125 -1.98323e-05 0.629406 
0.00476044 -0.000208923 0.67295 
-0.00157758 -0.00128919 0.379875 
-0.00147934 -0.00612112 0.79622 
0.00130274 -0.00334315 0.0026104 
-0.00217039 0.00463947 0.00656441 
0.000366613 -0.000707586 -0.00200151 
-0.000273921 0.00136327 0.457551 
-0.000328704 -0.00064597 -0.000936188 
0.000565206 0.00111233 0.00399047 
-4.11455e-05 -7.92341e-05 0.00231896 
0.00554817 -2.94867e-05 0.534462 
0.00261089 0.0012499 1.16603 
8.15117e-05 -0.00132362 1.24887 
-0.00238039 -0.00104129 1.2078 
0.00101971 -0.000680818 1.18891 
0.000297752 -0.000288742 0.334681 
-0.00166609 0.00191324 0.00541879 
0.00202198 -0.0019875 0.00180011 
-0.00122901 0.00110182 -0.00375502 
-0.00186586 -0.00704776 0.379655 
-0.000766954 -0.000898875 0.47261 
0.00148945 -0.00190992 0.00512319 
-0.00109363 0.000238259 0.450219 
0.00247021 -0.00157808 0.00642207 
0.00158905 -0.000283596 0.350037 
0.00322585 0.00175076 0.39231 
-0.00189574 -0.000649793 -0.00360207 
-0.000213438 -0.000577491 -0.00268838 
-0.000773162 -0.00377509 0.00842707 
0.000203483 0.000766736 0.000229907 
-6.3249e-05 0.00495463 0.492658 
0.00170586 -0.00236461 -0.00384049 
-0.00195673 -0.00266042 0.005456 
-0.000436873 0.000940825 0.385077 
-0.00179757 0.00195911 0.304208 
0.00217098 -0.00023318 0.700608 
-8.32604e-05 -0.00283044 0.976662 
0.000497473 0.00276198 0.812614 
0.00285964 9.52267e-05 0.919804 
-0.000880898 6.05791e-05 0.000100201 
0.00359103 -0.000246954 0.00112661 
-0.000205664 1.41435e-05 0.00255109 
-0.00100648 0.00309494 0.371942 
0.0030438 -0.00123659 0.00317129 
-0.00159296 -0.002292 0.462956 
-0.000344691 0.000105411 -0.00165784 
-0.00284678 0.00140127 0.00621283 
-0.00171515 0.00563831 0.778189 
-3.56093e-05 0.000118298 0.948847 
0.00202884 0.000946442 0.879806 
0.000338076 5.74631e-05 1.02802 
0.000868569 -0.00154231 0.746862 
-0.00104221 -0.00344814 1.04641 
-0.00253105 0.00182167 0.871334 
0.00301839 -0.00249495 0.79464 
0.00115243 -9.3671e-05 0.00469858 
0.000748228 -6.08169e-05 0.00181087 
-0.00148595 0.000120779 0.000548743 
0.000129373 0.00331017 0.506307 
0.00296103 0.000736256 -0.00128617 
0.00124031 0.000482388 0.00676719 
-0.00226243 -0.000497039 0.00373355 
-0.000428276 -0.00325408 0.493235 
0.000606747 0.000108876 0.000789729 
-0.0019869 6.42163e-05 0.00332943 
-0.00153059 0.00193223 0.345332 
0.00647272 0.000832087 0.459109 
-0.000108516 -0.00028129 1.19158 
0.00114158 0.00237696 1.18107 
0.000690021 -0.00209654 1.23683 
0.00129017 0.00166775 1.22124 
0.00103326 0.00138232 -0.00332168 
-0.00320985 -0.0044905 0.00679568 
0.00219288 -0.00164581 0.336467 
0.00161368 0.0025487 0.00181137 
0.000378711 -0.000470556 0.00294457 
0.0021577 -0.00244249 0.0089369 
-0.00107811 0.00120194 -0.00385817 
0.00166238 0.0042694 0.520111 
0.00235685 0.000996896 0.000798381 
-0.0014461 -0.000524858 -0.00376268 
-0.00190794 -0.0010001 0.00663309 
1.45979e-05 0.00254921 0.432612 
0.000784108 -0.00196094 0.000948023 
-0.000584169 0.00146619 -0.000816369 
-0.00105109 0.00209717 0.00983553 
0.00213239 -0.00102709 0.491622 
0.00334347 0.000801257 0.00697589 
0.00186972 0.00275515 0.43441 
-0.00293944 -0.00267846 0.332431 
-0.00702347 0.00190846 0.484235 
0.00342337 -0.00488876 1.1798 
0.00123893 0.00184053 1.21302 
-0.00181313 0.00360855 1.25361 
0.00180879 2.36712e-05 1.21637 
0.000116163 -7.87999e-05 -0.00207274 
-0.000765589 0.000523741 0.00435503 
0.000623411 -0.000430415 0.00478388 
0.000907505 -0.000659963 0.459395 
0.00483612 0.00284511 0.471835 
0.000477095 -0.00201231 0.377382 
-0.00123015 0.00278959 0.0071831 
0.0010391 -0.00556597 0.533312 
-0.00258512 0.00113553 -0.00220291 
0.0025516 -0.00145098 0.350431 
0.000431144 -0.000141145 0.338555 
-0.0022005 -0.00400881 0.00528755 
8.69212e-05 0.00125266 0.00269426 
-3.38247e-05 -0.000487465 0.00264136 
1.42848e-05 0.000205865 0.00129128 
-0.00364385 4.75906e-05 0.466584 
-0.00122917 0.00132693 1.24663 
-0.00481024 -0.00194968 1.22303 
0.002267 0.003067 1.23925 
0.000157517 0.00244503 1.23823 
0.00120336 0.00240298 -0.000575903 
0.000536362 0.000931709 -0.00240561 
-0.00100638 -0.00143515 0.00934094 
-0.000934285 0.00165111 0.452667 
-0.00416117 4.75906e-05 0.465871 
3.56891e-05 -0.000487465 0.00425495 
-1.50721e-05 0.000205865 0.000916528 
6.05843e-05 -0.000827501 0.00271785 
-0.000122764 0.00178515 0.00391153 
1.52778e-05 -0.000222159 0.000412375 
-8.62619e-06 0.000125436 0.000271253 
0.0025384 -0.000752073 0.463816 
0.00701001 -0.00056021 0.0058407 
0.000479359 0.00398406 0.00406823 
-0.00416259 -0.000449132 0.43017 
-0.00163542 -0.00511401 0.487213 
-0.0017718 0.00116566 0.938849 
-0.000274714 -0.00342747 0.94114 
-0.000813022 0.00228912 0.710886 
-0.000869929 0.00153604 0.881586 
0.000211444 -1.77376e-05 1.7237e-05 
0.000655905 -5.50226e-05 0.00110282 
-0.00178659 0.000149873 0.0058284 
0.00156397 -0.0018313 0.502185 
0.000183222 -0.00141162 0.465226 
-0.000178896 -1.30976e-05 0.00173438 
0.00302839 0.000221719 0.00507904 
-0.000223289 -1.63478e-05 -0.00131453 
0.000343428 -2.43152e-05 0.000155667 
0.00151314 0.00155697 0.466632 
1.68184e-05 -1.19077e-06 2.64863e-05 
0.0013123 -9.29129e-05 0.00412908 
0.00082714 0.00185749 -0.000934849 
-0.000966525 -0.00185907 0.00616572 
-0.000478866 -0.0013177 -0.00340627 
0.000430743 0.000907154 0.3323 
7.40025e-05 0.00107609 0.00168058 
8.78764e-05 0.00127784 -0.000357437 
-0.00145096 -0.00166585 0.353976 
-1.06468e-05 -0.000154816 0.00191846 
0.00997513 -0.000227895 1.14364 
-0.00279432 -0.00303731 1.20983 
0.00107945 0.000547989 1.11308 
-0.00491581 -0.0019552 1.24325 
-0.000365245 -0.000821789 0.334093 
2.05014e-05 -0.00484388 0.492035 
-0.00349535 0.00300084 0.00803124 
-0.000395677 0.00322234 -0.000613585 
-0.000178896 1.25518e-05 0.000915634 
0.000183222 -0.000964883 0.465807 
-0.00157783 0.000110705 0.00361886 
-0.000223289 1.56665e-05 -0.000106619 
8.80088e-06 0.000125436 6.25358e-05 
-1.55873e-05 -0.000222159 -0.000176456 
-9.40921e-05 -0.00134106 0.00441507 
0.00218831 -0.000752073 0.464439 
-0.00240785 -0.00016893 0.00422527 
0.00151314 0.00204558 0.464985 
1.68184e-05 1.17995e-06 0.00111634 
0.000343428 2.40943e-05 -0.000789851 
-0.000501691 0.000985177 0.000310318 
-0.000134035 0.000264246 0.00164108 
0.000575538 -0.00112816 0.00269574 
0.00347967 -6.51947e-06 0.533031 
0.00110989 0.00323687 1.14248 
0.00185484 -0.00142029 0.949708 
0.000712139 0.00115045 0.949535 
-0.00103649 0.00284641 1.02118 
-0.000887139 0.00299505 0.00633119 
0.00203896 0.000107421 0.463169 
-0.00516573 -0.000463608 0.375039 
0.000790257 -0.00286312 0.499949 
0.00118381 -0.00260445 0.00535979 
-0.00284669 -0.000799145 0.484396 
-2.94234e-05 -3.61067e-05 -0.0018355 
-0.000819784 0.00221248 0.00319118 
-0.000353943 0.00188018 0.350498 
0.000429496 -0.00324361 0.667993 
-0.00141036 -0.00253388 0.33616 
-0.00456536 -0.000179959 0.462727 
-0.000359564 0.000182647 -0.00145818 
-0.000417569 0.000213138 0.00132731 
0.000999321 -0.000507717 0.0037753 
-0.00072149 -0.0010729 0.538155 
-0.00395682 0.000341836 0.00263098 
-0.000381576 4.49541e-05 0.00369363 
0.000476367 -3.4984e-05 0.00145359 
0.00457971 0.00351186 0.440922 
-0.0010922 -0.001581 0.00422661 
0.00026898 -0.00167854 0.393792 
-0.00346709 -0.00201143 0.498509 
0.000532443 -0.00240981 0.418545 
0.00109685 -0.0014331 0.00426619 
-0.000983148 0.00158144 0.0021835 
0.000241998 -0.000484445 -0.00246326 
0.00146798 0.000702998 0.462155 
0.000815495 -0.00060718 0.000848316 
0.00109101 -0.000832716 -9.20734e-05 
-0.00198086 0.00150174 -0.00044387 
0.000724547 0.00297996 0.519291 
-0.00104996 -0.00274263 0.00267135 
-0.0025428 0.000439569 0.48603 
-4.37158e-05 -6.99857e-05 -0.00064706 
0.00119368 0.00258976 0.00602493 
0.00141446 0.000103026 -0.000223105 
0.000382721 9.96201e-05 0.00594217 
-0.000233706 -2.80121e-05 -0.000882576 
-0.00133655 0.00336362 0.496876 
-0.000262373 -0.00160328 0.00389063 
-0.00141869 0.000524291 0.0028907 
0.000929989 0.00129055 0.375375 
0.00552181 0.000167541 0.494927 
0.000576838 -0.000517519 0.408254 
-0.00298517 -0.000639635 0.00431918 
-0.00143165 0.000219207 8.07157e-05 
0.0019809 -0.00176333 0.312686 
-0.00109545 0.00236368 0.764169 
0.00290175 0.000388984 0.631711 
-0.00126288 -1.29594e-05 0.401139 
-0.0002332 -0.00157056 0.483745 
0.000169778 -6.86958e-05 -0.00240447 
0.00189418 0.00068732 0.464189 
0.00238003 -0.00254103 0.00299582 
-0.00263108 0.00243239 0.00544925 
0.0014402 0.00322057 0.715427 
-0.000146471 -0.00183874 0.721261 
-0.00197469 -0.00287323 0.937256 
-0.00301225 0.00268304 0.864315 
0.00210401 -0.000349383 0.711181 
-0.00034527 -0.000952516 0.459821 
0.00112673 -0.00135041 0.377267 
-0.0033204 0.00135594 0.525979 
-0.000347802 0.00111424 0.377447 
0.000409659 -0.00200699 0.00463259 
-0.00304985 -0.00328231 0.463635 
-0.000636218 0.00312568 0.441269 
0.00267358 0.00277292 0.00304323 
-0.000807627 -0.000966263 -0.00389039 
0.00144805 -0.00148127 0.337649 
-0.00239799 -0.00216175 0.00478535 
-8.8644e-05 7.87209e-05 0.00235957 
0.00177296 -0.00311349 -0.000159408 
-0.00195702 0.00331223 0.00398076 
0.00259771 0.00150694 0.41774 
-2.59331e-05 -0.000366693 0.00545101 
-0.000211119 0.00249415 0.00253256 
-0.000196268 0.00244854 0.0013629 
-0.000894934 -0.0018923 0.520143 
-0.00204733 -0.00058285 0.381942 
-0.000210005 -0.00135168 0.709986 
0.000568256 -0.000261289 0.460168 
-0.00291716 0.00194058 0.580639 
-1.34682e-05 -1.27718e-05 0.00444787 
-0.00100592 -0.00103469 0.00421941 
-3.89903e-05 -4.03919e-05 -0.000999087 
0.000901097 0.00248554 0.499707 
-0.000953112 0.000926304 0.584194 
0.000266871 -0.000148696 0.507327 
0.000762078 0.00144164 0.818042 
0.00171818 0.00267561 0.846154 
0.00130975 0.001004 1.1116 
0.000163326 0.00175066 1.08841 
0.00384123 -0.00428099 0.944291 
-0.000572559 0.0014584 1.01703 
-0.00147813 0.00108673 0.462131 
0.00417525 0.000135808 0.376217 
0.000573594 -0.0042498 0.00684894 
-0.00201079 0.00453554 0.49491 
0.000868508 -0.00187298 0.432477 
-0.00110253 0.00301255 -0.000903598 
0.000114518 -0.000776887 0.337683 
0.00446588 0.00317229 0.00301835 
7.26373e-05 -4.72456e-05 0.00642012 
0.000403112 0.000925466 -0.000523181 
-0.0010829 -0.0023457 -0.0028695 
6.62991e-05 -0.00421425 0.494032 
-0.00365757 0.00297804 1.12913 
0.00240738 -0.00263052 1.16798 
0.000828289 -0.00115907 1.02488 
-0.00242312 -0.000934309 1.19241 
0.00127412 -0.000446343 -0.000433851 
-0.00173329 0.00198729 0.345487 
-0.000918192 -0.00232162 0.00128866 
0.00384359 0.00404686 0.465885 
-0.000950418 -0.000877685 0.712449 
-0.0013286 -0.000366288 0.54205 
-0.000421224 0.00184794 0.378159 
0.00388477 0.00190397 0.444694 
0.000977118 0.000437031 0.763289 
0.00342421 -0.00406433 0.643158 
-0.00299523 0.00436172 0.427193 
-0.00262358 -0.00178249 0.509789 
-0.00247118 -0.000961172 0.00166714 
0.00283276 0.00132201 0.00726419 
0.000416334 0.000137928 -0.00128115 
0.000823347 -0.00313882 0.464908 
0.00104145 5.1302e-05 0.00259989 
-0.00358655 0.000231588 0.00124774 
-0.000688249 -0.00162307 0.476792 
5.28883e-06 0.000345826 0.442612 
0.00105586 0.00210321 1.20691 
-3.35081e-05 -0.00189977 1.23599 
-0.00218965 0.00167843 1.15448 
0.000587364 -0.000755411 1.21894 
-0.0004033 -0.00299177 0.00348305 
0.00350664 0.000638701 0.00382878 
-0.00483775 -0.000604374 0.405386 
-0.0055308 0.00923819 0.492858 
-0.000432613 0.000809219 -0.00275984 
0.00212583 -0.00447046 0.00663872 
4.41729e-05 0.000232879 0.00470305 
-0.00513177 0.00431581 0.536958 
0.00149753 0.000144581 0.00343834 
0.000513058 6.36796e-05 0.00279025 
0.000504677 6.48221e-05 0.00299345 
-0.000349832 0.00369146 0.449112 
-5.74966e-05 5.997e-05 -0.00242123 
-0.00109928 0.00111479 0.00766137 
-1.59376e-05 1.72595e-05 -0.00175137 
0.00254823 0.000678751 0.483091 
-0.00227376 -0.000934723 -0.0015345 
-0.000503695 -0.00287442 0.00656012 
0.00308662 0.00108084 0.435865 
0.000527852 -0.000111767 0.333154 
-0.000997193 -0.00202074 -0.00431684 
-0.0011467 -0.0033007 0.00649732 
0.00167811 0.00382644 0.00226841 
-0.000717043 0.00215646 0.383054 
-0.000829709 0.00121063 0.69812 
0.000529032 0.0016169 0.652662 
0.00172491 -0.00175797 0.908755 
0.000424779 -0.000402012 0.817064 
0.0021955 -0.000976074 0.750069 
-0.00140805 -0.000955855 0.91952 
-0.000418284 0.00316962 1.03503 
-0.000412981 -0.00125304 0.898538 
0.00134778 -0.00153819 0.00272342 
-0.000795594 -0.00147957 0.476159 
-0.00181241 0.000175375 -0.00308582 
-0.00227062 0.000402458 0.44827 
-0.00200082 -0.00192431 0.362174 
-0.00101384 -0.00117734 0.390871 
0.00206573 -0.000992557 0.00541926 
0.0020172 0.0008242 0.0004684 
-0.000183179 0.0010956 0.00441467 
0.000195737 -0.000264197 0.00559714 
0.000203478 -0.00102639 -0.00273502 
-0.000257822 -0.00179389 0.490702 
0.00366671 -0.00101589 0.71231 
-0.000862158 0.00328873 0.712375 
-0.00029681 -0.00268592 0.942058 
-0.000819226 7.16901e-05 0.87968 
-0.000992066 9.7967e-05 0.00505841 
-0.000464325 4.58524e-05 -0.00117344 
0.000561932 -5.54909e-05 5.0574e-05 
-0.000257734 0.000307037 0.518226 
0.000461253 0.00120092 0.00225036 
-0.00042842 -0.00062118 0.00595629 
0.000205355 0.000240407 -0.00378859 
-0.00455636 0.00022235 0.448781 
-0.000475927 -0.00104874 0.00177754 
-0.000250924 -0.000581648 0.00357684 
0.000661577 0.00140962 0.00196131 
0.0016438 -0.00284035 0.493391 
-0.000201422 0.000210903 0.000760172 
-5.28717e-05 6.82823e-06 -0.00337656 
0.00115128 -0.00101248 0.00987555 
-0.00322414 -0.00230663 0.505345 
-0.000418272 -0.000107702 -0.000770353 
0.000406032 9.00599e-05 0.00359422 
-0.00110192 -0.000304942 0.0021361 
-0.000226529 0.000388088 0.54747 
0.00223609 -0.0022392 0.910277 
-0.00264298 0.000139223 0.853539 
-0.000229813 0.000481726 0.697791 
-0.000850956 0.00101711 0.816076 
2.42043e-05 -0.000341861 0.00150713 
0.00132419 -0.000110124 0.326451 
-0.000105773 0.00149394 9.2572e-05 
4.40575e-07 -6.22157e-06 0.00112937 
-0.00120366 0.00158874 0.554444 
0.000543013 0.000963561 0.76492 
0.00175378 -0.00218073 0.398498 
0.00124391 0.000373193 0.416035 
0.0012408 0.00201653 0.901268 
-0.00252118 -0.00311898 0.634321 
0.00240706 -0.00289336 0.871208 
-0.00285301 0.000220871 0.793841 
-0.00214765 0.00253301 0.375104 
0.0043703 -0.00136636 0.00781431 
-0.000243913 -0.0028896 0.000855676 
-0.00626368 -0.000688853 0.504766 
2.73456e-05 -5.62024e-06 0.00520585 
0.00133967 0.00138043 0.00118815 
-0.00079356 -0.00081102 -0.00172941 
0.00463746 -0.0014354 0.499299 
0.000516541 0.00154543 0.00899869 
0.000385277 0.00156498 -0.00279431 
-0.000756834 -0.00283002 -0.000141782 
-0.00260297 -0.000170925 0.442582 
2.59761e-05 -3.48304e-05 0.0023208 
0.000101356 0.00139056 -0.000172726 
0.000271898 0.0025159 0.00687848 
0.00121632 -0.00244494 0.464271 
0.00139367 -1.70295e-05 0.483231 
0.00688561 -0.00164806 0.381653 
-0.0035641 0.000719255 0.00265228 
-0.00124892 -0.00235377 0.00535954 
0.0024521 0.00261353 0.639486 
-0.002926 -0.00254312 0.425126 
-0.00072404 0.00187434 0.772125 
0.0011671 -0.000740672 0.481043 
-4.05147e-05 0.000791572 0.348437 
0.0023828 0.000774215 0.581248 
0.000179272 -0.00370239 0.672799 
-0.00458032 0.00110887 0.459882 
-0.00158437 0.000307835 0.939182 
0.00290885 -0.00244103 0.942659 
0.000500264 0.0026707 1.09339 
0.000102418 -0.00180326 1.01287 
0.00420939 -0.00212923 0.64688 
-0.00135863 -0.000553316 0.70194 
-0.00406739 0.00156897 0.399027 
-0.000140492 0.00210508 0.481889 
-0.000749934 -0.00314637 0.00353785 
0.000426612 0.0018083 -0.00166638 
0.000162355 0.000916998 0.00366287 
0.00720442 -0.00131142 0.495596 
-0.000397642 0.00232069 0.00380155 
0.00052702 0.00117113 0.00473304 
0.00116973 -0.00174524 0.374704 
-0.000704201 -0.00589572 0.539404 
-0.000688818 -0.00125016 0.474309 
0.00244988 0.00425197 0.378065 
0.00143409 -0.000680995 0.00481014 
-0.000151292 0.000560069 0.44225 
7.58413e-05 0.00236854 0.46946 
-0.000771962 -0.00287253 0.00365389 
0.00081488 0.00506712 0.380899 
-0.00143584 -0.00312275 0.00424356 
0.00283048 0.000534911 0.904977 
0.000693335 -0.000735536 0.638145 
-0.00338883 -0.00128712 0.756291 
-0.00153854 -0.00181885 0.863781 
0.000935339 0.000454353 0.32282 
0.0018245 0.000455876 0.396785 
-0.00143993 -0.00193218 -0.00251636 
0.00225972 -0.00186191 0.00224912 
0.00207069 0.00101148 0.710776 
0.000597701 0.000296097 0.375385 
-0.000200023 -4.57376e-05 0.462046 
-0.00311586 0.000710564 0.525104 
-0.000504019 -0.00449302 0.381629 
0.00045613 0.00299826 0.00258594 
-0.000109214 -0.00500798 0.460466 
-0.00200656 0.0019536 0.00367824 
0.000210482 -6.13388e-05 -0.00111527 
0.00254413 -0.00119216 0.00351347 
-0.0031219 0.00123941 0.00411471 
-0.000334646 0.00208134 0.458153 
0.000693881 -0.00351057 1.00275 
-0.00117634 0.000519918 0.779433 
0.00201456 0.00043748 0.972347 
-0.00166552 0.00201795 0.875391 
-0.00081437 -0.00201851 0.390786 
0.00137731 -0.000241511 0.00390262 
0.00189005 -0.000439164 -0.000990215 
-0.00267008 0.000609864 0.00077785 
0.00214946 -0.00125064 -0.00152489 
-0.0016862 0.00195681 0.32668 
-0.000564294 0.00123833 0.430854 
0.00194666 0.00158316 0.00371362 
-0.00300414 0.00421345 0.00394277 
0.000697096 -0.00107957 0.000599881 
0.00204794 -0.0032123 0.00236783 
-0.00356942 -0.000142378 0.461071 
0.00300776 0.00237993 0.94044 
-0.000826717 0.000804139 0.715 
-5.42205e-05 -0.00279216 0.938492 
-0.00154189 0.00254871 0.908725 
-0.000448217 -0.00219904 0.315927 
0.000940108 6.5238e-05 -0.000936212 
-0.000359114 -2.49206e-05 0.00015797 
0.000219241 1.5214e-05 0.00210209 
0.000737926 -0.00112196 0.311517 
-0.00205856 -0.000189616 0.40121 
0.00240532 0.000508586 0.63369 
0.000239757 -0.00193349 0.479763 
-0.00306447 0.00136393 0.00824407 
0.00069383 -0.000284596 -0.00382698 
0.00119388 -0.00055891 -0.000981912 
0.00411931 0.00362783 0.461293 
0.00155122 -0.00103653 0.376279 
-0.00388046 -0.000607701 0.710475 
-0.000941388 0.00138524 0.465813 
0.00309992 -0.00130221 0.487197 
-0.00536818 -0.00119739 0.464698 
0.000546809 0.000780544 0.380788 
0.00230366 0.00103304 0.708097 
-0.00217307 -0.00392983 0.702256 
0.00162639 0.00215521 0.368998 
0.000185224 0.000730992 0.3144 
-0.00130646 0.00265003 0.00423204 
-0.00134192 -0.00101792 -0.00136631 
-0.00134831 -0.00286551 0.963681 
-0.000208881 0.00211073 1.11688 
0.00142519 -0.00164228 0.922655 
-0.0003404 0.000923933 1.06141 
7.51356e-05 -0.00107088 0.00199657 
-3.23216e-05 0.000460666 0.00132096 
-0.0020711 0.00222977 0.345944 
0.000157055 -0.00223844 0.000107235 
-0.000602139 0.00248683 -0.00234702 
-0.000150047 0.00111219 0.00481237 
-0.00303288 -0.000998131 0.404375 
0.000933899 -0.00401405 0.00191903 
0.000441122 -7.42383e-05 0.00421954 
0.000638264 -6.70044e-05 0.00197465 
0.00269863 -0.000229591 0.00285917 
-0.00317127 -0.00122172 0.503919 
-0.000782342 5.7278e-05 -0.000725405 
0.00186773 -0.00264227 0.364905 
-0.000659884 4.83124e-05 0.000757788 
0.000250537 -1.83428e-05 0.00290595 
-0.000366079 0.00118005 1.11814 
-0.000804821 0.000435984 1.19062 
-0.000703807 -0.00377129 1.20891 
-0.00157847 -0.000760794 1.15252 
-0.00250267 -0.00112916 -0.00127039 
-0.000408418 -0.000109497 0.00492124 
-0.00204356 -0.000864745 0.0028908 
0.00503901 0.00327627 0.489294 
-0.000674457 -0.000137 0.00158235 
0.0027671 0.000699312 0.00431749 
-0.000277407 -8.66969e-06 0.00440611 
-0.00144017 -0.00268704 0.53871 
0.00123837 -0.000283829 0.464049 
0.000424935 0.000364094 0.374228 
1.87743e-06 -0.00155345 0.711747 
-0.00124631 0.00316192 0.437344 
0.000919973 -1.69597e-05 0.00403349 
-0.000873166 9.31832e-05 0.00211591 
-0.00349186 0.000288295 0.00195727 
0.00348882 0.00192202 0.50084 
-0.000322288 -0.00128476 -0.00204561 
-0.000638639 -0.00195901 0.00119853 
0.000387721 0.00181899 0.00490776 
-0.00382293 0.00361075 0.452284 
-0.000562143 0.000120959 0.000851252 
0.00131431 -0.000319329 0.00270204 
-0.000823535 0.000150315 0.00470191 
0.00207164 0.00419374 0.512435 
0.000710054 5.02729e-05 2.06038e-06 
-0.000820021 -5.80586e-05 0.00171665 
-0.000255669 0.00212233 0.328685 
-0.00132694 -9.39492e-05 0.00027438 
-0.000418267 -0.00155123 0.453227 
0.000350078 0.00232114 0.711853 
0.000878365 0.000608396 0.377981 
-0.00354949 -0.00283905 0.521117 
0.000300953 0.00124678 -0.0010934 
0.000383375 0.00097865 0.00586044 
-7.77691e-05 -0.000349479 0.000607381 
0.00188857 -0.00182208 0.496563 
-0.00125757 0.00193471 0.00383604 
0.00304686 -0.00448137 0.0037006 
-0.000746828 0.00117165 0.00370911 
-0.00356613 -0.00184252 0.477499 
0.00144616 0.00183513 0.00561833 
0.00249219 -0.00173278 0.460887 
-0.00300539 0.00239717 0.37655 
-0.00368213 -0.00339329 0.495096 
-0.000634633 -0.000510841 0.645754 
-0.00105303 0.00424714 0.617005 
0.000671183 -0.00404326 0.375192 
0.00244718 -0.00143777 0.476563 
-0.00226648 0.00303568 0.4813 
0.000661526 -0.00297067 0.379164 
-0.00127302 -0.00170154 0.00590691 
0.00390664 0.00207033 0.483183 
-0.00119393 0.00294276 0.431737 
0.00216312 -0.00232285 0.642994 
-0.000337096 -0.000435848 0.327541 
-0.00351352 -0.00213783 0.503282 
0.000275858 0.00395239 1.23847 
0.000496807 -0.00406501 1.13903 
0.000463397 -0.000408894 1.16637 
0.00381915 0.00141951 1.24373 
-0.00132858 0.00372081 0.00459807 
0.00644705 -0.000792443 0.380419 
-0.00391895 0.00118977 0.00369653 
0.000104486 -0.000158861 0.454946 
-0.000168714 -0.000617419 0.000370426 
-0.000540989 -0.00195436 0.00164456 
0.000628812 0.00266458 0.0051481 
0.00271079 0.000381923 0.452155 
-0.00246745 -0.000475253 0.00310652 
-0.00115574 -0.000270123 -0.000905599 
0.0020922 0.000481985 0.00129102 
0.000726253 -0.00124312 0.407448 
0.000291499 -0.000318071 0.309744 
0.00102299 -0.000961287 -0.000852166 
-0.00264583 -0.00132098 0.00215803 
-0.00209896 0.000849298 0.352065 
-0.00133881 0.00209309 -0.000931137 
0.00214996 0.0013784 0.0038348 
0.000668445 -0.000319865 0.328921 
0.00212133 -0.00198672 0.428536 
0.0012345 0.000253309 0.316202 
0.00267067 -0.00128629 0.646579 
-0.00335772 0.000522855 0.402962 
-0.00115073 0.00345479 0.477093 
-0.00246934 -0.00129747 0.757528 
0.000955772 0.002934 1.00522 
0.00195456 9.34695e-05 0.90685 
-0.00130724 -0.00138966 0.861173 
0.000510453 -0.000493179 0.00318307 
0.00100801 -0.000970388 0.000444516 
-0.000356444 0.000343319 -0.000456359 
0.00115717 0.000738724 0.441181 
0.000583815 -0.00334486 1.13767 
0.000543031 0.00289567 1.18162 
0.000815614 0.00339722 1.23861 
0.00141571 0.000424373 1.16351 
-0.00189459 0.00169293 0.00528522 
-0.00161217 -0.00120215 0.404721 
-0.0019801 -0.00165185 0.344453 
0.00164984 0.00241352 -0.00111904 
-8.42556e-05 0.000132509 -0.000543604 
-0.000397027 0.000446271 0.00751924 
-0.000229015 0.000333337 4.10914e-05 
-0.00302363 -0.00215983 0.505076 
-0.000709574 -0.0016326 0.00119774 
-1.51737e-05 0.000114099 0.00632668 
-0.00103964 -0.00235084 0.00349605 
-0.000159444 0.00296489 0.489523 
-6.75139e-05 0.000858973 0.472849 
-0.00249465 0.00238552 0.382884 
0.00176124 -0.000797227 0.00304825 
0.00358172 0.000695511 0.00266056 
0.0011347 -0.000783304 0.004184 
0.00268695 -0.00546953 0.382739 
-0.00113549 0.00285127 0.00339144 
0.000609368 -0.00267963 0.474805 
-0.000463943 -3.99254e-05 0.000105201 
0.000382806 3.29432e-05 0.00428912 
0.000561469 4.83183e-05 0.000965191 
-0.00025869 0.000521506 0.514672 
-0.000635595 0.00343152 0.61517 
0.000142182 0.000500865 0.30743 
0.000135548 -0.00357202 0.379136 
0.00274825 -0.0013886 0.473478 
0.00134071 0.000315481 -0.00138847 
-0.00267091 -0.000588943 0.00450431 
0.00108105 0.00040235 0.00538409 
0.000887145 -0.00138623 0.443787 
-0.00414992 -0.00085493 0.381577 
-0.00173573 -0.00196896 0.46235 
0.00159307 0.000989922 0.00178509 
0.00320316 -0.00161966 0.0038681 
-0.00094204 -0.000657709 -0.00102559 
0.00181036 0.00122704 -0.00140788 
0.000304098 0.000315776 0.00980274 
-0.00134272 0.00409307 0.475528 
-4.1667e-05 6.12235e-05 -0.00011583 
-9.09548e-06 1.3325e-05 -7.89675e-05 
0.000817446 -0.0011986 0.00568754 
0.00213038 0.000278551 0.47767 
0.00117075 -0.00338012 0.79399 
-0.00221292 0.00170237 0.720557 
0.000934389 0.00427917 1.02116 
0.000719442 -0.00207549 0.83774 
0.000766332 -0.00094056 1.10732 
-0.00403717 -0.00258174 1.18838 
0.00175332 0.0050132 1.17752 
-0.00161899 -0.00166703 1.22046 
-0.000781531 0.00306018 0.429209 
-0.00391771 -0.000970101 0.00421515 
0.00227037 0.000557844 -0.00223284 
0.0013465 0.000244799 0.00283342 
-0.00194072 -0.00047313 0.00417634 
0.00139348 0.000310802 -0.000289549 
0.000456867 6.27615e-05 0.00357208 
-0.00221834 0.00356872 0.491293 
-3.26538e-05 0.00020434 -0.004976 
-0.00198473 -0.00332011 0.00538156 
-0.00168154 0.00195666 0.37856 
0.00185918 0.00271323 0.00272009 
-0.00122227 -0.00133073 0.00827909 
0.00135627 0.00141122 -0.00382649 
-0.00066749 -0.000683988 0.00101889 
-0.00151936 0.00472044 0.478389 
-0.00189518 -0.00229022 0.377866 
-0.000392478 0.000326982 -0.00537908 
0.00209252 -0.00292069 0.00565436 
-0.00155869 0.00256557 0.00341473 
0.00184062 -0.0026129 0.378852 
-0.0023643 -0.00143444 0.00320585 
-0.000476933 -0.000494636 -0.00551119 
0.00322012 0.00230976 0.00631533 
0.000546036 0.00259567 0.709075 
-5.18435e-05 -0.00132808 0.469148 
0.00151343 0.00115809 0.375825 
0.00149821 -0.00242277 0.545017 
0.00148971 -0.00100481 0.00244906 
0.000869177 -0.000625914 -0.00153339 
-0.0016811 0.001213 0.0031452 
0.0037131 0.00352009 0.459012 
0.000763585 -0.000226466 0.707443 
0.00105558 0.000461373 0.474529 
-0.00159975 -0.000966462 0.388195 
-0.00217863 0.00254357 0.535525 
0.000711975 7.04041e-05 -0.000711905 
-0.000111204 -1.09965e-05 0.00556846 
0.000239711 2.37039e-05 0.00230083 
-0.0016633 -0.00245833 0.444069 
0.001967 -0.00228473 0.454316 
-0.00228699 0.000623398 0.381114 
-0.000865279 -0.00148228 0.710626 
0.000973569 0.00294559 0.501044 
0.000739185 -0.000405977 0.333448 
-0.00194337 -0.000632045 0.426468 
0.00109426 0.00157215 0.642904 
0.00155031 -0.0022594 0.474104 
0.00448012 0.000803571 0.394138 
0.000593302 -0.00240208 -0.00251198 
0.00028147 -0.0014723 0.00243134 
-0.00123912 0.00499193 0.00551668 
0.000666408 0.000939754 0.376029 
-0.000449172 0.000774479 0.708807 
-0.00171989 -0.00153326 0.481026 
0.00424671 -0.00149149 0.47906 
-0.000188362 0.000655651 0.00508211 
0.000319464 -0.00146785 0.00175766 
-0.000582687 0.00253392 0.000974504 
0.00369276 -0.00107854 0.490548 
-0.000512314 0.00230026 0.00398329 
-0.00178008 -0.00135526 0.482999 
0.00361456 0.00111182 0.0048808 
-0.00593857 -0.00141515 0.37983 
-0.00244735 0.00129563 0.381301 
-0.00488035 0.00054161 0.479926 
0.00307962 -0.00147997 0.0037581 
0.000610308 -0.00274126 0.00515352 
0.00338781 -0.00118736 0.491384 
-0.00263995 -0.000310895 0.82337 
-0.00210752 0.000503049 0.586084 
0.00365731 0.00143698 0.50194 
-0.0020812 -0.00228489 1.20759 
0.000254894 -0.00136786 1.11991 
0.00353452 0.000957506 1.07452 
0.00212501 -0.000693834 1.15352 
-0.000955007 -0.00224876 0.462022 
0.00255993 -0.000176992 0.00543408 
0.0015393 0.00338749 0.00377454 
-0.00255684 -0.00459919 0.381069 
-0.00380103 0.00181668 0.00594396 
0.000461571 -0.000138942 0.00193974 
0.00109868 -0.000559108 -0.00282624 
0.00496983 -0.00104058 0.498622 
-0.00191021 0.000739946 0.00229204 
-0.00137583 0.00231138 0.0040914 
0.00286557 -0.00164092 0.399282 
-0.000158693 -0.00480644 0.417293 
-0.00366678 -0.000463859 0.00209206 
0.00372103 0.00066203 0.461769 
-0.000855198 0.0022592 0.00290259 
0.00244617 -0.00015988 0.380645 
-0.000133742 -0.000597567 -0.00401495 
-0.00149018 -0.00304829 0.00585104 
0.000645668 0.0018577 0.00498886 
0.00527579 0.00349674 0.490348 
0.000532632 0.00205213 0.81431 
0.00025899 -0.00258943 0.978279 
-0.00250117 0.000103687 1.0342 
0.00246449 0.00113649 0.915191 
-0.0012978 0.000336416 -0.00272496 
0.000475308 0.00173791 0.312743 
-0.00118869 0.000129756 0.0062582 
0.00169071 -0.000326837 -0.00191856 
-0.000620802 -0.00133205 0.0028823 
9.66395e-05 0.000241636 0.00307107 
0.00063828 0.00140089 0.000254371 
-0.00603436 -0.00239176 0.49491 
-0.0020111 -0.00459391 0.381986 
0.000950216 0.00352927 0.00335688 
-0.000648522 -0.00120649 0.48223 
-0.00188277 0.00243214 0.00427574 
0.00208636 0.00233777 0.382375 
-0.00178861 -0.00108958 0.00220239 
-0.00270787 0.00151427 0.00348166 
-0.000695613 0.00231392 0.459118 
0.000643094 -0.000620339 0.000157237 
0.000533589 -0.000503505 0.002379 
-0.000766209 0.00075197 0.00239587 
0.00102152 -0.000643806 0.441466 
-0.00438502 -0.000385507 1.18756 
-0.000832767 -0.000435038 1.22103 
0.00433756 -0.000197591 1.24427 
0.00103483 -0.00243154 1.22063 
-0.000926325 0.00031347 0.465603 
0.00479815 -0.00293549 0.00408883 
-0.00349289 0.00142141 0.377586 
-0.0046286 -0.00261104 0.00451896 
0.0014303 0.00250119 1.23759 
-0.00125874 -0.00217048 1.20759 
0.00326828 -0.00202041 1.14821 
-0.000929193 0.00127449 1.23488 
0.000265781 0.00109208 0.374049 
-0.00148116 -0.002098 0.465699 
4.71882e-05 -0.00179124 0.711722 
-0.00112603 0.00230493 0.436717 
-0.00113832 0.00151497 0.483276 
0.000878876 -0.00375147 0.00483448 
-0.00187112 0.00489912 0.381008 
-0.00190164 -0.00391181 0.00519993 
-0.00149607 0.00312952 0.748749 
0.00141096 -0.00363214 0.398366 
-0.00136754 -0.000890781 0.643767 
0.00186272 -0.00249426 0.562409 
-0.000691475 0.00203986 0.00289328 
0.000210077 -0.00101446 0.00388697 
-0.00178 -0.000348705 0.402603 
0.000530255 -0.00153518 -0.00256979 
0.00351161 0.00374731 0.00546124 
-0.00010015 0.000531102 0.46494 
0.0034934 -0.00380977 0.00554863 
-0.00385505 -0.00332313 0.378788 
0.00013931 0.00384367 0.435154 
0.00239911 -0.00200877 0.784692 
-0.00011865 -0.00168557 0.593545 
-0.00386139 0.000488326 0.479537 
0.00157067 -0.00220082 0.00195912 
0.00209555 0.000260314 0.000679585 
-0.00113713 0.00166627 0.278591 
-0.00425779 -0.00117664 0.420534 
-0.00192931 0.00179658 0.487756 
0.00154133 -0.00111494 0.324591 
0.000383289 -0.00173338 0.579838 
-6.96759e-05 0.00113177 0.44536 
0.00168138 0.00183441 1.23901 
0.00109422 -0.00225597 1.17056 
-0.00318412 0.00106452 1.13225 
-0.000669633 -7.51864e-05 1.18587 
-0.00291394 -0.00241006 0.00338103 
-0.00296866 0.0013399 0.00346346 
0.00355289 -0.00198915 0.381711 
0.000734158 -0.000637105 0.463352 
-0.00221157 0.000483973 0.280492 
0.00360041 -0.00140769 0.39964 
-0.00132582 0.00050909 0.00702958 
-0.000331909 -0.00263529 0.413641 
-0.000463593 0.000570086 0.00552348 
0.00128785 -0.00234077 -0.00501411 
0.00045498 -0.00111154 0.00211147 
-0.000352321 -0.000135979 0.419944 
-0.00060003 -0.00267856 -0.000173182 
0.00054463 0.0021915 -0.00245341 
0.000121117 0.000959311 0.00459355 
0.000896101 -0.000542895 0.328075 
-0.00219488 0.00273141 0.907654 
0.00158564 0.00170018 0.963253 
0.00324016 -0.00344456 0.675809 
-0.000760655 -0.00104416 0.790246 
-7.68402e-05 -0.000956506 0.00209707 
-0.00139308 8.14113e-05 0.00329546 
0.000435929 -7.65704e-05 0.376702 
-0.000359832 0.00331583 0.443867 
0.00303518 0.0019663 0.00183253 
-0.00010986 5.67185e-05 -0.00400632 
-0.00200358 0.00244343 0.382467 
-0.0030295 -0.00213069 0.00334869 
0.000153032 2.01177e-05 0.00455173 
-0.00303341 -0.00131974 0.00240973 
-0.00117566 -0.00052514 0.00230641 
0.00593408 0.00139141 0.488903 
-0.00342299 -0.00330207 0.00468351 
0.0049472 0.00298075 0.379252 
0.00328562 0.0033289 0.463147 
-0.00472695 0.00240187 0.00663025 
0.00212117 0.00487064 0.378148 
0.0032299 -0.00337623 0.00652488 
-0.00329167 -0.00478761 0.0045564 
0.00156773 0.00161508 0.461985 
0.00196926 -0.000613009 0.463956 
0.00384274 -0.00358448 0.379276 
-0.00438814 0.00446211 0.00527922 
-0.00351808 -0.00336987 0.00563026 
-0.00159781 0.00165881 0.940969 
-0.00201359 -0.002818 0.944265 
0.00360329 0.00251941 1.11227 
0.000975557 -0.000716977 1.03091 
0.00343437 0.00356558 0.00629321 
-0.00126228 0.000400661 0.463802 
0.00499016 -0.0042807 0.00509841 
-0.0054111 0.00305431 0.377981 
0.000950176 0.00125092 0.472691 
-0.00191472 -0.00346497 0.00401485 
0.002486 0.00641248 0.381108 
-0.00386921 -0.000977168 0.00575281 
0.00106734 -0.00129117 0.713718 
0.00238233 0.00304189 0.382325 
-0.00101277 -0.00105084 0.466336 
-0.000208238 0.000865583 0.439568 
-0.00299496 -0.00096412 0.00465647 
0.00124562 0.00125232 0.00147328 
-0.000444547 -0.00240472 0.376514 
0.00624992 -1.1219e-05 0.490974 
0.000108206 8.8131e-05 -0.00404406 
-0.00203344 0.000444955 0.00574672 
3.65507e-05 -0.000942202 0.388701 
0.00161672 -0.000518552 0.000940391 
0.00299503 0.000342163 1.08299 
0.00042076 0.000933941 1.18358 
0.000588848 -0.0021266 1.13718 
0.00166702 0.0024344 1.1602 
-3.43905e-05 -0.000314308 0.474674 
-0.00495467 -0.00177307 0.00469508 
0.00211508 -0.00272298 0.00572308 
0.00525403 0.00155253 0.380815 
0.00416513 0.00350429 0.00458874 
-0.00342834 -0.00371505 0.377311 
-0.00388842 0.00342476 0.00486573 
-0.00135779 -0.000600517 0.465936 
0.000892709 0.001698 0.38117 
-0.00234008 -0.00255066 0.00825263 
0.00100024 0.00114353 -0.00206563 
0.000620036 0.000667589 -0.00241281 
0.00220645 -0.00124044 0.381142 
0.000832354 0.000734227 -0.00170912 
-0.00122131 -0.00124541 0.00812606 
2.41743e-05 8.10541e-05 -0.00204615 
-2.9453e-05 -0.00252783 0.380515 
0.000831641 -0.000953809 -0.00163352 
-0.0014774 0.00150516 0.008094 
-5.1918e-05 0.000150145 -0.00238334 
-0.000690296 -0.00139935 0.481466 
0.00307437 0.00112176 0.0043755 
-0.0001342 0.00553425 0.00246073 
0.00104005 -0.00599879 0.381463 
0.00021447 0.000758336 -0.00368318 
-0.00076274 -0.00218734 0.00552326 
0.000223198 0.000394516 0.00203412 
-0.000763112 0.00189606 0.448893 
-0.00185016 0.00123473 0.0027767 
0.00163402 -0.00113578 0.00128616 
-9.72864e-05 5.0684e-05 0.00132164 
0.000471353 -0.00199376 0.422962 
0.000273047 -0.00748803 0.379636 
-0.000851457 0.00588133 0.00222907 
-0.000986953 -0.00119195 0.462754 
-0.00342953 -0.00179857 0.00521717 
0.00341623 0.00350032 0.00563047 
0.00338594 -0.00442007 0.378912 
-0.00368709 0.00344587 0.00408848 
0.00229229 -0.00189102 0.462675 
0.00110223 -0.00250802 0.399055 
-0.00153012 0.00324431 0.747978 
0.00220268 0.000540381 0.410986 
0.002255 -0.00391066 0.562627 
-0.00217386 0.00278873 0.00333451 
0.000618635 -0.000811603 -0.00137775 
0.00174089 0.000427496 0.440266 
0.0014444 -0.00164911 0.00264383 
0.00184276 0.00127383 0.381374 
-0.000852325 0.00200188 0.00798498 
0.000279185 -0.000578553 -0.0011025 
-6.00833e-05 -3.19389e-05 -0.00282995 
0.00501175 0.000926307 0.00345445 
-0.00328705 0.000404428 0.467684 
-0.00510472 -0.00030574 0.380937 
0.00243043 0.00280571 0.00511988 
9.54726e-05 -0.000119831 -0.00252349 
-0.00227732 0.00130076 0.00306284 
0.00243245 -0.00122428 0.00278357 
0.000990958 -0.000159261 0.405333 
-0.000247768 -0.00097094 -0.00184633 
-0.000303193 -0.00192168 0.0055322 
0.000489584 0.00241074 -0.00157962 
-0.00185639 0.000325312 0.30642 
-0.00256002 -0.000125874 0.375329 
0.000580248 -0.000173652 0.463794 
-0.000245054 0.00283593 0.708717 
0.00104475 -0.00228888 0.495346 
-0.000328421 0.000655641 -0.00438459 
-0.00110631 0.0015407 0.00141715 
0.00149479 0.00231105 0.378833 
0.00165887 -0.00258691 0.00458102 
0.00132645 0.00119217 0.00300865 
0.00182126 0.00138251 -0.00325791 
-0.00192609 -0.00145808 0.00356177 
-0.00155289 -0.000162185 0.399524 
0.00104638 -3.13464e-05 0.37874 
-0.000788653 0.000721622 0.457943 
0.000228425 -0.00157546 0.711699 
-0.00197046 0.00393722 0.489451 
0.00217808 -0.00334032 0.00602054 
0.0060102 -0.000567685 0.00291509 
-0.000955509 -0.000354445 0.459077 
-0.00637302 -0.000435969 0.38037 
0.000420592 -0.000244687 -0.00162136 
-0.00202271 0.00131836 0.00283621 
0.000795249 -0.000578067 0.00097782 
-0.00219412 -0.00231851 0.423584 
0.0022416 -0.00107085 0.93845 
0.00106705 0.0021904 0.712772 
-0.00266058 -0.00250572 0.942303 
-0.00278849 0.00192938 0.859886 
0.0022189 0.00368469 1.24152 
-0.00190462 -0.0013133 1.22368 
-0.000871301 -0.00153535 1.203 
-0.00130526 0.000711916 1.23279 
0.00246397 0.000566159 0.392902 
-0.000366508 0.00156364 0.00408308 
-0.000183643 0.000422313 -0.00210316 
0.000512194 -0.00147724 0.00242663 
0.00154288 0.000421639 -0.00383201 
0.00120082 0.00361909 0.379624 
0.00165842 0.000350714 0.000928363 
-0.00349039 -0.000877731 0.00492033 
0.000331907 0.0013123 -0.00193447 
0.000587399 0.00292222 0.00314894 
0.00456678 -0.000136072 0.378014 
-0.00105879 -0.00454046 0.00228968 
0.00143712 -0.000400421 -0.00393459 
-0.00218976 -0.00348956 0.377606 
-0.00403416 0.00105865 0.00783104 
0.00166709 -0.000384003 -0.00060736 
-0.00252862 -0.0034994 0.00587706 
0.00161721 0.00250635 0.00166924 
0.000511023 0.000544083 -0.00448845 
0.00360337 -0.00329889 0.378274 
-0.00247506 -0.00378256 0.378105 
-0.00224282 0.00161054 0.00346068 
-0.000464944 0.000148118 -0.00491568 
0.00278179 -0.00170409 0.00460751 
0.00125402 0.000453652 0.00277394 
0.000759048 0.000136023 -0.0035686 
-0.00166327 -0.000390806 0.00430739 
-0.000767736 0.000965937 0.428418 
-0.000877046 -0.0015254 0.00226309 
0.00108906 0.00222025 0.00358309 
0.000575952 0.000917524 -0.00313696 
-0.00112827 -0.000493137 0.378154 
-0.00155449 0.00092472 0.596348 
0.000654272 0.000751055 0.349093 
0.000348477 -0.00129598 0.353312 
0.000154874 0.00169899 0.448065 
0.000554704 0.00202365 -0.00265716 
-0.00146061 -0.00518151 0.0053077 
0.00069751 0.00217686 0.000883408 
-0.0011914 0.00130439 0.451369 
4.91242e-05 0.000134007 -0.00458437 
0.0029254 -0.00208158 0.00427733 
-0.00381117 0.00240936 0.00276366 
0.00283247 0.00281639 0.374122 
-0.000202557 -0.00255117 0.368898 
-3.5599e-05 4.00823e-05 -0.00072607 
-0.00243059 0.00120799 0.00314452 
0.0023041 -0.00128482 0.00183668 
-0.000383367 0.00143213 0.383028 
-0.000705079 -0.000209618 0.000169911 
0.0015076 0.000632451 0.00697695 
0.000848115 0.000188192 -0.00275218 
-0.00380463 -0.000595651 0.38129 
0.00144473 -0.000597467 0.00633721 
-0.0012486 0.000357741 0.000836566 
0.00155836 -0.000420698 -0.00207074 
0.00192543 -0.00308189 0.383853 
0.000704551 0.00171801 0.00729982 
0.000151341 0.000547586 -0.00058777 
-0.000606659 -0.00179445 -0.00248048 
9.9159e-05 -0.000627388 -0.00418179 
0.00119557 -0.00198154 0.00559319 
-0.000972431 0.00225377 0.00189249 
0.00188503 -0.001264 0.419723 
-2.91322e-05 -0.000295007 0.00318764 
-2.31184e-05 -0.000234109 0.00234526 
4.49304e-05 0.00045499 0.00114124 
0.00137155 -0.000760075 0.437474 
-0.000260794 -0.00130436 0.00120049 
-0.00395312 1.10931e-05 0.37911 
-0.000222581 -0.000651276 -0.0038923 
0.000778686 0.0031097 0.00476941 
0.00214797 -0.00281062 0.004047 
0.000596278 -0.000693293 -0.000696579 
-0.00149649 -0.000837974 0.497156 
-0.00252267 0.00296098 0.00236367 
-0.00107072 -0.00257171 1.21117 
0.00352053 0.00125825 1.07335 
-0.000602573 0.000497068 1.1187 
-0.000669033 -0.00118927 1.14849 
-1.63162e-05 0.000402635 -0.00206143 
0.00022939 0.00195838 0.00134451 
-0.000121521 -0.00257214 0.00485459 
0.00178274 -0.000342277 0.431872 
0.00282042 0.00552543 0.382174 
0.00141477 -0.00369539 0.00319571 
-0.00201786 -0.00534285 0.003354 
7.24344e-05 0.00365534 0.454396 
-0.00152466 0.000427649 -0.00406193 
0.0042451 -0.0011077 0.0072991 
-0.00150112 0.000343855 -0.000269308 
-0.00046671 0.00433027 0.377791 
-0.00144376 0.00204126 0.383131 
-0.000999201 -0.00252219 0.00779598 
0.000416224 0.00131646 -0.000562078 
-0.000215688 -0.000901234 -0.00192142 
-0.00219117 0.00282877 0.908455 
0.00216513 -0.00204128 0.677274 
-0.00122398 -0.00153901 0.633058 
-0.000147523 -0.00217191 0.786826 
-0.000334674 0.000441842 -0.00558817 
-0.00129057 0.00101652 0.00142475 
6.53923e-05 0.0013921 0.330474 
0.00192356 -0.00173193 0.00512422 
5.37091e-05 0.000941631 0.00244328 
-0.000108179 -0.000908568 0.00196016 
-0.00030114 -0.00321318 0.000692813 
-0.00340388 0.0012763 0.436102 
0.000829325 -0.00025531 -0.000141521 
-0.00163114 0.000682314 0.0071012 
-0.00128289 0.000340084 -0.00185852 
0.00149654 0.001814 0.381671 
-0.0030203 -0.00134308 0.0076517 
0.00160108 0.00082368 -0.00090584 
-0.000556626 0.00160182 0.3837 
0.000901213 0.000389067 -0.00261281 
0.000362853 0.000570789 -0.00199243 
0.000299366 0.000993679 0.00799485 
-0.000781877 -0.00156629 -0.0019083 
-0.00238918 0.000367879 0.381345 
-0.00114657 0.000806553 0.381375 
0.00102689 -0.00238473 0.00854457 
-0.00100939 0.00202549 -0.00252655 
0.000152083 -0.000184353 -0.0018465 
0.000228379 0.000172799 -0.00174938 
-0.00230686 -0.00116243 -0.00243512 
0.00222487 0.00094786 0.00832339 
-0.00116152 -0.00140252 0.381817 
0.00348391 -0.00240887 0.00396077 
-0.000153394 0.00130358 0.461544 
0.000780706 -0.00495312 0.00305257 
-0.00141326 0.00573547 0.379279 
0.00072156 -6.20953e-05 -3.10102e-05 
0.000242938 -2.09065e-05 0.00063685 
0.000288755 -2.48494e-05 0.00330769 
-0.00178992 -0.000707797 0.442737 
-0.00178944 0.000231473 0.586707 
-0.00100461 0.00184316 0.329679 
0.00284829 -0.00113041 0.492725 
0.00302907 0.00237364 0.49833 
-0.000858688 0.00318072 0.456887 
0.00133281 -0.00428475 0.00259678 
0.00297059 -0.000347899 0.00361269 
-0.000662257 0.00439214 0.380834 
-0.000133973 -0.00120927 0.593766 
-0.00109831 -0.00167308 0.329255 
0.000668779 0.00266741 0.43801 
-0.00469898 0.000865585 0.474002 
-0.00162385 -0.0013511 -0.000474101 
0.00279558 0.002557 0.0067552 
-0.00145829 0.000648372 0.383408 
-0.000378141 -0.000393442 -0.0021369 
-3.89643e-05 0.000332467 -0.00529564 
0.000588538 0.00161782 0.00370341 
-0.000286396 -0.00122623 0.00324125 
-0.000556444 -0.000723062 0.327507 
-0.00023707 9.79748e-05 -0.00280554 
0.000965303 -0.000866371 -0.00215439 
-0.00219073 0.00209239 0.00855471 
0.00292597 -0.00106022 0.378238 
0.00157201 0.000463742 0.000438672 
-0.00171426 -0.000722988 0.0067863 
0.00162583 -0.00155474 0.382797 
-0.0016166 -0.000414756 -0.00252881 
-0.00129783 -0.00291912 0.382169 
0.000432939 -0.00137189 -0.0005611 
-0.00108494 0.00286199 0.00724738 
-0.000112216 0.000543482 -0.00176025 
-8.85789e-06 0.00217922 0.372472 
-4.11846e-05 -7.17152e-05 -0.00255497 
0.0023312 -7.71783e-05 0.00513967 
-0.00166568 0.00019842 0.00115876 
-0.000724454 0.00144497 0.372545 
0.000428031 -0.00121874 0.466421 
0.000546485 0.0016333 0.710503 
-0.00315769 -0.00247382 0.487926 
0.000178974 2.53026e-05 -0.00171506 
-0.00229762 0.000165901 0.0024128 
1.26655e-05 -0.00139481 0.366233 
0.00193207 -0.000255988 0.00262456 
0.00228653 0.000424803 0.474466 
-0.000675072 0.00234977 0.710741 
0.00129828 -0.00103322 0.375865 
0.000551376 -0.00252732 0.522059 
0.000330538 6.42381e-05 0.00138524 
-0.00279646 -0.000657534 0.00293515 
0.00142957 0.000303732 0.00266298 
-0.000932084 0.00350326 0.443908 
0.000210268 0.00332163 0.00394124 
-2.38443e-05 -0.00106509 -0.00273323 
-0.000176429 -0.00126034 0.0017634 
-0.0015356 -0.000918976 0.354801 
-0.00121569 -0.00291107 0.00947505 
0.000858212 0.00177252 -0.00248402 
0.000278529 0.000661557 -0.00209042 
0.00254017 3.61633e-05 0.381876 
-0.00113621 -0.0031848 0.379394 
0.00166042 -0.000848559 -0.00108458 
-0.00196754 0.000767395 0.00791493 
-0.000545089 0.000357785 -0.00184953 
-0.000154508 -0.0018783 -0.00104733 
3.69453e-05 0.00263392 0.00764229 
-0.00264892 -0.000584524 0.379898 
8.82756e-05 0.000176696 -0.00243457 
5.3774e-05 0.000226955 -0.00375004 
0.000135133 -0.00100004 0.335286 
0.00152719 0.00175617 0.00243262 
-0.00127461 -0.00170832 0.00360517 
-0.00084457 -0.000980056 -0.00102697 
0.00233642 0.00249022 0.00746783 
0.000145311 0.000274719 -0.00204444 
0.000608433 -0.00310242 0.380845 
-0.00188314 0.00160461 -0.00150907 
0.00327886 -0.0029995 0.0078723 
8.20797e-05 -1.26277e-05 -0.0013962 
-0.00177416 -0.000250408 0.380468 
0.000136445 -0.0035528 0.379736 
-0.00122262 -0.000255064 0.00106851 
-0.00075123 -0.000228208 -0.00355363 
0.00228042 0.00057944 0.00411421 
-0.00339494 -0.0012446 0.378776 
-0.00015925 0.000433014 -0.00368031 
0.000604488 -0.00245205 0.00333071 
-0.000194841 0.000982667 0.00145745 
0.000730582 0.000762273 -0.00232026 
-0.00193497 0.000304072 0.405178 
-0.00237366 -0.00263656 0.00463802 
0.00187925 0.0023612 0.00129369 
-0.0018805 -0.0010564 0.0018144 
0.00257423 0.00129845 0.0027435 
0.00161422 -0.000839264 0.272924 
-0.000685222 -0.000317188 -0.00173707 
0.00193735 0.000889972 0.436214 
0.00111198 0.00199645 0.0011271 
0.00127024 0.00250453 -0.00172039 
-0.00252575 -0.00508227 0.00479418 
0.00350241 0.000844619 0.00660495 
-0.0024175 -0.000696921 -0.00110436 
-0.00117632 -0.00022462 -0.00400906 
-0.000541942 -9.65638e-05 0.404827 
-0.000157318 3.86498e-05 -0.00216306 
-0.00138279 -9.07359e-05 -0.00181603 
0.00293138 7.78949e-05 0.00842231 
-0.000684357 -0.00270244 0.38161 
1.22325e-05 -0.00213206 0.00790041 
-9.8117e-05 0.00130391 -0.00121077 
-0.0024331 -0.000939524 0.379103 
9.83925e-05 -0.000351599 -0.00254734 
-0.000916871 3.80761e-05 -0.00192355 
0.0047061 -0.00022498 0.00878508 
-0.0022985 0.000166357 -0.00221075 
-0.00196319 0.00145525 0.380162 
0.00177613 -0.00109162 0.400603 
-0.00132832 -0.000125199 0.28221 
-0.00110834 0.00216987 0.555864 
0.00115125 -0.00240709 0.410535 
-0.00014245 -0.00185266 0.381953 
0.00204642 -0.000132401 -0.00253063 
-0.00363646 0.000117801 0.00879575 
0.000931292 -1.93481e-05 -0.00264855 
6.69469e-05 0.00113249 -0.00163188 
-0.000236223 -0.00438864 0.00717322 
0.000162134 0.00183814 -0.000691906 
0.00174218 0.00171265 0.381264 
0.00226521 0.0025195 0.381759 
-0.00394789 -0.000159006 0.00841194 
0.00225167 0.000162423 -0.00217216 
0.000670744 1.87199e-05 -0.00173279 
0.00245753 0.000155228 0.00299012 
-0.00209083 -0.000276764 0.00243965 
-0.000431698 2.55755e-05 -0.00234526 
7.97491e-05 -0.00142118 0.315999 
0.00273423 0.00178047 1.11119 
-0.0016244 -0.00200213 0.939964 
0.00217626 -0.00421319 1.0738 
0.000937278 -0.000792283 1.03129 
-0.000208454 0.00366819 0.00562877 
0.000990398 -0.000704918 0.325609 
0.000150944 -0.00157643 -0.000159104 
6.63585e-05 -0.00149551 -0.00298089 
0.00324992 -0.00256101 0.380768 
-0.000134604 0.00371952 0.00781402 
7.90491e-05 -0.00116346 -0.00119846 
-5.27159e-06 -0.000550056 -0.00200453 
0.00296183 -0.000339845 1.24432 
-0.00022605 0.00157649 1.17698 
-0.00378355 -0.000908278 1.19042 
0.000705186 -0.00134994 1.21515 
0.000410779 -0.00062725 -0.00229797 
0.00287151 -0.00311256 0.00700713 
-0.00216186 0.00259629 -0.000688061 
-0.00101649 0.00200453 0.380435 
0.00109486 -0.00284106 0.00725705 
-0.000294699 0.000929179 -0.00039973 
-2.0768e-05 -0.000251612 -0.00302364 
0.00129476 0.00163148 0.382825 
0.000157476 -0.000468976 -0.00274695 
-0.000659766 0.00285307 0.00207396 
0.00480335 -0.000912353 0.377712 
0.00050957 -0.00263546 0.00298572 
-0.000384616 0.00139092 0.328424 
0.00206879 0.000245354 0.00153198 
-0.00286024 -0.000182496 0.003654 
0.00090528 3.43636e-05 -0.00201824 
0.000576347 -0.000301126 -0.00393294 
0.00194929 -0.000506825 0.002631 
0.000213856 0.00025939 0.311278 
-0.00328344 0.00109449 0.00306668 
0.000556297 0.00148637 -0.00328273 
-0.00118137 -0.00363708 0.00243145 
0.000513537 0.00202113 0.00310063 
-0.00077692 -0.000214746 0.304823 
0.00382386 -0.00168754 0.00895049 
-0.00114711 0.000497267 -0.00291039 
-0.000607912 0.000218812 -0.00266551 
-0.0011883 0.00291747 0.378878 
6.12745e-05 2.91523e-06 -0.0022528 
-0.00142194 0.000228083 0.347717 
0.000149694 -0.00248446 0.0034766 
-0.000264886 0.00216365 0.00189503 
-0.00419245 -0.0020673 0.00436064 
0.00222627 0.00106954 -0.00302479 
-0.00117507 -0.000165012 0.329807 
0.00292591 0.00158315 0.000482694 
-0.000440717 0.000298678 0.32968 
0.00147586 -0.00286302 0.00151633 
0.000377739 -0.000479501 -0.00338117 
-0.00181452 0.00315535 0.00356243 
-0.00221653 0.00238601 0.47866 
-0.00273765 -0.000581657 0.711101 
0.000346145 -0.00238224 0.379717 
0.00394679 0.00126216 0.47975 
-0.00295538 -0.00260712 0.00383058 
-7.13598e-05 -0.00137624 0.351406 
0.000327015 0.000395681 -0.00268391 
0.00300523 0.00239549 0.00149345 
-0.00118243 0.00237733 0.00221726 
-4.70608e-05 -0.00020054 -0.00387433 
0.000297788 0.000747854 0.343324 
0.0016429 -0.00282898 0.00328478 
0.000524877 1.59821e-05 0.281489 
-0.00224746 0.00195401 0.00242112 
-0.000684762 0.000372184 -0.00419379 
0.00236829 -0.00179149 0.00336129 
-0.00846715 0.00390545 0.50353 
-0.00119046 -0.000915848 0.288162 
0.000774746 -0.00283379 0.580739 
-0.000697938 0.00191742 0.392814 
-0.0018041 -0.0016482 0.500179 
-0.00311793 0.00250929 0.582127 
-0.00238314 0.00328207 0.287893 
0.000337964 0.00113748 0.60372 
0.00162703 -0.00172768 1.05678 
-0.00336203 -0.000821277 1.1099 
0.00113196 -0.000681249 1.22718 
0.000437893 0.000788471 1.16208 
-0.00171284 -0.00209069 1.0608 
0.00106733 0.00201941 1.22634 
-0.000826873 -0.00129211 1.1071 
-0.00147149 -0.00099232 1.07529 
0.00390615 0.00107439 1.06128 
0.00165625 -0.00228269 1.22895 
-0.00146261 0.00350893 1.14273 
0.000619887 -0.000659159 1.17835 
0.00626128 0.00595094 1.15426 
-0.00217997 0.00360106 1.22857 
-0.000708266 -0.00275125 1.05261 
-0.00274896 -0.00427366 1.03146 
0.000620646 -0.000165253 1.18917 
-0.000504615 -0.000695406 1.0247 
0.000196853 -0.00123548 1.10321 
0.0024411 0.00138461 1.06901 
0.000241829 0.00226718 1.10551 
0.00830959 0.000134423 1.03521 
-0.00210794 -0.00179929 1.18504 
-0.0078737 -0.00186214 1.22942 
-0.00270288 0.00660539 0.00773235 
0.00324221 -0.000957683 0.532631 
0.00623928 -0.00662164 0.522488 
-0.00276769 3.16851e-05 0.00384665 
0.00711981 -0.00227164 0.525188 
-0.00350346 -0.000478347 0.51947 
0.00104558 -0.000736882 0.0134715 
-0.00570417 0.00128725 0.621224 
0.00475151 -0.00990609 0.972349 
-0.00343697 0.00666935 0.645899 
-0.00510482 0.00357424 0.595127 
0.00798563 0.00227284 0.925977 
0.00713445 0.00432255 0.974863 
-0.000804041 0.00271559 0.587087 
-0.00777113 0.00136621 0.651078 
0.00431206 -0.00352895 0.716119 
0.00500385 -0.0007508 0.0100014 
3.29075e-05 -0.00223587 0.406816 
-0.00042146 0.00229298 -0.00379544 
0.000527314 -0.00112922 0.270855 
0.000535959 2.16038e-05 -0.00553637 
0.000312438 -0.00248076 0.406837 
0.00408961 0.00216951 0.0126162 
-0.00183668 -0.000855748 -0.0024204 
0.00408281 0.00346513 1.01896 
0.00168666 -0.00247064 0.723661 
0.00101943 -0.00255819 0.71379 
0.000225595 0.00119147 0.929762 
0.00868803 -5.53242e-05 1.02429 
0.000735322 -0.0041464 0.713461 
-0.00175629 0.00434807 0.719674 
0.000665482 -0.000785364 0.636102 
0.00236538 0.00232386 0.947819 
0.00160241 -0.00358735 0.521965 
-0.00577994 0.00902731 0.692783 
0.00251785 -0.00457435 0.636015 
0.00203792 0.00599137 0.696926 
0.00245246 0.0040794 0.530841 
-0.00575853 -0.00216593 0.93546 
-0.00395203 -0.00183267 1.05011 
-0.00234278 -0.00179131 0.49778 
-0.000934446 0.0013743 0.0116552 
-0.000685199 -0.00266686 0.0160334 
0.0100613 0.00192527 0.64594 
-0.00027043 -0.000101716 0.506664 
-0.000189047 -0.00226234 0.00779238 
0.000191553 0.00229233 0.00840728 
-1.90004e-05 -0.00022738 -0.0051703 
0.00640032 0.00654819 1.25163 
-0.0026426 -0.00427034 1.17386 
0.00161569 0.0023614 1.17092 
-0.00145854 -0.00217258 1.2079 
-0.00541302 -0.00712056 1.25099 
0.0027261 -0.00420598 1.17071 
0.00687885 0.00947809 1.17447 
0.000893876 0.00158964 1.21274 
-0.00121788 -0.00382115 0.504322 
0.00195617 -0.00195146 0.00764882 
-0.000649637 0.000200056 0.0116847 
-0.00743674 0.00508197 0.497996 
-0.001481 -0.00246466 0.508263 
-0.000478339 -0.000698381 0.00723859 
0.00121875 0.00177089 0.00898759 
-0.000471942 -0.000684798 -0.00655691 
0.00235367 0.00319308 0.338359 
0.00194255 -0.000587939 0.00209838 
-0.00305944 0.00572925 0.497849 
-0.00107068 0.00326111 0.429994 
-0.000945361 0.0161227 0.505042 
-0.0055595 -0.00132066 -0.00142717 
0.00561558 0.000292892 0.337933 
0.00228912 -0.00854585 0.0152258 
-0.000502769 -0.0067519 0.717445 
0.0012183 0.00110147 0.015169 
-0.00206357 0.00250903 0.502669 
-0.000436131 0.00340641 0.0133234 
0.00471657 -0.000517292 0.721579 
-0.005961 -0.00124836 0.500132 
-0.000504565 -0.00103078 0.0137589 
0.00253727 0.00364467 0.588698 
-0.00320748 -0.00201689 0.0210287 
0.00191906 0.000953495 0.508326 
-0.00209926 -0.000778118 -0.0040693 
0.00151062 0.000789925 -0.00464001 
-0.00544843 -0.00797389 0.00572881 
0.0165428 -0.0017532 0.505869 
-0.0170974 0.00266094 0.0208727 
0.00702972 0.0114816 0.624488 
0.00630226 0.00189565 1.04456 
-0.000840404 0.00403479 1.06974 
-0.00617965 -0.00136395 1.19393 
0.00226236 -0.000689027 1.1056 
-0.000509097 0.00331092 1.04555 
0.00223902 0.000305071 1.1957 
0.00148192 0.00129388 1.06742 
0.000938517 -0.0013366 1.01765 
-0.00276197 0.00176899 0.552213 
3.58963e-05 -0.00095792 0.00945125 
-0.00097298 -0.000213883 0.493044 
-0.00148046 -0.000404681 0.00788807 
-0.00783605 -0.00591957 0.552591 
0.00941967 0.00530265 0.489539 
-0.000400322 0.00332925 0.0108046 
0.000258242 -1.8971e-06 0.593619 
-0.00445007 0.00288299 0.497841 
0.0016749 -0.00288117 0.759137 
-0.00296029 -0.00103867 0.522741 
-0.0021324 0.000501093 0.690408 
-0.00233226 -0.00351684 0.501763 
-0.00207798 0.00564887 0.523289 
0.00168432 -0.00133992 0.758972 
0.00057882 -0.00265261 0.592942 
0.00167494 0.0182034 0.457708 
-0.000997156 -0.00407188 0.433067 
-0.00134119 -0.00851067 0.541608 
-0.00870892 -0.00234129 0.707844 
-0.000253995 -0.00627769 0.545632 
-0.00174882 -0.00393868 0.42974 
0.00249733 0.0117633 0.463395 
0.00269398 -0.000523398 0.00525097 
-0.00981281 0.00361023 0.60553 
-0.000513629 -0.00351869 0.483618 
0.00950987 -0.00271854 0.0157028 
-0.00118551 -0.000941714 0.373624 
-0.00493705 -0.00212533 0.609003 
0.000770794 -0.00286512 0.0220995 
0.000591916 0.00244945 0.475606 
0.00109616 0.00397292 0.553903 
-0.0017223 -0.00166886 0.442132 
0.00295512 -0.00213846 0.00994718 
-0.00152294 0.00164798 0.517194 
0.00376553 0.000386393 0.451445 
-0.00396564 -0.00170054 0.44417 
0.000702532 0.00134437 0.518965 
0.0104136 -0.00244687 0.00785525 
-0.00500971 -0.00397568 0.00193565 
-0.00468995 0.00576674 0.00679716 
0.00796417 -0.00335331 0.515498 
-0.00793884 0.00250137 0.0121262 
0.00467301 -0.00144513 0.451566 
-0.00129222 0.00171195 0.000722819 
-0.000616341 0.000994375 0.00849546 
0.000136521 -0.000661689 0.520793 
0.0021973 -0.00291054 -0.00120832 
0.000283668 -0.000343744 0.714534 
0.0019976 0.000182054 0.0239288 
-0.000133163 -0.00256536 0.483506 
-0.00289591 -0.000486203 0.441069 
0.0150942 -0.00499884 0.716489 
-0.00101592 -0.0118576 0.489724 
-0.0138127 0.00924739 0.0191307 
0.00525698 0.00766232 0.459653 
-0.00173435 0.00223443 1.2285 
0.000327428 -0.0041711 1.06391 
0.00326607 0.00195682 1.15596 
-0.000533481 0.00132279 1.21478 
0.00166736 0.000210522 1.23548 
-0.000325565 0.000924503 1.14862 
-0.00104051 0.00278014 1.06104 
-0.00112552 0.00120211 1.10253 
-0.00369172 0.000103734 1.19464 
0.000565006 -0.00345045 0.999747 
-0.0025415 0.00878263 1.11404 
0.000115121 -0.00194242 0.973754 
0.00128111 0.00231723 1.19528 
-0.00468423 0.000931734 1.105 
-0.000332458 0.00197384 1.00704 
0.00341945 0.000334661 1.15885 
0.000629079 5.69278e-05 1.03085 
0.00034374 0.00111797 1.10544 
-0.000735783 -0.000373738 0.993495 
-0.000704886 0.000302261 0.977972 
0.000259335 -2.3829e-05 1.02961 
0.00111284 0.00175907 1.00397 
-0.00134759 -0.000162298 1.09752 
-0.00122222 0.000232326 1.16815 
0.00201868 -0.0021112 0.505398 
0.00127113 -0.00187567 0.0123918 
-0.00756017 -0.00153229 0.485341 
-0.00085956 -0.00192172 -0.00261504 
-0.000716017 -0.00263439 0.497608 
-0.00563176 -0.000219902 0.48302 
0.00306484 -0.00183756 0.0200274 
-0.000306762 0.00359204 0.701633 
0.000825567 -0.000920776 0.88625 
-0.00110457 0.000296474 1.12993 
-0.00212209 0.00135001 0.939025 
-0.00130203 -0.00253038 0.940398 
-0.00181268 0.00167798 0.88943 
-0.0012585 0.000550299 0.937988 
-0.0012876 -0.00329355 1.12987 
0.000734581 0.000845382 1.04942 
0.00111745 0.00201237 1.02322 
-0.00287663 -0.00235619 0.526035 
0.00116714 -0.00240334 0.934347 
-0.000831122 0.00497102 0.823842 
0.00267415 -0.00783336 1.02784 
0.00280723 -0.00186021 0.940844 
-0.00506884 0.00868307 0.519103 
-0.00290075 -0.000218839 0.711115 
0.00118002 -0.00385175 1.05037 
-0.00132225 0.00256527 0.884725 
0.00226073 0.00144136 1.18577 
-0.000780702 0.00401988 0.994053 
0.00537405 -0.00123611 1.0626 
0.00311718 0.00867044 1.18951 
-0.0026944 -0.00810558 0.878903 
-0.00589609 0.00147453 1.04525 
0.00345528 -0.00134009 1.10711 
0.000816084 -0.000365763 1.18865 
0.000543732 0.00908712 0.886005 
-0.00240336 0.000526197 0.995538 
6.33035e-05 0.0022855 1.10697 
0.00219756 0.000947434 0.882657 
-0.00233118 0.00290743 1.18847 
-0.000212342 0.00152569 1.042 
-0.00368774 7.98205e-05 0.831003 
0.00274189 0.00631982 0.720365 
-0.00232402 -0.000969504 0.712341 
0.00309711 -0.00257938 0.530917 
-0.002758 0.000158709 0.827637 
-0.0015402 -0.00211877 0.709503 
0.000709646 0.00448311 0.727723 
0.000701105 0.00235362 0.934168 
0.00316801 -0.00208818 0.525546 
-0.00276797 0.00175805 0.0019408 
-0.00251838 0.00113707 0.0139179 
0.00137973 -0.000855209 -0.0015224 
0.0065242 -0.00808618 0.518934 
-0.00439326 0.00401846 0.0179227 
-0.00599412 0.00399275 0.0106357 
0.00810844 0.000839482 0.640691 
0.00115746 -0.00593285 0.468433 
0.00208772 0.000146252 0.308631 
-0.00381456 0.00278373 0.609868 
0.00373063 0.00245703 0.485041 
0.0038205 -0.00158183 0.463528 
-0.00397723 -0.000672212 0.613044 
-0.00110433 -0.000788772 0.310651 
0.00206094 -7.15904e-05 0.348353 
-0.00390483 -0.000864883 0.444269 
0.000608478 0.00102992 0.00276166 
0.00328904 0.0043364 0.00701206 
-0.00294522 -0.00276568 0.536321 
0.000784214 7.12945e-05 0.448096 
0.00109159 0.00288761 0.00571291 
-0.00119589 -0.00226786 0.00272719 
0.000169845 -5.38036e-05 -0.00415867 
0.00158268 -0.00135612 1.2283 
-0.00728592 0.00431779 1.18713 
0.00596179 -0.00459756 1.26368 
0.000186802 0.00121177 1.17384 
0.000638468 -0.00176259 1.23393 
0.00690097 -0.00405655 1.25742 
-0.00779078 0.0041929 1.1897 
0.000770478 -0.00188561 1.22278 
0.00177387 -0.00260921 1.07231 
-0.00144644 0.00032957 0.889812 
0.00523665 -0.000802586 0.938815 
-0.000561642 -0.00238983 0.93684 
0.00393345 -0.000633624 0.938817 
0.00137488 -0.00139237 0.89125 
0.000659831 -0.00118499 1.07095 
-0.00232203 0.000138886 1.01657 
8.53453e-05 1.50904e-05 0.00520607 
0.00611654 -0.000815749 0.550517 
-0.00121286 -0.000581406 0.0060773 
-0.00162567 -0.000742357 8.68485e-05 
-0.00179282 -0.000339171 0.00769645 
0.00762776 -0.00156697 0.548777 
-0.00093137 0.000294627 0.011042 
0.00185945 0.00320082 0.576167 
0.000414922 -0.00513493 1.20271 
0.00475723 0.00214951 1.16215 
-0.00248632 -0.000909241 1.24303 
-0.000677879 0.00255911 1.21726 
0.00382557 -1.34498e-06 1.19745 
-0.00143772 -0.00283209 1.24555 
-0.000387405 -0.00203663 1.1659 
0.00200758 0.00275249 1.16233 
0.000668999 0.00421058 0.329987 
0.00157126 -0.0111789 0.0159856 
1.54973e-05 0.0114014 0.520149 
-0.00273398 -0.00303044 0.367348 
0.000356855 0.00391383 0.328263 
0.00224942 0.00609249 0.525376 
-0.000523502 -0.00339554 0.0137675 
-0.000489561 5.65834e-05 -0.00125037 
0.00222251 -0.00240803 0.721058 
0.000180245 0.000938608 0.533527 
-0.00151078 0.00227559 0.709082 
0.00363124 -0.0016634 0.469436 
-0.00283613 0.00104371 0.707752 
-0.000759968 0.00285883 0.538024 
0.00787408 -0.000100444 0.720993 
0.00217435 -0.00540757 0.912639 
-0.00220374 -0.00128968 0.00787215 
0.00187692 -0.00174691 0.354214 
-0.000330878 -0.000351269 -0.00401562 
0.00152896 0.00103704 -0.000771205 
-0.000220061 -0.00234912 0.0032809 
-0.000630526 0.000430407 -0.00353956 
7.04669e-05 -0.000700535 0.358366 
0.00141228 -0.00112457 0.273911 
-0.00281067 0.00139987 0.506395 
0.000158765 -0.000654258 0.452011 
-0.0013325 0.00164632 0.0142641 
-0.00418708 -0.00516393 0.533809 
-0.00677976 -0.000741734 0.504308 
0.00569802 -0.00104442 0.0105728 
0.00110328 0.00397584 0.457202 
-0.00257324 0.00214735 0.371819 
0.00454631 0.00120976 0.509359 
0.00102358 -0.00181842 0.378364 
-0.000490518 0.0024201 0.70959 
8.77771e-05 -0.0030587 0.525361 
-0.000566515 -0.00309355 0.502728 
0.00187337 0.0021069 0.712146 
0.00179867 0.00193731 0.380055 
0.00227408 -0.00110668 0.4564 
-0.000683988 0.000468324 0.671122 
0.000997401 -0.00199811 0.850084 
-0.000284408 -0.000825825 0.562341 
0.00124079 -0.00246817 0.787487 
-0.00187524 -0.00149369 0.678935 
0.000219707 -0.00212528 0.560299 
0.000241161 0.00193139 0.851974 
0.00118804 -0.00262397 0.473774 
-0.0038804 3.55091e-05 0.440929 
-5.33344e-05 -0.000508327 0.563225 
0.00086588 -0.00477864 0.852319 
0.0018068 -0.00145354 0.789403 
0.00141396 -0.000709424 0.439713 
-0.00367995 -0.00235569 0.851909 
0.0033934 -0.00183882 0.563123 
-0.00145474 -0.00271028 0.47129 
0.00348282 -0.0034515 0.00581768 
-0.00149719 0.00396711 0.454168 
-0.00152055 0.00332022 0.489753 
0.000196057 -0.00351726 0.00413374 
-0.0020023 0.00164158 0.486222 
3.80489e-05 0.00130164 0.447168 
0.00170554 -0.00037155 0.0139085 
0.00131556 -0.000889454 0.325289 
TENSORS Stress float 
-4.53951 0.052667 0.616029 
0.052667 -4.49631 -3.22449 
0.616029 -3.22449 -4.20569 
-4.28903 -0.176505 0.93004 
-0.176505 -4.41935 -2.9898 
0.93004 -2.9898 -4.53312 
-3.97028 -0.708586 1.64154 
-0.708586 -4.27913 -2.69188 
1.64154 -2.69188 -4.99209 
-4.01261 -0.0774002 1.12132 
-0.0774002 -4.91405 -2.58964 
1.12132 -2.58964 -4.31484 
-2.66106 0.244607 -0.101297 
0.244607 -2.65896 -4.70675 
-0.101297 -4.70675 -3.21122 
-2.70934 -0.103673 -0.304936 
-0.103673 -3.12976 -4.18994 
-0.304936 -4.18994 -2.69214 
-2.4577 -0.105716 -0.699744 
-0.105716 -3.38552 -4.42751 
-0.699744 -4.42751 -2.68802 
-2.78421 -0.337492 -0.413682 
-0.337492 -3.45709 -3.44733 
-0.413682 -3.44733 -2.28995 
-4.02554 0.0271819 -1.80003 
0.0271819 -3.96563 2.03276 
-1.80003 2.03276 -4.24263 
-4.07604 -0.0242226 -1.75374 
-0.0242226 -4.05576 2.05479 
-1.75374 2.05479 -4.10199 
-4.18895 0.0878555 -1.77649 
0.0878555 -4.06257 2.06164 
-1.77649 2.06164 -3.98226 
-4.0517 0.0716692 -1.74307 
0.0716692 -3.94042 2.13937 
-1.74307 2.13937 -4.24167 
-6.61864 0.326837 0.822345 
0.326837 -6.21466 -1.55421 
0.822345 -1.55421 -5.21339 
-6.04026 -0.103705 1.19561 
-0.103705 -5.99853 -1.25423 
1.19561 -1.25423 -6.0079 
-5.95868 0.446097 1.48863 
0.446097 -5.44749 -1.52969 
1.48863 -1.52969 -6.64053 
-5.98556 -0.0853909 1.24143 
-0.0853909 -6.0415 -1.34786 
1.24143 -1.34786 -6.01963 
-4.65743 -0.173937 0.486652 
-0.173937 -4.51028 3.79171 
0.486652 3.79171 -4.53325 
-4.57093 -0.0104416 0.771394 
-0.0104416 -4.44455 3.99535 
0.771394 3.99535 -4.68549 
-4.50935 -0.0646641 0.411617 
-0.0646641 -4.72691 4.03089 
0.411617 4.03089 -4.4647 
-4.77109 -0.028535 0.497998 
-0.028535 -4.67656 4.06856 
0.497998 4.06856 -4.25331 
-3.2905 0.254498 -0.317093 
0.254498 -3.45217 -3.9952 
-0.317093 -3.9952 -3.54586 
-3.12615 0.35199 -0.284128 
0.35199 -3.74409 -4.18539 
-0.284128 -4.18539 -3.41828 
-3.68198 0.243723 -0.684951 
0.243723 -3.54942 -4.31289 
-0.684951 -4.31289 -3.05713 
-3.32859 0.0127668 -0.251836 
0.0127668 -3.22412 -3.90694 
-0.251836 -3.90694 -3.73582 
-7.78892 -0.222298 1.53633 
-0.222298 -7.73546 -2.4846 
1.53633 -2.4846 -8.18241 
-8.29223 0.0374833 0.899315 
0.0374833 -8.1381 -3.09477 
0.899315 -3.09477 -7.27646 
-7.97023 -0.00523365 1.43072 
-0.00523365 -7.86647 -2.76522 
1.43072 -2.76522 -7.8701 
-8.12245 0.0748494 1.24595 
0.0748494 -7.71934 -2.73594 
1.24595 -2.73594 -7.865 
-6.37378 -0.0853718 2.20898 
-0.0853718 -6.03245 -0.39933 
2.20898 -0.39933 -6.14904 
-5.97772 -0.208953 2.07416 
-0.208953 -6.7903 -0.269741 
2.07416 -0.269741 -5.78726 
-6.08111 0.0936316 2.27586 
0.0936316 -6.09852 -0.654543 
2.27586 -0.654543 -6.37565 
-6.22128 -0.00178936 2.0632 
-0.00178936 -6.111 -0.38706 
2.0632 -0.38706 -6.223 
-2.22066 0.0257769 0.0191605 
0.0257769 -2.28619 -2.47743 
0.0191605 -2.47743 -1.91616 
-2.11694 0.115529 0.220294 
0.115529 -1.97198 -2.34007 
0.220294 -2.34007 -2.33409 
-2.15418 0.00182708 0.0348858 
0.00182708 -2.08602 -2.48643 
0.0348858 -2.48643 -2.18282 
-2.14556 0.0574956 -0.219163 
0.0574956 -1.86341 -2.16783 
-0.219163 -2.16783 -2.41404 
-4.84656 -0.350678 3.54694 
-0.350678 -4.99604 -2.09451 
3.54694 -2.09451 -5.89688 
-5.91104 0.326959 3.26119 
0.326959 -5.24792 -1.68269 
3.26119 -1.68269 -4.58052 
-5.33547 0.00185663 3.85183 
0.00185663 -4.87626 -2.07769 
3.85183 -2.07769 -5.52776 
-5.45455 0.409751 3.17559 
0.409751 -5.44633 -2.09172 
3.17559 -2.09172 -4.8386 
-4.19962 0.246535 0.387729 
0.246535 -3.8433 3.65603 
0.387729 3.65603 -3.92058 
-3.62374 -0.0531308 0.708073 
-0.0531308 -4.19996 3.49692 
0.708073 3.49692 -4.1398 
-4.21999 0.00337832 0.262467 
0.00337832 -3.87674 3.57666 
0.262467 3.57666 -3.86678 
-4.02747 -0.0660944 0.492097 
-0.0660944 -4.26227 3.54683 
0.492097 3.54683 -3.67376 
-5.40534 0.541472 1.52212 
0.541472 -4.94115 -2.44746 
1.52212 -2.44746 -5.30943 
-5.39432 -0.0579791 1.11765 
-0.0579791 -5.96863 -2.66484 
1.11765 -2.66484 -4.29298 
-5.22525 0.0870122 1.2615 
0.0870122 -4.75802 -3.26497 
1.2615 -3.26497 -5.67265 
-5.38512 0.0477725 1.26912 
0.0477725 -4.97153 -2.97857 
1.26912 -2.97857 -5.29928 
-4.22957 0.0345605 0.983202 
0.0345605 -3.84342 -2.65848 
0.983202 -2.65848 -4.00265 
-4.05114 0.384856 0.589914 
0.384856 -4.36231 -2.5764 
0.589914 -2.5764 -3.66219 
-4.18571 -0.0866869 1.0314 
-0.0866869 -3.87867 -2.80544 
1.0314 -2.80544 -4.01127 
-3.80554 0.266879 1.14224 
0.266879 -3.61075 -2.66858 
1.14224 -2.66858 -4.65935 
-4.12053 0.0171011 -1.79031 
0.0171011 -3.81739 -3.91461 
-1.79031 -3.91461 -2.51189 
-3.49745 -0.356008 -2.03317 
-0.356008 -3.36252 -3.65607 
-2.03317 -3.65607 -3.58983 
-3.78989 -0.156037 -1.98861 
-0.156037 -3.14951 -3.69947 
-1.98861 -3.69947 -3.51041 
-3.37074 0.13768 -2.02524 
0.13768 -3.24902 -3.22251 
-2.02524 -3.22251 -3.83004 
-7.98131 -0.0044191 0.776048 
-0.0044191 -8.02013 -2.41051 
0.776048 -2.41051 -7.79132 
-8.29897 0.0349745 0.845509 
0.0349745 -8.00505 -2.93788 
0.845509 -2.93788 -7.48874 
-7.75197 0.0260892 0.835004 
0.0260892 -7.89298 -2.28298 
0.835004 -2.28298 -8.14781 
-8.01922 0.19149 0.866301 
0.19149 -7.84897 -2.55049 
0.866301 -2.55049 -7.92456 
-5.79417 -0.430916 3.96281 
-0.430916 -5.03891 -1.56239 
3.96281 -1.56239 -6.74548 
-6.59473 -0.299035 3.4567 
-0.299035 -6.15763 -3.0184 
3.4567 -3.0184 -4.8262 
-5.68428 0.0756572 3.35418 
0.0756572 -6.31726 -2.57316 
3.35418 -2.57316 -5.57701 
-6.00165 0.154392 3.59314 
0.154392 -5.71557 -2.0494 
3.59314 -2.0494 -5.86133 
-4.69199 0.123092 1.12056 
0.123092 -4.67266 -3.16924 
1.12056 -3.16924 -5.77044 
-5.40427 -0.297511 0.748251 
-0.297511 -5.32668 -2.54059 
0.748251 -2.54059 -4.40415 
-4.87475 -0.213465 1.10966 
-0.213465 -4.85506 -2.65022 
1.10966 -2.65022 -5.40528 
-5.25764 -0.242575 1.01842 
-0.242575 -4.79963 -2.88624 
1.01842 -2.88624 -5.07782 
-8.98158 0.220208 1.58213 
0.220208 -8.0128 -3.28173 
1.58213 -3.28173 -8.91039 
-8.71465 -0.0186157 1.29351 
-0.0186157 -8.58224 -3.22701 
1.29351 -3.22701 -8.60788 
-8.62626 -0.112783 1.26298 
-0.112783 -8.74113 -3.2468 
1.26298 -3.2468 -8.53738 
-9.31896 0.0144473 0.728496 
0.0144473 -8.462 -3.36614 
0.728496 -3.36614 -8.12381 
-3.34937 -0.0400653 -1.5044 
-0.0400653 -3.33713 2.4994 
-1.5044 2.4994 -3.47391 
-3.60421 0.006162 -1.71957 
0.006162 -3.34738 2.5371 
-1.71957 2.5371 -3.20882 
-3.55123 0.00504214 -1.68884 
0.00504214 -3.47917 2.28502 
-1.68884 2.28502 -3.13001 
-3.4976 -0.0972911 -1.51732 
-0.0972911 -3.51089 2.45968 
-1.51732 2.45968 -3.15192 
-1.95288 -0.0294461 -3.01005 
-0.0294461 -1.82703 -2.68196 
-3.01005 -2.68196 -1.76454 
-2.08382 -0.21079 -2.6849 
-0.21079 -2.16896 -2.82171 
-2.6849 -2.82171 -1.29167 
-1.77222 -0.052261 -3.25098 
-0.052261 -1.69996 -2.72868 
-3.25098 -2.72868 -2.07227 
-1.90257 -0.100059 -3.10316 
-0.100059 -1.92504 -2.82203 
-3.10316 -2.82203 -1.71683 
-5.51674 0.062652 2.42207 
0.062652 -5.61383 -0.388584 
2.42207 -0.388584 -5.35537 
-5.67904 0.115966 2.6182 
0.115966 -5.92812 -0.246316 
2.6182 -0.246316 -4.87877 
-5.45632 0.0562742 2.34992 
0.0562742 -5.4589 -0.37832 
2.34992 -0.37832 -5.5707 
-5.70303 0.135602 2.29526 
0.135602 -5.73058 -0.404894 
2.29526 -0.404894 -5.05231 
-8.00926 0.0805451 1.71494 
0.0805451 -7.62875 -1.43297 
1.71494 -1.43297 -8.21913 
-8.1651 -0.018395 2.48641 
-0.018395 -8.34545 -1.59665 
2.48641 -1.59665 -7.3466 
-8.00868 0.0482287 1.95931 
0.0482287 -8.08915 -1.4317 
1.95931 -1.4317 -7.75932 
-7.78666 0.150659 2.0636 
0.150659 -8.14581 -1.48116 
2.0636 -1.48116 -7.92467 
-6.84924 -0.0108768 0.948384 
-0.0108768 -6.75763 -1.27447 
0.948384 -1.27447 -7.079 
-6.56482 -0.170341 0.978953 
-0.170341 -6.45652 -1.2898 
0.978953 -1.2898 -7.66454 
-6.86132 0.106901 1.0342 
0.106901 -6.78937 -1.15875 
1.0342 -1.15875 -7.03518 
-6.91066 0.0413089 1.00261 
0.0413089 -6.97169 -1.11972 
1.00261 -1.11972 -6.80353 
-8.96896 -0.0185341 1.01721 
-0.0185341 -8.93885 -3.09153 
1.01721 -3.09153 -10.2842 
-9.48391 -0.0565201 0.95899 
-0.0565201 -9.22145 -3.08696 
0.95899 -3.08696 -9.48669 
-9.40882 -0.0314749 0.961805 
-0.0314749 -9.3852 -3.08537 
0.961805 -3.08537 -9.39803 
-9.42105 -0.0396942 0.742665 
-0.0396942 -9.50272 -3.19871 
0.742665 -3.19871 -9.26828 
-7.73302 0.0433957 -0.382969 
0.0433957 -7.8599 -1.43246 
-0.382969 -1.43246 -8.10464 
-7.9004 -0.0414029 -0.447908 
-0.0414029 -7.90889 -1.39242 
-0.447908 -1.39242 -7.88827 
-8.34038 -0.110966 -0.290392 
-0.110966 -8.02833 -1.32573 
-0.290392 -1.32573 -7.32886 
-7.99274 -0.127647 -0.28105 
-0.127647 -8.03448 -1.62658 
-0.28105 -1.62658 -7.67034 
-6.48788 -0.10797 0.526639 
-0.10797 -6.5427 -2.59977 
0.526639 -2.59977 -6.47432 
-6.52814 -0.0332873 0.636143 
-0.0332873 -6.45537 -2.39993 
0.636143 -2.39993 -6.52139 
-6.72716 -0.0703508 1.01029 
-0.0703508 -7.09319 -2.10791 
1.01029 -2.10791 -5.68456 
-6.06981 0.0786463 0.932991 
0.0786463 -5.84771 -2.25941 
0.932991 -2.25941 -7.58739 
-4.7018 0.0260029 -2.68293 
0.0260029 -5.09125 -0.0372933 
-2.68293 -0.0372933 -5.41048 
-4.92371 0.102911 -3.47435 
0.102911 -4.3823 -0.390508 
-3.47435 -0.390508 -5.89753 
-4.80691 0.000739454 -2.84706 
0.000739454 -5.12629 -0.182007 
-2.84706 -0.182007 -5.27034 
-5.29349 -0.116632 -2.45718 
-0.116632 -5.64764 -0.201464 
-2.45718 -0.201464 -4.26241 
-3.84865 0.00552249 1.03156 
0.00552249 -4.0476 -2.84549 
1.03156 -2.84549 -3.58484 
-3.94192 -0.115504 1.10717 
-0.115504 -3.92313 -2.72782 
1.10717 -2.72782 -3.61605 
-4.17912 -0.100089 0.903343 
-0.100089 -3.96651 -2.62319 
0.903343 -2.62319 -3.33546 
-3.76057 -0.0113588 1.14089 
-0.0113588 -3.84718 -3.01283 
1.14089 -3.01283 -3.87334 
-9.3132 0.00452845 2.53036 
0.00452845 -9.32657 -1.61868 
2.53036 -1.61868 -9.66951 
-9.15048 0.0528358 2.55723 
0.0528358 -9.18032 -1.76593 
2.55723 -1.76593 -9.97848 
-9.40384 0.0178768 2.56933 
0.0178768 -9.34673 -1.64877 
2.56933 -1.64877 -9.55871 
-9.5234 0.00573017 2.56089 
0.00573017 -9.39644 -1.58559 
2.56089 -1.58559 -9.38944 
-8.5779 0.0366057 1.04501 
0.0366057 -8.8659 -3.47163 
1.04501 -3.47163 -8.70279 
-8.59013 0.286709 0.834045 
0.286709 -9.05475 -3.46783 
0.834045 -3.46783 -8.50171 
-8.31641 0.278172 1.0733 
0.278172 -8.76619 -2.96102 
1.0733 -2.96102 -9.06399 
-8.68596 0.00437449 1.11455 
0.00437449 -8.72703 -3.24122 
1.11455 -3.24122 -8.73361 
-6.08421 0.226656 1.07675 
0.226656 -6.64721 -1.25627 
1.07675 -1.25627 -5.0969 
-5.46319 0.176201 0.916051 
0.176201 -5.99968 -1.99828 
0.916051 -1.99828 -6.36545 
-5.85159 -0.137782 0.785779 
-0.137782 -6.13902 -1.55994 
0.785779 -1.55994 -5.83772 
-5.94569 -0.0123435 0.728438 
-0.0123435 -5.94353 -1.77209 
0.728438 -1.77209 -5.93911 
-6.07841 -0.0752515 1.1674 
-0.0752515 -5.39512 -2.7885 
1.1674 -2.7885 -6.07238 
-6.15475 -0.291318 1.14017 
-0.291318 -5.57181 -2.82509 
1.14017 -2.82509 -5.81935 
-5.46075 0.101996 1.13807 
0.101996 -5.80983 -2.98549 
1.13807 -2.98549 -6.27533 
-5.86936 0.109526 1.31426 
0.109526 -6.05191 -2.50968 
1.31426 -2.50968 -5.62463 
-3.72552 -0.243864 4.28426 
-0.243864 -3.22454 -0.23565 
4.28426 -0.23565 -3.31222 
-3.88699 -0.311743 3.83849 
-0.311743 -3.16279 -0.275239 
3.83849 -0.275239 -3.21249 
-3.68537 0.02824 3.77493 
0.02824 -3.79041 -0.606887 
3.77493 -0.606887 -2.78649 
-2.84375 -0.0102828 4.25931 
-0.0102828 -3.60833 -0.192583 
4.25931 -0.192583 -3.81019 
-4.79981 0.384835 1.10613 
0.384835 -5.00111 -2.64698 
1.10613 -2.64698 -4.06043 
-4.83499 -0.0121457 1.68983 
-0.0121457 -5.04933 -3.44137 
1.68983 -3.44137 -3.97702 
-4.90791 0.131146 1.15156 
0.131146 -4.60586 -3.00061 
1.15156 -3.00061 -4.34758 
-4.5481 -0.166445 1.30454 
-0.166445 -4.223 -2.62442 
1.30454 -2.62442 -5.09025 
-8.47851 -0.00832277 -0.3281 
-0.00832277 -8.49414 -1.74493 
-0.3281 -1.74493 -8.67052 
-8.72963 0.439378 -0.577342 
0.439378 -8.0202 -1.377 
-0.577342 -1.377 -8.89333 
-8.66179 0.0284682 -0.40869 
0.0284682 -8.47727 -1.60269 
-0.40869 -1.60269 -8.50411 
-8.91243 0.0950341 -0.0956239 
0.0950341 -8.35496 -2.03805 
-0.0956239 -2.03805 -8.37577 
-8.5259 -0.135385 -0.656267 
-0.135385 -8.18975 1.06828 
-0.656267 1.06828 -8.70953 
-8.45842 -0.00725692 -0.469592 
-0.00725692 -8.41492 1.02034 
-0.469592 1.02034 -8.55182 
-8.76883 -0.225358 -0.36825 
-0.225358 -8.40722 0.999334 
-0.36825 0.999334 -8.24912 
-8.53519 -0.0622245 -0.580859 
-0.0622245 -8.46615 1.05118 
-0.580859 1.05118 -8.42384 
-6.6872 0.174061 3.56151 
0.174061 -6.28793 -2.57367 
3.56151 -2.57367 -6.00986 
-5.22977 0.347145 3.46727 
0.347145 -6.07299 -2.62613 
3.46727 -2.62613 -7.68222 
-6.57273 -0.167909 3.40052 
-0.167909 -6.63681 -2.4508 
3.40052 -2.4508 -5.77545 
-6.50504 -0.252668 2.76705 
-0.252668 -7.38049 -1.6705 
2.76705 -1.6705 -5.09946 
-7.89803 -0.0953684 0.0772981 
-0.0953684 -7.92495 -1.23197 
0.0772981 -1.23197 -8.05184 
-7.92933 -0.00861292 0.0590379 
-0.00861292 -8.08806 -1.31764 
0.0590379 -1.31764 -7.85743 
-8.02491 0.100347 0.0245196 
0.100347 -8.05307 -1.11917 
0.0245196 -1.11917 -7.79684 
-8.06595 0.0274395 -0.132989 
0.0274395 -8.04567 -1.2941 
-0.132989 -1.2941 -7.7632 
-5.67483 -0.176878 0.571712 
-0.176878 -5.4518 4.03939 
0.571712 4.03939 -6.24123 
-5.83498 0.123605 0.544493 
0.123605 -5.99013 4.26276 
0.544493 4.26276 -5.54274 
-5.59615 -0.122138 0.492565 
-0.122138 -5.76777 3.93989 
0.492565 3.93989 -6.00393 
-5.46748 0.402418 1.07969 
0.402418 -5.67994 3.9174 
1.07969 3.9174 -6.22044 
-2.13973 0.0742636 -0.548181 
0.0742636 -1.84721 -1.06638 
-0.548181 -1.06638 -2.27482 
-1.67403 0.0986694 -0.208829 
0.0986694 -1.64211 -1.36059 
-0.208829 -1.36059 -2.94562 
-2.16195 -0.115958 -0.819021 
-0.115958 -2.31041 -1.00268 
-0.819021 -1.00268 -1.78941 
-2.25198 -0.0231445 -0.467042 
-0.0231445 -1.86467 -1.13571 
-0.467042 -1.13571 -2.14512 
-3.4521 0.302703 0.994354 
0.302703 -3.54823 3.94269 
0.994354 3.94269 -2.93455 
-3.13607 0.162249 1.10645 
0.162249 -3.45045 4.39935 
1.10645 4.39935 -3.34837 
-3.13362 0.0302303 1.0535 
0.0302303 -3.24072 4.20692 
1.0535 4.20692 -3.56056 
-3.37379 0.205927 1.28255 
0.205927 -3.86331 3.94809 
1.28255 3.94809 -2.69779 
-3.5316 0.199482 -1.93042 
0.199482 -3.86429 -3.78575 
-1.93042 -3.78575 -3.63212 
-3.59436 0.0472345 -1.66094 
0.0472345 -3.88318 -3.62824 
-1.66094 -3.62824 -3.55048 
-3.44168 0.121029 -2.07281 
0.121029 -4.26947 -3.4418 
-2.07281 -3.4418 -3.31686 
-3.42719 0.221124 -1.59525 
0.221124 -3.79509 -3.7732 
-1.59525 -3.7732 -3.80574 
-1.15044 -0.110047 -3.45215 
-0.110047 -2.25686 -2.96413 
-3.45215 -2.96413 -4.43192 
-3.52872 0.00157824 -3.50833 
0.00157824 -3.31566 -3.1659 
-3.50833 -3.1659 -0.994836 
-3.00976 0.0769268 -2.29044 
0.0769268 -2.62597 -2.39118 
-2.29044 -2.39118 -2.20349 
-2.50461 -0.204597 -3.0989 
-0.204597 -2.58316 -2.3647 
-3.0989 -2.3647 -2.75145 
-3.89496 0.0560228 4.65404 
0.0560228 -3.90617 0.088741 
4.65404 0.088741 -7.09651 
-6.111 -0.231299 4.55658 
-0.231299 -5.90809 -0.440095 
4.55658 -0.440095 -2.87855 
-4.92896 -0.0620873 3.85906 
-0.0620873 -5.13492 0.156556 
3.85906 0.156556 -4.83376 
-5.06489 0.203291 3.53412 
0.203291 -4.70804 0.0440532 
3.53412 0.0440532 -5.12471 
-8.60168 -0.0216598 -2.45323 
-0.0216598 -8.31487 1.53717 
-2.45323 1.53717 -8.78955 
-8.67808 -0.00608773 -2.36678 
-0.00608773 -8.50313 1.60496 
-2.36678 1.60496 -8.52488 
-8.5173 -0.0307915 -2.34326 
-0.0307915 -8.51101 1.60297 
-2.34326 1.60297 -8.67779 
-8.81968 0.00261787 -2.60417 
0.00261787 -8.34751 1.52672 
-2.60417 1.52672 -8.53891 
-4.89532 0.007647 -3.63101 
0.007647 -4.9919 -0.294156 
-3.63101 -0.294156 -6.28966 
-5.1216 0.212332 -2.9449 
0.212332 -5.37993 0.34766 
-2.9449 0.34766 -5.67535 
-5.20274 0.172115 -3.15056 
0.172115 -5.40852 0.141736 
-3.15056 0.141736 -5.56563 
-5.80202 -0.109021 -2.61424 
-0.109021 -5.80443 0.0015632 
-2.61424 0.0015632 -4.57043 
-3.18727 0.160026 1.47548 
0.160026 -2.90074 -2.45186 
1.47548 -2.45186 -3.06214 
-3.53041 -0.0688407 1.16335 
-0.0688407 -3.45235 -2.52978 
1.16335 -2.52978 -2.1674 
-2.83522 -0.149994 1.46553 
-0.149994 -2.90899 -2.0964 
1.46553 -2.0964 -3.40595 
-3.30775 0.221612 1.44473 
0.221612 -2.97861 -2.33593 
1.44473 -2.33593 -2.8638 
-8.24524 -0.0708735 2.52002 
-0.0708735 -9.01167 -2.13958 
2.52002 -2.13958 -8.94491 
-8.80908 -0.0319704 2.55177 
-0.0319704 -8.72853 -2.01897 
2.55177 -2.01897 -8.66421 
-8.76809 -0.0262247 2.50881 
-0.0262247 -8.72314 -2.01461 
2.50881 -2.01461 -8.7106 
-8.61532 -0.0489411 2.65378 
-0.0489411 -9.04702 -1.63008 
2.65378 -1.63008 -8.53948 
-6.19668 -0.0609882 1.50505 
-0.0609882 -6.81974 -1.27542 
1.50505 -1.27542 -4.99117 
-6.17266 0.22317 2.02068 
0.22317 -5.88255 -1.55266 
2.02068 -1.55266 -5.95237 
-5.17449 -0.0987914 1.79372 
-0.0987914 -6.13833 -2.00394 
1.79372 -2.00394 -6.69476 
-6.16756 0.151906 1.90056 
0.151906 -5.86868 -1.63107 
1.90056 -1.63107 -5.97135 
-4.33328 0.118759 -3.05613 
0.118759 -4.0258 0.894674 
-3.05613 0.894674 -4.30734 
-4.24069 -0.0896954 -3.10421 
-0.0896954 -4.82933 1.22033 
-3.10421 1.22033 -3.59641 
-4.43455 0.0995731 -2.76503 
0.0995731 -3.86743 1.0363 
-2.76503 1.0363 -4.36444 
-3.88414 0.11776 -3.00365 
0.11776 -3.95139 0.458796 
-3.00365 0.458796 -4.83089 
-6.7332 0.0547526 0.613534 
0.0547526 -6.7524 -1.52811 
0.613534 -1.52811 -6.89989 
-6.51377 -0.238489 0.727053 
-0.238489 -6.53225 -1.50402 
0.727053 -1.50402 -7.33947 
-6.75763 -0.0219822 0.727691 
-0.0219822 -6.73561 -1.47857 
0.727691 -1.47857 -6.89225 
-6.87827 0.017605 0.615248 
0.017605 -6.80193 -1.50645 
0.615248 -1.50645 -6.70529 
-1.45161 -0.156705 -0.222359 
-0.156705 -1.28168 -2.08724 
-0.222359 -2.08724 -1.38761 
-1.38056 0.277832 -0.110778 
0.277832 -1.73801 -2.02003 
-0.110778 -2.02003 -1.00234 
-1.1718 0.155357 -0.313253 
0.155357 -1.33988 -2.00596 
-0.313253 -2.00596 -1.60923 
-1.31757 0.0139323 -0.171624 
0.0139323 -1.39519 -1.99148 
-0.171624 -1.99148 -1.40814 
-6.83846 0.0635362 2.02481 
0.0635362 -7.12105 -0.18368 
2.02481 -0.18368 -6.93592 
-6.58762 -0.0995038 2.33918 
-0.0995038 -6.54626 -0.211533 
2.33918 -0.211533 -7.76155 
-7.07716 -0.0417434 2.08005 
-0.0417434 -7.10179 -0.0193556 
2.08005 -0.0193556 -6.71648 
-6.59219 0.127241 2.14308 
0.127241 -7.13091 -0.0540129 
2.14308 -0.0540129 -7.17234 
-2.42942 -0.0771675 -0.0342316 
-0.0771675 -2.18516 -2.43364 
-0.0342316 -2.43364 -2.20929 
-2.31622 -0.0202525 0.0176528 
-0.0202525 -2.0477 -2.52319 
0.0176528 -2.52319 -2.45995 
-2.27592 0.0353645 0.115805 
0.0353645 -1.7593 -2.99914 
0.115805 -2.99914 -2.78866 
-2.31246 0.110488 -0.22966 
0.110488 -1.88282 -2.82536 
-0.22966 -2.82536 -2.6286 
-3.529 0.147262 0.332592 
0.147262 -3.34699 1.85984 
0.332592 1.85984 -4.74328 
-4.57461 0.313448 0.478261 
0.313448 -3.99905 1.41594 
0.478261 1.41594 -3.04562 
-3.82508 -0.138237 0.824386 
-0.138237 -3.87464 1.7734 
0.824386 1.7734 -3.91955 
-3.78983 -0.0469612 0.658315 
-0.0469612 -3.95555 1.67153 
0.658315 1.67153 -3.8739 
-4.94019 -0.172335 0.121967 
-0.172335 -4.45197 4.20592 
0.121967 4.20592 -6.1081 
-4.87161 -0.244989 0.291608 
-0.244989 -5.45316 3.88024 
0.291608 3.88024 -5.17548 
-4.80315 -0.171909 0.852978 
-0.171909 -5.00759 4.34629 
0.852978 4.34629 -5.68951 
-5.03135 -0.4713 0.728199 
-0.4713 -5.84766 3.57659 
0.728199 3.57659 -4.62124 
-5.85682 0.10554 2.74355 
0.10554 -5.99635 -0.900581 
2.74355 -0.900581 -6.05561 
-5.95475 -0.0421476 2.64047 
-0.0421476 -5.76061 -0.781354 
2.64047 -0.781354 -6.19342 
-6.13315 -0.0993105 2.85806 
-0.0993105 -5.97353 -0.792613 
2.85806 -0.792613 -5.80209 
-6.06862 0.00691519 2.62457 
0.00691519 -6.01147 -0.889707 
2.62457 -0.889707 -5.82868 
-7.56163 0.010796 -0.652299 
0.010796 -7.59771 1.48822 
-0.652299 1.48822 -7.77912 
-7.9396 0.00852637 -0.623131 
0.00852637 -7.83764 1.16707 
-0.623131 1.16707 -7.16122 
-7.99366 -0.0313808 -0.554074 
-0.0313808 -7.63018 1.52474 
-0.554074 1.52474 -7.31462 
-7.76109 -0.0590885 -0.689122 
-0.0590885 -7.65425 1.41996 
-0.689122 1.41996 -7.52311 
-4.31437 0.606945 0.107334 
0.606945 -4.48358 2.97512 
0.107334 2.97512 -5.80304 
-5.04311 -0.00124032 0.664401 
-0.00124032 -4.92847 3.05365 
0.664401 3.05365 -4.62941 
-4.76981 -0.269919 0.91892 
-0.269919 -5.05007 2.93049 
0.91892 2.93049 -4.7811 
-4.91812 0.0577258 0.93992 
0.0577258 -4.60971 3.04539 
0.93992 3.04539 -5.07316 
-7.73244 0.0642686 -0.370316 
0.0642686 -7.74237 0.578963 
-0.370316 0.578963 -7.81393 
-7.97325 -0.233952 -0.262105 
-0.233952 -8.19267 0.843037 
-0.262105 0.843037 -7.12281 
-7.81745 -0.067177 -0.465676 
-0.067177 -8.01977 0.880332 
-0.465676 0.880332 -7.45151 
-7.73983 -0.0228376 -0.280776 
-0.0228376 -7.78201 0.699816 
-0.280776 0.699816 -7.76689 
-6.4427 -0.0140086 3.09466 
-0.0140086 -6.28511 -2.70896 
3.09466 -2.70896 -6.47482 
-6.53837 0.019818 3.13872 
0.019818 -6.31286 -2.33468 
3.13872 -2.33468 -6.3514 
-6.99467 0.237124 3.09412 
0.237124 -6.1193 -2.35335 
3.09412 -2.35335 -6.08866 
-6.02996 -0.174139 3.00255 
-0.174139 -6.51439 -2.40735 
3.00255 -2.40735 -6.65828 
-3.36335 0.158708 -2.8844 
0.158708 -3.49153 0.861407 
-2.8844 0.861407 -3.4369 
-3.07963 0.219702 -3.00572 
0.219702 -3.86678 0.786671 
-3.00572 0.786671 -3.34538 
-3.24612 0.0543467 -2.73165 
0.0543467 -3.30396 0.961533 
-2.73165 0.961533 -3.7417 
-3.90297 -0.206318 -2.82033 
-0.206318 -3.7138 0.595885 
-2.82033 0.595885 -2.67501 
-4.636 -0.20001 -1.07548 
-0.20001 -4.83437 -3.53591 
-1.07548 -3.53591 -4.18409 
-4.54746 0.319555 -1.10567 
0.319555 -4.51303 -3.96887 
-1.10567 -3.96887 -4.59396 
-4.52204 0.391049 -1.0386 
0.391049 -4.7409 -3.94901 
-1.0386 -3.94901 -4.39151 
-4.19664 0.166321 -0.781449 
0.166321 -4.43465 -4.28667 
-0.781449 -4.28667 -5.02317 
-3.89835 0.350039 -3.30645 
0.350039 -4.25581 1.28832 
-3.30645 1.28832 -4.54282 
-3.60934 -0.556898 -3.82824 
-0.556898 -3.60144 0.309623 
-3.82824 0.309623 -5.4862 
-4.89854 -0.449799 -2.90718 
-0.449799 -4.38522 0.872423 
-2.90718 0.872423 -3.41323 
-3.88753 0.144411 -3.46387 
0.144411 -4.27548 0.953909 
-3.46387 0.953909 -4.53397 
-4.52565 0.0199848 3.2521 
0.0199848 -5.71721 -2.85745 
3.2521 -2.85745 -7.64208 
-6.54314 -0.227831 3.37304 
-0.227831 -5.65628 -1.55752 
3.37304 -1.55752 -5.68553 
-6.59463 0.0910477 4.46641 
0.0910477 -7.04493 -1.68698 
4.46641 -1.68698 -4.24539 
-6.19755 0.0456224 3.60124 
0.0456224 -5.68842 -1.82798 
3.60124 -1.82798 -5.99897 
-7.98148 0.093374 -0.99481 
0.093374 -7.83983 1.56346 
-0.99481 1.56346 -7.56934 
-8.14059 -0.00693506 -1.07038 
-0.00693506 -8.02448 1.17648 
-1.07038 1.17648 -7.22559 
-7.69796 -0.0498647 -0.940498 
-0.0498647 -7.7191 1.5862 
-0.940498 1.5862 -7.97359 
-7.84575 0.0773267 -0.910632 
0.0773267 -7.86145 1.41537 
-0.910632 1.41537 -7.68345 
-3.33188 -0.877687 1.57055 
-0.877687 -3.421 4.51285 
1.57055 4.51285 -4.67477 
-3.92278 0.164561 0.935318 
0.164561 -3.74209 4.23037 
0.935318 4.23037 -3.76277 
-4.4721 -0.4862 0.261214 
-0.4862 -4.07607 4.48362 
0.261214 4.48362 -2.87948 
-3.87783 0.0995217 0.945128 
0.0995217 -3.758 4.36988 
0.945128 4.36988 -3.79182 
-3.72201 -0.0312724 1.68354 
-0.0312724 -3.59074 0.856054 
1.68354 0.856054 -3.63996 
-3.69606 -0.106336 1.74978 
-0.106336 -3.28289 0.619474 
1.74978 0.619474 -3.97376 
-3.59429 0.105441 2.19645 
0.105441 -4.33475 0.868855 
2.19645 0.868855 -3.02367 
-3.69559 0.036472 1.87056 
0.036472 -3.54155 0.763284 
1.87056 0.763284 -3.71557 
-5.17573 0.199559 -2.32352 
0.199559 -4.18763 2.5536 
-2.32352 2.5536 -5.12459 
-4.63666 0.0419057 -2.10706 
0.0419057 -4.48854 2.5047 
-2.10706 2.5047 -5.36275 
-5.01139 0.115584 -2.3174 
0.115584 -4.60708 2.32471 
-2.3174 2.32471 -4.86948 
-4.99889 0.0847202 -2.45098 
0.0847202 -4.83251 2.33547 
-2.45098 2.33547 -4.65655 
-4.42292 -0.137325 -2.89476 
-0.137325 -4.56115 -0.381074 
-2.89476 -0.381074 -4.25785 
-4.79508 -0.325571 -2.68564 
-0.325571 -4.25753 -0.108379 
-2.68564 -0.108379 -4.1893 
-4.68126 0.0458221 -3.0823 
0.0458221 -4.64323 -0.592997 
-3.0823 -0.592997 -3.91743 
-3.86966 -0.483621 -2.77668 
-0.483621 -4.42488 0.319212 
-2.77668 0.319212 -4.94738 
-4.29306 0.0221121 4.15993 
0.0221121 -3.86443 -0.765394 
4.15993 -0.765394 -4.03625 
-3.85588 -0.0774537 4.15559 
-0.0774537 -4.26867 -0.217224 
4.15559 -0.217224 -4.06919 
-4.19237 -0.106475 3.71338 
-0.106475 -4.22936 0.0715316 
3.71338 0.0715316 -3.77201 
-3.71926 0.44436 4.34925 
0.44436 -4.02627 -0.842967 
4.34925 -0.842967 -4.4482 
-4.31655 0.230659 2.25064 
0.230659 -4.00299 2.13895 
2.25064 2.13895 -4.21836 
-4.25107 0.0924209 2.22292 
0.0924209 -3.9179 2.01381 
2.22292 2.01381 -4.36892 
-3.94697 -0.139939 2.01998 
-0.139939 -3.93312 1.94107 
2.01998 1.94107 -4.6578 
-4.24124 0.150692 1.9533 
0.150692 -4.26127 1.83105 
1.9533 1.83105 -4.03538 
-6.99579 0.116724 -1.19243 
0.116724 -7.32555 -2.23472 
-1.19243 -2.23472 -6.70684 
-6.40025 0.060984 -1.73289 
0.060984 -6.59965 -2.30483 
-1.73289 -2.30483 -8.02829 
-6.7375 -0.247775 -1.39425 
-0.247775 -7.22605 -2.50354 
-1.39425 -2.50354 -7.06464 
-6.93704 -0.211906 -1.31126 
-0.211906 -6.97358 -2.35293 
-1.31126 -2.35293 -7.11756 
-4.78939 -0.173033 4.14725 
-0.173033 -5.53095 -2.6504 
4.14725 -2.6504 -6.17661 
-5.14218 -0.405768 3.94819 
-0.405768 -5.59927 -2.57118 
3.94819 -2.57118 -5.75551 
-7.17214 0.771096 3.47928 
0.771096 -5.1842 -2.06437 
3.47928 -2.06437 -4.14062 
-4.49891 -0.0398495 2.97655 
-0.0398495 -5.91886 -2.5825 
2.97655 -2.5825 -6.07919 
-8.81603 -0.0814551 1.47223 
-0.0814551 -8.73881 -2.83128 
1.47223 -2.83128 -9.01188 
-8.79288 -0.011754 1.42838 
-0.011754 -9.21086 -2.99839 
1.42838 -2.99839 -8.56298 
-8.54883 -0.117752 1.71927 
-0.117752 -8.68291 -2.35742 
1.71927 -2.35742 -9.33498 
-8.87273 0.194286 1.81032 
0.194286 -8.71397 -2.72321 
1.81032 -2.72321 -8.98003 
-8.24877 0.148299 1.83274 
0.148299 -8.26588 -2.74261 
1.83274 -2.74261 -7.56057 
-8.03874 -0.0447166 1.7958 
-0.0447166 -8.156 -2.89062 
1.7958 -2.89062 -7.88048 
-7.947 -0.0235462 1.69102 
-0.0235462 -7.97895 -2.7913 
1.69102 -2.7913 -8.14927 
-8.06273 0.00148541 1.78656 
0.00148541 -8.08151 -2.62233 
1.78656 -2.62233 -7.93098 
-3.10279 0.108976 1.65809 
0.108976 -2.97262 -0.376435 
1.65809 -0.376435 -3.16523 
-3.06476 0.0409664 1.65386 
0.0409664 -2.83931 -0.508776 
1.65386 -0.508776 -3.33657 
-3.22223 -0.0474368 1.68252 
-0.0474368 -2.95212 -0.311253 
1.68252 -0.311253 -3.0663 
-3.07898 -0.338158 1.90286 
-0.338158 -3.78682 -0.566122 
1.90286 -0.566122 -2.37485 
-5.9508 0.145102 0.83806 
0.145102 -6.04171 -2.32303 
0.83806 -2.32303 -5.69808 
-6.0341 -0.193473 0.744782 
-0.193473 -5.40752 -2.56589 
0.744782 -2.56589 -6.24897 
-5.97574 0.0352088 0.926073 
0.0352088 -6.29155 -2.47084 
0.926073 -2.47084 -5.4233 
-6.56393 -0.20123 0.436295 
-0.20123 -6.06952 -1.93459 
0.436295 -1.93459 -5.05714 
-5.05237 -0.182356 0.266541 
-0.182356 -4.74295 3.54713 
0.266541 3.54713 -4.921 
-4.79729 0.130304 0.278379 
0.130304 -4.75463 3.5762 
0.278379 3.5762 -5.16441 
-4.31998 0.423368 0.0260669 
0.423368 -4.83696 3.22149 
0.0260669 3.22149 -5.55938 
-4.77828 0.0616011 0.462089 
0.0616011 -4.82202 3.21926 
0.462089 3.21926 -5.11602 
-3.03782 -0.0201117 0.923295 
-0.0201117 -3.64406 -1.89367 
0.923295 -1.89367 -3.98585 
-3.67642 0.00799866 0.949812 
0.00799866 -3.39987 -2.10581 
0.949812 -2.10581 -3.59144 
-3.37665 -0.10921 1.18945 
-0.10921 -4.14843 -2.46884 
1.18945 -2.46884 -3.14265 
-3.665 0.0145859 0.960498 
0.0145859 -3.39396 -2.12446 
0.960498 -2.12446 -3.60877 
-3.48983 0.0363827 -1.73177 
0.0363827 -3.80254 -1.47202 
-1.73177 -1.47202 -3.56301 
-3.6969 -0.301614 -2.01855 
-0.301614 -3.9968 -1.33775 
-2.01855 -1.33775 -3.16167 
-3.56546 -0.082035 -1.7812 
-0.082035 -3.63171 -1.7509 
-1.7812 -1.7509 -3.65821 
-3.2308 -0.48056 -1.93634 
-0.48056 -3.49065 -1.96474 
-1.93634 -1.96474 -4.13392 
-8.20964 0.452191 2.32258 
0.452191 -8.84602 -1.15663 
2.32258 -1.15663 -8.96283 
-8.74784 0.0339197 2.4416 
0.0339197 -8.58309 -1.31648 
2.4416 -1.31648 -8.68756 
-8.71698 0.0967179 2.42649 
0.0967179 -8.74505 -1.2866 
2.42649 -1.2866 -8.55646 
-8.70486 0.0806505 2.69016 
0.0806505 -8.84334 -1.53436 
2.69016 -1.53436 -8.47029 
-1.11244 0.12154 2.28445 
0.12154 -2.01616 3.6995 
2.28445 3.6995 -4.23525 
-3.30093 -0.0534946 3.22802 
-0.0534946 -3.20031 3.35117 
3.22802 3.35117 -0.862611 
-3.16056 -0.0923142 1.69757 
-0.0923142 -2.26359 2.68119 
1.69757 2.68119 -1.9397 
-2.53714 -0.230791 2.4592 
-0.230791 -2.31034 2.7113 
2.4592 2.7113 -2.51637 
-3.27658 0.218413 1.66931 
0.218413 -3.87812 1.67238 
1.66931 1.67238 -3.22979 
-3.02514 0.172196 2.39486 
0.172196 -3.65114 2.26148 
2.39486 2.26148 -3.7082 
-3.04995 0.384058 2.60946 
0.384058 -3.27005 1.98499 
2.60946 1.98499 -4.06449 
-4.40431 -0.625397 2.26478 
-0.625397 -3.355 2.3256 
2.26478 2.3256 -2.62518 
-4.13638 -0.0966362 -1.56218 
-0.0966362 -3.71317 -3.0333 
-1.56218 -3.0333 -3.98489 
-3.96922 -0.0882056 -1.68981 
-0.0882056 -3.75621 -2.98341 
-1.68981 -2.98341 -4.10902 
-4.05285 0.278182 -1.67086 
0.278182 -4.12228 -3.6483 
-1.67086 -3.6483 -3.65932 
-3.98989 0.0774557 -1.81971 
0.0774557 -3.84341 -3.28327 
-1.81971 -3.28327 -4.00115 
-3.14278 0.177017 2.26536 
0.177017 -2.62446 1.84854 
2.26536 1.84854 -2.75192 
-3.11148 0.0253461 2.71415 
0.0253461 -3.16441 1.88968 
2.71415 1.88968 -2.24327 
-2.31747 -0.0543357 2.24583 
-0.0543357 -3.20817 2.11078 
2.24583 2.11078 -2.99353 
-3.32674 -0.0290729 2.47326 
-0.0290729 -2.68497 1.74464 
2.47326 1.74464 -2.50746 
-4.08256 0.0935354 -2.22726 
0.0935354 -4.10117 2.31999 
-2.22726 2.31999 -4.19332 
-3.96527 0.160275 -1.96791 
0.160275 -3.98451 2.40812 
-1.96791 2.40812 -4.42728 
-4.22287 0.260726 -2.15768 
0.260726 -4.18946 2.17296 
-2.15768 2.17296 -3.96473 
-4.05017 0.0423595 -2.09743 
0.0423595 -4.21989 2.31741 
-2.09743 2.31741 -4.10699 
-9.32089 -0.036784 -2.77985 
-0.036784 -9.22154 1.58726 
-2.77985 1.58726 -9.56394 
-8.99696 -0.0523499 -2.70134 
-0.0523499 -8.9995 1.65565 
-2.70134 1.65565 -10.1099 
-9.3539 0.0127092 -2.76249 
0.0127092 -9.29655 1.60907 
-2.76249 1.60907 -9.45591 
-9.37221 0.0559975 -2.97318 
0.0559975 -9.42332 1.60251 
-2.97318 1.60251 -9.31084 
-6.40095 -0.0374181 1.31809 
-0.0374181 -6.68708 -3.06844 
1.31809 -3.06844 -6.40762 
-6.92987 -0.157382 1.37109 
-0.157382 -7.04314 -2.28105 
1.37109 -2.28105 -5.52264 
-6.45745 0.0115662 1.44382 
0.0115662 -6.60184 -2.8631 
1.44382 -2.8631 -6.43637 
-5.85991 0.14912 1.33102 
0.14912 -5.8567 -2.44101 
1.33102 -2.44101 -7.77904 
-1.27903 0.0496103 0.403744 
0.0496103 -1.35087 -2.16804 
0.403744 -2.16804 -1.17829 
-1.18682 -0.145033 0.495803 
-0.145033 -1.16335 -2.03428 
0.495803 -2.03428 -1.45802 
-1.42911 -0.163016 0.0122409 
-0.163016 -1.58814 -2.08278 
0.0122409 -2.08278 -0.790934 
-1.37866 -0.0814119 0.0723072 
-0.0814119 -1.21019 -2.07519 
0.0723072 -2.07519 -1.21933 
-3.67601 0.32191 1.659 
0.32191 -3.18517 -1.45494 
1.659 -1.45494 -4.27043 
-3.65238 -0.190709 1.9167 
-0.190709 -3.83295 -1.59382 
1.9167 -1.59382 -3.64629 
-4.41476 0.361754 1.93553 
0.361754 -3.67124 -1.95601 
1.93553 -1.95601 -3.04561 
-3.56773 -0.188894 1.96675 
-0.188894 -3.82649 -1.69952 
1.96675 -1.69952 -3.73739 
-9.12837 0.0862731 -0.080603 
0.0862731 -9.15736 -2.00696 
-0.080603 -2.00696 -9.83766 
-9.29789 -0.0376007 -0.0241422 
-0.0376007 -9.27242 -1.89584 
-0.0241422 -1.89584 -9.55308 
-9.13861 0.000894107 -0.13168 
0.000894107 -9.08446 -1.81903 
-0.13168 -1.81903 -9.90032 
-9.45637 -0.019912 0.0350686 
-0.019912 -9.30005 -1.87839 
0.0350686 -1.87839 -9.36696 
-8.0085 -0.0314291 2.06945 
-0.0314291 -7.97743 -2.1179 
2.06945 -2.1179 -7.87349 
-8.143 0.00623307 2.39853 
0.00623307 -8.24396 -1.7542 
2.39853 -1.7542 -7.47246 
-7.87348 -0.0871765 1.90412 
-0.0871765 -7.83145 -2.11645 
1.90412 -2.11645 -8.15449 
-7.83904 -0.0287524 2.08747 
-0.0287524 -8.12265 -1.92509 
2.08747 -1.92509 -7.89774 
-4.70349 0.412842 -2.59592 
0.412842 -5.20766 1.26429 
-2.59592 1.26429 -5.24422 
-5.05866 0.0449012 -2.68665 
0.0449012 -5.25301 1.19808 
-2.68665 1.19808 -4.84372 
-5.48027 0.0473113 -3.1054 
0.0473113 -5.11651 1.43115 
-3.1054 1.43115 -4.5586 
-4.8063 0.351427 -2.44538 
0.351427 -4.62386 1.26761 
-2.44538 1.26761 -5.72522 
-7.8332 0.0172812 0.50822 
0.0172812 -8.02967 -1.74138 
0.50822 -1.74138 -8.12161 
-8.3458 0.0323921 0.521744 
0.0323921 -8.32784 -2.01998 
0.521744 -2.01998 -7.31083 
-7.95281 0.0757948 0.454443 
0.0757948 -8.20873 -1.80304 
0.454443 -1.80304 -7.82293 
-7.96701 0.0513301 0.605394 
0.0513301 -8.12027 -1.80481 
0.605394 -1.80481 -7.89719 
-5.9231 -0.0741964 0.096573 
-0.0741964 -6.25771 4.24164 
0.096573 4.24164 -6.22731 
-6.05609 0.447086 0.559605 
0.447086 -6.22847 4.32503 
0.559605 4.32503 -6.12355 
-6.36965 0.22895 0.584384 
0.22895 -5.55083 4.29248 
0.584384 4.29248 -6.48764 
-5.948 -0.103153 0.396319 
-0.103153 -5.88378 4.29429 
0.396319 4.29429 -6.57634 
-8.9123 -0.0678064 2.04307 
-0.0678064 -8.58505 -1.40458 
2.04307 -1.40458 -9.09713 
-9.13975 -0.272943 2.271 
-0.272943 -8.90666 -1.36193 
2.271 -1.36193 -8.54807 
-8.78953 0.0282643 1.44523 
0.0282643 -8.45906 -1.36704 
1.44523 -1.36704 -9.3459 
-8.60228 0.0304922 1.67945 
0.0304922 -9.06221 -1.14994 
1.67945 -1.14994 -8.92999 
-3.11459 -0.340563 1.21454 
-0.340563 -3.05762 1.77229 
1.21454 1.77229 -3.28356 
-2.70185 0.199465 2.59012 
0.199465 -2.21064 1.85609 
2.59012 1.85609 -4.54327 
-3.1904 -0.198826 1.79222 
-0.198826 -2.99743 2.30512 
1.79222 2.30512 -3.26795 
-3.58542 -0.527448 2.01344 
-0.527448 -3.62665 2.74638 
2.01344 2.74638 -2.2437 
-8.24386 0.155577 4.00938 
0.155577 -8.48358 -0.0178174 
4.00938 -0.0178174 -7.96497 
-8.12273 -0.00560257 4.22618 
-0.00560257 -8.13885 0.124624 
4.22618 0.124624 -8.43084 
-8.18596 0.0159312 4.36763 
0.0159312 -8.54654 0.0480176 
4.36763 0.0480176 -7.9599 
-8.09284 0.00339889 4.28396 
0.00339889 -8.3813 0.0935796 
4.28396 0.0935796 -8.21827 
-3.09037 0.0586373 4.78348 
0.0586373 -5.26125 -0.210892 
4.78348 -0.210892 -6.27132 
-4.90126 0.0281501 4.29579 
0.0281501 -4.83283 -0.492017 
4.29579 -0.492017 -4.88885 
-6.80908 -0.0304739 4.64783 
-0.0304739 -4.43862 -0.167547 
4.64783 -0.167547 -3.37524 
-4.69866 0.033901 2.57148 
0.033901 -4.8397 -0.926574 
2.57148 -0.926574 -5.08458 
-5.25683 -0.254939 -2.04894 
-0.254939 -5.71746 -3.67041 
-2.04894 -3.67041 -4.92673 
-5.54589 0.162038 -1.33299 
0.162038 -5.01184 -3.55065 
-1.33299 -3.55065 -5.3433 
-5.67023 -0.0140384 -0.49643 
-0.0140384 -4.71848 -4.80518 
-0.49643 -4.80518 -5.51231 
-5.54811 -0.473926 -0.6339 
-0.473926 -4.72322 -3.4546 
-0.6339 -3.4546 -5.6297 
-8.27875 -0.0270124 4.09361 
-0.0270124 -8.10186 -0.37762 
4.09361 -0.37762 -8.70008 
-8.28647 -0.0916728 4.29665 
-0.0916728 -8.43129 -0.254092 
4.29665 -0.254092 -8.36293 
-8.34507 -0.0621026 4.37817 
-0.0621026 -8.27135 -0.37036 
4.37817 -0.37036 -8.46427 
-8.28974 -0.0751271 4.4788 
-0.0751271 -8.37675 -0.36334 
4.4788 -0.36334 -8.4142 
-1.78551 -0.48645 0.614791 
-0.48645 -1.557 -1.81312 
0.614791 -1.81312 -2.11595 
-1.82267 0.341818 0.483597 
0.341818 -2.00002 -1.5937 
0.483597 -1.5937 -1.63577 
-1.79079 -0.0539407 0.636553 
-0.0539407 -1.92612 -1.84137 
0.636553 -1.84137 -1.74155 
-1.63989 -0.0136801 0.177769 
-0.0136801 -1.77386 -2.09851 
0.177769 -2.09851 -2.04471 
-4.15943 -0.360566 -1.62488 
-0.360566 -4.16668 -3.60427 
-1.62488 -3.60427 -4.11353 
-4.55926 -0.186868 -1.53898 
-0.186868 -4.00349 -3.80806 
-1.53898 -3.80806 -3.87688 
-4.00788 0.0712801 -1.16461 
0.0712801 -4.90768 -3.31672 
-1.16461 -3.31672 -3.52408 
-3.35339 -0.469276 -2.06287 
-0.469276 -3.88364 -3.74091 
-2.06287 -3.74091 -5.2026 
-1.67324 0.0698974 -2.88668 
0.0698974 -1.50479 -2.32297 
-2.88668 -2.32297 -2.45091 
-1.82962 0.207053 -2.56238 
0.207053 -1.7402 -2.34775 
-2.56238 -2.34775 -2.05911 
-2.07883 0.111125 -2.46073 
0.111125 -1.9383 -2.3093 
-2.46073 -2.3093 -1.61181 
-1.97825 0.101978 -2.7069 
0.101978 -1.7186 -2.3822 
-2.7069 -2.3822 -1.93208 
-6.25064 -0.152443 -2.58864 
-0.152443 -5.97526 -0.0937584 
-2.58864 -0.0937584 -5.55173 
-5.40541 0.0260688 -2.60288 
0.0260688 -6.0903 -0.314019 
-2.60288 -0.314019 -6.28192 
-6.16528 0.0207444 -2.45264 
0.0207444 -5.83374 -0.190884 
-2.45264 -0.190884 -5.77861 
-6.11851 -0.000376077 -1.94234 
-0.000376077 -6.47806 -0.279737 
-1.94234 -0.279737 -5.18106 
-8.62247 -0.0672645 0.608987 
-0.0672645 -8.78896 -2.92465 
0.608987 -2.92465 -8.73797 
-8.64076 0.386984 0.64177 
0.386984 -8.42631 -2.92566 
0.64177 -2.92566 -9.08233 
-8.82522 0.124327 0.630875 
0.124327 -8.75249 -2.9687 
0.630875 -2.9687 -8.57169 
-8.75364 -0.073084 0.547224 
-0.073084 -8.71665 -2.94188 
0.547224 -2.94188 -8.6791 
-8.46606 0.273061 -1.09946 
0.273061 -8.45893 1.19993 
-1.09946 1.19993 -8.96791 
-8.7374 0.246638 -1.27604 
0.246638 -8.75519 1.2275 
-1.27604 1.2275 -8.4003 
-8.59359 -0.111584 -1.19493 
-0.111584 -8.61549 1.20018 
-1.19493 1.20018 -8.68381 
-8.65545 0.00739813 -1.18639 
0.00739813 -8.61575 1.16654 
-1.18639 1.16654 -8.6217 
-6.82521 0.263863 2.73102 
0.263863 -6.92023 -0.103425 
2.73102 -0.103425 -7.04339 
-7.15743 0.0426095 2.65581 
0.0426095 -7.01214 0.211801 
2.65581 0.211801 -6.61926 
-6.51644 0.0712935 2.49091 
0.0712935 -6.30029 -0.250152 
2.49091 -0.250152 -7.9721 
-6.79972 0.0798388 2.75797 
0.0798388 -7.04164 -0.0053366 
2.75797 -0.0053366 -6.94747 
-5.65088 -0.153532 -1.23055 
-0.153532 -5.64871 -4.80248 
-1.23055 -4.80248 -5.74707 
-5.58 -0.00290096 -0.831577 
-0.00290096 -5.57638 -4.19203 
-0.831577 -4.19203 -5.89028 
-5.075 0.679591 -1.31724 
0.679591 -4.68308 -3.17299 
-1.31724 -3.17299 -7.28857 
-5.99466 -0.372923 -0.939716 
-0.372923 -6.44293 -3.77039 
-0.939716 -3.77039 -4.60908 
-2.91827 0.28659 -1.60079 
0.28659 -3.02537 -1.92718 
-1.60079 -1.92718 -2.81899 
-3.79577 0.281769 -1.81791 
0.281769 -3.16642 -2.00352 
-1.81791 -2.00352 -1.80044 
-3.13544 -0.0634152 -1.25081 
-0.0634152 -2.28777 -1.56989 
-1.25081 -1.56989 -3.33943 
-2.74719 0.144122 -1.55545 
0.144122 -3.15742 -2.04928 
-1.55545 -2.04928 -2.85802 
-3.73927 0.108938 2.00633 
0.108938 -3.89831 2.41737 
2.00633 2.41737 -4.10541 
-3.74701 0.0281552 1.97099 
0.0281552 -3.78408 2.34006 
1.97099 2.34006 -4.21189 
-3.56436 0.0113788 2.01115 
0.0113788 -4.12118 2.2341 
2.01115 2.2341 -4.05745 
-3.83753 0.111499 1.61957 
0.111499 -4.01766 2.2231 
1.61957 2.2231 -3.88779 
-5.20215 -0.0902251 2.15752 
-0.0902251 -4.89574 -1.80932 
2.15752 -1.80932 -5.32295 
-5.68624 -0.151164 2.21943 
-0.151164 -5.01454 -1.47448 
2.21943 -1.47448 -4.72007 
-4.85791 0.0341645 2.2302 
0.0341645 -4.91249 -2.00394 
2.2302 -2.00394 -5.65044 
-5.27554 -0.208396 2.33092 
-0.208396 -5.1248 -1.95354 
2.33092 -1.95354 -5.0205 
-6.59438 0.0927739 2.0238 
0.0927739 -6.44965 -1.5235 
2.0238 -1.5235 -7.34693 
-6.74531 -0.0417786 2.01393 
-0.0417786 -7.04092 -1.25945 
2.01393 -1.25945 -6.60474 
-6.72455 0.19884 1.8995 
0.19884 -6.90922 -1.29392 
1.8995 -1.29392 -6.7572 
-7.13131 -0.0557706 1.84933 
-0.0557706 -6.87325 -1.00289 
1.84933 -1.00289 -6.3864 
-3.87971 0.029139 -1.90473 
0.029139 -3.74973 -1.95356 
-1.90473 -1.95356 -3.9516 
-3.80867 0.0269828 -2.0055 
0.0269828 -4.1378 -1.87578 
-2.0055 -1.87578 -3.63456 
-4.0404 0.137746 -1.80786 
0.137746 -3.59467 -1.96127 
-1.80786 -1.96127 -3.94597 
-3.09916 0.00739776 -1.94489 
0.00739776 -3.85606 -1.72437 
-1.94489 -1.72437 -4.62581 
-2.18067 0.167453 -2.55098 
0.167453 -1.93639 -2.84087 
-2.55098 -2.84087 -1.05959 
-1.83844 -0.0558616 -3.08556 
-0.0558616 -1.67425 -3.13538 
-3.08556 -3.13538 -1.66396 
-1.83384 -0.0108415 -2.8178 
-0.0108415 -1.62745 -3.08364 
-2.8178 -3.08364 -1.71535 
-1.73851 0.0315512 -3.14518 
0.0315512 -1.38421 -3.11162 
-3.14518 -3.11162 -2.05392 
-4.72508 -0.21349 2.19524 
-0.21349 -4.37136 1.15823 
2.19524 1.15823 -3.85661 
-4.3086 0.103597 2.69316 
0.103597 -3.99644 1.1383 
2.69316 1.1383 -4.64801 
-4.14724 0.174444 2.2852 
0.174444 -4.25528 1.00854 
2.2852 1.00854 -4.55053 
-3.75303 -0.0549037 1.71065 
-0.0549037 -3.58253 1.18406 
1.71065 1.18406 -5.61749 
-4.62197 0.0188936 0.790509 
0.0188936 -2.67491 4.01374 
0.790509 4.01374 -5.0864 
-3.81492 -0.0599345 1.27812 
-0.0599345 -4.489 4.53928 
1.27812 4.53928 -4.07937 
-4.4625 0.127279 1.30468 
0.127279 -4.41037 4.73083 
1.30468 4.73083 -3.51042 
-3.82949 0.0969899 1.29717 
0.0969899 -4.61681 4.08766 
1.29717 4.08766 -3.93699 
-5.11416 -0.123041 -3.31235 
-0.123041 -4.80485 0.0839748 
-3.31235 0.0839748 -4.38726 
-4.54675 -0.145209 -3.13257 
-0.145209 -4.92413 -0.0307563 
-3.13257 -0.0307563 -4.83539 
-4.89902 -0.136574 -3.03522 
-0.136574 -4.99654 -0.0308557 
-3.03522 -0.0308557 -4.41071 
-4.67127 -0.0333923 -3.06303 
-0.0333923 -4.93485 0.222722 
-3.06303 0.222722 -4.70015 
-4.99293 -0.00226183 1.64398 
-0.00226183 -5.21004 -2.84001 
1.64398 -2.84001 -5.09974 
-4.72672 -0.399048 1.69921 
-0.399048 -5.31657 -2.8477 
1.69921 -2.8477 -5.25942 
-5.38672 0.589181 1.76398 
0.589181 -4.93848 -3.07689 
1.76398 -3.07689 -4.97751 
-4.74774 0.133983 2.35764 
0.133983 -5.04745 -2.39044 
2.35764 -2.39044 -5.50752 
-5.538 -0.177781 4.99402 
-0.177781 -5.70535 -0.505819 
4.99402 -0.505819 -5.79378 
-4.3771 0.510142 3.382 
0.510142 -5.68363 -0.210958 
3.382 -0.210958 -6.97639 
-5.72485 -0.217203 4.29569 
-0.217203 -5.53466 -0.723426 
4.29569 -0.723426 -5.77761 
-6.49189 -0.052677 4.10227 
-0.052677 -6.09154 -0.364259 
4.10227 -0.364259 -4.4537 
-6.62387 -0.350323 2.17794 
-0.350323 -6.07447 -1.64729 
2.17794 -1.64729 -5.44527 
-6.16464 -0.453533 0.873062 
-0.453533 -5.46597 -1.32318 
0.873062 -1.32318 -6.51299 
-6.14085 0.0738386 1.68125 
0.0738386 -6.0207 -1.35855 
1.68125 -1.35855 -5.98205 
-6.08565 -0.1189 1.33145 
-0.1189 -6.04564 -1.28362 
1.33145 -1.28362 -6.01231 
-7.28766 -0.0314989 -2.10388 
-0.0314989 -6.83266 3.71001 
-2.10388 3.71001 -6.60319 
-7.24365 -0.097965 -2.10232 
-0.097965 -7.03018 3.65549 
-2.10232 3.65549 -6.44968 
-6.77252 0.0873861 -2.32926 
0.0873861 -6.5527 3.53899 
-2.32926 3.53899 -7.39828 
-7.14245 0.315447 -1.43371 
0.315447 -7.34508 3.54332 
-1.43371 3.54332 -6.23598 
-9.29046 -0.111757 1.70482 
-0.111757 -9.17441 -3.25631 
1.70482 -3.25631 -10.3206 
-9.71127 -0.136677 1.70102 
-0.136677 -9.74252 -2.86954 
1.70102 -2.86954 -9.33165 
-9.29026 -0.0714109 1.62074 
-0.0714109 -9.87395 -2.97314 
1.62074 -2.97314 -9.62123 
-9.73726 -0.123375 1.52514 
-0.123375 -9.70781 -2.99294 
1.52514 -2.99294 -9.34037 
-8.034 0.0202762 -1.92385 
0.0202762 -7.92987 3.70882 
-1.92385 3.70882 -8.36426 
-8.0555 -0.159659 -2.08535 
-0.159659 -8.00798 3.70199 
-2.08535 3.70199 -8.26465 
-8.18801 -0.0350827 -1.86547 
-0.0350827 -8.109 3.44509 
-1.86547 3.44509 -8.03112 
-8.15328 -0.0660108 -1.98515 
-0.0660108 -7.87863 3.73073 
-1.98515 3.73073 -8.29622 
-0.768817 -0.0309682 -0.0654916 
-0.0309682 -0.997586 -1.90865 
-0.0654916 -1.90865 0.0485141 
-0.615319 0.0186017 0.025989 
0.0186017 -0.650657 -1.89561 
0.025989 -1.89561 -0.451913 
-0.704435 0.029468 0.0745669 
0.029468 -0.855544 -1.89705 
0.0745669 -1.89705 -0.157909 
-0.60446 -0.014 -0.000657671 
-0.014 -0.541946 -1.85803 
-0.000657671 -1.85803 -0.571483 
-6.42006 0.0099739 2.79389 
0.0099739 -6.08687 -0.240222 
2.79389 -0.240222 -6.21112 
-6.28441 0.064024 2.86235 
0.064024 -6.19658 -0.109581 
2.86235 -0.109581 -6.23706 
-6.09839 0.151461 2.72849 
0.151461 -6.04171 -0.543186 
2.72849 -0.543186 -6.57795 
-6.40808 0.495754 3.04806 
0.495754 -6.46791 -0.0501947 
3.04806 -0.0501947 -5.84206 
-3.79808 -0.277302 0.319695 
-0.277302 -3.32247 0.910561 
0.319695 0.910561 -4.8162 
-3.93589 0.229855 0.702676 
0.229855 -3.96143 1.36802 
0.702676 1.36802 -4.03944 
-4.57471 -0.426483 0.520133 
-0.426483 -3.8685 1.77252 
0.520133 1.77252 -3.49354 
-3.9058 0.165394 0.559669 
0.165394 -3.94108 1.3907 
0.559669 1.3907 -4.08988 
-4.07379 -0.0398473 -1.17279 
-0.0398473 -4.25999 -4.0693 
-1.17279 -4.0693 -3.82694 
-5.175 -0.429078 -1.52738 
-0.429078 -4.07968 -2.85037 
-1.52738 -2.85037 -2.90605 
-4.49083 0.218739 -1.4526 
0.218739 -4.25778 -4.23705 
-1.4526 -4.23705 -3.41212 
-3.71527 -0.0300646 -0.688172 
-0.0300646 -3.50198 -4.698 
-0.688172 -4.698 -4.94348 
-1.91327 0.19262 1.73647 
0.19262 -2.06933 1.82753 
1.73647 1.82753 -2.15899 
-1.97605 0.0515042 1.72532 
0.0515042 -1.67255 1.91829 
1.72532 1.91829 -2.49299 
-2.06842 0.0901467 1.79501 
0.0901467 -1.75897 1.86631 
1.79501 1.86631 -2.3142 
-1.81076 0.201855 1.41274 
0.201855 -1.78022 1.78181 
1.41274 1.78181 -2.55061 
-6.37915 -0.00365552 -0.655161 
-0.00365552 -6.2668 -1.14474 
-0.655161 -1.14474 -6.30919 
-6.28113 0.460914 -0.953011 
0.460914 -6.0065 -1.09082 
-0.953011 -1.09082 -6.66751 
-6.49049 0.220814 -0.460467 
0.220814 -6.51268 -1.04913 
-0.460467 -1.04913 -5.95196 
-6.34915 0.0446787 -0.805305 
0.0446787 -6.36594 -1.13569 
-0.805305 -1.13569 -6.24004 
-8.2914 -0.10377 3.88723 
-0.10377 -8.45287 -0.493621 
3.88723 -0.493621 -8.25869 
-8.29661 -0.0119368 4.19745 
-0.0119368 -8.17426 -0.787257 
4.19745 -0.787257 -8.53209 
-8.19639 -0.00888274 4.15274 
-0.00888274 -8.30833 -0.651094 
4.15274 -0.651094 -8.49824 
-8.12715 0.029925 4.19476 
0.029925 -8.51168 -0.471801 
4.19476 -0.471801 -8.36413 
-5.60054 0.364512 4.77277 
0.364512 -5.52104 0.234137 
4.77277 0.234137 -5.82953 
-5.64837 0.18496 4.13906 
0.18496 -5.46686 0.154346 
4.13906 0.154346 -5.83588 
-4.14753 -0.405808 3.42628 
-0.405808 -5.83443 -0.398814 
3.42628 -0.398814 -6.96915 
-6.51971 0.103724 4.02601 
0.103724 -6.02674 0.103086 
4.02601 0.103086 -4.40465 
-3.07805 0.0390857 1.90505 
0.0390857 -2.98888 0.882264 
1.90505 0.882264 -3.19837 
-3.32736 0.0636982 2.11759 
0.0636982 -3.03048 0.946561 
2.11759 0.946561 -2.90746 
-3.3623 -0.0573549 2.25021 
-0.0573549 -3.4172 1.06387 
2.25021 1.06387 -2.48581 
-3.43992 0.18407 2.0895 
0.18407 -3.03792 0.871949 
2.0895 0.871949 -2.78746 
-8.10036 0.0242795 1.85272 
0.0242795 -8.44717 -1.08943 
1.85272 -1.08943 -7.49111 
-8.0518 0.00795404 1.97476 
0.00795404 -7.99689 -1.06679 
1.97476 -1.06679 -7.98994 
-7.94266 0.0409344 1.86011 
0.0409344 -7.93072 -1.01813 
1.86011 -1.01813 -8.16526 
-8.02615 -0.00800958 1.74152 
-0.00800958 -8.12917 -1.13365 
1.74152 -1.13365 -7.88331 
-4.33985 0.0033396 -1.09139 
0.0033396 -4.23929 2.5129 
-1.09139 2.5129 -4.29324 
-3.76789 0.00340501 -1.1523 
0.00340501 -4.381 2.74558 
-1.1523 2.74558 -4.7235 
-4.35734 0.0491357 -1.28836 
0.0491357 -4.49304 2.21466 
-1.28836 2.21466 -4.022 
-4.30344 -0.0752229 -1.22411 
-0.0752229 -4.18823 2.38618 
-1.22411 2.38618 -4.38072 
-4.4891 -0.0285062 1.67887 
-0.0285062 -4.57362 0.861886 
1.67887 0.861886 -3.78233 
-3.4724 -0.523013 1.76736 
-0.523013 -4.25258 1.22202 
1.76736 1.22202 -5.12007 
-4.30017 0.0482222 1.76546 
0.0482222 -4.21321 0.694415 
1.76546 0.694415 -4.33167 
-4.50802 0.083678 1.68485 
0.083678 -4.14294 0.764261 
1.68485 0.764261 -4.1941 
-6.89192 -0.0105941 1.77865 
-0.0105941 -6.80325 -2.04706 
1.77865 -2.04706 -5.87824 
-6.62149 0.0299015 2.26173 
0.0299015 -6.44697 -2.17743 
2.26173 -2.17743 -6.50496 
-6.54119 0.0836404 2.1163 
0.0836404 -6.4741 -2.19712 
2.1163 -2.19712 -6.55812 
-5.95353 0.0700448 1.79599 
0.0700448 -5.99208 -2.06364 
1.79599 -2.06364 -7.6278 
-7.74073 0.0570754 -2.38043 
0.0570754 -7.76493 1.21186 
-2.38043 1.21186 -7.71809 
-7.93573 0.162273 -2.44548 
0.162273 -7.94676 1.49967 
-2.44548 1.49967 -7.34127 
-7.64784 0.000216571 -2.36076 
0.000216571 -7.72346 1.11242 
-2.36076 1.11242 -7.85245 
-8.0282 0.198003 -2.68493 
0.198003 -7.86639 1.22975 
-2.68493 1.22975 -7.32916 
-3.35381 -0.0550068 0.740851 
-0.0550068 -4.08346 1.54344 
0.740851 1.54344 -4.88581 
-4.11395 0.000533973 0.0933543 
0.000533973 -4.41446 1.16625 
0.0933543 1.16625 -3.79467 
-4.14037 0.106633 0.40132 
0.106633 -4.06344 1.08622 
0.40132 1.08622 -4.11926 
-4.19367 0.108759 0.383227 
0.108759 -4.03127 1.11136 
0.383227 1.11136 -4.09813 
-4.76264 0.067012 2.05001 
0.067012 -4.85004 -2.59843 
2.05001 -2.59843 -4.83732 
-4.87494 0.0701338 2.0304 
0.0701338 -4.95232 -2.55687 
2.0304 -2.55687 -4.62275 
-4.71881 -0.0736921 2.01404 
-0.0736921 -4.68309 -2.62831 
2.01404 -2.62831 -5.0481 
-4.82774 0.0506424 1.87722 
0.0506424 -4.86102 -2.62685 
1.87722 -2.62685 -4.76124 
-4.32989 -0.17779 2.03704 
-0.17779 -4.97219 1.71224 
2.03704 1.71224 -4.71282 
-4.48234 -0.293391 2.29838 
-0.293391 -4.80178 1.81511 
2.29838 1.81511 -4.73078 
-5.25411 -0.0969048 2.16901 
-0.0969048 -4.54563 1.5235 
2.16901 1.5235 -4.21516 
-4.40495 0.0429535 1.73011 
0.0429535 -4.10758 2.07067 
1.73011 2.07067 -5.50237 
-6.30024 0.17992 -1.57292 
0.17992 -6.2892 -2.65475 
-1.57292 -2.65475 -6.28031 
-6.23272 0.0969364 -1.52953 
0.0969364 -6.29751 -2.55989 
-1.52953 -2.55989 -6.33951 
-6.38303 -0.13158 -1.44025 
-0.13158 -6.47886 -2.29661 
-1.44025 -2.29661 -6.00786 
-6.15798 -0.0650243 -1.57873 
-0.0650243 -6.19345 -2.64072 
-1.57873 -2.64072 -6.51831 
-3.58486 -0.138143 0.625713 
-0.138143 -3.53955 3.59363 
0.625713 3.59363 -2.90627 
-3.13832 -0.0198435 0.898432 
-0.0198435 -3.27701 3.0539 
0.898432 3.0539 -3.61535 
-3.22314 -0.233119 0.762105 
-0.233119 -3.4323 3.25533 
0.762105 3.25533 -3.37525 
-3.36033 -0.291429 0.882909 
-0.291429 -3.53571 3.27515 
0.882909 3.27515 -3.13464 
-3.73635 0.261072 0.537967 
0.261072 -3.37225 1.1443 
0.537967 1.1443 -3.16672 
-3.59465 0.198556 0.748992 
0.198556 -3.53572 1.43835 
0.748992 1.43835 -3.14496 
-3.38634 -0.0384701 0.749559 
-0.0384701 -3.23489 1.04265 
0.749559 1.04265 -3.65409 
-3.34048 -0.0362347 0.823197 
-0.0362347 -3.38662 1.01065 
0.823197 1.01065 -3.54822 
-8.66208 0.0812912 -3.0089 
0.0812912 -8.76325 1.31312 
-3.0089 1.31312 -8.74607 
-8.74615 -0.0577532 -3.058 
-0.0577532 -8.82655 1.40303 
-3.058 1.40303 -8.59869 
-8.43882 -0.459486 -3.01815 
-0.459486 -8.65728 1.33326 
-3.01815 1.33326 -9.07529 
-8.79566 0.0171074 -3.01557 
0.0171074 -8.71416 1.46885 
-3.01557 1.46885 -8.66158 
-5.53959 0.154825 0.665458 
0.154825 -5.47371 3.93155 
0.665458 3.93155 -5.64831 
-5.28566 0.595145 -0.0383959 
0.595145 -5.72692 4.07638 
-0.0383959 4.07638 -5.64903 
-5.10746 0.274062 0.268541 
0.274062 -5.99976 4.48216 
0.268541 4.48216 -5.5544 
-5.54956 -0.0123311 0.830768 
-0.0123311 -5.79795 4.04073 
0.830768 4.04073 -5.31411 
-1.85578 -0.145594 2.11547 
-0.145594 -2.03783 3.22465 
2.11547 3.22465 -1.24035 
-1.76472 -0.129333 2.64285 
-0.129333 -1.65479 3.31277 
2.64285 3.31277 -1.71446 
-1.7921 -0.0864245 2.36971 
-0.0864245 -1.69366 3.17081 
2.36971 3.17081 -1.64821 
-1.78386 -0.140377 2.58847 
-0.140377 -1.84812 3.28287 
2.58847 3.28287 -1.50198 
-1.23936 -0.0419349 0.0654529 
-0.0419349 -1.40354 -3.10757 
0.0654529 -3.10757 -1.28396 
-1.30619 -0.000541063 -0.0302663 
-0.000541063 -1.67433 -2.8883 
-0.0302663 -2.8883 -0.946339 
-1.23308 0.0259043 -0.0194129 
0.0259043 -1.30409 -3.06633 
-0.0194129 -3.06633 -1.38969 
-1.2647 0.152027 -0.26056 
0.152027 -1.50609 -2.8348 
-0.26056 -2.8348 -1.15607 
-6.81312 0.122193 3.69153 
0.122193 -6.60262 -2.05264 
3.69153 -2.05264 -7.09368 
-7.47843 0.0109637 3.35841 
0.0109637 -6.33421 -2.75783 
3.35841 -2.75783 -6.69678 
-6.74155 -0.344778 3.55303 
-0.344778 -6.59352 -2.50278 
3.55303 -2.50278 -7.17435 
-6.55662 0.0108497 3.511 
0.0108497 -6.72487 -1.8532 
3.511 -1.8532 -7.22793 
-5.66501 0.0651452 2.36712 
0.0651452 -5.70769 1.63419 
2.36712 1.63419 -5.5388 
-5.25885 -0.0014697 2.52056 
-0.0014697 -5.3521 1.86177 
2.52056 1.86177 -6.30054 
-6.11616 -0.0878244 2.77005 
-0.0878244 -6.08995 1.33793 
2.77005 1.33793 -4.70537 
-5.62539 0.0798721 2.38355 
0.0798721 -5.79123 1.64681 
2.38355 1.64681 -5.49487 
-1.89076 -0.187226 -0.423581 
-0.187226 -1.62828 -4.08706 
-0.423581 -4.08706 -1.51254 
-1.8769 0.0225054 -0.489785 
0.0225054 -1.94543 -4.25457 
-0.489785 -4.25457 -1.20925 
-1.78452 -0.102024 0.141244 
-0.102024 -2.2244 -4.13372 
0.141244 -4.13372 -1.02266 
-1.39371 -0.116468 -0.674638 
-0.116468 -1.51192 -4.08061 
-0.674638 -4.08061 -2.12595 
-3.57799 0.0317736 -2.02261 
0.0317736 -3.5782 2.50548 
-2.02261 2.50548 -3.13269 
-3.46 0.0473263 -1.98164 
0.0473263 -3.41697 2.83249 
-1.98164 2.83249 -3.41192 
-3.6298 0.130826 -1.89003 
0.130826 -3.57786 2.72723 
-1.89003 2.72723 -3.08123 
-3.5255 0.046272 -1.94733 
0.046272 -3.45243 2.77253 
-1.94733 2.77253 -3.31096 
-6.12515 0.0787363 -2.05683 
0.0787363 -6.09015 -2.30661 
-2.05683 -2.30661 -6.36459 
-6.24744 -0.182128 -1.8145 
-0.182128 -6.27495 -2.10897 
-1.8145 -2.10897 -6.05749 
-6.19018 0.0449865 -1.98584 
0.0449865 -6.03742 -2.28297 
-1.98584 -2.28297 -6.35229 
-6.02553 -0.0397588 -1.92301 
-0.0397588 -6.11309 -2.40606 
-1.92301 -2.40606 -6.44126 
-3.9684 -0.16736 0.453358 
-0.16736 -4.15278 4.27944 
0.453358 4.27944 -4.04765 
-4.15297 -0.0613968 0.704113 
-0.0613968 -3.48274 4.20314 
0.704113 4.20314 -4.53312 
-4.2207 0.0482209 0.0428854 
0.0482209 -3.88975 4.30669 
0.0428854 4.30669 -4.05837 
-4.32182 -0.16622 -0.149704 
-0.16622 -3.98743 4.22226 
-0.149704 4.22226 -3.85958 
-2.33402 0.172143 -3.23558 
0.172143 -2.12778 2.34527 
-3.23558 2.34527 -1.69483 
-1.86994 0.260392 -3.27327 
0.260392 -1.82054 2.63616 
-3.27327 2.63616 -2.46614 
-1.91885 0.171883 -3.14359 
0.171883 -2.16185 2.59031 
-3.14359 2.59031 -2.07594 
-2.17352 0.100894 -3.33099 
0.100894 -2.07525 2.65965 
-3.33099 2.65965 -1.90786 
-9.37596 -0.0531114 -0.151673 
-0.0531114 -9.26513 1.24995 
-0.151673 1.24995 -9.59633 
-9.07783 -0.0433066 -0.277349 
-0.0433066 -9.01805 1.17442 
-0.277349 1.17442 -10.1415 
-9.46642 -0.0257285 -0.145303 
-0.0257285 -9.19745 1.15092 
-0.145303 1.15092 -9.57354 
-9.50117 -0.0121106 -0.0687509 
-0.0121106 -9.43921 1.18728 
-0.0687509 1.18728 -9.29703 
-8.36373 -0.159396 -0.166515 
-0.159396 -8.8288 -2.22431 
-0.166515 -2.22431 -8.98173 
-8.7573 -0.0132929 -0.0801731 
-0.0132929 -8.72312 -2.23139 
-0.0801731 -2.23139 -8.69383 
-8.79462 -0.00980221 -0.0946977 
-0.00980221 -8.61823 -2.21207 
-0.0946977 -2.21207 -8.7614 
-8.63 -0.0235889 -0.00445961 
-0.0235889 -8.83188 -2.02379 
-0.00445961 -2.02379 -8.71238 
-3.43998 -0.0935584 4.50193 
-0.0935584 -3.36063 -0.46347 
4.50193 -0.46347 -3.36121 
-3.46894 -0.0286584 4.55814 
-0.0286584 -3.16942 -0.597618 
4.55814 -0.597618 -3.52346 
-3.83195 -0.0217936 4.40016 
-0.0217936 -3.47646 -0.688477 
4.40016 -0.688477 -2.85341 
-3.19195 -0.0605374 4.49576 
-0.0605374 -3.44768 -0.511447 
4.49576 -0.511447 -3.52219 
-4.45416 0.0387532 2.23923 
0.0387532 -4.4159 -1.81296 
2.23923 -1.81296 -4.31727 
-4.18626 0.0554103 1.82564 
0.0554103 -4.00996 -1.6116 
1.82564 -1.6116 -4.99111 
-4.51215 0.212698 2.14889 
0.212698 -4.46611 -1.78153 
2.14889 -1.78153 -4.20909 
-4.4654 -0.079003 2.45035 
-0.079003 -4.70817 -2.04218 
2.45035 -2.04218 -4.01376 
-2.10894 0.0216325 1.78149 
0.0216325 -1.9981 2.46633 
1.78149 2.46633 -1.85405 
-2.0302 0.0426234 2.01671 
0.0426234 -1.77476 2.62778 
2.01671 2.62778 -2.15614 
-1.77011 -0.283916 1.87185 
-0.283916 -1.86255 2.41162 
1.87185 2.41162 -2.32844 
-1.93244 0.102226 1.66804 
0.102226 -1.94327 2.46205 
1.66804 2.46205 -2.08539 
-6.85902 0.0595467 -2.64932 
0.0595467 -6.82942 0.0297281 
-2.64932 0.0297281 -5.97936 
-6.39635 0.22448 -2.35366 
0.22448 -6.69359 -0.445507 
-2.35366 -0.445507 -6.57786 
-6.45244 0.0213287 -2.44053 
0.0213287 -6.61006 -0.345209 
-2.44053 -0.345209 -6.60531 
-6.06641 -0.0626841 -2.16727 
-0.0626841 -5.99048 -0.0710627 
-2.16727 -0.0710627 -7.61092 
-5.78595 -0.451266 -0.886348 
-0.451266 -5.73648 -4.39033 
-0.886348 -4.39033 -3.34488 
-4.04195 -0.205644 -2.27105 
-0.205644 -3.91447 -4.12985 
-2.27105 -4.12985 -6.91089 
-4.90047 0.234471 -1.62572 
0.234471 -5.02228 -3.59681 
-1.62572 -3.59681 -4.94456 
-4.63514 0.215524 -1.53344 
0.215524 -5.09434 -3.44844 
-1.53344 -3.44844 -5.13783 
-7.96051 -0.0861953 1.37983 
-0.0861953 -8.19069 0.506825 
1.37983 0.506825 -8.21956 
-8.11865 -0.175511 1.52388 
-0.175511 -8.26071 0.451464 
1.52388 0.451464 -7.9914 
-8.86133 0.154069 1.39487 
0.154069 -8.17099 0.748946 
1.39487 0.748946 -7.33844 
-8.14827 -0.0275197 1.50036 
-0.0275197 -8.22578 0.600772 
1.50036 0.600772 -7.99671 
-2.45622 -0.146519 -0.100944 
-0.146519 -2.91206 -2.26178 
-0.100944 -2.26178 -2.88981 
-2.5204 0.0355016 0.104096 
0.0355016 -2.80322 -2.23484 
0.104096 -2.23484 -2.93447 
-2.48919 -0.110566 0.409832 
-0.110566 -2.5541 -2.23745 
0.409832 -2.23745 -3.2148 
-2.56392 0.0299471 -0.310309 
0.0299471 -3.13091 -2.64802 
-0.310309 -2.64802 -2.56326 
-3.73176 0.0851108 0.612006 
0.0851108 -4.05834 -2.91324 
0.612006 -2.91324 -3.73375 
-3.79132 0.0446856 0.594462 
0.0446856 -4.08877 -2.99444 
0.594462 -2.99444 -3.64375 
-3.60673 0.0148723 0.612269 
0.0148723 -3.99482 -2.7327 
0.612269 -2.7327 -3.92229 
-3.67015 0.00175358 0.764952 
0.00175358 -3.82681 -3.06499 
0.764952 -3.06499 -4.02689 
-3.84837 -0.0770033 2.1339 
-0.0770033 -3.95528 1.30452 
2.1339 1.30452 -3.54818 
-3.84797 0.15067 2.06464 
0.15067 -3.25129 0.906527 
2.06464 0.906527 -4.25258 
-3.88354 0.0429259 2.14874 
0.0429259 -3.83305 1.33776 
2.14874 1.33776 -3.63524 
-4.30039 0.398717 2.62944 
0.398717 -3.67083 1.46617 
2.62944 1.46617 -3.38061 
-6.19986 0.0948797 -3.87753 
0.0948797 -6.27249 -0.172444 
-3.87753 -0.172444 -5.96432 
-6.05727 -0.00803131 -3.58204 
-0.00803131 -6.10819 0.0653278 
-3.58204 0.0653278 -6.27122 
-6.17031 0.0573318 -3.82361 
0.0573318 -6.13009 0.0154809 
-3.82361 0.0154809 -6.13627 
-6.131 0.0995183 -3.45701 
0.0995183 -6.32243 0.0142541 
-3.45701 0.0142541 -5.98325 
-8.23804 0.110063 -1.65776 
0.110063 -7.94769 4.07847 
-1.65776 4.07847 -6.11061 
-6.7759 -0.0505245 -2.58604 
-0.0505245 -6.69773 3.59492 
-2.58604 3.59492 -8.82271 
-7.15478 -0.203413 -1.14718 
-0.203413 -7.65541 3.13955 
-1.14718 3.13955 -7.48614 
-7.15475 -0.143317 -2.02385 
-0.143317 -7.74594 2.82804 
-2.02385 2.82804 -7.39565 
-1.75015 -0.0342883 -0.0178567 
-0.0342883 -1.54266 -3.20957 
-0.0178567 -3.20957 -2.33529 
-1.78717 0.0281186 0.0817177 
0.0281186 -1.87574 -3.32067 
0.0817177 -3.32067 -1.96519 
-1.77559 0.0143114 0.345283 
0.0143114 -1.84639 -3.31172 
0.345283 -3.31172 -2.00612 
-1.85007 0.141622 0.0990047 
0.141622 -1.69228 -3.2146 
0.0990047 -3.2146 -2.08575 
-1.16058 -0.0655314 -2.57158 
-0.0655314 -1.31984 0.459496 
-2.57158 0.459496 -1.15963 
-2.23713 0.319553 -2.47792 
0.319553 -1.12073 -0.0201228 
-2.47792 -0.0201228 -0.282192 
-1.17625 0.370026 -2.35869 
0.370026 -0.507834 0.277707 
-2.35869 0.277707 -1.95597 
-1.1047 -0.0337854 -2.52157 
-0.0337854 -1.3607 0.522476 
-2.52157 0.522476 -1.17465 
-4.44284 0.228188 -2.2972 
0.228188 -3.91372 -3.80481 
-2.2972 -3.80481 -5.07979 
-4.86826 0.113987 -2.13352 
0.113987 -4.48422 -4.17397 
-2.13352 -4.17397 -4.08388 
-4.45864 -0.131321 -1.90613 
-0.131321 -4.44906 -4.08174 
-1.90613 -4.08174 -4.52865 
-4.45475 -0.140029 -1.98814 
-0.140029 -4.77982 -3.90786 
-1.98814 -3.90786 -4.20178 
-4.43085 -0.637905 -1.34877 
-0.637905 -6.20202 -4.36987 
-1.34877 -4.36987 -3.63862 
-4.82948 0.0382177 -1.16289 
0.0382177 -4.58789 -4.14515 
-1.16289 -4.14515 -4.85413 
-4.90651 0.497621 -1.45818 
0.497621 -3.50509 -4.53011 
-1.45818 -4.53011 -5.85989 
-4.77161 0.0635806 -0.427711 
0.0635806 -4.50183 -3.03247 
-0.427711 -3.03247 -4.99806 
-7.48246 0.18098 -1.59468 
0.18098 -6.86699 -1.78743 
-1.59468 -1.78743 -6.69729 
-7.03417 -0.333877 -1.72865 
-0.333877 -6.89585 -2.14579 
-1.72865 -2.14579 -7.11673 
-6.78903 0.0846287 -1.52324 
0.0846287 -6.36256 -2.58399 
-1.52324 -2.58399 -7.89516 
-7.01037 -0.0160451 -1.65879 
-0.0160451 -6.81974 -1.99033 
-1.65879 -1.99033 -7.21663 
-3.26891 0.137318 0.70271 
0.137318 -3.15817 1.72754 
0.70271 1.72754 -3.03525 
-3.44947 -0.0489867 0.706309 
-0.0489867 -3.10671 1.76162 
0.706309 1.76162 -2.90614 
-3.14235 0.009318 0.785141 
0.009318 -3.06001 1.89099 
0.785141 1.89099 -3.25996 
-3.74783 -0.2139 0.614688 
-0.2139 -3.5706 2.09446 
0.614688 2.09446 -2.1439 
-2.51617 -0.199137 -3.12009 
-0.199137 -2.48862 -3.21325 
-3.12009 -3.21325 -2.48322 
-1.18133 1.14542 -3.34284 
1.14542 -2.38259 -2.714 
-3.34284 -2.714 -3.92409 
-3.4662 -0.570843 -3.45114 
-0.570843 -2.64239 -3.53985 
-3.45114 -3.53985 -1.37941 
-2.8669 -0.586092 -1.64148 
-0.586092 -2.48643 -2.92311 
-1.64148 -2.92311 -2.13468 
-8.18102 0.081168 -2.00958 
0.081168 -8.52536 3.32695 
-2.00958 3.32695 -7.66879 
-8.27638 0.22919 -1.60198 
0.22919 -8.32063 3.48691 
-1.60198 3.48691 -7.77816 
-7.959 0.167891 -1.65776 
0.167891 -8.21912 3.15061 
-1.65776 3.15061 -8.19705 
-8.07273 0.165443 -1.79046 
0.165443 -8.22291 3.2203 
-1.79046 3.2203 -8.07953 
-8.24889 -0.0581118 -3.00839 
-0.0581118 -7.91774 0.960701 
-3.00839 0.960701 -7.98734 
-8.2758 0.0515859 -2.72459 
0.0515859 -8.16399 1.41705 
-2.72459 1.41705 -7.71418 
-8.17709 -0.000263753 -2.94084 
-0.000263753 -8.09855 1.05295 
-2.94084 1.05295 -7.87833 
-8.13051 -0.074844 -2.69983 
-0.074844 -8.08655 1.20695 
-2.69983 1.20695 -7.93691 
-5.62493 -0.161504 2.05039 
-0.161504 -5.98212 -2.12192 
2.05039 -2.12192 -5.7981 
-5.72397 0.055643 2.26976 
0.055643 -5.64938 -1.93631 
2.26976 -1.93631 -6.0318 
-5.51848 -0.0827008 2.20024 
-0.0827008 -5.96584 -2.2347 
2.20024 -2.2347 -5.92083 
-6.21199 0.235096 1.98912 
0.235096 -5.79262 -2.04398 
1.98912 -2.04398 -5.40055 
-5.72739 0.176141 -0.250692 
0.176141 -5.37132 -0.0508369 
-0.250692 -0.0508369 -5.24904 
-5.6411 0.171196 -0.678619 
0.171196 -5.28061 -0.2325 
-0.678619 -0.2325 -5.42604 
-5.55134 0.129266 -0.827775 
0.129266 -5.21648 -0.0607087 
-0.827775 -0.0607087 -5.57994 
-5.67328 0.161037 -0.451011 
0.161037 -5.25077 -0.135839 
-0.451011 -0.135839 -5.4237 
-6.70099 -0.0268274 1.17353 
-0.0268274 -6.64802 2.43705 
1.17353 2.43705 -6.70278 
-6.5864 0.0159801 0.900521 
0.0159801 -6.71345 2.52984 
0.900521 2.52984 -6.75193 
-6.61098 -0.11197 1.05551 
-0.11197 -6.60996 2.54074 
1.05551 2.54074 -6.83085 
-6.57693 0.00766506 1.13544 
0.00766506 -6.50475 2.57396 
1.13544 2.57396 -6.97011 
-5.89883 -0.23436 -0.731309 
-0.23436 -5.65493 -0.200091 
-0.731309 -0.200091 -6.23547 
-5.66082 0.295745 -0.441439 
0.295745 -6.16224 -0.166259 
-0.441439 -0.166259 -5.96616 
-6.10832 0.100515 -1.01281 
0.100515 -6.26167 0.2122 
-1.01281 0.2122 -5.41924 
-5.93633 0.444222 -0.699985 
0.444222 -6.10927 0.135245 
-0.699985 0.135245 -5.74363 
-3.44728 -0.179276 1.25615 
-0.179276 -2.96345 3.97317 
1.25615 3.97317 -3.46595 
-3.14574 0.269905 1.39188 
0.269905 -2.99064 3.44157 
1.39188 3.44157 -3.74029 
-3.67719 -0.0494358 0.960961 
-0.0494358 -3.55385 4.21039 
0.960961 4.21039 -2.64563 
-3.20365 -0.262996 1.32835 
-0.262996 -3.18753 3.92509 
1.32835 3.92509 -3.4855 
-7.04524 -0.265904 -1.80286 
-0.265904 -6.77785 0.872523 
-1.80286 0.872523 -6.8341 
-6.55071 -0.0798991 -1.68864 
-0.0798991 -6.45983 0.919344 
-1.68864 0.919344 -7.64665 
-7.24536 0.045879 -2.13046 
0.045879 -7.06211 0.684645 
-2.13046 0.684645 -6.34972 
-6.94285 -0.0214365 -1.85365 
-0.0214365 -6.88831 0.717939 
-1.85365 0.717939 -6.82602 
-5.7618 0.0524048 -1.86958 
0.0524048 -5.8539 -4.2953 
-1.86958 -4.2953 -5.71468 
-5.7809 0.179365 -1.21812 
0.179365 -4.57216 -3.27667 
-1.21812 -3.27667 -6.97732 
-5.80347 -0.0248215 -1.59794 
-0.0248215 -5.63101 -3.73257 
-1.59794 -3.73257 -5.8959 
-5.87474 -0.146446 -1.27321 
-0.146446 -6.63395 -3.65424 
-1.27321 -3.65424 -4.82169 
-3.92101 0.228997 4.15433 
0.228997 -4.24472 -0.584623 
4.15433 -0.584623 -5.41474 
-4.83816 -0.0734491 3.78306 
-0.0734491 -4.407 -0.744951 
3.78306 -0.744951 -4.33531 
-4.49073 -0.00778332 4.00082 
-0.00778332 -4.47567 -0.51863 
4.00082 -0.51863 -4.61407 
-4.39713 0.053791 4.21624 
0.053791 -4.46354 -0.669743 
4.21624 -0.669743 -4.7198 
-7.6636 0.0237895 0.35967 
0.0237895 -8.02854 -2.39288 
0.35967 -2.39288 -8.00864 
-8.00263 0.148232 0.434529 
0.148232 -7.8412 -2.32997 
0.434529 -2.32997 -7.85695 
-8.40397 0.127648 0.493176 
0.127648 -7.69188 -2.3429 
0.493176 -2.3429 -7.60492 
-8.09293 0.101372 0.506907 
0.101372 -8.02453 -1.90989 
0.506907 -1.90989 -7.58332 
-6.15419 0.0973653 1.05989 
0.0973653 -6.31835 2.6402 
1.05989 2.6402 -5.94243 
-6.07585 0.026525 1.11462 
0.026525 -6.18723 2.45184 
1.11462 2.45184 -6.15189 
-6.14075 0.0382626 1.0548 
0.0382626 -6.21874 2.6794 
1.0548 2.6794 -6.05549 
-6.60614 -0.0939524 0.820795 
-0.0939524 -5.99945 2.70146 
0.820795 2.70146 -5.80938 
-8.73665 0.0278172 0.0310827 
0.0278172 -8.68809 0.820896 
0.0310827 0.820896 -8.70809 
-8.57472 0.0693269 -0.189094 
0.0693269 -8.84291 0.986364 
-0.189094 0.986364 -8.7152 
-8.24889 0.317991 -0.302209 
0.317991 -8.77183 1.0585 
-0.302209 1.0585 -9.11211 
-8.69284 0.09971 0.160704 
0.09971 -8.91067 0.97065 
0.160704 0.97065 -8.52932 
-4.82992 0.0975417 0.572138 
0.0975417 -3.90682 3.63886 
0.572138 3.63886 -3.56243 
-4.14702 0.0912029 0.861907 
0.0912029 -3.94495 3.26322 
0.861907 3.26322 -4.2072 
-3.87405 -0.173509 0.748307 
-0.173509 -4.26244 2.86931 
0.748307 2.86931 -4.16268 
-3.66669 0.0539266 1.17844 
0.0539266 -4.13933 2.83291 
1.17844 2.83291 -4.49315 
-3.98901 -0.188462 -2.03872 
-0.188462 -4.37387 2.37091 
-2.03872 2.37091 -4.33372 
-4.41624 0.0978554 -2.59747 
0.0978554 -3.95668 2.20777 
-2.59747 2.20777 -4.32368 
-3.89363 -0.46966 -1.95166 
-0.46966 -4.10273 2.54811 
-1.95166 2.54811 -4.70024 
-4.33678 0.151156 -2.7538 
0.151156 -4.45786 2.28574 
-2.7538 2.28574 -3.90195 
-4.05728 -0.0493143 1.4463 
-0.0493143 -3.97175 2.29385 
1.4463 2.29385 -4.20404 
-4.27878 0.0501633 1.55948 
0.0501633 -3.98992 2.36511 
1.55948 2.36511 -3.96436 
-4.12763 -0.0483373 1.53028 
-0.0483373 -4.30469 2.11419 
1.53028 2.11419 -3.80073 
-4.12373 -0.0488004 1.61539 
-0.0488004 -4.02387 2.28996 
1.61539 2.28996 -4.08547 
-1.8878 -0.207884 -0.292259 
-0.207884 -1.09705 -0.898566 
-0.292259 -0.898566 -0.973059 
-1.46584 -0.0888489 -0.307823 
-0.0888489 -1.13465 -0.994233 
-0.307823 -0.994233 -1.35741 
-1.32811 -0.0929604 -0.183941 
-0.0929604 -1.41826 -1.10767 
-0.183941 -1.10767 -1.21154 
-1.37393 -0.0482336 -0.0890675 
-0.0482336 -1.1207 -1.24616 
-0.0890675 -1.24616 -1.46328 
-2.84128 -0.191318 -4.64857 
-0.191318 -2.79507 0.442993 
-4.64857 0.442993 -3.79465 
-3.85328 -0.0845962 -4.0327 
-0.0845962 -3.67787 1.16727 
-4.0327 1.16727 -1.89985 
-2.8316 0.152589 -4.00849 
0.152589 -3.35495 0.503447 
-4.00849 0.503447 -3.24446 
-2.83968 0.380588 -4.21003 
0.380588 -3.50136 0.773956 
-4.21003 0.773956 -3.08996 
-6.40935 -0.201737 1.33888 
-0.201737 -6.44007 2.8255 
1.33888 2.8255 -6.04356 
-6.28719 -0.0431826 1.06402 
-0.0431826 -6.26599 2.78547 
1.06402 2.78547 -6.33979 
-6.38671 -0.147494 1.005 
-0.147494 -6.75788 3.05103 
1.005 3.05103 -5.74839 
-6.1322 0.0365361 1.24822 
0.0365361 -6.28293 2.6217 
1.24822 2.6217 -6.47786 
-2.72454 0.284319 -1.41988 
0.284319 -3.15939 -1.69224 
-1.41988 -1.69224 -3.5463 
-3.37758 -0.182299 -1.45321 
-0.182299 -3.32369 -2.23371 
-1.45321 -2.23371 -2.72896 
-3.13393 -0.0876067 -1.60806 
-0.0876067 -2.95624 -2.03751 
-1.60806 -2.03751 -3.34006 
-3.57427 -0.176877 -1.54945 
-0.176877 -3.11369 -1.85302 
-1.54945 -1.85302 -2.74227 
-4.01071 0.0522891 -3.83266 
0.0522891 -4.1709 -1.76406 
-3.83266 -1.76406 -3.95765 
-4.09147 -0.148394 -4.04123 
-0.148394 -3.99847 -1.96748 
-4.04123 -1.96748 -4.04932 
-4.31238 -0.0151987 -3.66097 
-0.0151987 -4.35672 -1.655 
-3.66097 -1.655 -3.47016 
-3.63894 -0.212506 -3.77175 
-0.212506 -4.05594 -2.04048 
-3.77175 -2.04048 -4.44437 
-0.66222 -0.00816819 -1.05953 
-0.00816819 -0.383369 2.03182 
-1.05953 2.03182 -0.283229 
-0.521983 0.0912418 -1.14351 
0.0912418 -0.343976 1.9283 
-1.14351 1.9283 -0.46286 
-0.958484 -0.0869447 -0.890852 
-0.0869447 -0.713308 1.96138 
-0.890852 1.96138 0.342974 
-0.299993 0.00348128 -1.13393 
0.00348128 -0.352866 2.0036 
-1.13393 2.0036 -0.67596 
-6.9642 0.083026 -0.386349 
0.083026 -6.85668 -1.42198 
-0.386349 -1.42198 -6.80306 
-6.827 0.0784694 -0.595755 
0.0784694 -6.81063 -1.26063 
-0.595755 -1.26063 -6.98631 
-6.81328 0.231784 -0.416852 
0.231784 -6.81332 -1.50603 
-0.416852 -1.50603 -6.99734 
-6.96192 -0.0020557 -0.383193 
-0.0020557 -6.957 -1.41972 
-0.383193 -1.41972 -6.70502 
-2.44195 -0.0776196 2.47739 
-0.0776196 -2.42292 3.73077 
2.47739 3.73077 -2.35622 
-1.41644 1.15064 2.63065 
1.15064 -1.85722 3.35722 
2.63065 3.35722 -3.94745 
-3.21382 -0.513037 3.13783 
-0.513037 -3.16218 3.91913 
3.13783 3.91913 -0.8451 
-2.75795 -0.599431 1.04281 
-0.599431 -2.81778 3.26318 
1.04281 3.26318 -1.64537 
-7.84571 -0.0518941 1.50905 
-0.0518941 -7.78319 0.888266 
1.50905 0.888266 -8.13702 
-8.45804 0.0920403 1.4948 
0.0920403 -8.30149 0.983187 
1.4948 0.983187 -7.0064 
-7.95635 0.00669351 1.64009 
0.00669351 -7.95309 0.956424 
1.64009 0.956424 -7.85648 
-7.96161 0.129899 1.61214 
0.129899 -8.05847 0.880439 
1.61214 0.880439 -7.74584 
-8.59028 -0.126713 -0.0142489 
-0.126713 -8.49021 -1.60748 
-0.0142489 -1.60748 -8.96652 
-8.69359 -0.165142 0.381282 
-0.165142 -8.58522 -1.63306 
0.381282 -1.63306 -8.7682 
-8.8055 -0.281805 0.368099 
-0.281805 -8.73892 -1.77239 
0.368099 -1.77239 -8.50259 
-8.59379 -0.015906 0.125689 
-0.015906 -8.78811 -1.59496 
0.125689 -1.59496 -8.6651 
-2.59571 -0.0700264 2.58862 
-0.0700264 -2.82524 3.49809 
2.58862 3.49809 -3.32548 
-2.7241 -0.0961769 2.34381 
-0.0961769 -2.75203 3.40315 
2.34381 3.40315 -3.2703 
-2.44568 0.112473 2.74519 
0.112473 -2.65987 2.82134 
2.74519 2.82134 -3.64088 
-2.92145 0.0476622 2.47585 
0.0476622 -2.80936 3.33744 
2.47585 3.33744 -3.01562 
-8.88329 0.210059 2.3903 
0.210059 -8.91049 -3.05439 
2.3903 -3.05439 -9.22371 
-8.85502 -0.0531262 2.48414 
-0.0531262 -8.74707 -3.08155 
2.48414 -3.08155 -9.4154 
-8.89178 0.271993 2.28478 
0.271993 -8.87743 -3.19997 
2.28478 -3.19997 -9.24828 
-9.11693 -0.305232 2.08346 
-0.305232 -9.0249 -3.40045 
2.08346 -3.40045 -8.87566 
-3.16372 0.136015 -3.69578 
0.136015 -3.72139 3.21457 
-3.69578 3.21457 -1.62542 
-3.08717 0.515039 -2.82423 
0.515039 -3.08596 2.12009 
-2.82423 2.12009 -2.3374 
-2.0738 -0.0828408 -3.30277 
-0.0828408 -1.75408 2.42213 
-3.30277 2.42213 -4.68264 
-3.02334 0.172136 -3.00519 
0.172136 -2.72569 2.68536 
-3.00519 2.68536 -2.7615 
-5.93238 0.131429 -2.47981 
0.131429 -5.74765 3.62897 
-2.47981 3.62897 -6.02359 
-6.45441 -0.150708 -2.09083 
-0.150708 -6.36489 3.46145 
-2.09083 3.46145 -4.88433 
-5.56907 -0.0499881 -2.6881 
-0.0499881 -5.62237 3.01771 
-2.6881 3.01771 -6.51219 
-5.85074 0.338628 -2.3114 
0.338628 -5.73269 3.63157 
-2.3114 3.63157 -6.1202 
-1.59526 -0.0220818 -0.29432 
-0.0220818 -1.56768 -2.84894 
-0.29432 -2.84894 -1.36856 
-1.47623 -0.024674 -0.293235 
-0.024674 -1.4662 -2.76738 
-0.293235 -2.76738 -1.58906 
-1.61666 -0.109005 -0.272207 
-0.109005 -1.57254 -2.72376 
-0.272207 -2.72376 -1.3423 
-1.45894 -0.0899716 -0.20362 
-0.0899716 -1.53401 -2.94621 
-0.20362 -2.94621 -1.53855 
-3.29625 0.0411769 -0.990467 
0.0411769 -3.78051 2.45602 
-0.990467 2.45602 -3.89241 
-3.57393 -0.0453095 -0.660639 
-0.0453095 -3.37132 2.24075 
-0.660639 2.24075 -4.02392 
-3.12487 -0.344548 -1.05282 
-0.344548 -3.84751 2.63815 
-1.05282 2.63815 -3.99679 
-4.05759 -0.24712 -1.24755 
-0.24712 -4.10917 2.83683 
-1.24755 2.83683 -2.80241 
-3.32728 0.116622 -3.17929 
0.116622 -3.43525 1.01522 
-3.17929 1.01522 -3.29792 
-3.2975 0.189775 -3.09166 
0.189775 -3.42573 1.04111 
-3.09166 1.04111 -3.33721 
-3.36535 0.288384 -3.38865 
0.288384 -3.9866 1.38415 
-3.38865 1.38415 -2.7085 
-3.33401 0.0191879 -3.24435 
0.0191879 -3.15991 1.08587 
-3.24435 1.08587 -3.56653 
-5.644 0.0275146 1.35281 
0.0275146 -5.47824 2.63269 
1.35281 2.63269 -5.76856 
-6.03183 0.102757 0.76033 
0.102757 -5.74481 3.1378 
0.76033 3.1378 -5.11417 
-5.83371 0.1532 1.14118 
0.1532 -5.60906 2.92379 
1.14118 2.92379 -5.44804 
-5.92893 0.136219 1.26189 
0.136219 -5.48318 2.83235 
1.26189 2.83235 -5.47869 
-6.40984 -0.0344423 2.49486 
-0.0344423 -6.47138 -0.587256 
2.49486 -0.587256 -7.10512 
-6.60391 -0.0875896 3.02273 
-0.0875896 -6.61324 -0.691953 
3.02273 -0.691953 -6.76918 
-6.78418 -0.370957 2.89335 
-0.370957 -6.55142 -0.631516 
2.89335 -0.631516 -6.65074 
-6.54365 -0.0439137 3.27401 
-0.0439137 -7.06609 -0.686371 
3.27401 -0.686371 -6.3766 
-2.69057 0.114879 2.12545 
0.114879 -2.67898 -0.429388 
2.12545 -0.429388 -2.57749 
-3.17651 -0.029152 2.22911 
-0.029152 -3.19902 -0.615767 
2.22911 -0.615767 -1.57149 
-2.50768 0.000274945 1.91508 
0.000274945 -2.57825 -0.496314 
1.91508 -0.496314 -2.8611 
-2.60424 0.103039 2.07455 
0.103039 -2.79456 -0.434502 
2.07455 -0.434502 -2.54823 
-8.12505 -0.115668 -3.3483 
-0.115668 -8.15964 0.0379219 
-3.3483 0.0379219 -7.51208 
-7.91254 -0.0245384 -3.37177 
-0.0245384 -8.04684 -0.0205362 
-3.37177 -0.0205362 -7.83739 
-7.88983 0.0853703 -3.37797 
0.0853703 -7.88858 0.00652619 
-3.37797 0.00652619 -8.01836 
-8.16412 -0.0954331 -3.19381 
-0.0954331 -7.99115 -0.0807297 
-3.19381 -0.0807297 -7.6415 
-7.97592 -0.151744 -1.91892 
-0.151744 -7.89357 -1.11402 
-1.91892 -1.11402 -8.10172 
-7.97598 -0.0165634 -1.91659 
-0.0165634 -8.06355 -1.34663 
-1.91659 -1.34663 -7.93169 
-8.15798 0.238058 -1.86708 
0.238058 -8.60278 -1.14506 
-1.86708 -1.14506 -7.21046 
-8.0969 0.100329 -1.73941 
0.100329 -8.1487 -1.23111 
-1.73941 -1.23111 -7.72561 
-3.94988 0.0348447 -3.80654 
0.0348447 -4.39125 -2.49005 
-3.80654 -2.49005 -3.28771 
-4.24798 0.605684 -3.65616 
0.605684 -3.70373 -1.50814 
-3.65616 -1.50814 -3.67713 
-3.82356 0.217359 -3.78694 
0.217359 -3.87608 -1.39177 
-3.78694 -1.39177 -3.9292 
-3.1941 -0.6209 -3.38232 
-0.6209 -4.29184 -1.38833 
-3.38232 -1.38833 -4.1429 
-2.31783 -0.0218095 -3.01173 
-0.0218095 -2.40693 0.324791 
-3.01173 0.324791 -1.65778 
-2.19065 -0.0728748 -2.66953 
-0.0728748 -2.0468 0.511001 
-2.66953 0.511001 -2.14509 
-1.53746 -0.249849 -2.68356 
-0.249849 -1.68788 0.667665 
-2.68356 0.667665 -3.1572 
-2.13627 -0.147006 -2.80626 
-0.147006 -1.9503 0.38612 
-2.80626 0.38612 -2.29597 
-5.47515 0.0849625 2.49317 
0.0849625 -5.20788 1.2554 
2.49317 1.2554 -5.25782 
-5.90056 0.0211288 2.82409 
0.0211288 -5.67419 1.10916 
2.82409 1.10916 -4.36609 
-5.12053 0.0537532 2.57076 
0.0537532 -4.961 1.48907 
2.57076 1.48907 -5.85931 
-5.43207 0.109758 2.49153 
0.109758 -5.24878 1.16663 
2.49153 1.16663 -5.25999 
-8.04625 -0.0462978 -0.505506 
-0.0462978 -7.85159 -2.23385 
-0.505506 -2.23385 -7.8464 
-8.25435 -0.111032 -0.0500301 
-0.111032 -8.1503 -1.96861 
-0.0500301 -1.96861 -7.33959 
-7.99961 -0.0557574 -0.739993 
-0.0557574 -7.69057 -2.1859 
-0.739993 -2.1859 -8.05406 
-7.96628 -0.188969 -0.416625 
-0.188969 -8.04206 -1.9393 
-0.416625 -1.9393 -7.7359 
-6.93896 -0.00179147 -3.63048 
-0.00179147 -6.7348 1.72512 
-3.63048 1.72512 -6.93017 
-6.90491 0.0545112 -3.96073 
0.0545112 -6.61619 1.50824 
-3.96073 1.50824 -7.08282 
-6.92205 0.189372 -3.55525 
0.189372 -6.8882 1.75803 
-3.55525 1.75803 -6.79367 
-6.92249 -0.279755 -3.64577 
-0.279755 -6.72053 1.88262 
-3.64577 1.88262 -6.9609 
-6.19688 0.027245 -2.1943 
0.027245 -6.38937 3.53248 
-2.1943 3.53248 -6.2996 
-5.91471 -0.194756 -2.04308 
-0.194756 -6.71458 3.50304 
-2.04308 3.50304 -6.25657 
-6.21187 -0.0571823 -2.38768 
-0.0571823 -6.28491 3.29275 
-2.38768 3.29275 -6.38907 
-5.99177 0.13513 -2.42941 
0.13513 -6.57428 3.24799 
-2.42941 3.24799 -6.3198 
-1.80426 -0.0435958 -3.62231 
-0.0435958 -1.75392 2.48519 
-3.62231 2.48519 -1.55896 
-1.80914 -0.108333 -3.17281 
-0.108333 -2.16466 2.20741 
-3.17281 2.20741 -1.14335 
-1.75817 0.0461272 -3.58408 
0.0461272 -1.70525 2.48487 
-3.58408 2.48487 -1.65372 
-1.75249 0.012831 -3.71863 
0.012831 -1.64043 2.51791 
-3.71863 2.51791 -1.72423 
-8.51039 -0.13349 0.661766 
-0.13349 -8.41012 -3.9795 
0.661766 -3.9795 -8.51081 
-8.26638 0.0328791 0.982886 
0.0328791 -8.16238 -4.23068 
0.982886 -4.23068 -9.00257 
-8.1955 0.163063 0.388611 
0.163063 -8.30283 -4.23724 
0.388611 -4.23724 -8.93298 
-8.83378 -0.257035 0.850288 
-0.257035 -8.2725 -4.25514 
0.850288 -4.25514 -8.32504 
-0.796717 -0.0223234 -0.20781 
-0.0223234 -0.704997 -1.41787 
-0.20781 -1.41787 -0.239085 
-0.622215 -0.0410252 -0.258973 
-0.0410252 -0.530301 -1.44796 
-0.258973 -1.44796 -0.588282 
-0.963493 -0.0366163 -0.243593 
-0.0366163 -0.677325 -1.58069 
-0.243593 -1.58069 -0.0999795 
-0.492088 -0.0714125 -0.13276 
-0.0714125 -0.553863 -1.53198 
-0.13276 -1.53198 -0.694848 
-8.37326 0.161309 4.04488 
0.161309 -8.38017 -2.16473 
4.04488 -2.16473 -8.95343 
-8.6713 -0.14958 3.26849 
-0.14958 -8.75012 -1.82368 
3.26849 -1.82368 -8.28544 
-8.31631 -0.285824 3.6659 
-0.285824 -8.38298 -1.9875 
3.6659 -1.9875 -9.00757 
-8.06636 -0.145439 3.50272 
-0.145439 -8.4905 -2.16489 
3.50272 -2.16489 -9.15001 
-4.74226 -0.407136 4.96254 
-0.407136 -5.5008 -1.27479 
4.96254 -1.27479 -5.55616 
-4.9229 0.14244 3.677 
0.14244 -5.7003 0.287142 
3.677 0.287142 -5.17602 
-5.91438 -0.182934 4.38414 
-0.182934 -5.23854 0.80496 
4.38414 0.80496 -4.6463 
-5.32641 -0.521416 3.56117 
-0.521416 -5.00106 -0.939981 
3.56117 -0.939981 -5.47175 
-1.60936 -0.0260182 -4.27935 
-0.0260182 -1.54693 0.256091 
-4.27935 0.256091 -1.61415 
-1.70022 -0.0588118 -4.43976 
-0.0588118 -1.50615 0.248696 
-4.43976 0.248696 -1.56407 
-1.77208 0.143589 -3.72529 
0.143589 -2.08676 0.461993 
-3.72529 0.461993 -0.911592 
-1.39155 -0.243279 -4.39058 
-0.243279 -1.32098 -0.00154035 
-4.39058 -0.00154035 -2.05789 
-8.22685 0.173992 -0.779846 
0.173992 -8.2855 0.128259 
-0.779846 0.128259 -8.44653 
-8.56044 -0.00887808 -1.0162 
-0.00887808 -8.93694 0.197515 
-1.0162 0.197515 -7.4615 
-7.92903 -0.091507 -0.313571 
-0.091507 -8.09644 0.195076 
-0.313571 0.195076 -8.93341 
-8.07582 0.209082 -0.716814 
0.209082 -8.45753 0.0824016 
-0.716814 0.0824016 -8.42552 
-3.54669 0.0576218 -2.49172 
0.0576218 -3.4759 2.26412 
-2.49172 2.26412 -3.45265 
-3.53088 0.111301 -2.33604 
0.111301 -3.8362 2.01335 
-2.33604 2.01335 -3.10817 
-3.50178 0.0355459 -2.53691 
0.0355459 -3.50161 2.23385 
-2.53691 2.23385 -3.47186 
-3.52945 0.104589 -2.34553 
0.104589 -3.58032 2.06369 
-2.34553 2.06369 -3.36547 
-6.3891 0.397195 -2.32009 
0.397195 -6.78394 0.130745 
-2.32009 0.130745 -5.1946 
-5.78629 0.372562 -1.78076 
0.372562 -6.1249 0.920524 
-1.78076 0.920524 -6.45645 
-6.12517 -0.360141 -1.69827 
-0.360141 -6.34558 0.499203 
-1.69827 0.499203 -5.89689 
-6.10261 -0.135611 -2.01575 
-0.135611 -6.42123 0.484279 
-2.01575 0.484279 -5.8438 
-9.30417 0.0336854 -0.988059 
0.0336854 -9.21432 0.916378 
-0.988059 0.916378 -9.83765 
-9.43354 0.0097431 -0.902235 
0.0097431 -9.41144 0.849988 
-0.902235 0.849988 -9.51115 
-9.19824 0.0971766 -0.762366 
0.0971766 -9.13093 0.854146 
-0.762366 0.854146 -10.027 
-9.43253 0.00824365 -0.987561 
0.00824365 -9.56521 0.794243 
-0.987561 0.794243 -9.35839 
-1.73826 0.0548712 1.23296 
0.0548712 -1.8651 3.86299 
1.23296 3.86299 -1.6643 
-1.57468 -0.00216931 1.25352 
-0.00216931 -1.63027 4.05236 
1.25352 4.05236 -2.06272 
-1.89165 -0.14807 1.37964 
-0.14807 -2.18279 3.55081 
1.37964 3.55081 -1.19324 
-1.78551 -0.0356929 1.32935 
-0.0356929 -1.86027 3.98018 
1.32935 3.98018 -1.62189 
-4.66268 0.243825 -0.812678 
0.243825 -4.39264 -1.91468 
-0.812678 -1.91468 -4.04754 
-4.64766 -0.0632965 -0.427034 
-0.0632965 -4.09177 -2.10768 
-0.427034 -2.10768 -4.36342 
-3.95801 0.098613 -0.334943 
0.098613 -3.81286 -2.40298 
-0.334943 -2.40298 -5.33199 
-4.44966 -0.11098 -0.447799 
-0.11098 -4.1855 -2.20137 
-0.447799 -2.20137 -4.4677 
-2.86636 -0.139032 -3.19318 
-0.139032 -3.17119 -2.93527 
-3.19318 -2.93527 -3.6092 
-3.06283 -0.104932 -3.04669 
-0.104932 -3.22582 -2.81467 
-3.04669 -2.81467 -3.3581 
-3.09084 -0.163735 -3.22256 
-0.163735 -3.18189 -2.7218 
-3.22256 -2.7218 -3.37403 
-2.99052 0.348243 -2.98253 
0.348243 -2.86586 -2.41423 
-2.98253 -2.41423 -3.79037 
-3.89177 0.0133822 1.2926 
0.0133822 -3.9118 -1.29483 
1.2926 -1.29483 -3.7688 
-3.92751 -0.0622571 1.21041 
-0.0622571 -3.72129 -1.18498 
1.21041 -1.18498 -3.92358 
-4.06256 -0.064569 1.19179 
-0.064569 -3.68341 -1.06267 
1.19179 -1.06267 -3.8264 
-3.65334 0.0591313 1.52383 
0.0591313 -3.84843 -1.22945 
1.52383 -1.22945 -4.0706 
-3.13833 0.391836 -3.96648 
0.391836 -2.98288 3.09845 
-3.96648 3.09845 -1.36348 
-2.45701 -0.00646301 -3.66645 
-0.00646301 -2.54601 2.51549 
-3.66645 2.51549 -2.48167 
-1.92788 -0.939696 -3.35708 
-0.939696 -1.89811 2.60674 
-3.35708 2.60674 -3.65868 
-3.09156 0.510973 -3.26606 
0.510973 -2.76373 1.65852 
-3.26606 1.65852 -1.62939 
-6.26913 -0.0930838 2.97141 
-0.0930838 -6.34907 -2.85528 
2.97141 -2.85528 -6.44016 
-6.51753 0.342024 2.83027 
0.342024 -6.46749 -2.78129 
2.83027 -2.78129 -6.07334 
-6.42504 -0.000827694 2.85128 
-0.000827694 -6.30692 -2.87079 
2.85128 -2.87079 -6.32641 
-6.25043 -0.0704973 2.88501 
-0.0704973 -6.207 -2.75333 
2.88501 -2.75333 -6.60094 
-4.98221 -0.208485 -1.59566 
-0.208485 -5.58013 0.51437 
-1.59566 0.51437 -6.24485 
-6.17781 0.216037 -1.32384 
0.216037 -5.41169 0.822744 
-1.32384 0.822744 -5.2177 
-5.4271 0.0831021 -1.76447 
0.0831021 -5.35832 1.26647 
-1.76447 1.26647 -6.02177 
-6.18799 0.424959 -1.14396 
0.424959 -5.82604 1.26236 
-1.14396 1.26236 -4.79317 
-1.40652 -0.204349 -0.0934929 
-0.204349 -1.41567 -4.49463 
-0.0934929 -4.49463 -1.47701 
-2.37726 0.0208996 0.258624 
0.0208996 -1.40202 -3.78684 
0.258624 -3.78684 -0.519927 
-1.45962 -0.125163 -0.15155 
-0.125163 -1.4517 -4.53687 
-0.15155 -4.53687 -1.38789 
-1.02246 -0.190658 -0.231737 
-0.190658 -0.663252 -4.5263 
-0.231737 -4.5263 -2.61349 
-6.96547 5.40727e-05 1.52879 
5.40727e-05 -7.59803 -3.00367 
1.52879 -3.00367 -6.99663 
-6.85357 0.207789 1.43255 
0.207789 -7.62496 -2.46401 
1.43255 -2.46401 -7.0816 
-7.16182 0.0859675 1.23322 
0.0859675 -7.44749 -3.02881 
1.23322 -3.02881 -6.95082 
-7.28137 -0.047132 1.18679 
-0.047132 -6.75246 -2.38884 
1.18679 -2.38884 -7.5263 
-3.42505 0.532378 0.0324761 
0.532378 -3.79081 -4.49051 
0.0324761 -4.49051 -4.83445 
-3.83501 -0.143122 -0.538532 
-0.143122 -4.10636 -4.15284 
-0.538532 -4.15284 -4.10895 
-4.1806 0.475011 -1.57483 
0.475011 -4.64464 -4.21619 
-1.57483 -4.21619 -3.22507 
-4.20824 -0.00918751 -0.971524 
-0.00918751 -3.9695 -4.08304 
-0.971524 -4.08304 -3.87257 
-6.2571 0.036604 -1.67416 
0.036604 -6.03129 0.900695 
-1.67416 0.900695 -6.05902 
-5.19224 -0.339879 -1.88505 
-0.339879 -6.10873 1.5401 
-1.88505 1.5401 -7.04643 
-6.52094 0.162221 -1.75441 
0.162221 -5.7623 0.795645 
-1.75441 0.795645 -6.06417 
-6.60751 -0.565693 -1.99197 
-0.565693 -7.13962 1.04062 
-1.99197 1.04062 -4.60028 
-3.69991 0.605879 0.246684 
0.605879 -3.71735 1.87152 
0.246684 1.87152 -4.62384 
-4.10845 -0.209041 0.0748491 
-0.209041 -4.1245 1.88141 
0.0748491 1.88141 -3.80815 
-3.97212 -0.111795 0.240852 
-0.111795 -4.13695 2.11276 
0.240852 2.11276 -3.93203 
-4.09215 -0.0696441 0.272058 
-0.0696441 -3.9944 1.86056 
0.272058 1.86056 -3.95455 
-6.77434 -0.143856 3.18426 
-0.143856 -6.61659 0.657884 
3.18426 0.657884 -6.62085 
-6.84819 0.0422426 3.204 
0.0422426 -6.53797 0.519411 
3.204 0.519411 -6.62563 
-6.94788 -0.0222612 2.65805 
-0.0222612 -7.021 0.457022 
2.65805 0.457022 -6.0429 
-6.0489 0.058101 2.81312 
0.058101 -6.04391 0.49646 
2.81312 0.49646 -7.91897 
-2.23435 -0.134748 -3.21477 
-0.134748 -3.22591 0.838292 
-3.21477 0.838292 -2.79559 
-2.35918 -0.445035 -2.7829 
-0.445035 -3.18332 1.20817 
-2.7829 1.20817 -2.71334 
-2.62169 0.02725 -2.8244 
0.02725 -2.61578 0.521726 
-2.8244 0.521726 -3.01837 
-2.86968 -0.100139 -2.52148 
-0.100139 -2.88489 1.0051 
-2.52148 1.0051 -2.50127 
-3.09043 0.0247865 1.38736 
0.0247865 -2.6602 -2.03606 
1.38736 -2.03606 -3.67769 
-3.74364 -0.0356156 1.79697 
-0.0356156 -3.57027 -2.26345 
1.79697 -2.26345 -2.11442 
-2.94115 -0.0835097 1.66372 
-0.0835097 -3.17032 -2.45992 
1.66372 -2.45992 -3.31685 
-2.98065 -0.244821 1.58627 
-0.244821 -3.45901 -2.28821 
1.58627 -2.28821 -2.98866 
-8.42201 -0.0623591 -3.15169 
-0.0623591 -8.51753 -0.20189 
-3.15169 -0.20189 -8.859 
-8.55794 0.106039 -3.09278 
0.106039 -8.48802 -0.243888 
-3.09278 -0.243888 -8.75258 
-8.49128 -0.274273 -3.04942 
-0.274273 -8.97192 -0.21567 
-3.04942 -0.21567 -8.33534 
-8.63355 0.0404497 -3.01937 
0.0404497 -8.50919 -0.150726 
-3.01937 -0.150726 -8.65579 
-5.33047 0.132311 1.24781 
0.132311 -5.41231 -1.19111 
1.24781 -1.19111 -5.1985 
-5.60325 -0.0867608 1.03723 
-0.0867608 -5.89288 -1.02824 
1.03723 -1.02824 -4.44516 
-5.16517 -0.0155752 1.59419 
-0.0155752 -5.19477 -1.24319 
1.59419 -1.24319 -5.58134 
-5.18714 0.14035 1.30824 
0.14035 -5.59815 -1.20109 
1.30824 -1.20109 -5.156 
-5.32649 0.0550057 -1.94592 
0.0550057 -5.40145 -2.18834 
-1.94592 -2.18834 -5.92614 
-5.99696 -0.418697 -2.02998 
-0.418697 -5.33619 -2.36662 
-2.02998 -2.36662 -5.32094 
-5.49914 0.0220544 -1.81553 
0.0220544 -5.34994 -2.26227 
-1.81553 -2.26227 -5.805 
-5.9962 -0.0820632 -2.13844 
-0.0820632 -5.77296 -2.51892 
-2.13844 -2.51892 -4.88491 
-8.90463 -0.0556987 -0.530522 
-0.0556987 -8.72704 -1.37977 
-0.530522 -1.37977 -8.89021 
-7.62792 -0.00734472 -0.537536 
-0.00734472 -9.01483 -1.93728 
-0.537536 -1.93728 -9.87913 
-8.78759 0.414831 -0.999255 
0.414831 -9.79946 -1.58292 
-0.999255 -1.58292 -7.93483 
-8.85793 -0.0557663 -0.522591 
-0.0557663 -8.76553 -1.40349 
-0.522591 -1.40349 -8.89842 
-4.29856 -0.181266 4.20408 
-0.181266 -4.40755 -0.0226577 
4.20408 -0.0226577 -4.04404 
-4.91755 0.405361 3.67412 
0.405361 -4.05707 0.00662674 
3.67412 0.00662674 -3.77554 
-4.10489 -0.167762 3.97303 
-0.167762 -4.25911 0.0293091 
3.97303 0.0293091 -4.38615 
-3.92941 -0.0953103 4.09417 
-0.0953103 -4.27033 0.287301 
4.09417 0.287301 -4.55041 
-9.06532 -0.196916 0.67753 
-0.196916 -8.8674 -4.13774 
0.67753 -4.13774 -9.44672 
-8.3866 -0.0726021 0.972912 
-0.0726021 -8.99926 -3.65462 
0.972912 -3.65462 -9.99357 
-9.11807 0.113384 0.875037 
0.113384 -9.01921 -4.25849 
0.875037 -4.25849 -9.24216 
-9.18516 -0.00441407 0.957526 
-0.00441407 -9.35056 -4.38097 
0.957526 -4.38097 -8.84371 
-2.94706 0.0341739 -2.69241 
0.0341739 -2.90589 0.411794 
-2.69241 0.411794 -3.20167 
-3.27403 0.0617245 -2.65356 
0.0617245 -3.02897 0.596849 
-2.65356 0.596849 -2.75162 
-2.48858 0.163626 -2.3172 
0.163626 -3.19126 0.584711 
-2.3172 0.584711 -3.37478 
-3.3859 -0.131349 -2.60981 
-0.131349 -3.03126 0.325755 
-2.60981 0.325755 -2.63746 
-4.12473 0.0676411 1.31121 
0.0676411 -4.05298 -1.24576 
1.31121 -1.24576 -5.12592 
-4.54401 -0.0851675 1.26718 
-0.0851675 -4.4996 -1.45517 
1.26718 -1.45517 -4.26003 
-4.31744 -0.0409148 1.26645 
-0.0409148 -4.49025 -1.33669 
1.26645 -1.33669 -4.49595 
-4.29076 0.108623 1.39725 
0.108623 -4.44047 -1.34358 
1.39725 -1.34358 -4.57241 
-2.99688 -0.0160717 2.02826 
-0.0160717 -2.98904 -1.43092 
2.02826 -1.43092 -3.21157 
-2.81791 -0.104495 1.95572 
-0.104495 -3.00581 -1.3264 
1.95572 -1.3264 -3.37377 
-3.04855 -0.0325122 2.13661 
-0.0325122 -3.10779 -1.14318 
2.13661 -1.14318 -3.04114 
-3.2202 0.0613868 1.94761 
0.0613868 -3.16601 -1.24264 
1.94761 -1.24264 -2.81128 
-4.16382 -0.64221 -0.597461 
-0.64221 -3.96964 -2.17321 
-0.597461 -2.17321 -3.08821 
-3.70201 0.178634 -0.289736 
0.178634 -3.87426 -1.91413 
-0.289736 -1.91413 -3.6454 
-3.61226 0.395811 -0.426921 
0.395811 -3.77898 -2.08961 
-0.426921 -2.08961 -3.83042 
-3.73485 0.0916965 -0.161862 
0.0916965 -3.68457 -1.91474 
-0.161862 -1.91474 -3.80224 
-5.99248 -0.189596 -1.77311 
-0.189596 -6.37105 -1.64195 
-1.77311 -1.64195 -5.92608 
-6.54256 0.287273 -1.57129 
0.287273 -6.51855 -1.30336 
-1.57129 -1.30336 -5.22849 
-5.91136 0.45318 -1.61536 
0.45318 -5.89951 -2.28985 
-1.61536 -2.28985 -6.47874 
-6.20715 0.0925258 -1.62837 
0.0925258 -6.19394 -1.92658 
-1.62837 -1.92658 -5.88852 
-8.98811 0.0642352 1.57037 
0.0642352 -8.90404 0.490537 
1.57037 0.490537 -8.94212 
-8.49348 -0.537246 2.00637 
-0.537246 -8.16158 0.813679 
2.00637 0.813679 -10.1792 
-9.29564 -0.576051 1.96827 
-0.576051 -9.53008 0.396785 
1.96827 0.396785 -8.00854 
-9.0312 0.113568 1.41632 
0.113568 -8.7812 0.481308 
1.41632 0.481308 -9.02186 
-1.64164 -0.115809 2.48601 
-0.115809 -1.64128 3.71986 
2.48601 3.71986 -1.53117 
-1.70904 0.0304968 2.32361 
0.0304968 -1.60237 3.60819 
2.32361 3.60819 -1.50268 
-2.1037 0.194673 1.99545 
0.194673 -1.67255 3.20857 
1.99545 3.20857 -1.03783 
-1.69767 -0.0417724 2.51552 
-0.0417724 -1.46014 3.70792 
2.51552 3.70792 -1.65629 
-5.82886 0.0485214 2.71106 
0.0485214 -5.87562 2.20865 
2.71106 2.20865 -5.65359 
-6.18325 0.268216 3.06949 
0.268216 -5.79977 1.76297 
3.06949 1.76297 -5.37505 
-5.40379 -0.239624 2.81955 
-0.239624 -5.8178 2.03598 
2.81955 2.03598 -6.13648 
-5.77992 0.0290401 2.73376 
0.0290401 -5.80552 1.84201 
2.73376 1.84201 -5.77263 
-3.85702 0.064739 -0.709566 
0.064739 -3.68322 -1.0088 
-0.709566 -1.0088 -3.20162 
-3.24786 -0.148251 -0.456762 
-0.148251 -3.57594 -0.912964 
-0.456762 -0.912964 -3.91806 
-3.48566 -0.222081 -0.399687 
-0.222081 -3.52111 -0.764085 
-0.399687 -0.764085 -3.7351 
-3.65035 0.235497 -0.222947 
0.235497 -2.90745 -1.21557 
-0.222947 -1.21557 -4.18407 
-7.09107 -0.226832 -1.71955 
-0.226832 -7.01322 0.682085 
-1.71955 0.682085 -7.06167 
-6.59485 -0.478056 -1.60842 
-0.478056 -6.97566 0.413201 
-1.60842 0.413201 -7.59545 
-6.9721 -0.091927 -1.87274 
-0.091927 -7.00889 0.375178 
-1.87274 0.375178 -7.18496 
-7.31945 0.230679 -1.61143 
0.230679 -6.96679 0.550324 
-1.61143 0.550324 -6.87972 
-8.5497 -0.0409398 -0.245599 
-0.0409398 -8.63106 1.64578 
-0.245599 1.64578 -8.54934 
-7.89085 0.152651 -0.448736 
0.152651 -8.83489 1.15032 
-0.448736 1.15032 -9.00436 
-8.41605 0.134191 -0.360838 
0.134191 -8.77354 1.28816 
-0.360838 1.28816 -8.54052 
-8.36231 0.141878 0.0334545 
0.141878 -9.06047 1.65147 
0.0334545 1.65147 -8.30732 
-6.09787 0.102139 -1.38766 
0.102139 -6.34812 1.17899 
-1.38766 1.17899 -6.2684 
-6.04277 0.103322 -1.47535 
0.103322 -6.52643 1.41259 
-1.47535 1.41259 -6.14519 
-6.58137 -0.476549 -1.9937 
-0.476549 -5.24439 1.0583 
-1.9937 1.0583 -6.88863 
-6.69497 0.0527711 -1.31063 
0.0527711 -6.39562 1.56667 
-1.31063 1.56667 -5.6238 
-7.97951 -0.0449681 -2.30447 
-0.0449681 -8.04811 2.09447 
-2.30447 2.09447 -7.45038 
-7.89769 -0.00797751 -2.53845 
-0.00797751 -7.99406 2.13584 
-2.53845 2.13584 -7.58625 
-7.80476 -0.00476738 -2.37073 
-0.00476738 -7.73156 2.01636 
-2.37073 2.01636 -7.94168 
-7.8449 -0.0235642 -2.35684 
-0.0235642 -7.89378 2.00106 
-2.35684 2.00106 -7.73932 
-4.83021 -0.00630591 2.18787 
-0.00630591 -4.84203 -3.00788 
2.18787 -3.00788 -5.0021 
-4.87285 -0.0112453 2.0728 
-0.0112453 -4.93008 -3.01869 
2.0728 -3.01869 -4.87141 
-5.12244 -0.14335 2.2318 
-0.14335 -4.76162 -3.09484 
2.2318 -3.09484 -4.79028 
-4.91175 0.0163114 2.05661 
0.0163114 -4.85187 -2.79625 
2.05661 -2.79625 -4.91072 
-4.53117 0.217858 1.65213 
0.217858 -4.01438 -0.287588 
1.65213 -0.287588 -4.29127 
-3.94244 -0.439294 1.69544 
-0.439294 -4.29335 -0.165952 
1.69544 -0.165952 -4.60103 
-4.34699 -0.0484656 1.56949 
-0.0484656 -4.36587 -0.10699 
1.56949 -0.10699 -4.12396 
-4.36661 0.234433 1.41046 
0.234433 -4.34719 -0.263175 
1.41046 -0.263175 -4.12302 
-6.59366 0.220693 -4.20523 
0.220693 -6.52322 -0.312357 
-4.20523 -0.312357 -6.55691 
-6.48236 0.254291 -4.07202 
0.254291 -5.72104 0.14412 
-4.07202 0.14412 -7.47039 
-6.35722 0.343539 -4.23664 
0.343539 -6.62947 -0.281996 
-4.23664 -0.281996 -6.6871 
-7.25718 -0.267554 -3.87624 
-0.267554 -6.24213 -0.643063 
-3.87624 -0.643063 -6.17448 
-1.83628 -0.0225979 -0.845401 
-0.0225979 -1.99033 1.60033 
-0.845401 1.60033 -1.92318 
-1.70396 -0.0564796 -1.07579 
-0.0564796 -1.89748 1.81112 
-1.07579 1.81112 -2.14835 
-1.72254 -0.0556919 -0.907623 
-0.0556919 -1.86347 1.61425 
-0.907623 1.61425 -2.16378 
-1.64264 -0.0323186 -1.2256 
-0.0323186 -1.94338 1.52687 
-1.2256 1.52687 -2.16376 
-5.59412 -0.0479907 -1.55295 
-0.0479907 -5.11715 0.445571 
-1.55295 0.445571 -6.02768 
-5.58824 -0.566455 -1.73343 
-0.566455 -5.70758 1.23352 
-1.73343 1.23352 -5.44314 
-5.73451 -0.0917062 -1.65381 
-0.0917062 -5.39674 0.833169 
-1.65381 0.833169 -5.6077 
-6.20677 -0.228958 -1.50683 
-0.228958 -5.88091 1.2339 
-1.50683 1.2339 -4.65128 
-6.73899 -0.0318393 1.49156 
-0.0318393 -6.72966 2.99702 
1.49156 2.99702 -6.72072 
-6.69748 0.0741008 1.52121 
0.0741008 -6.91411 2.81877 
1.52121 2.81877 -6.57779 
-6.45149 0.177479 1.34052 
0.177479 -6.78554 2.75582 
1.34052 2.75582 -6.95235 
-6.72192 -0.194019 1.48245 
-0.194019 -6.6878 2.98857 
1.48245 2.98857 -6.77966 
-8.85383 -0.0971078 0.722682 
-0.0971078 -8.79397 -1.69264 
0.722682 -1.69264 -8.84684 
-8.93363 0.184357 0.629548 
0.184357 -8.93352 -1.61191 
0.629548 -1.61191 -8.6275 
-8.65457 0.34836 0.860514 
0.34836 -8.65312 -1.82002 
0.860514 -1.82002 -9.18695 
-8.85809 -0.0358522 0.682557 
-0.0358522 -8.79392 -1.72025 
0.682557 -1.72025 -8.84264 
-8.51185 0.0593076 0.541671 
0.0593076 -8.56589 -4.48335 
0.541671 -4.48335 -6.54081 
-7.78877 -0.163575 1.1377 
-0.163575 -7.967 -3.34872 
1.1377 -3.34872 -7.86279 
-7.13588 0.117551 0.934605 
0.117551 -7.15785 -4.44156 
0.934605 -4.44156 -9.32482 
-7.8923 -0.210305 0.216541 
-0.210305 -7.87119 -3.4939 
0.216541 -3.4939 -7.85506 
-9.60822 0.0971803 -0.562144 
0.0971803 -9.49946 -1.32904 
-0.562144 -1.32904 -9.5269 
-9.35755 0.0283746 -0.3919 
0.0283746 -8.8963 -1.07446 
-0.3919 -1.07446 -10.3807 
-9.47093 0.190533 -0.501752 
0.190533 -9.63141 -1.31923 
-0.501752 -1.31923 -9.53225 
-9.65453 0.0406691 -0.669672 
0.0406691 -9.68689 -1.34598 
-0.669672 -1.34598 -9.29317 
-8.84009 -0.202377 -0.779607 
-0.202377 -8.98158 0.0738578 
-0.779607 0.0738578 -8.97356 
-8.71892 0.443623 -1.09134 
0.443623 -8.611 0.22759 
-1.09134 0.22759 -9.46531 
-8.88855 -0.131621 -0.78583 
-0.131621 -8.80416 0.113429 
-0.78583 0.113429 -9.10253 
-9.05846 0.136292 -0.699721 
0.136292 -8.98739 -0.131582 
-0.699721 -0.131582 -8.74938 
-6.39164 -0.166479 -4.17323 
-0.166479 -7.19003 -0.128838 
-4.17323 -0.128838 -7.45563 
-6.71125 -0.153334 -4.17743 
-0.153334 -7.01256 -0.283847 
-4.17743 -0.283847 -7.31348 
-7.01288 0.0792301 -4.6031 
0.0792301 -6.90391 -0.218513 
-4.6031 -0.218513 -7.1205 
-6.76316 -0.0712366 -4.01841 
-0.0712366 -6.88038 -0.198254 
-4.01841 -0.198254 -7.39376 
-6.02321 0.063357 -0.820771 
0.063357 -6.08353 -1.33958 
-0.820771 -1.33958 -4.36252 
-5.42372 0.0478834 -1.05315 
0.0478834 -5.37724 -1.43059 
-1.05315 -1.43059 -5.66831 
-5.52771 0.165912 -0.936169 
0.165912 -5.48584 -1.31141 
-0.936169 -1.31141 -5.45571 
-5.45962 0.258472 -0.962135 
0.258472 -5.69646 -1.34123 
-0.962135 -1.34123 -5.31318 
-8.8286 0.02198 1.80032 
0.02198 -8.70216 0.971604 
1.80032 0.971604 -8.85844 
-8.70169 0.0731142 1.91886 
0.0731142 -9.2406 1.14254 
1.91886 1.14254 -8.44691 
-7.91841 0.0341832 1.76135 
0.0341832 -9.10908 0.625772 
1.76135 0.625772 -9.36171 
-8.84751 0.0285999 1.78716 
0.0285999 -8.68175 0.971566 
1.78716 0.971566 -8.85994 
-4.32127 0.146107 3.00128 
0.146107 -4.16804 0.773633 
3.00128 0.773633 -4.45573 
-4.46661 0.0555243 3.26115 
0.0555243 -4.48622 0.909425 
3.26115 0.909425 -3.99221 
-4.51278 -0.0524285 2.92921 
-0.0524285 -4.12093 0.835935 
2.92921 0.835935 -4.31133 
-3.69205 0.0468799 3.09828 
0.0468799 -3.92251 0.351167 
3.09828 0.351167 -5.33048 
-6.6149 -0.124903 -4.11422 
-0.124903 -6.70242 1.50807 
-4.11422 1.50807 -6.56195 
-6.85566 0.0198771 -3.96937 
0.0198771 -6.74206 1.26618 
-3.96937 1.26618 -6.28155 
-6.71151 0.133215 -4.0609 
0.133215 -6.55305 1.87357 
-4.0609 1.87357 -6.61471 
-6.34172 0.00618528 -3.74858 
0.00618528 -6.63484 1.97302 
-3.74858 1.97302 -6.90271 
-9.0061 0.00316282 -1.21058 
0.00316282 -7.99928 -1.20515 
-1.21058 -1.20515 -9.49898 
-9.14323 0.112254 -2.05533 
0.112254 -8.83172 -1.62494 
-2.05533 -1.62494 -8.52941 
-8.82458 -0.127112 -1.98127 
-0.127112 -8.73435 -1.43092 
-1.98127 -1.43092 -8.94543 
-8.8362 0.175795 -1.54972 
0.175795 -8.70931 -1.13654 
-1.54972 -1.13654 -8.95885 
-7.94694 -0.0161897 1.32431 
-0.0161897 -7.9022 -1.00423 
1.32431 -1.00423 -8.22819 
-8.18012 0.0543442 1.26698 
0.0543442 -8.01865 -1.06966 
1.26698 -1.06966 -7.87856 
-8.47194 -0.0290364 1.46424 
-0.0290364 -8.46245 -1.15654 
1.46424 -1.15654 -7.14294 
-8.06853 0.104264 1.2633 
0.104264 -8.09512 -1.19279 
1.2633 -1.19279 -7.91369 
-2.61533 -0.156674 0.772557 
-0.156674 -1.59996 -1.35549 
0.772557 -1.35549 -2.8729 
-2.68537 0.00980274 0.919518 
0.00980274 -1.97098 -2.54197 
0.919518 -2.54197 -2.43184 
-2.3665 -0.0914286 0.46772 
-0.0914286 -2.37396 -2.08768 
0.46772 -2.08768 -2.34773 
-2.41505 0.122875 0.103895 
0.122875 -2.92893 -2.36557 
0.103895 -2.36557 -1.7442 
-7.88817 0.0458578 2.64002 
0.0458578 -7.77443 1.22577 
2.64002 1.22577 -8.1334 
-7.95016 -0.00227853 2.48797 
-0.00227853 -7.98683 1.21131 
2.48797 1.21131 -7.85901 
-8.24873 -0.0638609 2.44911 
-0.0638609 -8.3797 1.20436 
2.44911 1.20436 -7.16757 
-7.91514 0.0310876 2.58772 
0.0310876 -8.1741 1.11625 
2.58772 1.11625 -7.70676 
-2.11405 -0.102929 2.59253 
-0.102929 -1.59338 -0.59771 
2.59253 -0.59771 -2.96146 
-1.86183 0.261271 2.35095 
0.261271 -2.18667 -1.40291 
2.35095 -1.40291 -2.62039 
-2.09168 0.237096 2.41664 
0.237096 -1.99714 -1.16182 
2.41664 -1.16182 -2.58007 
-2.70995 0.116552 2.49067 
0.116552 -2.15133 -1.59765 
2.49067 -1.59765 -1.80761 
-8.28946 -0.0768343 -0.634713 
-0.0768343 -8.41695 0.397673 
-0.634713 0.397673 -7.74937 
-8.09947 0.326078 -0.579436 
0.326078 -8.07607 0.244725 
-0.579436 0.244725 -8.28023 
-8.3937 -0.0307803 -0.980283 
-0.0307803 -8.36495 0.654413 
-0.980283 0.654413 -7.69713 
-8.05549 -0.153735 -0.632261 
-0.153735 -8.35187 0.366165 
-0.632261 0.366165 -8.04842 
-6.57598 0.227758 2.14483 
0.227758 -6.6333 0.786949 
2.14483 0.786949 -5.33005 
-6.34931 -0.0463725 2.41994 
-0.0463725 -6.13488 1.19169 
2.41994 1.19169 -6.05515 
-5.86264 0.429165 2.44916 
0.429165 -5.94524 0.805544 
2.44916 0.805544 -6.73146 
-6.25592 -0.100013 2.35508 
-0.100013 -6.15594 1.07226 
2.35508 1.07226 -6.12748 
-4.82609 -0.0110246 -0.929542 
-0.0110246 -4.17298 -2.40016 
-0.929542 -2.40016 -3.96187 
-4.0188 0.128751 -0.517862 
0.128751 -4.2725 -2.06259 
-0.517862 -2.06259 -4.66965 
-3.99983 0.0138296 -0.533097 
0.0138296 -4.46821 -2.45002 
-0.533097 -2.45002 -4.49289 
-4.50354 -0.0419769 -0.442711 
-0.0419769 -4.52898 -2.39788 
-0.442711 -2.39788 -3.92842 
-4.4321 -0.0707942 -3.50813 
-0.0707942 -4.34729 -2.11606 
-3.50813 -2.11606 -4.04342 
-4.25007 -0.000917544 -3.63048 
-0.000917544 -4.26675 -2.08933 
-3.63048 -2.08933 -4.306 
-4.27848 -0.0372964 -3.44695 
-0.0372964 -4.29769 -2.08582 
-3.44695 -2.08582 -4.24664 
-4.20111 0.0845365 -3.54155 
0.0845365 -4.23686 -2.22078 
-3.54155 -2.22078 -4.38484 
-7.99591 0.0621222 3.41998 
0.0621222 -8.05495 2.01863 
3.41998 2.01863 -7.97769 
-7.76792 0.0935089 3.45375 
0.0935089 -8.02023 1.95727 
3.45375 1.95727 -8.2404 
-8.06366 0.0560001 3.6538 
0.0560001 -8.14073 2.18071 
3.6538 2.18071 -7.82415 
-8.01683 0.0343909 3.67793 
0.0343909 -7.95827 2.09311 
3.67793 2.09311 -8.05345 
-8.27578 0.0401534 0.383806 
0.0401534 -8.04638 3.63376 
0.383806 3.63376 -8.39505 
-8.1334 -0.0999759 0.306449 
-0.0999759 -8.40633 3.53064 
0.306449 3.53064 -8.17748 
-8.41726 0.00146003 0.579519 
0.00146003 -8.3728 3.48905 
0.579519 3.48905 -7.92714 
-8.32411 -0.0903861 0.449012 
-0.0903861 -8.18701 3.63186 
0.449012 3.63186 -8.20609 
-4.077 -0.150283 2.8159 
-0.150283 -3.75073 -0.868235 
2.8159 -0.868235 -3.78195 
-3.88439 -0.0894512 2.80258 
-0.0894512 -3.78106 -0.688906 
2.80258 -0.688906 -3.94423 
-3.99351 -0.0584791 2.84744 
-0.0584791 -3.92266 -0.632412 
2.84744 -0.632412 -3.69351 
-3.53481 0.0301486 2.43067 
0.0301486 -3.6817 -0.585498 
2.43067 -0.585498 -4.39317 
-8.04672 -0.131066 2.16462 
-0.131066 -7.85549 -2.44514 
2.16462 -2.44514 -8.10005 
-8.01019 0.0364372 2.12628 
0.0364372 -8.06127 -2.45972 
2.12628 -2.45972 -7.9308 
-8.11386 0.285393 2.09336 
0.285393 -8.25774 -2.45198 
2.09336 -2.45198 -7.63065 
-8.10972 0.0674214 1.879 
0.0674214 -8.04039 -2.52171 
1.879 -2.52171 -7.85214 
-6.24507 0.0717772 -0.38219 
0.0717772 -6.60887 -1.15355 
-0.38219 -1.15355 -6.30789 
-6.48197 -0.0727504 0.0813043 
-0.0727504 -6.32767 -1.05826 
0.0813043 -1.05826 -6.35218 
-6.35778 0.0829324 -0.541365 
0.0829324 -6.18388 -0.916291 
-0.541365 -0.916291 -6.62016 
-6.47177 -0.227191 0.00934863 
-0.227191 -6.5174 -1.27458 
0.00934863 -1.27458 -6.17266 
-7.0141 -0.494576 4.18742 
-0.494576 -7.80441 -2.32211 
4.18742 -2.32211 -7.59344 
-7.82581 0.30944 3.99783 
0.30944 -7.61174 -2.21346 
3.99783 -2.21346 -6.97439 
-7.25222 -0.325446 3.29758 
-0.325446 -7.54266 -2.01722 
3.29758 -2.01722 -7.61707 
-7.16536 -0.199196 3.54135 
-0.199196 -7.64487 -1.79476 
3.54135 -1.79476 -7.60172 
-3.74234 0.160605 -4.32606 
0.160605 -4.33401 -1.39871 
-4.32606 -1.39871 -4.90637 
-4.02813 0.0616296 -3.80106 
0.0616296 -4.3464 -1.45193 
-3.80106 -1.45193 -4.60818 
-4.96098 -0.25865 -4.20935 
-0.25865 -4.44636 -1.74974 
-4.20935 -1.74974 -3.57538 
-3.78445 0.253862 -3.14604 
0.253862 -4.00913 -1.39412 
-3.14604 -1.39412 -5.18914 
-2.48411 -0.238236 -1.40059 
-0.238236 -2.63785 -1.91363 
-1.40059 -1.91363 -2.42532 
-2.29901 -0.152477 -1.90205 
-0.152477 -2.91475 -2.21751 
-1.90205 -2.21751 -2.33352 
-2.47839 -0.285306 -1.97811 
-0.285306 -2.53758 -2.09717 
-1.97811 -2.09717 -2.53131 
-2.50422 -0.16633 -1.41334 
-0.16633 -2.71617 -1.99684 
-1.41334 -1.99684 -2.32689 
-8.89621 -0.304472 -0.612321 
-0.304472 -8.54555 -1.3428 
-0.612321 -1.3428 -8.96202 
-8.97459 -0.429062 -0.388938 
-0.429062 -8.81274 -1.34995 
-0.388938 -1.34995 -8.61645 
-8.99905 -0.0858221 -1.13853 
-0.0858221 -8.44329 -1.32103 
-1.13853 -1.32103 -8.96144 
-8.93705 -0.0538234 -1.05051 
-0.0538234 -8.91122 -1.34133 
-1.05051 -1.34133 -8.55551 
-5.18872 -0.0450723 -1.91727 
-0.0450723 -5.8424 -4.4204 
-1.91727 -4.4204 -4.53128 
-5.36159 0.136027 -1.8418 
0.136027 -4.05182 -4.09119 
-1.8418 -4.09119 -6.14899 
-5.12132 -0.13747 -1.83246 
-0.13747 -5.33764 -4.212 
-1.83246 -4.212 -5.10344 
-5.20538 0.119372 -2.28167 
0.119372 -5.37929 -3.6777 
-2.28167 -3.6777 -4.97773 
-0.9996 0.0425805 1.00138 
0.0425805 -1.12199 -1.7076 
1.00138 -1.7076 -0.909997 
-0.953871 -0.0975574 0.952869 
-0.0975574 -1.21699 -1.74148 
0.952869 -1.74148 -0.860724 
-0.772706 -0.154255 0.934124 
-0.154255 -1.12127 -1.7786 
0.934124 -1.7786 -1.13761 
-0.947417 -0.033498 1.01912 
-0.033498 -1.04408 -1.77372 
1.01912 -1.77372 -1.04009 
-8.43056 -0.162454 1.77273 
-0.162454 -8.00564 -0.500145 
1.77273 -0.500145 -8.41171 
-8.42041 0.142021 1.69708 
0.142021 -8.61573 -0.726452 
1.69708 -0.726452 -7.81176 
-8.39989 0.117879 1.4083 
0.117879 -8.41277 -0.595071 
1.4083 -0.595071 -8.03526 
-8.23752 0.0602364 1.79794 
0.0602364 -8.43994 -0.437588 
1.79794 -0.437588 -8.17045 
-6.47461 -0.0873753 -2.42576 
-0.0873753 -6.37095 -0.880083 
-2.42576 -0.880083 -6.72512 
-6.43247 -0.0683274 -2.30687 
-0.0683274 -6.39683 -0.857459 
-2.30687 -0.857459 -6.74138 
-6.09516 -0.0409808 -2.22377 
-0.0409808 -6.29593 -1.40414 
-2.22377 -1.40414 -7.17959 
-6.57415 -0.0507933 -2.4184 
-0.0507933 -6.56088 -0.858009 
-2.4184 -0.858009 -6.43565 
-6.89846 0.191287 0.0154669 
0.191287 -6.82186 -4.73825 
0.0154669 -4.73825 -4.51664 
-6.29873 -0.421676 0.278588 
-0.421676 -6.14358 -3.82019 
0.278588 -3.82019 -5.79465 
-5.66727 0.146029 1.48448 
0.146029 -5.0575 -4.17756 
1.48448 -4.17756 -7.51219 
-5.67844 0.206285 0.581377 
0.206285 -6.22102 -3.78054 
0.581377 -3.78054 -6.3375 
-9.14288 0.00705086 1.86112 
0.00705086 -9.25686 -3.29124 
1.86112 -3.29124 -10.3717 
-9.64321 -0.323473 2.14996 
-0.323473 -9.47376 -3.24047 
2.14996 -3.24047 -9.65445 
-9.59056 -0.0718222 2.1939 
-0.0718222 -9.75906 -3.21675 
2.1939 -3.21675 -9.4218 
-9.57937 -0.0230156 2.20533 
-0.0230156 -9.8005 -3.41892 
2.20533 -3.41892 -9.39155 
-8.2166 -0.148165 -2.76266 
-0.148165 -8.35727 2.18605 
-2.76266 2.18605 -7.82197 
-8.33103 -0.0442294 -2.76722 
-0.0442294 -8.06668 2.04475 
-2.76722 2.04475 -7.99813 
-8.19874 0.0418374 -2.88061 
0.0418374 -8.03346 2.23523 
-2.88061 2.23523 -8.16364 
-8.13438 0.0542837 -2.69324 
0.0542837 -8.12821 2.08554 
-2.69324 2.08554 -8.13326 
-3.03868 0.101286 -0.444578 
0.101286 -3.00326 -1.21251 
-0.444578 -1.21251 -2.9447 
-2.79076 0.250694 -0.919892 
0.250694 -3.0613 -1.32902 
-0.919892 -1.32902 -3.13459 
-3.91374 -0.138162 -0.587636 
-0.138162 -3.52102 -0.511094 
-0.587636 -0.511094 -1.55188 
-2.34656 0.135598 -0.000576879 
0.135598 -2.63988 -0.785082 
-0.000576879 -0.785082 -4.0002 
-6.91493 0.11826 1.61615 
0.11826 -6.31288 0.460093 
1.61615 0.460093 -5.49653 
-6.08457 0.0946263 2.1344 
0.0946263 -5.70976 -0.121137 
2.1344 -0.121137 -6.93001 
-6.17934 0.109534 1.68193 
0.109534 -6.28786 0.157037 
1.68193 0.157037 -6.25716 
-6.25256 -0.128577 1.8558 
-0.128577 -6.13602 -0.142379 
1.8558 -0.142379 -6.33577 
-6.93678 -0.0292883 -0.954249 
-0.0292883 -6.78818 -1.01361 
-0.954249 -1.01361 -7.09014 
-6.94933 -0.0221094 -1.02131 
-0.0221094 -7.13096 -0.851041 
-1.02131 -0.851041 -6.73482 
-6.95619 -0.0279827 -1.16224 
-0.0279827 -6.96044 -0.996721 
-1.16224 -0.996721 -6.89847 
-6.88572 0.110816 -1.08948 
0.110816 -6.30757 -0.979371 
-1.08948 -0.979371 -7.62181 
-6.22433 0.0261684 -4.53873 
0.0261684 -6.39001 -1.0802 
-4.53873 -1.0802 -6.82272 
-6.37511 0.637709 -3.86241 
0.637709 -6.84933 -0.297644 
-3.86241 -0.297644 -6.21262 
-6.59239 -0.079166 -4.0167 
-0.079166 -6.39268 -0.341016 
-4.0167 -0.341016 -6.452 
-6.55587 -0.417495 -3.95435 
-0.417495 -6.19035 -0.52089 
-3.95435 -0.52089 -6.69085 
-6.43751 -0.00246845 0.79612 
-0.00246845 -6.35509 -0.932339 
0.79612 -0.932339 -6.33839 
-5.8776 0.331352 0.626316 
0.331352 -6.46452 -0.774697 
0.626316 -0.774697 -6.78886 
-6.30552 -0.0892134 0.75954 
-0.0892134 -6.36439 -0.660948 
0.75954 -0.660948 -6.46108 
-6.41512 -0.0535316 0.698377 
-0.0535316 -6.42904 -0.724372 
0.698377 -0.724372 -6.28682 
-2.30666 0.159141 -0.437957 
0.159141 -2.26709 -3.66039 
-0.437957 -3.66039 -2.1457 
-2.02735 -0.0369806 -0.150487 
-0.0369806 -2.02543 -3.36169 
-0.150487 -3.36169 -2.66667 
-2.08787 -0.0850988 -0.462131 
-0.0850988 -1.89823 -3.50923 
-0.462131 -3.50923 -2.73335 
-2.34399 -0.118553 -0.386882 
-0.118553 -2.03001 -3.63147 
-0.386882 -3.63147 -2.34545 
-8.59554 -0.11164 3.11567 
-0.11164 -8.29818 0.896673 
3.11567 0.896673 -9.01819 
-8.64391 0.0159342 2.73647 
0.0159342 -8.50829 0.912076 
2.73647 0.912076 -8.75971 
-8.87884 -0.251218 2.66195 
-0.251218 -8.63926 1.0207 
2.66195 1.0207 -8.39381 
-8.62203 -0.0600535 3.02062 
-0.0600535 -8.64518 0.900521 
3.02062 0.900521 -8.64471 
-1.39276 -0.0271745 4.24631 
-0.0271745 -1.60043 0.288237 
4.24631 0.288237 -1.53719 
-1.73267 -0.108668 3.91193 
-0.108668 -1.84994 0.456866 
3.91193 0.456866 -0.947775 
-1.65915 -0.00328196 4.48929 
-0.00328196 -1.33701 0.161295 
4.48929 0.161295 -1.53421 
-1.18298 0.237624 4.37704 
0.237624 -1.21082 -0.133423 
4.37704 -0.133423 -2.13658 
-1.23246 -0.0988563 -0.848317 
-0.0988563 -0.965498 1.78416 
-0.848317 1.78416 -0.771382 
-0.994796 0.0114763 -0.783227 
0.0114763 -0.899741 1.79555 
-0.783227 1.79555 -1.0748 
-1.19562 -0.0776274 -0.661764 
-0.0776274 -0.982288 1.43512 
-0.661764 1.43512 -0.791431 
-1.03476 0.0820024 -0.552421 
0.0820024 -0.904445 1.43326 
-0.552421 1.43326 -1.03013 
-1.7386 -0.147944 -2.65656 
-0.147944 -2.28037 2.36795 
-2.65656 2.36795 -2.31188 
-1.96718 0.00595033 -2.969 
0.00595033 -2.16163 2.24107 
-2.969 2.24107 -2.20204 
-1.98779 -0.0744428 -2.86849 
-0.0744428 -1.85558 2.44275 
-2.86849 2.44275 -2.48748 
-1.90721 -0.205685 -3.00719 
-0.205685 -2.01851 2.26974 
-3.00719 2.26974 -2.40513 
-5.68613 0.117511 2.9287 
0.117511 -6.321 0.555192 
2.9287 0.555192 -6.08 
-5.96314 0.0330187 2.95266 
0.0330187 -6.07777 0.64687 
2.95266 0.64687 -6.04623 
-5.92662 0.0072126 3.0809 
0.0072126 -6.07235 0.428316 
3.0809 0.428316 -6.08816 
-6.52394 -0.183325 2.74363 
-0.183325 -5.9281 0.561311 
2.74363 0.561311 -5.63509 
-6.8274 0.11605 0.263858 
0.11605 -6.99409 4.67228 
0.263858 4.67228 -6.73693 
-6.61612 0.0156884 0.508764 
0.0156884 -6.58806 3.55059 
0.508764 3.55059 -7.35425 
-7.12002 -0.0153815 0.496993 
-0.0153815 -6.0657 4.40639 
0.496993 4.40639 -7.3727 
-6.98768 0.157831 0.403152 
0.157831 -6.48633 4.30783 
0.403152 4.30783 -7.08441 
-9.70305 0.151509 0.770731 
0.151509 -9.64193 -3.66863 
0.770731 -3.66863 -9.45547 
-9.81565 0.0324347 0.858959 
0.0324347 -9.30868 -3.66754 
0.858959 -3.66754 -9.67611 
-9.19633 0.0566356 1.03174 
0.0566356 -9.28062 -3.55074 
1.03174 -3.55074 -10.3235 
-9.66446 0.114101 0.858216 
0.114101 -9.73364 -3.84008 
0.858216 -3.84008 -9.40234 
-4.67662 -0.0530839 3.47131 
-0.0530839 -4.47979 -1.96448 
3.47131 -1.96448 -4.41335 
-4.62138 -0.131947 3.5455 
-0.131947 -4.58896 -2.1064 
3.5455 -2.1064 -4.35941 
-4.58055 0.00901841 3.73068 
0.00901841 -4.45723 -1.88921 
3.73068 -1.88921 -4.53197 
-4.62835 -0.00194924 3.54981 
-0.00194924 -4.70098 -2.12697 
3.54981 -2.12697 -4.24043 
-5.43486 -0.0920873 -2.58221 
-0.0920873 -6.02679 -0.805689 
-2.58221 -0.805689 -6.38214 
-6.11249 -0.0827975 -1.85171 
-0.0827975 -6.65717 -0.889288 
-1.85171 -0.889288 -5.07414 
-6.33175 0.0404384 -2.60774 
0.0404384 -5.91849 -1.09105 
-2.60774 -1.09105 -5.59355 
-6.24531 -0.033118 -2.40717 
-0.033118 -5.82027 -1.1072 
-2.40717 -1.1072 -5.77822 
-7.92472 0.0569703 0.159205 
0.0569703 -8.30666 1.39367 
0.159205 1.39367 -7.90734 
-7.95291 0.178063 0.133687 
0.178063 -8.36634 1.46321 
0.133687 1.46321 -7.81947 
-8.13813 -0.0937422 0.228306 
-0.0937422 -7.95303 1.48372 
0.228306 1.48372 -8.04757 
-8.09084 0.0106341 -0.274144 
0.0106341 -8.21959 1.20181 
-0.274144 1.20181 -7.8283 
-3.15825 0.306791 2.1491 
0.306791 -3.65991 -1.15028 
2.1491 -1.15028 -2.58169 
-2.85924 0.21726 1.71559 
0.21726 -2.86881 -1.44025 
1.71559 -1.44025 -3.67179 
-2.94094 0.0378761 2.04018 
0.0378761 -3.07723 -1.36524 
2.04018 -1.36524 -3.38168 
-2.9178 -0.162864 2.23992 
-0.162864 -3.24728 -1.27501 
2.23992 -1.27501 -3.23477 
-6.03197 0.124706 -4.17398 
0.124706 -5.70606 0.0308925 
-4.17398 0.0308925 -5.92965 
-5.60847 -0.0355824 -3.90396 
-0.0355824 -5.89606 0.272983 
-3.90396 0.272983 -6.16314 
-6.09132 0.101514 -4.13129 
0.101514 -6.24175 -0.405577 
-4.13129 -0.405577 -5.3346 
-6.10086 0.06403 -4.19178 
0.06403 -5.5679 0.0790735 
-4.19178 0.0790735 -5.99892 
-8.01666 0.0692682 0.781841 
0.0692682 -6.92156 -4.646 
0.781841 -4.646 -7.3665 
-7.49859 0.17002 0.570659 
0.17002 -7.92819 -4.58626 
0.570659 -4.58626 -6.87795 
-7.71662 0.0397577 0.514583 
0.0397577 -7.13018 -4.10216 
0.514583 -4.10216 -7.45793 
-7.72736 -0.163146 0.895317 
-0.163146 -6.99732 -3.78538 
0.895317 -3.78538 -7.58004 
-8.80022 -0.0862531 -3.0019 
-0.0862531 -8.77653 1.88587 
-3.0019 1.88587 -8.92613 
-8.60539 0.221036 -2.96228 
0.221036 -8.78518 1.9284 
-2.96228 1.9284 -9.11229 
-8.84619 0.117514 -2.9832 
0.117514 -8.87502 1.81315 
-2.9832 1.81315 -8.78166 
-8.91796 -0.037322 -3.10575 
-0.037322 -8.74958 1.98407 
-3.10575 1.98407 -8.83533 
-5.75508 0.11199 0.399832 
0.11199 -6.20355 0.608841 
0.399832 0.608841 -5.72797 
-6.32697 0.0253047 0.472924 
0.0253047 -6.11196 0.930736 
0.472924 0.930736 -5.24767 
-5.51443 -0.212618 0.741135 
-0.212618 -6.16006 0.000284237 
0.741135 0.000284237 -6.0121 
-5.74775 -0.282475 0.235861 
-0.282475 -6.02287 0.180044 
0.235861 0.180044 -5.91598 
-8.44078 -0.821657 4.29057 
-0.821657 -8.43325 0.426751 
4.29057 0.426751 -9.17979 
-8.89868 0.0286686 3.94023 
0.0286686 -8.58457 0.231314 
3.94023 0.231314 -8.57057 
-8.70912 0.00361541 4.09225 
0.00361541 -8.56687 0.169026 
4.09225 0.169026 -8.77784 
-9.10988 -0.399055 3.39176 
-0.399055 -8.80467 0.00166034 
3.39176 0.00166034 -8.13929 
-4.13806 0.0524206 -3.86915 
0.0524206 -3.66284 -1.55505 
-3.86915 -1.55505 -3.65283 
-4.05737 -0.216817 -3.49643 
-0.216817 -4.02224 -1.42239 
-3.49643 -1.42239 -3.37412 
-3.95281 -0.214229 -4.2123 
-0.214229 -3.10885 -1.68933 
-4.2123 -1.68933 -4.39208 
-4.12951 0.312689 -4.11626 
0.312689 -3.6893 -1.67349 
-4.11626 -1.67349 -3.63492 
-7.16958 0.0667154 -1.88837 
0.0667154 -7.5661 0.913831 
-1.88837 0.913831 -7.63304 
-7.16238 0.0179724 -1.99898 
0.0179724 -7.59364 1.05263 
-1.99898 1.05263 -7.61271 
-7.46623 0.100455 -2.13769 
0.100455 -7.7865 0.46115 
-2.13769 0.46115 -7.116 
-7.0176 0.0647791 -1.29061 
0.0647791 -7.20297 1.15709 
-1.29061 1.15709 -8.14815 
-9.3532 0.0444592 3.1441 
0.0444592 -9.42741 1.1938 
3.1441 1.1938 -9.55278 
-9.2235 -0.0500427 3.07585 
-0.0500427 -9.35117 1.18055 
3.07585 1.18055 -9.75871 
-9.31866 0.0332142 3.19675 
0.0332142 -9.17719 1.13337 
3.19675 1.13337 -9.83753 
-9.40803 -0.0149345 3.22311 
-0.0149345 -9.55264 1.21278 
3.22311 1.21278 -9.37272 
-7.48898 -0.256157 1.97092 
-0.256157 -7.36508 -1.06818 
1.97092 -1.06818 -7.25052 
-7.37 -0.311099 1.81412 
-0.311099 -7.34715 -1.41035 
1.81412 -1.41035 -7.38743 
-7.38536 -0.176148 2.16004 
-0.176148 -7.41127 -1.35769 
2.16004 -1.35769 -7.30795 
-7.22123 0.000962954 1.90716 
0.000962954 -7.23414 -1.63987 
1.90716 -1.63987 -7.64921 
-8.5123 -0.23112 0.700076 
-0.23112 -8.94698 -2.65464 
0.700076 -2.65464 -9.16229 
-8.46411 -0.0964244 0.727173 
-0.0964244 -8.96308 -1.95666 
0.727173 -1.95666 -9.19437 
-8.9465 -0.178806 0.688076 
-0.178806 -8.945 -2.77927 
0.688076 -2.77927 -8.73006 
-9.03206 0.00328121 0.64589 
0.00328121 -8.81812 -2.02502 
0.64589 -2.02502 -8.77138 
-6.79133 0.118873 0.962044 
0.118873 -6.68114 -4.38866 
0.962044 -4.38866 -6.69044 
-6.96812 0.303421 0.342476 
0.303421 -7.01878 -3.95686 
0.342476 -3.95686 -6.17601 
-6.71639 0.0205219 0.618047 
0.0205219 -6.68119 -4.06865 
0.618047 -4.06865 -6.76533 
-6.41587 -0.578746 0.191112 
-0.578746 -6.00749 -3.98214 
0.191112 -3.98214 -7.73956 
-5.93681 0.150797 1.48361 
0.150797 -6.224 -3.88547 
1.48361 -3.88547 -5.63241 
-5.93741 -0.149502 1.37583 
-0.149502 -5.55676 -4.32357 
1.37583 -4.32357 -6.29904 
-6.52114 -0.167714 1.10613 
-0.167714 -6.0662 -3.55506 
1.10613 -3.55506 -5.20588 
-5.83213 0.144642 1.37939 
0.144642 -6.2831 -3.7008 
1.37939 -3.7008 -5.67798 
-3.83082 -0.0127567 -3.09725 
-0.0127567 -3.88329 -0.718362 
-3.09725 -0.718362 -4.05908 
-3.91714 0.110514 -2.72301 
0.110514 -3.88596 -0.722781 
-2.72301 -0.722781 -3.97009 
-4.11761 0.062808 -2.89524 
0.062808 -3.86672 -0.736767 
-2.89524 -0.736767 -3.78886 
-4.14501 0.0821385 -2.80563 
0.0821385 -3.90864 -0.750266 
-2.80563 -0.750266 -3.71954 
-8.37067 0.160943 3.24542 
0.160943 -8.5131 1.72216 
3.24542 1.72216 -8.91809 
-8.50816 0.307354 2.92891 
0.307354 -9.06661 1.82474 
2.92891 1.82474 -8.22708 
-8.6172 -0.0377578 3.05977 
-0.0377578 -8.54053 1.83204 
3.05977 1.83204 -8.64413 
-8.629 -0.0304971 3.09857 
-0.0304971 -8.59176 1.84973 
3.09857 1.84973 -8.58109 
-3.00581 -0.0342334 0.61299 
-0.0342334 -2.71346 -1.80057 
0.61299 -1.80057 -3.18725 
-3.04119 -0.304511 0.518659 
-0.304511 -3.03901 -1.88521 
0.518659 -1.88521 -2.82631 
-3.09652 -0.147463 0.752147 
-0.147463 -2.97376 -2.16691 
0.752147 -2.16691 -2.83623 
-2.73935 -0.0155196 0.571789 
-0.0155196 -2.87723 -2.1418 
0.571789 -2.1418 -3.28993 
-3.62134 0.0919007 -2.41018 
0.0919007 -3.83139 -0.213139 
-2.41018 -0.213139 -4.19397 
-4.89486 0.0260657 -2.59057 
0.0260657 -3.46436 -0.101744 
-2.59057 -0.101744 -3.28749 
-3.53622 0.0804294 -2.8196 
0.0804294 -4.18214 -0.115031 
-2.8196 -0.115031 -3.92835 
-3.59099 -0.0489157 -2.47999 
-0.0489157 -3.94084 0.000128915 
-2.47999 0.000128915 -4.11487 
-8.23066 -0.0710658 -0.972103 
-0.0710658 -8.10411 -0.20573 
-0.972103 -0.20573 -7.11055 
-8.22745 -0.0144582 -0.756991 
-0.0144582 -7.67488 0.0610431 
-0.756991 0.0610431 -7.54298 
-8.21671 -0.142915 -0.665959 
-0.142915 -7.85306 -0.106024 
-0.665959 -0.106024 -7.37554 
-7.95388 -0.158458 -0.348925 
-0.158458 -7.53811 0.366761 
-0.348925 0.366761 -7.95332 
-2.02945 0.144581 1.52358 
0.144581 -2.01947 3.48084 
1.52358 3.48084 -0.943745 
-1.69457 0.0455182 1.70611 
0.0455182 -1.70448 3.82983 
1.70611 3.82983 -1.59361 
-1.59152 -0.029253 1.67469 
-0.029253 -1.79225 4.07246 
1.67469 4.07246 -1.60889 
-1.33134 0.123289 1.66179 
0.123289 -1.61397 4.12856 
1.66179 4.12856 -2.04735 
-3.89009 -0.015242 -0.678714 
-0.015242 -3.89166 -0.995912 
-0.678714 -0.995912 -4.77881 
-4.10398 0.0470124 -0.708362 
0.0470124 -4.01897 -0.972317 
-0.708362 -0.972317 -4.43761 
-4.09103 0.106888 -0.467056 
0.106888 -4.17825 -0.800229 
-0.467056 -0.800229 -4.29128 
-4.07532 0.251642 -0.679185 
0.251642 -3.9617 -0.870358 
-0.679185 -0.870358 -4.52354 
-7.35503 -0.166288 0.62231 
-0.166288 -7.23429 -2.634 
0.62231 -2.634 -7.02215 
-7.51944 -0.396761 0.986287 
-0.396761 -6.97265 -2.10517 
0.986287 -2.10517 -7.11938 
-7.3193 -0.322122 0.461507 
-0.322122 -7.23334 -2.38971 
0.461507 -2.38971 -7.05884 
-6.80082 0.251259 1.02513 
0.251259 -7.19604 -2.37436 
1.02513 -2.37436 -7.61461 
-1.88206 0.340065 0.679569 
0.340065 -1.88203 -2.334 
0.679569 -2.334 -1.45391 
-1.49336 -0.0299097 0.787684 
-0.0299097 -1.68165 -2.12461 
0.787684 -2.12461 -2.04299 
-1.40403 -0.0866355 1.05165 
-0.0866355 -1.48047 -1.77702 
1.05165 -1.77702 -2.3335 
-1.49042 -0.149899 0.862773 
-0.149899 -1.93719 -2.05062 
0.862773 -2.05062 -1.79039 
-0.871449 -0.0481877 -2.14805 
-0.0481877 -1.00893 0.639604 
-2.14805 0.639604 0.47302 
-0.624264 -0.19492 -2.24797 
-0.19492 -0.560808 0.616446 
-2.24797 0.616446 -0.222283 
-0.526341 -0.0303806 -2.25159 
-0.0303806 -0.467883 0.559555 
-2.25159 0.559555 -0.413131 
-0.395399 0.0594032 -2.26449 
0.0594032 -0.424127 0.615824 
-2.26449 0.615824 -0.587828 
-1.86238 0.127083 0.26535 
0.127083 -1.83881 2.08946 
0.26535 2.08946 -1.5512 
-1.48875 -0.147783 0.0455905 
-0.147783 -1.76821 2.05128 
0.0455905 2.05128 -1.99543 
-1.46894 -0.0632143 0.282629 
-0.0632143 -1.47902 2.21698 
0.282629 2.21698 -2.30443 
-1.73231 -0.0660249 0.179217 
-0.0660249 -1.78715 2.14532 
0.179217 2.14532 -1.73293 
-4.57499 -0.0294746 0.686445 
-0.0294746 -4.8214 1.48291 
0.686445 1.48291 -4.36173 
-4.47866 0.127217 0.776773 
0.127217 -4.59872 1.7812 
0.776773 1.7812 -4.68073 
-4.22566 0.196847 0.837958 
0.196847 -4.73792 1.68306 
0.837958 1.68306 -4.79453 
-3.90963 -0.0715547 1.18042 
-0.0715547 -4.42914 1.83193 
1.18042 1.83193 -5.41935 
-3.94684 -0.107116 -2.87324 
-0.107116 -3.67092 -0.312385 
-2.87324 -0.312385 -3.52798 
-3.65547 -0.0217387 -2.72565 
-0.0217387 -3.83443 -0.245381 
-2.72565 -0.245381 -3.65584 
-3.7866 -0.0981241 -3.0443 
-0.0981241 -3.59049 -0.424081 
-3.0443 -0.424081 -3.76864 
-3.81068 0.125129 -2.84932 
0.125129 -4.01929 -0.40501 
-2.84932 -0.40501 -3.31577 
-1.38155 -0.0851673 -2.1964 
-0.0851673 -1.21538 0.35721 
-2.1964 0.35721 -1.08863 
-1.40991 -0.245135 -2.27985 
-0.245135 -0.732331 0.503425 
-2.27985 0.503425 -1.54333 
-1.20004 -0.0554818 -2.06047 
-0.0554818 -1.3853 0.291902 
-2.06047 0.291902 -1.10022 
-1.18599 0.019299 -2.11603 
0.019299 -1.18726 0.378417 
-2.11603 0.378417 -1.3123 
-8.00876 -0.25541 1.62032 
-0.25541 -8.11761 2.72336 
1.62032 2.72336 -8.35074 
-7.83533 0.107964 1.93021 
0.107964 -8.18308 2.64083 
1.93021 2.64083 -8.4587 
-8.20141 0.26243 1.96125 
0.26243 -8.3131 2.61698 
1.96125 2.61698 -7.96261 
-8.24959 0.0908014 2.27467 
0.0908014 -8.40789 2.85862 
2.27467 2.85862 -7.81963 
-8.76162 0.00462924 0.671583 
0.00462924 -8.95283 -3.85146 
0.671583 -3.85146 -9.04729 
-8.7851 0.113097 0.253752 
0.113097 -8.54714 -3.60921 
0.253752 -3.60921 -9.4295 
-8.67528 -0.117799 0.677511 
-0.117799 -9.06717 -3.68669 
0.677511 -3.68669 -9.0193 
-9.41022 -0.0711255 0.927234 
-0.0711255 -8.75332 -4.03888 
0.927234 -4.03888 -8.5982 
-6.64074 -0.223559 1.17 
-0.223559 -5.31054 -4.37238 
1.17 -4.37238 -7.57726 
-6.10737 0.391137 1.0903 
0.391137 -7.79024 -4.71997 
1.0903 -4.71997 -5.63094 
-6.67336 -0.283716 1.0625 
-0.283716 -6.14441 -4.2726 
1.0625 -4.2726 -6.71077 
-6.74813 -0.213922 1.04659 
-0.213922 -6.81664 -3.09083 
1.04659 -3.09083 -5.96377 
-6.54777 -0.322383 1.7944 
-0.322383 -6.53154 -0.0975894 
1.7944 -0.0975894 -5.22112 
-6.09402 0.126832 1.67945 
0.126832 -6.11147 0.393281 
1.67945 0.393281 -6.09493 
-5.74867 -0.288572 1.96718 
-0.288572 -5.73646 0.740499 
1.96718 0.740499 -6.8153 
-6.08671 0.153425 1.6412 
0.153425 -6.15941 0.39412 
1.6412 0.39412 -6.05431 
-5.77968 0.223782 3.24487 
0.223782 -5.70047 -2.84418 
3.24487 -2.84418 -5.52502 
-5.66494 -0.298458 2.72255 
-0.298458 -5.78133 -3.45538 
2.72255 -3.45538 -5.55889 
-5.81616 -0.33652 3.16315 
-0.33652 -5.33506 -2.61431 
3.16315 -2.61431 -5.85394 
-6.04036 0.121976 2.3597 
0.121976 -5.77043 -3.37977 
2.3597 -3.37977 -5.19437 
-8.98174 -0.13204 -0.346381 
-0.13204 -8.53671 1.53611 
-0.346381 1.53611 -9.25063 
-8.91817 0.0559551 0.314438 
0.0559551 -8.96032 2.01572 
0.314438 2.01572 -8.89058 
-9.11604 -0.114788 0.462965 
-0.114788 -8.51456 1.84854 
0.462965 1.84854 -9.13847 
-9.04248 0.152366 -0.367391 
0.152366 -8.85986 1.48086 
-0.367391 1.48086 -8.86672 
-1.02661 0.0221222 -0.0779722 
0.0221222 -1.3092 -1.35046 
-0.0779722 -1.35046 -0.630598 
-0.836467 -0.0111071 0.0462792 
-0.0111071 -1.02853 -1.53976 
0.0462792 -1.53976 -1.10141 
-0.893254 -0.0343965 0.103983 
-0.0343965 -1.15251 -1.52387 
0.103983 -1.52387 -0.920647 
-1.05714 0.066947 0.148893 
0.066947 -0.901952 -1.35493 
0.148893 -1.35493 -1.00732 
-8.0204 0.065173 1.52656 
0.065173 -7.84607 2.52471 
1.52656 2.52471 -8.54482 
-7.88779 -0.180376 1.91383 
-0.180376 -8.13001 2.34263 
1.91383 2.34263 -8.39349 
-7.67624 -0.231814 1.94949 
-0.231814 -8.45086 2.45019 
1.94949 2.45019 -8.28418 
-8.21123 -0.00647146 2.45495 
-0.00647146 -8.69504 2.42683 
2.45495 2.42683 -7.50503 
-4.84847 0.0854664 -1.03493 
0.0854664 -5.12742 2.08603 
-1.03493 2.08603 -5.11052 
-5.09711 -0.0360591 -1.05476 
-0.0360591 -5.14952 2.00617 
-1.05476 2.00617 -4.83978 
-4.64858 -0.00400159 -1.23683 
-0.00400159 -4.73108 2.28254 
-1.23683 2.28254 -5.70675 
-4.78532 -0.0596013 -1.11348 
-0.0596013 -5.23021 2.15028 
-1.11348 2.15028 -5.07087 
-9.39618 0.105195 2.73291 
0.105195 -9.32863 -1.64498 
2.73291 -1.64498 -9.62682 
-9.22384 0.0111555 2.8141 
0.0111555 -9.25794 -1.7251 
2.8141 -1.7251 -9.86985 
-9.39007 0.0155056 2.7953 
0.0155056 -9.22419 -1.57799 
2.7953 -1.57799 -9.73736 
-9.51877 0.0361291 2.71341 
0.0361291 -9.40102 -1.60599 
2.71341 -1.60599 -9.43184 
-6.32114 -0.0508789 1.30034 
-0.0508789 -6.48579 -3.81127 
1.30034 -3.81127 -6.75533 
-6.12621 -0.138896 1.71487 
-0.138896 -6.34411 -3.74336 
1.71487 -3.74336 -7.09194 
-6.31094 -0.0167157 1.36168 
-0.0167157 -6.52129 -3.95663 
1.36168 -3.95663 -6.73003 
-6.64089 -0.00368818 1.34032 
-0.00368818 -6.47249 -3.88973 
1.34032 -3.88973 -6.44888 
-6.60322 0.0291625 3.679 
0.0291625 -6.92616 -2.21684 
3.679 -2.21684 -6.80897 
-6.77822 0.0840546 3.71172 
0.0840546 -6.78324 -1.73718 
3.71172 -1.73718 -6.77689 
-6.75142 0.317891 3.50615 
0.317891 -7.20154 -1.5769 
3.50615 -1.5769 -6.38539 
-6.77428 -0.587369 3.53045 
-0.587369 -6.09299 -1.55749 
3.53045 -1.55749 -7.47109 
-6.61319 0.238296 1.48297 
0.238296 -6.8934 0.260256 
1.48297 0.260256 -7.0823 
-7.13912 0.0920768 1.56277 
0.0920768 -6.96883 0.0834581 
1.56277 0.0834581 -6.48094 
-6.37642 0.0983836 1.63037 
0.0983836 -6.95409 -0.161075 
1.63037 -0.161075 -7.25839 
-7.21237 -0.07633 1.44071 
-0.07633 -6.97627 0.0979854 
1.44071 0.0979854 -6.40025 
-1.50782 0.00162409 -1.71419 
0.00162409 -1.5813 0.720154 
-1.71419 0.720154 -2.44471 
-1.72277 -0.0644355 -1.67935 
-0.0644355 -1.81041 0.486024 
-1.67935 0.486024 -2.00066 
-2.05988 -0.077531 -1.81811 
-0.077531 -1.85088 0.363759 
-1.81811 0.363759 -1.62307 
-1.77933 -0.0833554 -1.80263 
-0.0833554 -1.84231 0.547091 
-1.80263 0.547091 -1.9122 
-1.29228 -0.288581 -3.03822 
-0.288581 -1.60524 2.66654 
-3.03822 2.66654 -0.0926418 
-1.03968 0.283315 -3.30177 
0.283315 -1.11958 2.7371 
-3.30177 2.7371 -0.830915 
-1.03333 0.0990537 -3.32114 
0.0990537 -1.10427 2.78662 
-3.32114 2.78662 -0.852572 
-0.942206 -0.0121732 -3.22492 
-0.0121732 -0.971884 2.82546 
-3.22492 2.82546 -1.07608 
-5.9473 0.0347209 4.21582 
0.0347209 -6.41157 -0.0388314 
4.21582 -0.0388314 -6.50925 
-6.63933 0.164499 4.33458 
0.164499 -5.9469 -0.993469 
4.33458 -0.993469 -6.28188 
-5.80885 0.465662 3.9308 
0.465662 -6.37855 -1.21028 
3.9308 -1.21028 -6.68072 
-6.6437 0.0202058 3.68343 
0.0202058 -5.92954 0.164031 
3.68343 0.164031 -6.29487 
-6.78909 0.094432 4.36327 
0.094432 -7.0989 0.302698 
4.36327 0.302698 -7.10458 
-5.93822 0.108227 4.72698 
0.108227 -7.24689 0.131676 
4.72698 0.131676 -7.80746 
-8.23586 -0.182867 4.70502 
-0.182867 -6.72114 0.1179 
4.70502 0.1179 -6.03558 
-6.86227 -0.132644 3.43851 
-0.132644 -7.11114 0.3348 
3.43851 0.3348 -7.01917 
-6.86577 0.165287 2.38654 
0.165287 -6.8396 1.08044 
2.38654 1.08044 -7.01408 
-6.47156 -0.0535988 2.0679 
-0.0535988 -6.43442 0.963385 
2.0679 0.963385 -7.81346 
-6.66511 0.15776 2.33247 
0.15776 -7.04442 1.12636 
2.33247 1.12636 -7.00991 
-7.13137 -0.0299751 2.30998 
-0.0299751 -6.96068 1.27485 
2.30998 1.27485 -6.6274 
-2.3995 0.0368896 -4.48153 
0.0368896 -2.32163 0.348602 
-4.48153 0.348602 -2.21435 
-1.26917 -0.328483 -4.38681 
-0.328483 -2.51745 0.476958 
-4.38681 0.476958 -3.14886 
-3.03106 0.119656 -4.76694 
0.119656 -2.40911 0.634115 
-4.76694 0.634115 -1.49532 
-2.89136 0.164072 -3.75657 
0.164072 -2.31252 -0.0863581 
-3.75657 -0.0863581 -1.7316 
-8.11082 0.0116581 2.55 
0.0116581 -8.38418 1.76804 
2.55 1.76804 -7.10104 
-7.90559 -0.0344977 2.56004 
-0.0344977 -7.93856 1.74359 
2.56004 1.74359 -7.7519 
-7.834 0.0072675 2.66561 
0.0072675 -7.77207 1.69683 
2.66561 1.69683 -7.98997 
-7.91126 -0.0821478 2.72953 
-0.0821478 -8.07418 1.80147 
2.72953 1.80147 -7.6106 
-7.39815 0.0982884 -2.06899 
0.0982884 -7.11305 -1.80377 
-2.06899 -1.80377 -7.30266 
-7.44239 0.310208 -1.65499 
0.310208 -6.94984 -1.61963 
-1.65499 -1.61963 -7.42163 
-7.44405 0.234486 -1.87186 
0.234486 -6.96961 -1.49694 
-1.87186 -1.49694 -7.4002 
-7.15879 -0.0079282 -1.61888 
-0.0079282 -6.99181 -1.57474 
-1.61888 -1.57474 -7.66326 
-8.59289 -0.281714 -1.29722 
-0.281714 -8.62222 1.42341 
-1.29722 1.42341 -8.98733 
-8.61519 -0.260091 -1.22532 
-0.260091 -8.80328 2.15466 
-1.22532 2.15466 -8.78397 
-8.96535 -0.232128 -1.23846 
-0.232128 -8.63099 1.39953 
-1.23846 1.39953 -8.6061 
-8.93493 -0.230073 -1.26165 
-0.230073 -8.80238 2.09296 
-1.26165 2.09296 -8.46514 
-1.28165 0.0792935 -2.79638 
0.0792935 -1.26092 2.44368 
-2.79638 2.44368 -1.23575 
-1.63699 -0.248369 -2.85267 
-0.248369 -1.38617 2.70199 
-2.85267 2.70199 -0.755157 
-1.28539 0.0220644 -2.80201 
0.0220644 -1.255 2.42258 
-2.80201 2.42258 -1.23793 
-1.20817 -0.0433483 -2.77018 
-0.0433483 -1.12283 2.54869 
-2.77018 2.54869 -1.44732 
-4.11416 0.0978004 4.34968 
0.0978004 -5.27125 1.46954 
4.34968 1.46954 -4.98259 
-4.45685 -0.0668166 4.0329 
-0.0668166 -5.20779 1.45033 
4.0329 1.45033 -4.70336 
-5.19894 -0.0404379 4.33069 
-0.0404379 -4.8869 1.86119 
4.33069 1.86119 -4.28217 
-4.49578 -0.113538 3.68328 
-0.113538 -4.75115 1.24682 
3.68328 1.24682 -5.12107 
-4.13431 0.00762418 -3.31049 
0.00762418 -4.09139 -1.86361 
-3.31049 -1.86361 -4.11442 
-4.12612 0.0433695 -3.3058 
0.0433695 -4.00584 -1.76719 
-3.3058 -1.76719 -4.20816 
-4.1522 0.00432775 -3.1251 
0.00432775 -4.09719 -1.86725 
-3.1251 -1.86725 -4.09072 
-4.10649 -0.0476631 -3.16411 
-0.0476631 -3.95425 -1.80585 
-3.16411 -1.80585 -4.27938 
-4.07098 0.227025 2.43093 
0.227025 -3.92337 -1.8795 
2.43093 -1.8795 -3.85378 
-4.10445 0.33631 2.49908 
0.33631 -3.98702 -1.57557 
2.49908 -1.57557 -3.75665 
-3.74365 -0.0586925 1.8074 
-0.0586925 -3.6482 -1.5401 
1.8074 -1.5401 -4.45627 
-4.10299 0.121543 2.62045 
0.121543 -4.16786 -1.95371 
2.62045 -1.95371 -3.57728 
-6.31687 0.0698984 2.34941 
0.0698984 -6.16319 1.66022 
2.34941 1.66022 -6.36233 
-5.51927 -0.162503 2.047 
-0.162503 -6.44659 1.56897 
2.047 1.56897 -6.87653 
-6.27569 0.0335682 2.49562 
0.0335682 -6.12265 1.71259 
2.49562 1.71259 -6.44404 
-6.44216 -0.0173236 2.29773 
-0.0173236 -6.30179 1.72461 
2.29773 1.72461 -6.09844 
-5.67971 0.139459 1.1695 
0.139459 -5.82573 -0.877787 
1.1695 -0.877787 -5.81145 
-6.02223 0.175485 0.885652 
0.175485 -5.59624 -0.419506 
0.885652 -0.419506 -5.69842 
-5.95528 -0.0844166 1.07633 
-0.0844166 -5.83768 -0.934792 
1.07633 -0.934792 -5.52393 
-5.94881 0.0400519 0.75325 
0.0400519 -5.63717 -0.460786 
0.75325 -0.460786 -5.73091 
-6.3942 -0.102117 0.427764 
-0.102117 -6.35892 0.259672 
0.427764 0.259672 -6.40896 
-6.36004 -0.0270668 0.545592 
-0.0270668 -6.29307 0.245021 
0.545592 0.245021 -6.50896 
-5.77367 0.353493 -0.0163317 
0.353493 -6.47919 0.288967 
-0.0163317 0.288967 -6.90922 
-6.5225 0.0263222 0.380499 
0.0263222 -6.5139 0.230337 
0.380499 0.230337 -6.12567 
-2.23815 -0.0238207 -0.722831 
-0.0238207 -2.18509 -3.08139 
-0.722831 -3.08139 -2.50942 
-2.11423 -0.0177796 -0.345228 
-0.0177796 -2.01023 -2.9742 
-0.345228 -2.9742 -2.80821 
-2.3242 0.0673078 -0.750063 
0.0673078 -2.3343 -3.16169 
-0.750063 -3.16169 -2.27416 
-2.19792 -0.105065 -0.609844 
-0.105065 -2.33028 -3.11698 
-0.609844 -3.11698 -2.40446 
-7.50374 0.0541498 -4.09645 
0.0541498 -7.44336 2.47624 
-4.09645 2.47624 -7.22308 
-7.31836 -0.0285365 -3.97369 
-0.0285365 -7.47972 2.37026 
-3.97369 2.37026 -7.37209 
-6.99859 -0.237236 -3.83685 
-0.237236 -7.36336 2.21577 
-3.83685 2.21577 -7.80822 
-7.52179 0.111204 -3.98041 
0.111204 -7.56109 2.36846 
-3.98041 2.36846 -7.0873 
-6.08636 0.0547175 4.37165 
0.0547175 -6.70517 -0.198508 
4.37165 -0.198508 -6.3225 
-5.7544 -0.353817 4.03542 
-0.353817 -6.6544 0.886992 
4.03542 0.886992 -6.70523 
-6.71847 -0.189751 4.26772 
-0.189751 -6.14755 0.76093 
4.26772 0.76093 -6.24801 
-6.65023 -0.0670817 3.79808 
-0.0670817 -6.33848 -0.451274 
3.79808 -0.451274 -6.12532 
-8.64269 -0.238823 -3.4229 
-0.238823 -8.45161 -0.325599 
-3.4229 -0.325599 -9.17634 
-8.91472 -0.397863 -3.24379 
-0.397863 -8.73832 -0.618892 
-3.24379 -0.618892 -8.6176 
-8.80905 0.00592041 -3.47645 
0.00592041 -8.69332 -0.595246 
-3.47645 -0.595246 -8.76828 
-8.84839 0.0331583 -3.5149 
0.0331583 -8.65317 -0.546662 
-3.5149 -0.546662 -8.76909 
-3.31583 0.147181 0.267141 
0.147181 -3.39775 4.59696 
0.267141 4.59696 -3.2847 
-3.19397 0.141722 0.451517 
0.141722 -3.15679 4.9159 
0.451517 4.9159 -3.64751 
-3.25609 -0.267981 0.745525 
-0.267981 -4.43003 4.11431 
0.745525 4.11431 -2.31216 
-3.35761 0.210089 0.277664 
0.210089 -3.03085 4.51962 
0.277664 4.51962 -3.60982 
-8.73239 0.0221584 4.26959 
0.0221584 -8.99507 -0.00827609 
4.26959 -0.00827609 -9.22455 
-9.07945 0.429665 3.70798 
0.429665 -7.88741 0.243663 
3.70798 0.243663 -9.98515 
-8.81153 -0.0253353 4.30796 
-0.0253353 -8.97402 0.0477959 
4.30796 0.0477959 -9.16646 
-9.60295 0.150915 4.59617 
0.150915 -8.98325 0.225775 
4.59617 0.225775 -8.36581 
-8.73495 -0.0207086 4.03447 
-0.0207086 -8.60312 -2.08918 
4.03447 -2.08918 -6.44356 
-8.06568 -0.00532454 3.18326 
-0.00532454 -7.89705 -1.40728 
3.18326 -1.40728 -7.81891 
-6.9744 0.0761612 3.76866 
0.0761612 -7.11946 -2.26042 
3.76866 -2.26042 -9.68777 
-8.18954 0.0367784 2.66514 
0.0367784 -7.76231 -1.98709 
2.66514 -1.98709 -7.82978 
-3.19658 0.0817993 4.10632 
0.0817993 -3.0127 0.784793 
4.10632 0.784793 -3.14044 
-2.75029 0.0220733 3.8322 
0.0220733 -3.2385 0.726884 
3.8322 0.726884 -3.36094 
-3.5355 -0.0942878 4.06431 
-0.0942878 -3.23432 0.978564 
4.06431 0.978564 -2.57991 
-3.59655 0.0184203 4.07761 
0.0184203 -2.95559 0.698816 
4.07761 0.698816 -2.79759 
-5.74816 0.0172973 -0.542718 
0.0172973 -5.93906 -0.881205 
-0.542718 -0.881205 -5.60929 
-5.85411 0.146345 -0.373928 
0.146345 -6.13339 -0.88078 
-0.373928 -0.88078 -5.30901 
-5.7369 -0.0238812 -0.436691 
-0.0238812 -5.71421 -0.676936 
-0.436691 -0.676936 -5.84539 
-5.76318 -0.0545048 -0.381372 
-0.0545048 -5.78475 -0.726497 
-0.381372 -0.726497 -5.74857 
-2.064 -0.0165853 -3.47396 
-0.0165853 -1.78473 1.97741 
-3.47396 1.97741 -2.05191 
-1.94764 -0.0683858 -3.78106 
-0.0683858 -1.87919 2.00944 
-3.78106 2.00944 -2.07381 
-2.16043 0.0562108 -3.54826 
0.0562108 -1.96058 1.93959 
-3.54826 1.93959 -1.77962 
-2.01382 0.054176 -3.633 
0.054176 -1.91981 2.12572 
-3.633 2.12572 -1.96701 
-4.44127 -0.584898 -3.64973 
-0.584898 -3.11277 -2.20243 
-3.64973 -2.20243 -2.41667 
-3.28277 0.175744 -4.25367 
0.175744 -3.41669 -1.9753 
-4.25367 -1.9753 -3.27125 
-3.15955 0.171193 -4.2185 
0.171193 -3.70199 -1.89244 
-4.2185 -1.89244 -3.10917 
-2.78548 0.325643 -3.69802 
0.325643 -3.60203 -1.87299 
-3.69802 -1.87299 -3.58319 
-4.92853 0.0724476 3.04507 
0.0724476 -5.03393 1.22528 
3.04507 1.22528 -5.63216 
-5.41407 -0.182959 3.13649 
-0.182959 -5.53292 0.973218 
3.13649 0.973218 -4.64763 
-5.09702 -0.0296096 3.03862 
-0.0296096 -5.1124 0.744579 
3.03862 0.744579 -5.3852 
-5.26494 -0.0920526 2.9997 
-0.0920526 -5.16486 1.00932 
2.9997 1.00932 -5.16483 
-7.98125 -0.0966913 2.83118 
-0.0966913 -8.05153 -0.00968956 
2.83118 -0.00968956 -8.15263 
-8.2165 -0.169501 2.83236 
-0.169501 -8.24242 0.222678 
2.83236 0.222678 -7.7265 
-8.19341 -0.0351835 3.15792 
-0.0351835 -8.26428 0.0800146 
3.15792 0.0800146 -7.72772 
-8.04675 -0.0984753 2.86278 
-0.0984753 -8.13001 0.111671 
2.86278 0.111671 -8.00864 
-2.4469 0.132593 3.19177 
0.132593 -1.70479 -1.07633 
3.19177 -1.07633 -2.94023 
-2.26688 -0.0297565 3.37783 
-0.0297565 -2.18669 -1.47684 
3.37783 -1.47684 -2.63834 
-2.09323 0.0352093 3.31874 
0.0352093 -2.03412 -1.31919 
3.31874 -1.31919 -2.96457 
-2.34431 -0.262727 3.13778 
-0.262727 -2.15352 -1.09198 
3.13778 -1.09198 -2.59409 
-8.00952 -0.19691 -2.60448 
-0.19691 -8.03501 -0.39834 
-2.60448 -0.39834 -7.60859 
-7.93458 0.0819632 -2.6562 
0.0819632 -7.76085 -0.486976 
-2.6562 -0.486976 -7.95769 
-8.04264 -0.128665 -2.68561 
-0.128665 -7.84279 -0.510101 
-2.68561 -0.510101 -7.76769 
-8.09006 -0.0400267 -2.85768 
-0.0400267 -7.95009 -0.240632 
-2.85768 -0.240632 -7.61298 
-2.95486 0.136796 -1.297 
0.136796 -2.75636 -0.687059 
-1.297 -0.687059 -3.39694 
-2.98703 -0.0167091 -0.676309 
-0.0167091 -3.07218 -0.440632 
-0.676309 -0.440632 -3.04896 
-3.51909 -0.560496 -0.522263 
-0.560496 -3.42709 -0.447722 
-0.522263 -0.447722 -2.16199 
-2.58266 0.307639 -0.217173 
0.307639 -2.5445 -0.38248 
-0.217173 -0.38248 -3.98101 
-6.09093 -0.0087435 -2.77771 
-0.0087435 -6.01265 -3.03646 
-2.77771 -3.03646 -5.95334 
-6.05172 -0.0633499 -2.78921 
-0.0633499 -6.23534 -3.17494 
-2.78921 -3.17494 -5.76986 
-6.07524 0.0565106 -2.97848 
0.0565106 -6.09318 -3.06016 
-2.97848 -3.06016 -5.8885 
-5.96455 0.0833554 -2.7988 
0.0833554 -5.8936 -3.03947 
-2.7988 -3.03947 -6.19876 
-6.6948 -0.126497 -1.62356 
-0.126497 -6.82941 -1.33148 
-1.62356 -1.33148 -7.19972 
-7.26298 0.0143976 -1.96146 
0.0143976 -7.07316 -1.48647 
-1.96146 -1.48647 -6.3878 
-7.07696 -0.262336 -1.96362 
-0.262336 -6.91357 -1.58264 
-1.96362 -1.58264 -6.73341 
-7.09564 0.117791 -2.27457 
0.117791 -7.19619 -1.6705 
-2.27457 -1.6705 -6.43211 
-8.89028 -0.181401 0.261008 
-0.181401 -8.57734 3.2837 
0.261008 3.2837 -9.16847 
-8.80273 0.0489845 0.381351 
0.0489845 -8.86091 3.36593 
0.381351 3.36593 -8.97245 
-8.85055 0.012802 0.735476 
0.012802 -8.65695 3.40262 
0.735476 3.40262 -9.12858 
-8.82887 -0.24769 0.94388 
-0.24769 -8.93909 3.4161 
0.94388 3.4161 -8.86813 
-5.64425 0.0513561 -2.45486 
0.0513561 -5.49495 2.79633 
-2.45486 2.79633 -6.20489 
-6.07465 -0.170986 -2.06366 
-0.170986 -6.30436 3.19234 
-2.06366 3.19234 -4.96507 
-5.7136 0.0388855 -2.1707 
0.0388855 -5.75549 2.95355 
-2.1707 2.95355 -5.875 
-5.64208 0.0818914 -2.06798 
0.0818914 -5.73198 2.95614 
-2.06798 2.95614 -5.97003 
-4.19805 0.162504 2.01131 
0.162504 -3.8983 -2.46627 
2.01131 -2.46627 -3.7571 
-4.14141 0.0567577 2.03201 
0.0567577 -3.86283 -2.37749 
2.03201 -2.37749 -3.8492 
-3.65387 -0.150735 1.76302 
-0.150735 -3.91288 -2.11674 
1.76302 -2.11674 -4.2867 
-4.06444 -0.107296 2.25206 
-0.107296 -4.20853 -2.44743 
2.25206 -2.44743 -3.58048 
-9.31547 0.1724 2.13801 
0.1724 -9.08146 -0.818577 
2.13801 -0.818577 -10.3865 
-9.73353 0.0380236 2.11172 
0.0380236 -9.58598 -1.16951 
2.11172 -1.16951 -9.46387 
-9.82045 -0.179995 2.06446 
-0.179995 -9.40889 -1.10665 
2.06446 -1.10665 -9.55405 
-9.79832 0.00892394 2.21137 
0.00892394 -9.6714 -1.22414 
2.21137 -1.22414 -9.31366 
-3.08272 -0.151096 0.593943 
-0.151096 -3.10186 1.32891 
0.593943 1.32891 -2.66518 
-3.08071 -0.0257642 0.644271 
-0.0257642 -3.12464 1.30568 
0.644271 1.30568 -2.64441 
-3.04352 -0.0185256 0.520501 
-0.0185256 -2.95264 1.08495 
0.520501 1.08495 -2.85361 
-3.32731 0.276577 0.819452 
0.276577 -3.06473 1.13636 
0.819452 1.13636 -2.45772 
-8.88203 0.0692987 -1.68777 
0.0692987 -8.41121 -0.694963 
-1.68777 -0.694963 -7.4647 
-8.27043 0.034926 -1.34729 
0.034926 -8.37711 -0.400869 
-1.34729 -0.400869 -8.1104 
-8.13487 0.00107039 -1.47444 
0.00107039 -8.22774 -0.488553 
-1.47444 -0.488553 -8.39533 
-8.33102 0.000505248 -1.38481 
0.000505248 -8.31504 -0.490163 
-1.38481 -0.490163 -8.11188 
-8.47782 0.268737 2.98513 
0.268737 -8.93029 -2.04429 
2.98513 -2.04429 -8.91089 
-8.83617 0.0587105 2.83551 
0.0587105 -8.72112 -1.89852 
2.83551 -1.89852 -8.7617 
-8.85277 0.0552009 2.86243 
0.0552009 -8.79636 -1.94279 
2.86243 -1.94279 -8.66986 
-8.7139 0.0824433 2.67248 
0.0824433 -8.95821 -1.68183 
2.67248 -1.68183 -8.64687 
-5.12806 -0.113149 1.72489 
-0.113149 -4.08885 0.116472 
1.72489 0.116472 -4.94801 
-4.56869 -0.0531945 1.93227 
-0.0531945 -4.35062 0.196451 
1.93227 0.196451 -5.24561 
-5.02019 -0.20894 1.90341 
-0.20894 -4.56171 -0.504324 
1.90341 -0.504324 -4.58301 
-4.76053 0.145485 1.74288 
0.145485 -5.22756 -0.287515 
1.74288 -0.287515 -4.17684 
-8.94862 -0.165743 2.41878 
-0.165743 -8.91256 -3.77251 
2.41878 -3.77251 -9.13306 
-9.038 -0.229519 2.42499 
-0.229519 -8.94165 -3.67025 
2.42499 -3.67025 -9.01459 
-8.55268 0.580667 1.8932 
0.580667 -8.67394 -3.45442 
1.8932 -3.45442 -9.76762 
-9.11296 0.120345 2.3801 
0.120345 -9.18835 -3.87483 
2.3801 -3.87483 -8.69294 
-3.8076 0.0244851 -0.707717 
0.0244851 -3.63831 -0.359063 
-0.707717 -0.359063 -3.61787 
-3.19445 -0.0247939 -0.856108 
-0.0247939 -3.5627 -0.895761 
-0.856108 -0.895761 -4.30661 
-3.43255 -0.0893766 -0.656673 
-0.0893766 -3.68551 -0.581387 
-0.656673 -0.581387 -3.94571 
-3.62435 0.105766 -0.755972 
0.105766 -3.58304 -0.451762 
-0.755972 -0.451762 -3.85638 
-1.83567 -0.180022 -0.42579 
-0.180022 -1.81135 1.74645 
-0.42579 1.74645 -1.50993 
-1.40792 0.208215 -0.662034 
0.208215 -1.59559 1.6432 
-0.662034 1.6432 -2.15343 
-1.75915 0.0446571 -0.637114 
0.0446571 -1.78921 1.61004 
-0.637114 1.61004 -1.60859 
-1.64512 0.13897 -0.526415 
0.13897 -1.57405 1.44475 
-0.526415 1.44475 -1.93777 
-1.32119 0.159627 0.00245661 
0.159627 -0.805854 -1.45767 
0.00245661 -1.45767 -0.943671 
-1.0941 0.0894845 0.0851702 
0.0894845 -0.8987 -1.59942 
0.0851702 -1.59942 -1.07791 
-1.17569 0.0715921 0.118122 
0.0715921 -1.01016 -1.63117 
0.118122 -1.63117 -0.884859 
-1.05009 0.107433 0.132217 
0.107433 -1.04706 -1.76868 
0.132217 -1.76868 -0.973561 
-1.74823 0.034273 -1.96224 
0.034273 -2.05229 -3.45919 
-1.96224 -3.45919 -1.95895 
-1.71485 -0.0511767 -2.03873 
-0.0511767 -1.87253 -3.76446 
-2.03873 -3.76446 -2.17209 
-2.04615 -0.0714119 -2.01691 
-0.0714119 -2.14405 -3.45874 
-2.01691 -3.45874 -1.56928 
-1.93356 -0.0848074 -2.05298 
-0.0848074 -2.04177 -3.68429 
-2.05298 -3.68429 -1.78415 
-6.58029 0.254329 -3.62758 
0.254329 -6.23798 -2.55292 
-3.62758 -2.55292 -6.74879 
-6.55631 0.0805897 -3.44457 
0.0805897 -6.43911 -2.22506 
-3.44457 -2.22506 -6.57164 
-6.42505 0.206184 -3.32706 
0.206184 -6.22566 -1.93053 
-3.32706 -1.93053 -6.91635 
-6.74494 -0.544493 -3.59372 
-0.544493 -7.01013 -2.12423 
-3.59372 -2.12423 -5.81199 
-8.06525 0.296639 2.03863 
0.296639 -7.81086 0.0789861 
2.03863 0.0789861 -7.52154 
-7.97608 0.175671 1.81199 
0.175671 -7.82428 -0.0516657 
1.81199 -0.0516657 -7.5973 
-8.06009 -0.0525771 1.82716 
-0.0525771 -8.12752 0.16118 
1.82716 0.16118 -7.21004 
-7.83681 0.330913 2.06743 
0.330913 -7.74231 -0.445614 
2.06743 -0.445614 -7.81853 
-8.26612 -0.388339 2.3815 
-0.388339 -8.60444 2.59834 
2.3815 2.59834 -9.35832 
-8.84649 -0.34227 2.20014 
-0.34227 -9.09334 2.13036 
2.20014 2.13036 -8.28906 
-8.79182 0.15116 2.17905 
0.15116 -8.68712 2.31316 
2.17905 2.31316 -8.74995 
-8.76789 0.110069 2.105 
0.110069 -8.64227 2.27947 
2.105 2.27947 -8.81872 
-5.3731 -0.0610824 0.435628 
-0.0610824 -5.72895 -4.35657 
0.435628 -4.35657 -5.33879 
-5.66579 0.120945 0.487733 
0.120945 -6.23754 -3.67022 
0.487733 -3.67022 -4.53751 
-5.50353 -0.123175 0.503082 
-0.123175 -5.21896 -4.23741 
0.503082 -4.23741 -5.71834 
-5.43828 0.116456 0.383322 
0.116456 -5.80919 -4.20653 
0.383322 -4.20653 -5.19336 
-9.31798 -0.0622782 -1.18993 
-0.0622782 -9.23069 -1.4018 
-1.18993 -1.4018 -10.1161 
-9.40665 -0.152773 -1.36679 
-0.152773 -9.4917 -1.48292 
-1.36679 -1.48292 -9.76641 
-9.49943 -0.0290814 -1.31645 
-0.0290814 -9.61491 -1.40483 
-1.31645 -1.40483 -9.55042 
-9.66107 0.0074559 -1.3879 
0.0074559 -9.63385 -1.41713 
-1.3879 -1.41713 -9.36983 
-7.91642 0.0195044 -0.834711 
0.0195044 -7.96663 -2.45406 
-0.834711 -2.45406 -8.13328 
-8.32924 0.148854 -0.96667 
0.148854 -7.99251 -2.8309 
-0.96667 -2.8309 -7.69459 
-8.11747 0.0431301 -0.917145 
0.0431301 -8.23343 -2.50233 
-0.917145 -2.50233 -7.66543 
-8.11741 -0.100511 -1.03496 
-0.100511 -7.93446 -2.64814 
-1.03496 -2.64814 -7.96447 
-5.01498 0.164298 0.67678 
0.164298 -5.5791 0.56096 
0.67678 0.56096 -5.98367 
-5.51569 0.079703 0.252082 
0.079703 -5.27427 0.404973 
0.252082 0.404973 -5.78779 
-5.92613 0.00541262 0.629505 
0.00541262 -5.21609 0.508238 
0.629505 0.508238 -5.43553 
-6.2022 -0.140994 0.86145 
-0.140994 -5.72156 0.433698 
0.86145 0.433698 -4.654 
-8.44357 0.339418 -2.74177 
0.339418 -8.62422 -1.4409 
-2.74177 -1.4409 -9.73369 
-9.04429 0.467713 -2.34007 
0.467713 -9.31019 -1.96115 
-2.34007 -1.96115 -8.447 
-8.94655 -0.27859 -2.61998 
-0.27859 -8.84717 -1.79094 
-2.61998 -1.79094 -9.00776 
-8.92136 -0.198664 -2.46288 
-0.198664 -8.80417 -2.01425 
-2.46288 -2.01425 -9.07595 
-6.87313 -0.0268375 -0.555684 
-0.0268375 -6.83311 4.14308 
-0.555684 4.14308 -6.94265 
-6.80563 0.156597 -0.619523 
0.156597 -7.12306 3.99411 
-0.619523 3.99411 -6.7202 
-6.64692 0.021541 -0.228582 
0.021541 -6.67081 4.24792 
-0.228582 4.24792 -7.33116 
-6.94362 -0.299857 -0.569973 
-0.299857 -6.50636 4.08465 
-0.569973 4.08465 -7.1989 
-1.691 0.14502 1.14833 
0.14502 -1.76486 1.59733 
1.14833 1.59733 -1.75868 
-1.63397 0.11944 1.13086 
0.11944 -1.67262 1.65399 
1.13086 1.65399 -1.90795 
-1.52387 -0.0755344 1.40016 
-0.0755344 -1.43836 1.70388 
1.40016 1.70388 -2.25231 
-1.67202 0.0234649 1.26623 
0.0234649 -1.61658 1.74754 
1.26623 1.74754 -1.92594 
-4.42862 -0.103504 -2.26903 
-0.103504 -4.43102 3.80841 
-2.26903 3.80841 -5.51442 
-4.90192 -0.237112 -2.46523 
-0.237112 -4.91488 3.59221 
-2.46523 3.59221 -4.55727 
-4.92967 -0.149321 -2.46266 
-0.149321 -4.99603 3.66056 
-2.46266 3.66056 -4.44837 
-5.05478 0.115164 -2.68624 
0.115164 -5.25355 3.10572 
-2.68624 3.10572 -4.06573 
-3.23358 -0.0519962 0.318148 
-0.0519962 -3.20245 2.22921 
0.318148 2.22921 -3.20605 
-3.44162 -0.0940439 0.792476 
-0.0940439 -4.05542 1.92086 
0.792476 1.92086 -2.14504 
-2.63426 -0.202925 0.456427 
-0.202925 -3.10069 2.51596 
0.456427 2.51596 -3.90713 
-3.27989 0.152582 0.241874 
0.152582 -3.2612 2.04374 
0.241874 2.04374 -3.10098 
-6.26026 0.0469375 -2.75154 
0.0469375 -6.40872 -2.68644 
-2.75154 -2.68644 -6.26785 
-6.44364 0.235413 -2.63109 
0.235413 -6.35488 -2.58993 
-2.63109 -2.58993 -6.13832 
-6.30105 0.0767083 -2.93689 
0.0767083 -6.20417 -2.8603 
-2.93689 -2.8603 -6.43162 
-6.2492 0.00707234 -2.60885 
0.00707234 -6.34469 -2.65351 
-2.60885 -2.65351 -6.34295 
-6.26999 -0.204375 -0.841818 
-0.204375 -6.37822 -1.30224 
-0.841818 -1.30224 -5.43647 
-5.73173 -0.204935 -1.544 
-0.204935 -5.78152 -1.42621 
-1.544 -1.42621 -6.57144 
-6.20282 -0.0234316 -1.08005 
-0.0234316 -5.8655 -1.18719 
-1.08005 -1.18719 -6.01637 
-5.91931 -0.0340264 -1.44545 
-0.0340264 -6.12224 -1.30355 
-1.44545 -1.30355 -6.04313 
-9.35004 -0.127931 -0.238697 
-0.127931 -9.48261 1.87968 
-0.238697 1.87968 -9.81918 
-9.49694 -0.0334053 -0.318916 
-0.0334053 -9.541 1.85308 
-0.318916 1.85308 -9.61389 
-9.34176 -0.137066 -0.413633 
-0.137066 -9.24515 1.7567 
-0.413633 1.7567 -10.0649 
-9.60538 0.00305673 -0.227394 
0.00305673 -9.62815 1.85613 
-0.227394 1.85613 -9.4183 
-8.10104 0.14158 1.19371 
0.14158 -8.15198 1.21966 
1.19371 1.21966 -8.14951 
-8.29168 -0.375198 1.24807 
-0.375198 -8.25369 1.22842 
1.24807 1.22842 -7.85716 
-8.13268 -0.015648 1.27791 
-0.015648 -8.22209 1.14838 
1.27791 1.14838 -8.04776 
-8.13231 -0.0198422 1.53983 
-0.0198422 -8.31576 0.825666 
1.53983 0.825666 -7.95447 
-8.8203 -0.058125 1.12242 
-0.058125 -8.83783 -1.34046 
1.12242 -1.34046 -8.88867 
-8.71364 0.267911 1.24111 
0.267911 -8.70075 -1.38456 
1.24111 -1.38456 -9.13241 
-8.95656 0.190664 1.06878 
0.190664 -8.93455 -1.20882 
1.06878 -1.20882 -8.65569 
-8.83272 -0.00828233 1.1835 
-0.00828233 -8.86849 -1.28086 
1.1835 -1.28086 -8.84558 
-0.978824 -0.0707708 -0.20753 
-0.0707708 -1.33672 1.09461 
-0.20753 1.09461 -0.900475 
-0.955766 0.111269 -0.674226 
0.111269 -1.17628 1.47839 
-0.674226 1.47839 -1.08397 
-0.870333 -0.00825273 -0.854724 
-0.00825273 -1.52254 1.40932 
-0.854724 1.40932 -0.823143 
-0.742427 0.129578 -0.10815 
0.129578 -1.21577 1.03588 
-0.10815 1.03588 -1.25782 
-7.37083 0.215188 -0.71047 
0.215188 -7.27999 0.0264743 
-0.71047 0.0264743 -6.69868 
-7.07345 -0.43284 -0.330013 
-0.43284 -6.93966 -0.0847078 
-0.330013 -0.0847078 -7.33638 
-7.07402 -0.37539 -0.650366 
-0.37539 -7.14882 0.118331 
-0.650366 0.118331 -7.12665 
-6.76099 -0.218561 -0.374774 
-0.218561 -7.00095 -0.435459 
-0.374774 -0.435459 -7.58756 
-4.6859 -0.0493697 2.47645 
-0.0493697 -4.70613 -1.6761 
2.47645 -1.6761 -5.0024 
-4.93137 -0.00478591 2.58853 
-0.00478591 -4.79167 -1.31246 
2.58853 -1.31246 -4.67139 
-4.91683 -0.0198049 2.48729 
-0.0198049 -4.81376 -1.62845 
2.48729 -1.62845 -4.66383 
-4.89509 -0.0126807 2.61749 
-0.0126807 -4.6681 -1.66037 
2.61749 -1.66037 -4.83123 
-3.02676 -0.0635079 2.26334 
-0.0635079 -2.52288 -1.47681 
2.26334 -1.47681 -2.39428 
-2.84746 -0.218569 1.89792 
-0.218569 -2.56743 -1.45474 
1.89792 -1.45474 -2.52903 
-2.90079 -0.127088 1.87094 
-0.127088 -2.40165 -1.30936 
1.87094 -1.30936 -2.64147 
-3.14257 -0.256723 2.60602 
-0.256723 -2.67159 -1.34502 
2.60602 -1.34502 -2.12976 
-3.74634 0.0726247 -2.47308 
0.0726247 -3.58667 -3.91614 
-2.47308 -3.91614 -0.96903 
-2.1994 -0.243045 -1.91964 
-0.243045 -1.48593 -4.06062 
-1.91964 -4.06062 -4.61671 
-2.75141 0.0393338 -1.75817 
0.0393338 -3.06134 -2.96311 
-1.75817 -2.96311 -2.48929 
-2.67957 -0.0140463 -1.54301 
-0.0140463 -2.92016 -3.38574 
-1.54301 -3.38574 -2.70232 
-3.17943 0.0385388 1.49511 
0.0385388 -3.1779 -1.0153 
1.49511 -1.0153 -3.04153 
-3.08935 0.00763166 1.46368 
0.00763166 -3.03877 -1.04669 
1.46368 -1.04669 -3.27073 
-3.18145 0.0232343 1.38872 
0.0232343 -3.09446 -1.08711 
1.38872 -1.08711 -3.12294 
-3.27741 -0.18442 1.63558 
-0.18442 -3.42841 -1.06494 
1.63558 -1.06494 -2.69304 
-3.60694 0.0136235 -1.92394 
0.0136235 -3.61735 -1.17322 
-1.92394 -1.17322 -3.67064 
-4.07822 -0.0376572 -1.94206 
-0.0376572 -3.50756 -1.39366 
-1.94206 -1.39366 -3.30916 
-3.57579 0.0333686 -1.89662 
0.0333686 -3.64039 -1.18133 
-1.89662 -1.18133 -3.67876 
-3.63287 -0.00405918 -2.0731 
-0.00405918 -3.24929 -1.22367 
-2.0731 -1.22367 -4.01278 
-2.85739 0.060408 -4.51817 
0.060408 -2.85015 0.986416 
-4.51817 0.986416 -1.30024 
-2.52727 0.378286 -3.7256 
0.378286 -2.50341 0.564198 
-3.7256 0.564198 -1.9771 
-1.69872 -0.252298 -4.29035 
-0.252298 -1.803 0.250402 
-4.29035 0.250402 -3.50606 
-2.43529 0.230134 -3.96876 
0.230134 -2.3343 0.804939 
-3.96876 0.804939 -2.23819 
-8.39633 -0.0275633 -2.25343 
-0.0275633 -8.14447 -0.373291 
-2.25343 -0.373291 -8.32591 
-8.69513 -0.175192 -2.48056 
-0.175192 -8.39942 0.0592214 
-2.48056 0.0592214 -7.77216 
-7.9581 0.0662148 -2.26879 
0.0662148 -8.17471 -0.607902 
-2.26879 -0.607902 -8.7339 
-8.40254 0.0276309 -2.32446 
0.0276309 -8.07043 -0.286018 
-2.32446 -0.286018 -8.39374 
-6.28603 -0.0542315 0.124003 
-0.0542315 -6.1423 3.92883 
0.124003 3.92883 -6.06935 
-6.38705 -0.0237686 -0.109647 
-0.0237686 -6.08502 4.19005 
-0.109647 4.19005 -6.02561 
-6.23477 -0.27987 0.196091 
-0.27987 -6.34375 4.06692 
0.196091 4.06692 -5.91915 
-6.29428 0.111646 0.0479807 
0.111646 -5.96191 3.92529 
0.0479807 3.92529 -6.24148 
-1.56756 -0.0382216 -1.71079 
-0.0382216 -1.65411 4.01296 
-1.71079 4.01296 -1.49994 
-1.57636 -0.0178213 -1.76491 
-0.0178213 -1.60274 3.92229 
-1.76491 3.92229 -1.5425 
-2.03465 -0.0120871 -1.71352 
-0.0120871 -1.84918 3.49715 
-1.71352 3.49715 -0.837777 
-1.33195 -0.0847769 -1.6391 
-0.0847769 -1.44413 4.09343 
-1.6391 4.09343 -1.94552 
-8.55894 -0.123411 2.14063 
-0.123411 -9.03608 -3.48466 
2.14063 -3.48466 -8.27935 
-8.39313 -0.13592 2.66198 
-0.13592 -8.62235 -3.79113 
2.66198 -3.79113 -8.8589 
-8.41987 0.152585 2.34466 
0.152585 -8.75187 -3.51968 
2.34466 -3.51968 -8.70263 
-8.19514 0.118268 2.36669 
0.118268 -8.72495 -3.63898 
2.36669 -3.63898 -8.95429 
-1.77721 -0.0176457 0.13875 
-0.0176457 -1.79246 -1.01496 
0.13875 -1.01496 -1.98017 
-1.68813 0.0363141 -0.181606 
0.0363141 -1.60957 -1.33331 
-0.181606 -1.33331 -2.25213 
-1.7794 -0.0301095 0.174211 
-0.0301095 -1.89435 -0.920741 
0.174211 -0.920741 -1.87608 
-1.7456 0.0209868 0.0713403 
0.0209868 -1.88716 -1.05697 
0.0713403 -1.05697 -1.91708 
-7.88569 0.0819399 2.98671 
0.0819399 -7.75969 0.563051 
2.98671 0.563051 -8.18456 
-8.07916 0.101082 3.3802 
0.101082 -8.16403 0.382647 
3.3802 0.382647 -7.58675 
-7.99505 0.0763495 3.07407 
0.0763495 -7.9383 0.597259 
3.07407 0.597259 -7.89659 
-7.86221 0.0472823 2.99324 
0.0472823 -8.11621 0.339589 
2.99324 0.339589 -7.85152 
-7.66531 0.048222 2.21325 
0.048222 -8.46742 -0.377163 
2.21325 -0.377163 -8.66617 
-8.71664 -0.032061 1.87029 
-0.032061 -8.33352 0.121499 
1.87029 0.121499 -7.74874 
-8.67702 -0.216798 1.97287 
-0.216798 -8.14097 -0.250959 
1.97287 -0.250959 -7.98091 
-8.2384 -0.218969 1.72113 
-0.218969 -8.03075 -0.191976 
1.72113 -0.191976 -8.52976 
-6.23887 -0.112641 0.793332 
-0.112641 -5.9828 -4.41388 
0.793332 -4.41388 -5.52874 
-5.5229 -0.135977 1.60349 
-0.135977 -5.71848 -4.2195 
1.60349 -4.2195 -6.50902 
-5.784 0.040772 1.15441 
0.040772 -6.19225 -4.12674 
1.15441 -4.12674 -5.77415 
-6.0406 -0.431701 0.329037 
-0.431701 -6.62164 -3.80074 
0.329037 -3.80074 -5.08816 
-2.45284 -0.223094 -3.33386 
-0.223094 -1.97521 0.74492 
-3.33386 0.74492 -1.73402 
-2.09781 -0.11146 -3.00884 
-0.11146 -2.1611 1.03216 
-3.00884 1.03216 -1.90316 
-1.59095 0.213076 -2.97497 
0.213076 -2.043 1.05702 
-2.97497 1.05702 -2.52813 
-1.8425 -0.0505346 -2.89878 
-0.0505346 -2.08081 0.809362 
-2.89878 0.809362 -2.23876 
-2.8681 0.376378 2.25072 
0.376378 -3.54471 -3.90642 
2.25072 -3.90642 -2.84437 
-3.31813 0.419707 2.19784 
0.419707 -3.53104 -4.03718 
2.19784 -4.03718 -2.40802 
-3.10362 -0.747453 2.46179 
-0.747453 -2.26217 -3.98805 
2.46179 -3.98805 -3.89139 
-2.8751 0.283968 1.50289 
0.283968 -2.95561 -2.93089 
1.50289 -2.93089 -3.42647 
-5.2648 0.00304927 -2.12333 
0.00304927 -5.19143 3.56516 
-2.12333 3.56516 -5.71419 
-5.5387 -0.0854232 -2.64325 
-0.0854232 -5.517 3.03274 
-2.64325 3.03274 -5.11471 
-5.89386 -0.116461 -2.68344 
-0.116461 -4.93196 3.21211 
-2.68344 3.21211 -5.34459 
-5.55787 0.19623 -2.25596 
0.19623 -5.07884 3.65786 
-2.25596 3.65786 -5.53371 
-6.35009 0.0957941 3.76163 
0.0957941 -6.51254 2.98191 
3.76163 2.98191 -8.83471 
-7.35993 0.220749 2.99758 
0.220749 -6.85455 1.69052 
2.99758 1.69052 -7.48286 
-8.16003 -0.119848 4.26042 
-0.119848 -8.10368 1.46373 
4.26042 1.46373 -5.43362 
-7.18634 0.31892 2.98298 
0.31892 -7.41269 2.07881 
2.98298 2.07881 -7.09831 
-6.6387 -0.147063 -2.19333 
-0.147063 -6.82017 -1.20824 
-2.19333 -1.20824 -7.15897 
-6.62126 -0.1008 -2.25959 
-0.1008 -6.96799 -1.50821 
-2.25959 -1.50821 -7.02859 
-6.68193 -0.0489691 -2.07771 
-0.0489691 -6.91715 -1.48525 
-2.07771 -1.48525 -7.01876 
-6.96557 -0.109166 -2.11517 
-0.109166 -6.87391 -1.54453 
-2.11517 -1.54453 -6.77836 
-5.96378 -0.179956 -2.96008 
-0.179956 -5.0931 -1.45603 
-2.96008 -1.45603 -5.06719 
-5.15613 -0.061966 -2.67217 
-0.061966 -5.5232 -1.13084 
-2.67217 -1.13084 -5.44475 
-5.25013 -0.143581 -2.83034 
-0.143581 -5.40935 -1.11846 
-2.83034 -1.11846 -5.4646 
-5.12787 -0.356655 -2.928 
-0.356655 -4.86984 -0.767016 
-2.928 -0.767016 -6.12636 
-5.1628 -0.367577 2.90833 
-0.367577 -5.86205 -1.18903 
2.90833 -1.18903 -5.01237 
-5.22026 -0.146918 2.53299 
-0.146918 -5.44452 -0.980306 
2.53299 -0.980306 -5.37244 
-5.07768 -0.118446 2.58723 
-0.118446 -5.10922 -0.856294 
2.58723 -0.856294 -5.85032 
-5.09965 0.00344726 2.94079 
0.00344726 -5.39881 -0.99003 
2.94079 -0.99003 -5.53876 
-3.01252 0.222102 -2.67585 
0.222102 -3.24627 -0.235362 
-2.67585 -0.235362 -3.02332 
-2.85428 -0.14434 -2.57439 
-0.14434 -3.10897 0.0263474 
-2.57439 0.0263474 -3.31885 
-3.42483 0.106475 -2.72549 
0.106475 -3.30099 -0.529655 
-2.72549 -0.529655 -2.55629 
-3.28558 0.236831 -2.43949 
0.236831 -3.39331 -0.31631 
-2.43949 -0.31631 -2.60322 
-6.84322 -0.161618 0.919636 
-0.161618 -7.055 -3.88794 
0.919636 -3.88794 -6.98203 
-6.76849 -0.327393 1.01557 
-0.327393 -6.86581 -4.45881 
1.01557 -4.45881 -7.24594 
-6.63836 -0.550793 1.37746 
-0.550793 -7.3976 -4.09716 
1.37746 -4.09716 -6.84428 
-6.58881 0.0961259 0.607935 
0.0961259 -6.73282 -4.04786 
0.607935 -4.04786 -7.55861 
-6.44578 -0.153296 -0.68332 
-0.153296 -6.22678 -2.47127 
-0.68332 -2.47127 -6.16934 
-5.82148 0.0457543 -1.27774 
0.0457543 -5.61005 -2.34751 
-1.27774 -2.34751 -7.41037 
-6.89435 0.0593149 -0.623407 
0.0593149 -6.73999 -2.01235 
-0.623407 -2.01235 -5.20756 
-6.12026 0.146415 -0.90222 
0.146415 -6.33506 -2.54802 
-0.90222 -2.54802 -6.38658 
-6.88914 0.0534776 -2.00015 
0.0534776 -6.90436 0.0681129 
-2.00015 0.0681129 -7.10481 
-6.0907 -0.292583 -1.60607 
-0.292583 -7.01145 0.138068 
-1.60607 0.138068 -7.79616 
-6.96316 0.0264224 -2.07443 
0.0264224 -6.81288 0.0146063 
-2.07443 0.0146063 -7.12227 
-7.11663 0.0631141 -1.88437 
0.0631141 -6.95376 0.0482351 
-1.88437 0.0482351 -6.82793 
-9.45682 0.0121526 1.51526 
0.0121526 -9.70877 0.604286 
1.51526 0.604286 -9.5092 
-9.03761 0.142511 1.23568 
0.142511 -9.18408 0.453587 
1.23568 0.453587 -10.4531 
-9.44732 -0.170165 1.54149 
-0.170165 -9.65367 0.583969 
1.54149 0.583969 -9.57381 
-9.675 -0.0235899 1.59327 
-0.0235899 -9.68757 0.440798 
1.59327 0.440798 -9.31222 
-3.57103 0.0730866 1.68014 
0.0730866 -3.39751 4.47928 
1.68014 4.47928 -0.715804 
-1.93306 -0.365532 1.3354 
-0.365532 -1.20958 4.35128 
1.3354 4.35128 -4.54171 
-2.65214 0.179124 1.17602 
0.179124 -2.85562 3.21663 
1.17602 3.21663 -2.17658 
-2.42432 -0.0640493 0.916534 
-0.0640493 -2.65398 3.75863 
0.916534 3.75863 -2.60605 
-1.16768 0.101913 -1.55679 
0.101913 -1.30355 -2.11181 
-1.55679 -2.11181 -1.0198 
-1.03986 -0.188518 -2.03293 
-0.188518 -1.73767 -2.1316 
-2.03293 -2.1316 -0.7135 
-1.33681 -0.00039911 -1.82356 
-0.00039911 -1.12795 -2.2954 
-1.82356 -2.2954 -1.02626 
-0.927076 -0.137062 -1.35366 
-0.137062 -1.15629 -2.17391 
-1.35366 -2.17391 -1.40765 
-7.79816 0.0139019 -1.50678 
0.0139019 -8.06728 1.93176 
-1.50678 1.93176 -8.23417 
-8.72041 0.0345703 -1.13746 
0.0345703 -8.29561 1.99348 
-1.13746 1.99348 -7.08359 
-7.94849 0.152537 -1.31891 
0.152537 -8.14847 2.03818 
-1.31891 2.03818 -8.00265 
-8.06387 0.0337066 -1.33016 
0.0337066 -8.15822 1.90375 
-1.33016 1.90375 -7.87752 
-6.74565 -0.16622 4.83003 
-0.16622 -7.6053 -0.557105 
4.83003 -0.557105 -8.44698 
-8.70504 0.375599 4.40773 
0.375599 -7.23133 -0.43398 
4.40773 -0.43398 -6.86156 
-7.61597 0.0153588 4.43692 
0.0153588 -7.51777 -0.456592 
4.43692 -0.456592 -7.66419 
-6.95478 -0.0391458 3.68562 
-0.0391458 -7.64629 0.152593 
3.68562 0.152593 -8.19686 
-6.80485 0.144615 4.50948 
0.144615 -6.9974 -1.26149 
4.50948 -1.26149 -8.92526 
-8.26206 0.24302 4.39562 
0.24302 -8.21667 0.0101572 
4.39562 0.0101572 -6.2488 
-7.58631 -0.276105 3.76695 
-0.276105 -7.23334 -0.713659 
3.76695 -0.713659 -7.90787 
-7.35878 -0.14706 3.87552 
-0.14706 -7.90961 -0.616273 
3.87552 -0.616273 -7.45912 
-8.17791 0.555094 -0.940125 
0.555094 -8.74511 1.66624 
-0.940125 1.66624 -9.83291 
-9.01132 0.00572205 -1.12527 
0.00572205 -8.86404 2.10005 
-1.12527 2.10005 -8.88056 
-8.72663 0.286917 -0.579572 
0.286917 -9.90225 2.04188 
-0.579572 2.04188 -8.12705 
-8.98812 0.0420835 -1.13475 
0.0420835 -8.86049 2.08174 
-1.13475 2.08174 -8.90731 
-6.22165 -0.0191028 -0.551443 
-0.0191028 -6.12866 -2.12069 
-0.551443 -2.12069 -6.29359 
-6.50445 0.119061 -0.798219 
0.119061 -6.74878 -2.17698 
-0.798219 -2.17698 -5.39066 
-5.70973 0.0357345 -0.742039 
0.0357345 -5.73302 -1.86186 
-0.742039 -1.86186 -7.20115 
-6.25815 0.0220625 -0.462039 
0.0220625 -6.08162 -2.09123 
-0.462039 -2.09123 -6.30413 
-6.73038 -0.216717 -1.20418 
-0.216717 -6.92344 -0.412799 
-1.20418 -0.412799 -7.41263 
-6.65408 -0.277204 -1.00321 
-0.277204 -7.24068 0.0111952 
-1.00321 0.0111952 -7.17169 
-7.39422 -0.0222417 -1.19901 
-0.0222417 -7.14075 -0.0635037 
-1.19901 -0.0635037 -6.53147 
-7.41867 -0.0315243 -1.14705 
-0.0315243 -7.12153 0.234602 
-1.14705 0.234602 -6.52625 
-7.93505 -0.117572 0.676298 
-0.117572 -8.07713 -3.58839 
0.676298 -3.58839 -8.06079 
-8.05289 0.0372136 0.575506 
0.0372136 -8.19942 -3.58173 
0.575506 -3.58173 -7.82066 
-8.2489 -0.129717 0.682021 
-0.129717 -8.38177 -3.45309 
0.682021 -3.45309 -7.4423 
-8.15514 0.0010695 0.826537 
0.0010695 -8.17174 -3.52616 
0.826537 -3.52616 -7.74608 
-8.7455 0.178732 3.51366 
0.178732 -8.84655 2.5237 
3.51366 2.5237 -8.85791 
-8.87042 -0.0178902 3.45656 
-0.0178902 -8.80936 2.51534 
3.45656 2.51534 -8.77017 
-8.86246 -0.243774 3.35217 
-0.243774 -8.3643 2.5207 
3.35217 2.5207 -9.2232 
-9.04428 -0.0823175 3.60666 
-0.0823175 -8.79538 2.64896 
3.60666 2.64896 -8.6103 
-6.49379 0.395521 -3.88038 
0.395521 -7.19871 -2.08693 
-3.88038 -2.08693 -7.20451 
-7.24008 -0.134951 -3.14752 
-0.134951 -6.99082 -2.79524 
-3.14752 -2.79524 -6.6661 
-6.60159 -0.354237 -3.49113 
-0.354237 -7.59148 -2.00228 
-3.49113 -2.00228 -6.70394 
-6.88565 0.136635 -3.17865 
0.136635 -7.16545 -2.50226 
-3.17865 -2.50226 -6.8459 
-8.23154 -0.0117029 -2.43843 
-0.0117029 -8.19734 -1.91377 
-2.43843 -1.91377 -8.33027 
-8.39782 0.0337307 -2.40468 
0.0337307 -8.30168 -1.87724 
-2.40468 -1.87724 -8.05964 
-8.32464 -0.120275 -2.69896 
-0.120275 -8.73517 -2.01413 
-2.69896 -2.01413 -7.69933 
-8.36433 -0.039924 -2.63769 
-0.039924 -8.28175 -1.80598 
-2.63769 -1.80598 -8.11307 
-4.20801 0.153009 -1.20698 
0.153009 -4.6968 -0.155824 
-1.20698 -0.155824 -4.90739 
-4.45605 0.131657 -1.34113 
0.131657 -4.66081 -0.356854 
-1.34113 -0.356854 -4.69534 
-4.737 -0.0717225 -1.42408 
-0.0717225 -4.68782 -0.298792 
-1.42408 -0.298792 -4.38738 
-4.19822 0.100962 -0.968069 
0.100962 -4.31919 -0.193041 
-0.968069 -0.193041 -5.29479 
-7.93616 0.0891424 -1.33466 
0.0891424 -7.85514 -2.60166 
-1.33466 -2.60166 -8.07796 
-7.94888 -0.0181345 -1.33436 
-0.0181345 -8.11312 -2.42678 
-1.33436 -2.42678 -7.80725 
-7.88397 0.130091 -1.27108 
0.130091 -8.16096 -2.67278 
-1.27108 -2.67278 -7.82433 
-7.99343 -0.0182208 -1.11022 
-0.0182208 -8.06945 -2.52936 
-1.11022 -2.52936 -7.80637 
-7.33305 -0.272913 -2.29143 
-0.272913 -6.58566 0.755129 
-2.29143 0.755129 -4.96347 
-6.30044 -0.0909903 -1.71526 
-0.0909903 -6.58362 0.0105876 
-1.71526 0.0105876 -5.99813 
-6.35031 -0.108226 -2.18403 
-0.108226 -5.47945 0.0562239 
-2.18403 0.0562239 -7.05242 
-6.32908 0.0334047 -1.90001 
0.0334047 -6.37816 0.117157 
-1.90001 0.117157 -6.17494 
-8.56932 -0.667691 1.54988 
-0.667691 -8.68899 -0.383369 
1.54988 -0.383369 -9.31135 
-8.58216 -0.101779 1.79256 
-0.101779 -9.01712 0.334269 
1.79256 0.334269 -8.97039 
-8.85011 -0.26434 1.75806 
-0.26434 -8.75525 -0.259268 
1.75806 -0.259268 -8.96431 
-9.01482 -0.231208 1.86276 
-0.231208 -9.03305 0.582425 
1.86276 0.582425 -8.5218 
-5.49525 -0.0663981 0.647579 
-0.0663981 -5.48518 -2.66391 
0.647579 -2.66391 -4.86047 
-5.04417 0.165181 0.238943 
0.165181 -5.11989 -3.14895 
0.238943 -3.14895 -5.67685 
-4.61652 -0.073528 0.578617 
-0.073528 -5.14079 -3.58538 
0.578617 -3.58538 -6.0836 
-5.23801 -0.261513 0.484566 
-0.261513 -5.12861 -2.90257 
0.484566 -2.90257 -5.47428 
-8.01224 -0.0606605 -3.74338 
-0.0606605 -7.96975 -0.329788 
-3.74338 -0.329788 -8.07733 
-8.25387 -0.0720314 -3.70242 
-0.0720314 -8.15492 -0.259078 
-3.70242 -0.259078 -7.65053 
-8.12059 -0.0428224 -3.68963 
-0.0428224 -8.0556 -0.399521 
-3.68963 -0.399521 -7.88313 
-7.99388 -0.0944193 -3.89927 
-0.0944193 -8.06357 -0.297595 
-3.89927 -0.297595 -8.00187 
-7.63927 -0.145093 4.05869 
-0.145093 -7.38028 -0.236199 
4.05869 -0.236199 -7.29069 
-7.14015 0.267947 4.39861 
0.267947 -7.47038 0.593651 
4.39861 0.593651 -7.6997 
-7.40089 0.535025 3.92089 
0.535025 -7.24078 0.182693 
3.92089 0.182693 -7.66857 
-7.3064 0.167873 4.37775 
0.167873 -7.37371 0.150729 
4.37775 0.150729 -7.63013 
-8.17953 0.11966 2.34362 
0.11966 -7.51842 -3.467 
2.34362 -3.467 -7.89812 
-8.04285 -0.150931 2.15259 
-0.150931 -7.65257 -3.56667 
2.15259 -3.56667 -7.90065 
-8.19913 -0.021331 2.16611 
-0.021331 -7.59348 -3.78307 
2.16611 -3.78307 -7.80346 
-8.05106 -0.15203 2.57304 
-0.15203 -7.51897 -3.40913 
2.57304 -3.40913 -8.02603 
-5.24978 -0.131742 -2.9964 
-0.131742 -5.58871 0.925032 
-2.9964 0.925032 -5.8915 
-5.2544 -0.327431 -2.85584 
-0.327431 -5.74178 1.16656 
-2.85584 1.16656 -5.73381 
-5.42657 0.0530072 -3.1492 
0.0530072 -5.23845 1.3034 
-3.1492 1.3034 -6.06497 
-5.73429 -0.00658291 -2.63522 
-0.00658291 -5.75004 1.29044 
-2.63522 1.29044 -5.24566 
-6.28872 -0.100218 -3.62329 
-0.100218 -6.30875 2.34015 
-3.62329 2.34015 -6.21912 
-6.2417 -0.32178 -4.17265 
-0.32178 -5.97993 1.71556 
-4.17265 1.71556 -6.59496 
-6.45071 0.0335957 -3.76873 
0.0335957 -6.17852 2.07739 
-3.76873 2.07739 -6.18736 
-6.15426 0.166275 -3.23239 
0.166275 -6.67632 2.33031 
-3.23239 2.33031 -5.986 
-1.901 0.0793485 4.12165 
0.0793485 -1.84693 -0.192822 
4.12165 -0.192822 -1.82166 
-2.08781 -0.00993815 4.05899 
-0.00993815 -1.88966 -0.122456 
4.05899 -0.122456 -1.59212 
-1.67908 0.00617917 4.26595 
0.00617917 -1.6701 -0.232281 
4.26595 -0.232281 -2.2204 
-1.80476 0.0765008 4.24669 
0.0765008 -1.91052 -0.0913947 
4.24669 -0.0913947 -1.8543 
-8.17587 0.0803923 3.84943 
0.0803923 -8.19232 1.62887 
3.84943 1.62887 -8.42772 
-8.11988 0.11968 3.63996 
0.11968 -8.58417 1.58547 
3.63996 1.58547 -8.09186 
-8.37028 -0.0697985 3.96737 
-0.0697985 -8.34858 1.66368 
3.96737 1.66368 -8.07705 
-8.26364 0.163988 3.83267 
0.163988 -8.24338 1.73064 
3.83267 1.73064 -8.28889 
-6.43463 -0.00860424 -3.2191 
-0.00860424 -6.34709 -3.08514 
-3.2191 -3.08514 -6.48246 
-6.46067 -0.0655595 -3.23269 
-0.0655595 -6.26454 -3.10765 
-3.23269 -3.10765 -6.53897 
-6.54977 -0.0121786 -3.07568 
-0.0121786 -6.5002 -3.16119 
-3.07568 -3.16119 -6.21422 
-6.17435 0.00863769 -3.16597 
0.00863769 -6.19864 -2.81454 
-3.16597 -2.81454 -6.89119 
-1.42012 -0.0815314 -1.36141 
-0.0815314 -1.32048 -1.64255 
-1.36141 -1.64255 -1.04312 
-1.2953 0.0299633 -1.21086 
0.0299633 -1.31247 -1.69006 
-1.21086 -1.69006 -1.17596 
-1.37899 -0.233862 -1.15874 
-0.233862 -0.784906 -1.84798 
-1.15874 -1.84798 -1.61983 
-1.2111 0.0696396 -1.29124 
0.0696396 -1.29904 -1.74829 
-1.29124 -1.74829 -1.27359 
-6.58239 0.171642 2.4495 
0.171642 -6.60872 -0.885969 
2.4495 -0.885969 -7.47268 
-6.7952 0.134285 1.855 
0.134285 -7.16614 -1.02297 
1.855 -1.02297 -6.70246 
-7.01516 0.0942521 2.05209 
0.0942521 -6.71914 -1.03515 
2.05209 -1.03515 -6.92951 
-6.99438 0.0141325 2.02351 
0.0141325 -6.59874 -1.08287 
2.02351 -1.08287 -7.07067 
-9.34046 0.0437062 3.29708 
0.0437062 -9.31269 1.43572 
3.29708 1.43572 -9.76076 
-9.2945 -0.0429855 3.18958 
-0.0429855 -9.2956 1.48703 
3.18958 1.48703 -9.82381 
-9.39924 -0.0521156 3.19882 
-0.0521156 -9.34454 1.37629 
3.19882 1.37629 -9.67012 
-9.49435 -0.0706067 3.28357 
-0.0706067 -9.49298 1.34458 
3.28357 1.34458 -9.42659 
-4.58437 0.147755 -3.25319 
0.147755 -4.72032 -0.592275 
-3.25319 -0.592275 -5.03052 
-4.65218 -0.214162 -2.90422 
-0.214162 -4.87185 -0.732513 
-2.90422 -0.732513 -4.81118 
-4.56408 -0.231771 -2.98366 
-0.231771 -5.17103 -0.86593 
-2.98366 -0.86593 -4.6001 
-4.94286 -0.0365368 -2.62282 
-0.0365368 -5.5536 -1.12459 
-2.62282 -1.12459 -3.83876 
-4.48106 -0.0139489 2.64583 
-0.0139489 -4.54514 -3.39276 
2.64583 -3.39276 -4.50311 
-4.3897 -0.0440845 2.80004 
-0.0440845 -4.56477 -3.19207 
2.80004 -3.19207 -4.57484 
-4.4924 -0.00246392 2.56518 
-0.00246392 -4.49504 -3.15623 
2.56518 -3.15623 -4.54187 
-4.56745 -0.0365789 2.71133 
-0.0365789 -4.70572 -3.32302 
2.71133 -3.32302 -4.25614 
-4.08373 -0.121044 -1.79948 
-0.121044 -4.06668 0.190279 
-1.79948 0.190279 -3.78919 
-3.81096 0.130455 -1.66422 
0.130455 -4.01735 0.243544 
-1.66422 0.243544 -4.11129 
-4.39515 0.0835084 -1.40783 
0.0835084 -3.65998 -0.365097 
-1.40783 -0.365097 -3.88447 
-4.25827 0.243621 -1.27772 
0.243621 -3.495 -0.221644 
-1.27772 -0.221644 -4.18633 
-4.25042 0.141213 3.82402 
0.141213 -4.05513 1.52845 
3.82402 1.52845 -3.85973 
-3.90306 0.0776708 3.96957 
0.0776708 -3.99589 1.24118 
3.96957 1.24118 -4.26633 
-3.99339 0.231581 3.73839 
0.231581 -4.00723 1.52246 
3.73839 1.52246 -4.16465 
-4.39284 -0.304787 3.53608 
-0.304787 -4.05601 1.38374 
3.53608 1.38374 -3.71642 
-5.56876 -0.0129706 -1.47922 
-0.0129706 -5.56336 -2.56734 
-1.47922 -2.56734 -5.47311 
-5.45814 -0.0809012 -1.56529 
-0.0809012 -5.77855 -2.60894 
-1.56529 -2.60894 -5.36854 
-5.35233 -0.00698581 -1.36251 
-0.00698581 -5.50341 -2.67356 
-1.36251 -2.67356 -5.74949 
-5.84844 -0.0489227 -1.12591 
-0.0489227 -6.02389 -2.85179 
-1.12591 -2.85179 -4.73291 
-8.10879 0.0961414 -3.16894 
0.0961414 -8.18994 -0.846564 
-3.16894 -0.846564 -8.19675 
-8.34002 0.0467007 -3.22543 
0.0467007 -8.17095 -0.482107 
-3.22543 -0.482107 -7.9845 
-8.36571 0.0438275 -3.09466 
0.0438275 -8.27114 -0.65992 
-3.09466 -0.65992 -7.85863 
-8.27583 -0.104027 -2.97911 
-0.104027 -8.16485 -0.660076 
-2.97911 -0.660076 -8.05479 
-6.37867 0.100876 -2.14601 
0.100876 -6.4994 3.28136 
-2.14601 3.28136 -6.77577 
-6.84762 -0.0116915 -1.52787 
-0.0116915 -6.40795 2.88447 
-1.52787 2.88447 -6.39827 
-6.66008 -0.134835 -1.75757 
-0.134835 -6.63585 3.20949 
-1.75757 3.20949 -6.35791 
-6.68946 -0.115525 -1.38909 
-0.115525 -6.779 3.05495 
-1.38909 3.05495 -6.18538 
-8.05349 0.172042 -0.950158 
0.172042 -7.87576 -3.79105 
-0.950158 -3.79105 -8.45677 
-8.22959 -0.0321177 -0.99073 
-0.0321177 -8.33076 -4.12469 
-0.99073 -4.12469 -7.82567 
-8.27936 0.024848 -0.891481 
0.024848 -7.97891 -3.96162 
-0.891481 -3.96162 -8.12775 
-8.14057 0.0256428 -1.00744 
0.0256428 -8.04973 -4.11618 
-1.00744 -4.11618 -8.19572 
-8.2254 -0.198827 -0.530637 
-0.198827 -8.32462 2.82627 
-0.530637 2.82627 -8.07729 
-8.0389 -0.167457 -0.615917 
-0.167457 -8.27999 2.83189 
-0.615917 2.83189 -8.30842 
-8.07939 0.0777595 -0.46313 
0.0777595 -8.10249 2.7823 
-0.46313 2.7823 -8.44543 
-8.40833 -0.161592 -0.800346 
-0.161592 -8.31305 3.0771 
-0.800346 3.0771 -7.90592 
-7.10444 0.00263962 -2.17596 
0.00263962 -7.63372 -0.576566 
-2.17596 -0.576566 -6.95267 
-6.71964 -0.00157163 -2.50954 
-0.00157163 -7.75741 0.2205 
-2.50954 0.2205 -7.21379 
-6.90097 0.16459 -2.49748 
0.16459 -7.64666 -0.411155 
-2.49748 -0.411155 -7.14321 
-7.22276 0.060331 -2.53605 
0.060331 -6.75424 0.175417 
-2.53605 0.175417 -7.71384 
-3.06738 -0.278409 -4.76032 
-0.278409 -3.68214 0.457132 
-4.76032 0.457132 -4.17441 
-4.90392 0.380031 -4.35458 
0.380031 -3.48115 0.670242 
-4.35458 0.670242 -2.53886 
-3.55674 -0.0591 -4.47203 
-0.0591 -3.76717 0.391267 
-4.47203 0.391267 -3.60003 
-3.25273 -0.310609 -3.7542 
-0.310609 -3.77863 -0.0879603 
-3.7542 -0.0879603 -3.89258 
-3.75989 0.0462991 2.75321 
0.0462991 -3.49278 -0.196498 
2.75321 -0.196498 -3.82897 
-4.1671 -0.331577 2.99799 
-0.331577 -3.69863 0.683117 
2.99799 0.683117 -3.21592 
-3.55507 -0.399374 2.42376 
-0.399374 -3.19291 -0.271738 
2.42376 -0.271738 -4.33365 
-3.6439 -0.335711 2.89098 
-0.335711 -3.63346 0.432423 
2.89098 0.432423 -3.80428 
-2.59103 -0.0971602 -0.122596 
-0.0971602 -2.81395 -4.58754 
-0.122596 -4.58754 -3.00064 
-2.71604 -0.119404 -0.107075 
-0.119404 -2.85913 -4.53912 
-0.107075 -4.53912 -2.83045 
-2.83879 -0.0889777 -0.079838 
-0.0889777 -3.03464 -4.63565 
-0.079838 -4.63565 -2.53219 
-2.71757 0.000330093 -0.191921 
0.000330093 -2.73074 -4.4134 
-0.191921 -4.4134 -2.95732 
-8.31003 0.0436976 -3.30454 
0.0436976 -8.27468 1.703 
-3.30454 1.703 -7.94527 
-8.26069 0.0872144 -3.29827 
0.0872144 -8.1801 1.68895 
-3.29827 1.68895 -8.08918 
-8.22059 -0.0289094 -3.35942 
-0.0289094 -8.13023 1.67279 
-3.35942 1.67279 -8.17915 
-8.26048 0.0370714 -3.18124 
0.0370714 -8.25605 1.77296 
-3.18124 1.77296 -8.01344 
-5.43144 -0.0656409 1.75764 
-0.0656409 -5.21341 0.0771 
1.75764 0.0771 -5.61682 
-5.10352 0.16467 1.86278 
0.16467 -5.21007 -0.602823 
1.86278 -0.602823 -5.94808 
-5.7693 -0.330492 1.54817 
-0.330492 -5.97068 -0.00817744 
1.54817 -0.00817744 -4.52169 
-5.51403 -0.143682 1.76216 
-0.143682 -5.40374 -0.14514 
1.76216 -0.14514 -5.3439 
-2.02437 0.0979147 -1.79222 
0.0979147 -2.16589 -1.7581 
-1.79222 -1.7581 -1.73898 
-2.1127 -0.12668 -1.66552 
-0.12668 -1.64897 -2.07961 
-1.66552 -2.07961 -2.16757 
-2.24257 0.0242565 -1.66943 
0.0242565 -1.8615 -1.92843 
-1.66943 -1.92843 -1.82516 
-1.9368 -0.0213829 -1.3945 
-0.0213829 -1.80924 -1.98786 
-1.3945 -1.98786 -2.1832 
-6.26355 0.0261991 -3.71907 
0.0261991 -6.24687 -0.919354 
-3.71907 -0.919354 -6.2923 
-6.31252 -0.0665796 -3.53026 
-0.0665796 -6.31223 -0.993642 
-3.53026 -0.993642 -6.17797 
-6.2294 0.152813 -3.74588 
0.152813 -6.6305 -0.832087 
-3.74588 -0.832087 -5.94282 
-6.25846 -0.041998 -3.60502 
-0.041998 -6.2131 -0.863909 
-3.60502 -0.863909 -6.33116 
-8.21071 -0.323619 -0.00297071 
-0.323619 -8.26265 2.32469 
-0.00297071 2.32469 -8.56322 
-8.55145 0.0984808 -0.0204712 
0.0984808 -8.51233 1.81287 
-0.0204712 1.81287 -7.9728 
-8.51011 0.270685 0.211049 
0.270685 -8.3102 2.12499 
0.211049 2.12499 -8.21626 
-8.45484 0.0517179 0.22816 
0.0517179 -8.11427 2.05499 
0.22816 2.05499 -8.46747 
-7.0672 0.0613506 -3.93745 
0.0613506 -6.89894 1.76028 
-3.93745 1.76028 -7.02799 
-7.44936 -0.176868 -3.89575 
-0.176868 -6.81266 2.55437 
-3.89575 2.55437 -6.7321 
-6.89348 -0.134688 -3.71083 
-0.134688 -7.0512 2.18904 
-3.71083 2.18904 -7.04944 
-6.73352 0.26402 -3.62444 
0.26402 -7.11584 1.60117 
-3.62444 1.60117 -7.14476 
-5.54657 -0.165533 1.0446 
-0.165533 -5.46386 -0.632451 
1.0446 -0.632451 -4.85051 
-5.2409 -0.248526 1.25563 
-0.248526 -5.4264 -0.834318 
1.25563 -0.834318 -5.19363 
-5.07941 0.064251 1.45469 
0.064251 -5.15651 -0.649265 
1.45469 -0.649265 -5.62501 
-5.13937 -0.0316701 1.18111 
-0.0316701 -5.15486 -0.651055 
1.18111 -0.651055 -5.5667 
-0.803092 0.159277 -2.86164 
0.159277 -2.02455 -2.12208 
-2.86164 -2.12208 -0.469771 
-1.30494 -0.0948357 -2.79394 
-0.0948357 -1.08147 -2.224 
-2.79394 -2.224 -0.911009 
-0.969725 -0.000333629 -2.62239 
-0.000333629 -1.21123 -2.13178 
-2.62239 -2.13178 -1.11646 
-1.12608 0.0228636 -2.90052 
0.0228636 -1.07062 -2.18155 
-2.90052 -2.18155 -1.10071 
-3.42218 -0.0317337 -1.18569 
-0.0317337 -3.07992 2.37213 
-1.18569 2.37213 -2.87899 
-3.49233 0.139476 -1.54331 
0.139476 -3.22806 2.76889 
-1.54331 2.76889 -2.6607 
-3.35456 0.441093 -0.49095 
0.441093 -3.76371 2.02786 
-0.49095 2.02786 -2.26281 
-2.84644 -0.27512 -1.09744 
-0.27512 -2.69731 2.61061 
-1.09744 2.61061 -3.83733 
-5.01152 -0.178575 -2.85803 
-0.178575 -4.87198 0.923533 
-2.85803 0.923533 -4.33884 
-4.85724 0.05283 -2.75116 
0.05283 -5.1216 1.3353 
-2.75116 1.3353 -4.2435 
-4.94581 -0.00722367 -3.196 
-0.00722367 -3.80566 1.5458 
-3.196 1.5458 -5.47087 
-4.99675 -0.227951 -2.75684 
-0.227951 -4.44483 1.28354 
-2.75684 1.28354 -4.78077 
-1.51555 -0.0881252 -0.644666 
-0.0881252 -1.09121 -3.93688 
-0.644666 -3.93688 -0.294788 
-0.917708 0.0111435 -0.510553 
0.0111435 -1.2644 -4.17425 
-0.510553 -4.17425 -0.719448 
-1.18278 -0.110164 -0.491296 
-0.110164 -1.06067 -4.10241 
-0.491296 -4.10241 -0.658094 
-1.03928 0.00346278 -0.527315 
0.00346278 -1.00848 -4.27514 
-0.527315 -4.27514 -0.853793 
-6.2092 -0.0730852 -3.80804 
-0.0730852 -5.56154 -2.21428 
-3.80804 -2.21428 -5.72824 
-6.3031 -0.22996 -3.05061 
-0.22996 -5.9299 -2.09762 
-3.05061 -2.09762 -5.26598 
-5.29513 0.287644 -3.58934 
0.287644 -5.79063 -2.32356 
-3.58934 -2.32356 -6.41322 
-6.01908 -0.236639 -3.22828 
-0.236639 -5.83691 -2.34569 
-3.22828 -2.34569 -5.64299 
-3.80292 0.0589096 -2.4235 
0.0589096 -4.02994 -1.2197 
-2.4235 -1.2197 -3.97922 
-3.95144 -0.00322439 -2.39882 
-0.00322439 -3.97748 -1.29452 
-2.39882 -1.29452 -3.88316 
-3.89813 -0.0904233 -2.32895 
-0.0904233 -3.96779 -1.32936 
-2.32895 -1.32936 -3.94616 
-4.02738 0.118277 -2.38388 
0.118277 -3.46559 -1.31674 
-2.38388 -1.31674 -4.31912 
-8.89673 -0.364752 -0.691024 
-0.364752 -8.4505 -0.0279993 
-0.691024 -0.0279993 -9.17205 
-8.92587 0.145837 -0.215511 
0.145837 -8.65697 0.00324615 
-0.215511 0.00324615 -8.93644 
-8.90745 -0.00119694 -0.155002 
-0.00119694 -8.9889 -0.05439 
-0.155002 -0.05439 -8.62292 
-8.95366 -0.242377 -0.715772 
-0.242377 -8.83392 -0.0250366 
-0.715772 -0.0250366 -8.73169 
-6.73931 -0.0745042 4.06126 
-0.0745042 -6.94672 0.308687 
4.06126 0.308687 -6.87537 
-6.64578 0.0294334 4.16466 
0.0294334 -6.95189 0.438272 
4.16466 0.438272 -6.96372 
-6.99154 0.0271766 4.07265 
0.0271766 -6.87056 0.383066 
4.07265 0.383066 -6.69929 
-6.64174 0.0121874 4.00314 
0.0121874 -6.65863 0.437635 
4.00314 0.437635 -7.26103 
-4.90176 -0.0173758 1.30587 
-0.0173758 -5.0599 1.93038 
1.30587 1.93038 -4.79339 
-5.43487 0.237487 1.40243 
0.237487 -4.96161 1.47671 
1.40243 1.47671 -4.35857 
-4.67052 0.151384 1.37482 
0.151384 -5.17342 2.01675 
1.37482 2.01675 -4.91111 
-4.40702 0.26898 1.57336 
0.26898 -4.35128 2.1899 
1.57336 2.1899 -5.99675 
-5.28019 -0.0119968 -3.01384 
-0.0119968 -5.27658 1.15327 
-3.01384 1.15327 -5.72956 
-5.01858 -0.00643201 -2.66977 
-0.00643201 -5.29811 1.27166 
-2.66977 1.27166 -5.96963 
-5.56053 0.296121 -3.0216 
0.296121 -5.32122 1.2898 
-3.0216 1.2898 -5.40457 
-5.49631 0.167608 -3.31034 
0.167608 -5.73447 1.27026 
-3.31034 1.27026 -5.05554 
-6.17857 0.168613 -0.938491 
0.168613 -6.89509 -0.378802 
-0.938491 -0.378802 -5.81784 
-6.28317 -0.0466584 -1.14529 
-0.0466584 -6.19972 -0.417175 
-1.14529 -0.417175 -6.40861 
-6.27911 0.0118662 -1.00392 
0.0118662 -6.29815 -0.355527 
-1.00392 -0.355527 -6.31424 
-6.40153 -0.0964688 -1.14494 
-0.0964688 -6.23241 -0.30491 
-1.14494 -0.30491 -6.25756 
-1.97506 -0.0534965 -4.06447 
-0.0534965 -1.84134 -0.19205 
-4.06447 -0.19205 -1.9586 
-1.68053 -0.0212484 -4.25705 
-0.0212484 -1.87165 -0.205679 
-4.25705 -0.205679 -2.22282 
-2.21425 0.0518038 -3.96096 
0.0518038 -1.86969 -0.159761 
-3.96096 -0.159761 -1.69106 
-1.89644 -0.0459472 -4.21809 
-0.0459472 -1.88193 -0.064647 
-4.21809 -0.064647 -1.99664 
-7.60221 0.0521254 -0.392716 
0.0521254 -6.79535 -4.67545 
-0.392716 -4.67545 -7.89525 
-7.5657 -0.412311 -0.589159 
-0.412311 -7.05579 -3.72498 
-0.589159 -3.72498 -7.67131 
-7.43971 -0.0912495 -1.79095 
-0.0912495 -7.89641 -3.88224 
-1.79095 -3.88224 -6.95668 
-7.71342 0.196619 -1.17684 
0.196619 -7.15141 -3.75059 
-1.17684 -3.75059 -7.42797 
-1.90031 0.116813 -1.43851 
0.116813 -2.15803 3.72936 
-1.43851 3.72936 -1.57212 
-1.79166 -0.0802842 -1.40446 
-0.0802842 -1.60528 4.03016 
-1.40446 4.03016 -2.23352 
-1.80773 -0.0579292 -1.39226 
-0.0579292 -1.92583 3.88442 
-1.39226 3.88442 -1.89691 
-1.81313 -0.0114217 -1.55174 
-0.0114217 -1.85648 3.93573 
-1.55174 3.93573 -1.96086 
-8.71573 0.143729 -2.13761 
0.143729 -8.7659 3.33129 
-2.13761 3.33129 -9.40468 
-8.85298 0.084796 -2.42029 
0.084796 -8.84287 3.69872 
-2.42029 3.69872 -9.19047 
-8.89773 -0.140586 -2.09749 
-0.140586 -8.9607 3.46645 
-2.09749 3.46645 -9.02789 
-8.93166 0.00652339 -2.50451 
0.00652339 -9.10768 3.8325 
-2.50451 3.8325 -8.84698 
-8.46112 0.357651 2.52231 
0.357651 -8.72102 0.895266 
2.52231 0.895266 -9.16654 
-8.84433 0.147478 2.14982 
0.147478 -8.99852 1.15309 
2.14982 1.15309 -8.50582 
-8.86153 0.000342593 2.26858 
0.000342593 -8.64773 1.09788 
2.26858 1.09788 -8.83941 
-8.74075 0.0735799 2.4736 
0.0735799 -8.83822 1.02451 
2.4736 1.02451 -8.7697 
-1.91811 0.0489914 -2.22441 
0.0489914 -2.3065 3.44179 
-2.22441 3.44179 -1.80756 
-1.99473 -0.0236251 -2.16769 
-0.0236251 -2.05864 3.56318 
-2.16769 3.56318 -1.97879 
-1.95303 0.00099929 -2.24684 
0.00099929 -2.0204 3.66478 
-2.24684 3.66478 -2.05872 
-1.76848 0.00950845 -2.11384 
0.00950845 -1.98859 3.64396 
-2.11384 3.64396 -2.27509 
-8.32769 -0.0629978 0.405423 
-0.0629978 -8.18198 -0.22506 
0.405423 -0.22506 -8.60436 
-8.74269 -0.030112 0.191434 
-0.030112 -8.53281 -0.636863 
0.191434 -0.636863 -7.83852 
-8.6008 -0.314601 0.183922 
-0.314601 -8.3528 -0.229096 
0.183922 -0.229096 -8.16042 
-8.4555 -0.108513 0.341086 
-0.108513 -8.23477 -0.305569 
0.341086 -0.305569 -8.42374 
-7.3516 0.184309 2.32196 
0.184309 -7.37233 3.85739 
2.32196 3.85739 -7.39837 
-7.52537 -0.117396 2.60447 
-0.117396 -7.32875 3.55873 
2.60447 3.55873 -7.26818 
-7.6496 0.212457 2.79486 
0.212457 -6.9465 3.47341 
2.79486 3.47341 -7.5262 
-7.45608 0.00428006 2.25023 
0.00428006 -7.43048 3.70424 
2.25023 3.70424 -7.23575 
-2.39083 -0.0886322 3.30606 
-0.0886322 -1.84811 0.727756 
3.30606 0.727756 -1.75324 
-1.49839 -0.036959 2.84138 
-0.036959 -2.09654 0.722315 
2.84138 0.722315 -2.39725 
-2.11152 -0.0489482 2.93263 
-0.0489482 -2.10543 0.707967 
2.93263 0.707967 -1.77524 
-1.78503 0.0343448 2.885 
0.0343448 -1.9875 0.478653 
2.885 0.478653 -2.21964 
-3.62333 -0.0821241 4.18102 
-0.0821241 -3.53833 1.2054 
4.18102 1.2054 -3.59278 
-3.48255 -0.0114972 4.21019 
-0.0114972 -3.69541 0.982571 
4.21019 0.982571 -3.57649 
-3.23522 -0.0158044 3.85472 
-0.0158044 -3.48906 1.40659 
3.85472 1.40659 -4.03016 
-3.90359 -0.0942449 4.0982 
-0.0942449 -3.80211 0.620892 
4.0982 0.620892 -3.04874 
-5.74007 0.282242 2.70445 
0.282242 -5.58422 -0.925969 
2.70445 -0.925969 -6.42947 
-6.07414 -0.410009 3.06388 
-0.410009 -5.90479 -1.11044 
3.06388 -1.11044 -5.77484 
-6.25071 -0.257168 3.17182 
-0.257168 -5.81552 -0.623424 
3.17182 -0.623424 -5.68754 
-6.18407 -0.132858 3.30504 
-0.132858 -6.15864 -0.758871 
3.30504 -0.758871 -5.41105 
-7.9825 -0.0306514 -1.59433 
-0.0306514 -7.87481 0.815869 
-1.59433 0.815869 -7.97913 
-8.18024 0.183675 -1.69455 
0.183675 -8.06294 0.851556 
-1.69455 0.851556 -7.59328 
-8.13646 0.00131536 -1.52329 
0.00131536 -7.99769 0.710803 
-1.52329 0.710803 -7.7023 
-8.07038 -0.0448619 -1.58597 
-0.0448619 -7.94144 0.908512 
-1.58597 0.908512 -7.82464 
-1.05551 -0.0283302 -1.94761 
-0.0283302 -1.20099 3.64278 
-1.94761 3.64278 -0.885657 
-1.3585 0.0311641 -1.92746 
0.0311641 -1.26571 3.51715 
-1.92746 3.51715 -0.517944 
-1.10622 0.0485355 -1.83891 
0.0485355 -1.32384 3.63899 
-1.83891 3.63899 -0.712093 
-1.06561 0.0270675 -1.9936 
0.0270675 -1.04053 3.80944 
-1.9936 3.80944 -1.03602 
-1.38197 0.0707156 -1.47873 
0.0707156 -1.34264 0.465948 
-1.47873 0.465948 -2.14359 
-1.64727 -0.160244 -1.57611 
-0.160244 -1.48252 0.249386 
-1.57611 0.249386 -1.73841 
-1.67316 -0.157452 -1.64238 
-0.157452 -1.80591 0.140683 
-1.64238 0.140683 -1.38914 
-1.60458 -0.0781728 -1.53514 
-0.0781728 -1.59245 0.373243 
-1.53514 0.373243 -1.67118 
-3.04319 -0.0449182 1.02427 
-0.0449182 -3.03567 -1.13896 
1.02427 -1.13896 -3.12676 
-2.9617 0.0578825 0.917345 
0.0578825 -2.96506 -1.15774 
0.917345 -1.15774 -3.27886 
-2.998 -0.0505458 1.03353 
-0.0505458 -3.14712 -1.11518 
1.03353 -1.11518 -3.0605 
-3.24143 0.148294 0.872031 
0.148294 -3.20198 -1.11748 
0.872031 -1.11748 -2.76222 
-7.67214 -0.0829053 2.98619 
-0.0829053 -7.88614 0.459586 
2.98619 0.459586 -8.15191 
-7.81913 -0.0525531 3.09059 
-0.0525531 -8.05094 0.48386 
3.09059 0.48386 -7.84012 
-7.94848 0.034574 3.25385 
0.034574 -8.39261 0.880594 
3.25385 0.880594 -7.36911 
-7.82133 0.142658 2.89211 
0.142658 -8.16878 0.672806 
2.89211 0.672806 -7.72007 
-4.29581 -0.00591672 -4.56871 
-0.00591672 -4.2806 0.424211 
-4.56871 0.424211 -4.33645 
-4.39229 -0.0101812 -4.46522 
-0.0101812 -4.09485 0.485564 
-4.46522 0.485564 -4.42572 
-5.0445 -0.356531 -3.97052 
-0.356531 -4.89216 0.548779 
-3.97052 0.548779 -2.97621 
-3.75107 -0.395207 -3.61302 
-0.395207 -3.12074 0.271235 
-3.61302 0.271235 -6.04105 
-8.98001 0.0632286 3.40943 
0.0632286 -8.90084 -1.84171 
3.40943 -1.84171 -9.16401 
-9.05813 -0.182103 3.42916 
-0.182103 -9.08592 -2.08328 
3.42916 -2.08328 -8.90081 
-8.86153 -0.063467 3.58038 
-0.063467 -8.86366 -1.74387 
3.58038 -1.74387 -9.31967 
-8.91472 0.152622 3.54439 
0.152622 -8.9746 -1.99323 
3.54439 -1.99323 -9.15554 
-4.46277 -0.140963 -2.71135 
-0.140963 -4.49856 3.4586 
-2.71135 3.4586 -4.22014 
-4.20779 0.0356949 -2.14514 
0.0356949 -3.89097 3.74673 
-2.14514 3.74673 -5.0827 
-4.61516 -0.306718 -2.87457 
-0.306718 -4.47955 3.69556 
-2.87457 3.69556 -4.08676 
-4.94161 0.0350214 -3.01597 
0.0350214 -4.77292 2.8613 
-3.01597 2.8613 -3.46694 
-8.80526 0.313508 -1.40663 
0.313508 -8.68468 -0.379269 
-1.40663 -0.379269 -9.30503 
-8.92221 -0.210469 -1.36726 
-0.210469 -8.9254 -0.404352 
-1.36726 -0.404352 -8.94736 
-8.88223 -0.187163 -1.33638 
-0.187163 -8.90552 -0.428401 
-1.33638 -0.428401 -9.00722 
-9.0815 0.245363 -1.14994 
0.245363 -8.96157 -0.590294 
-1.14994 -0.590294 -8.7519 
-1.11104 0.0448276 0.107157 
0.0448276 -1.12513 2.16677 
0.107157 2.16677 -0.85644 
-0.875245 -0.0262001 0.0301504 
-0.0262001 -1.12489 2.03053 
0.0301504 2.03053 -1.09247 
-1.08203 0.152737 0.325251 
0.152737 -1.25521 2.43415 
0.325251 2.43415 -0.755376 
-0.955371 -0.0121428 0.311129 
-0.0121428 -1.05157 2.32852 
0.311129 2.32852 -1.08566 
-6.1975 -0.0475827 -4.00139 
-0.0475827 -6.03004 1.18867 
-4.00139 1.18867 -6.08773 
-6.50021 -0.033917 -3.88152 
-0.033917 -6.19121 1.17748 
-3.88152 1.17748 -5.62385 
-6.33613 0.0554538 -3.96053 
0.0554538 -6.16113 1.37386 
-3.96053 1.37386 -5.81802 
-5.90534 -0.0836861 -3.91679 
-0.0836861 -6.13906 1.21006 
-3.91679 1.21006 -6.27087 
-0.784812 -0.0382521 -1.19021 
-0.0382521 -0.366198 -1.94364 
-1.19021 -1.94364 -0.372834 
-0.977464 -0.0105895 -1.16455 
-0.0105895 -1.05348 -1.93846 
-1.16455 -1.93846 0.507102 
-0.59238 -0.104117 -1.15931 
-0.104117 -0.526998 -1.93933 
-1.15931 -1.93933 -0.404466 
-0.433266 0.0209051 -1.15064 
0.0209051 -0.412157 -2.02567 
-1.15064 -2.02567 -0.678422 
-8.72933 -0.111962 3.32352 
-0.111962 -8.89845 0.917841 
3.32352 0.917841 -8.76758 
-8.79441 0.347101 3.40137 
0.347101 -8.5171 0.919254 
3.40137 0.919254 -9.08385 
-8.76195 -0.079184 3.37914 
-0.079184 -8.86645 0.975299 
3.37914 0.975299 -8.76696 
-8.91382 0.101786 3.14366 
0.101786 -8.7755 1.15552 
3.14366 1.15552 -8.70605 
-1.05266 0.424983 0.0680267 
0.424983 -1.87572 -3.3394 
0.0680267 -3.3394 -0.893017 
-1.12212 0.0166093 -0.103674 
0.0166093 -1.35412 -3.40373 
-0.103674 -3.40373 -1.34517 
-1.35896 0.209882 -0.493896 
0.209882 -1.35415 -3.93244 
-0.493896 -3.93244 -1.1083 
-0.965288 0.00396426 -0.609059 
0.00396426 -1.32226 -4.09382 
-0.609059 -4.09382 -1.53386 
-6.53417 -0.212933 -2.98786 
-0.212933 -6.92634 -2.72185 
-2.98786 -2.72185 -7.08441 
-6.56619 -0.229102 -2.80388 
-0.229102 -6.55443 -3.25121 
-2.80388 -3.25121 -7.4243 
-7.1196 -0.134106 -3.08067 
-0.134106 -6.54561 -2.45801 
-3.08067 -2.45801 -6.87971 
-6.51125 -0.120538 -3.13332 
-0.120538 -6.9659 -2.63912 
-3.13332 -2.63912 -7.06778 
-9.27748 0.521205 1.34294 
0.521205 -8.07166 0.626592 
1.34294 0.626592 -9.14197 
-9.11731 0.211109 1.48445 
0.211109 -8.60453 0.568928 
1.48445 0.568928 -8.76926 
-8.74171 0.267062 1.83152 
0.267062 -8.83799 0.093006 
1.83152 0.093006 -8.91141 
-9.18453 0.146885 2.06093 
0.146885 -8.78326 -0.150414 
2.06093 -0.150414 -8.52332 
-6.69932 -0.10348 -0.433974 
-0.10348 -6.92566 2.92061 
-0.433974 2.92061 -6.5228 
-6.95562 0.0336547 -0.345471 
0.0336547 -6.92369 3.05692 
-0.345471 3.05692 -6.26847 
-6.59056 -0.137187 -0.43944 
-0.137187 -6.50106 3.08992 
-0.43944 3.08992 -7.05617 
-7.18138 -0.0972572 -0.438159 
-0.0972572 -6.89221 2.46901 
-0.438159 2.46901 -6.07419 
-7.04135 -0.122249 1.11767 
-0.122249 -6.97084 3.21662 
1.11767 3.21662 -7.16789 
-6.94852 -0.00674264 1.17445 
-0.00674264 -6.33832 2.91874 
1.17445 2.91874 -7.89323 
-7.40721 0.362013 1.39227 
0.362013 -7.03504 3.49843 
1.39227 3.49843 -6.73782 
-6.96671 -0.13978 1.05277 
-0.13978 -7.09335 3.29167 
1.05277 3.29167 -7.12001 
-4.01888 -0.216285 -0.424706 
-0.216285 -3.84799 -2.45054 
-0.424706 -2.45054 -3.87483 
-3.52969 -0.0341128 -0.306476 
-0.0341128 -3.74372 -1.89176 
-0.306476 -1.89176 -4.4683 
-4.16149 -0.201245 -0.627009 
-0.201245 -3.974 -2.79542 
-0.627009 -2.79542 -3.60621 
-4.0606 -0.339831 -0.292848 
-0.339831 -3.88801 -2.55807 
-0.292848 -2.55807 -3.7931 
-0.495082 0.243656 -2.51917 
0.243656 -0.622932 0.565079 
-2.51917 0.565079 -0.322531 
-0.892484 0.020148 -2.42145 
0.020148 -1.00645 0.636329 
-2.42145 0.636329 0.458384 
-0.620415 0.124724 -2.52736 
0.124724 -0.374439 0.51507 
-2.52736 0.51507 -0.445691 
-0.459042 0.0257299 -2.5084 
0.0257299 -0.334252 0.616314 
-2.5084 0.616314 -0.647251 
-1.11819 0.0787238 3.13636 
0.0787238 -1.17395 -1.12748 
3.13636 -1.12748 -1.07998 
-1.42598 -0.368027 3.47877 
-0.368027 -1.64457 -1.11035 
3.47877 -1.11035 -0.301574 
-0.893141 -0.237646 3.3814 
-0.237646 -0.831407 -1.28591 
3.3814 -1.28591 -1.64758 
-1.05557 0.0102938 3.20082 
0.0102938 -1.28259 -1.23708 
3.20082 -1.23708 -1.03396 
-2.00858 0.261481 3.40877 
0.261481 -2.12853 -1.58912 
3.40877 -1.58912 -1.31297 
-1.65434 0.0412837 3.16495 
0.0412837 -2.04951 -1.06527 
3.16495 -1.06527 -1.74623 
-1.43649 -0.195362 3.05867 
-0.195362 -2.04139 -1.05975 
3.05867 -1.05975 -1.9722 
-1.06546 0.278381 2.73937 
0.278381 -1.29107 -1.21787 
2.73937 -1.21787 -3.09354 
-8.7597 0.0736532 -0.954746 
0.0736532 -8.68227 -2.28395 
-0.954746 -2.28395 -9.22611 
-9.06887 0.290989 -0.71186 
0.290989 -8.96753 -2.5445 
-0.71186 -2.5445 -8.63167 
-8.76215 -0.134543 -0.804026 
-0.134543 -8.86487 -2.26943 
-0.804026 -2.26943 -9.04106 
-8.83205 -0.125326 -0.805825 
-0.125326 -8.89767 -2.43607 
-0.805825 -2.43607 -8.93836 
-8.94589 0.0452339 3.8042 
0.0452339 -8.59414 -0.563881 
3.8042 -0.563881 -8.7127 
-8.75493 0.0430353 3.6899 
0.0430353 -8.88324 -0.597606 
3.6899 -0.597606 -8.61457 
-8.12989 0.134978 3.80352 
0.134978 -8.99157 -0.539529 
3.80352 -0.539529 -9.13127 
-8.76356 -0.0245482 3.68484 
-0.0245482 -8.77868 -0.541309 
3.68484 -0.541309 -8.71049 
-8.00417 0.0800961 -2.3225 
0.0800961 -7.95667 0.112829 
-2.3225 0.112829 -7.14525 
-7.85084 -0.439906 -2.36034 
-0.439906 -7.63056 -0.415296 
-2.36034 -0.415296 -7.6247 
-7.74105 -0.384592 -2.59302 
-0.384592 -7.85334 0.0189541 
-2.59302 0.0189541 -7.5117 
-7.55184 -0.12674 -2.40549 
-0.12674 -7.5983 -0.706929 
-2.40549 -0.706929 -7.95595 
-5.10091 -0.0693183 -2.15714 
-0.0693183 -4.95534 3.01295 
-2.15714 3.01295 -4.84484 
-5.2361 -0.26737 -2.12332 
-0.26737 -4.63345 2.9813 
-2.12332 2.9813 -5.03154 
-4.57314 -0.231403 -1.85747 
-0.231403 -4.47193 3.0656 
-1.85747 3.0656 -5.85602 
-5.11322 -0.0398244 -2.41624 
-0.0398244 -5.18832 2.94648 
-2.41624 2.94648 -4.59955 
-1.57949 0.0265707 -1.96972 
0.0265707 -1.10208 -0.991235 
-1.96972 -0.991235 -0.821899 
-1.05274 -0.124818 -2.06439 
-0.124818 -1.42773 -0.846864 
-2.06439 -0.846864 -1.02299 
-1.01178 -0.0407714 -1.99071 
-0.0407714 -1.38706 -1.01065 
-1.99071 -1.01065 -1.10462 
-1.46875 0.0980545 -1.96047 
0.0980545 -0.690904 -0.488629 
-1.96047 -0.488629 -1.34381 
-8.91224 0.0590659 -0.798288 
0.0590659 -8.79348 4.05535 
-0.798288 4.05535 -9.30762 
-8.85139 -0.0204204 -0.925799 
-0.0204204 -8.87343 4.17009 
-0.925799 4.17009 -9.28853 
-8.94116 -0.0878977 -0.78829 
-0.0878977 -8.96699 4.0402 
-0.78829 4.0402 -9.10519 
-9.05268 0.0118566 -0.819662 
0.0118566 -8.93485 4.3126 
-0.819662 4.3126 -9.02581 
-0.478746 -0.0163737 -0.11605 
-0.0163737 -0.439528 1.31223 
-0.11605 1.31223 -0.39474 
-0.569121 -0.110756 -0.0681099 
-0.110756 -0.666398 1.25026 
-0.0681099 1.25026 -0.077495 
-0.690771 -0.0952204 -0.197164 
-0.0952204 -0.60612 1.40141 
-0.197164 1.40141 -0.0161231 
-0.36498 0.00793695 -0.110545 
0.00793695 -0.41195 1.28208 
-0.110545 1.28208 -0.536085 
-2.13531 0.166706 0.314847 
0.166706 -0.747131 -3.11208 
0.314847 -3.11208 -0.499466 
-0.982719 -0.115073 0.134457 
-0.115073 -1.30806 -3.24175 
0.134457 -3.24175 -1.09113 
-1.02282 0.0389151 0.341487 
0.0389151 -0.989216 -3.41744 
0.341487 -3.41744 -1.36987 
-1.10924 -0.0525383 0.270708 
-0.0525383 -1.19069 -3.18901 
0.270708 -3.18901 -1.08198 
-0.784478 -0.432786 0.261103 
-0.432786 -0.537203 -3.09463 
0.261103 -3.09463 -0.0541922 
-1.12227 -0.239665 0.235608 
-0.239665 -0.715381 -2.87295 
0.235608 -2.87295 0.46178 
-0.567442 -0.226592 0.117447 
-0.226592 -0.449969 -3.10416 
0.117447 -3.10416 -0.358462 
-0.298885 -0.063597 0.226163 
-0.063597 -0.341225 -3.36983 
0.226163 -3.36983 -0.735763 
-9.43321 0.0258442 -0.828756 
0.0258442 -9.09155 -0.280722 
-0.828756 -0.280722 -10.1361 
-9.51868 0.168351 -0.723704 
0.168351 -9.65521 -0.114384 
-0.723704 -0.114384 -9.48701 
-9.48324 0.0823491 -0.566704 
0.0823491 -9.38754 -0.238066 
-0.566704 -0.238066 -9.79012 
-9.61152 0.00169429 -0.656923 
0.00169429 -9.7245 -0.137187 
-0.656923 -0.137187 -9.32489 
-8.23196 0.039648 -1.26987 
0.039648 -7.83592 -3.70732 
-1.26987 -3.70732 -8.47522 
-8.24041 0.123953 -1.31618 
0.123953 -8.14715 -3.76534 
-1.31618 -3.76534 -8.15554 
-8.1498 -0.00836673 -1.43673 
-0.00836673 -8.41456 -3.97141 
-1.43673 -3.97141 -7.97874 
-8.21194 0.038789 -1.33515 
0.038789 -8.11015 -3.9627 
-1.33515 -3.9627 -8.22101 
-9.49993 0.0759077 -1.08043 
0.0759077 -9.63206 -0.707642 
-1.08043 -0.707642 -9.63155 
-9.63833 0.157422 -1.0902 
0.157422 -9.57397 -0.612989 
-1.0902 -0.612989 -9.55124 
-9.0614 0.0307388 -0.946234 
0.0307388 -9.44085 -0.47786 
-0.946234 -0.47786 -10.2613 
-9.70298 0.0267775 -1.11343 
0.0267775 -9.70312 -0.740607 
-1.11343 -0.740607 -9.35743 
-7.18911 0.472729 -3.59862 
0.472729 -7.59806 -2.53592 
-3.59862 -2.53592 -7.60367 
-7.27792 0.460113 -3.71595 
0.460113 -7.61357 -2.07596 
-3.71595 -2.07596 -7.49935 
-7.62897 0.0615725 -3.66914 
0.0615725 -7.52539 -2.72343 
-3.66914 -2.72343 -7.23649 
-7.16593 0.00504863 -3.17063 
0.00504863 -7.22086 -1.86465 
-3.17063 -1.86465 -8.00405 
-0.635616 0.165027 -1.91482 
0.165027 -0.564024 -0.580928 
-1.91482 -0.580928 -0.32769 
-0.925602 0.0896479 -2.10747 
0.0896479 -1.04439 -0.50553 
-2.10747 -0.50553 0.442664 
-0.56727 0.071847 -1.89436 
0.071847 -0.416263 -0.70652 
-1.89436 -0.70652 -0.543798 
-0.429924 0.0167407 -1.85591 
0.0167407 -0.439771 -0.530734 
-1.85591 -0.530734 -0.657635 
-1.90397 -0.189368 3.16526 
-0.189368 -2.06377 1.13392 
3.16526 1.13392 -1.52355 
-2.03502 -0.18205 2.77771 
-0.18205 -1.68518 0.794972 
2.77771 0.794972 -1.77109 
-1.9392 -0.0533948 2.80343 
-0.0533948 -1.67435 0.67984 
2.80343 0.67984 -1.87774 
-1.34664 -0.1666 2.60367 
-0.1666 -1.51737 0.309678 
2.60367 0.309678 -2.62728 
-3.2782 -0.0444817 -1.07888 
-0.0444817 -2.84208 -4.75998 
-1.07888 -4.75998 -3.70021 
-3.43028 0.0325546 -1.25477 
0.0325546 -3.0683 -4.44311 
-1.25477 -4.44311 -3.3219 
-3.11913 -0.127405 -0.966461 
-0.127405 -4.76455 -4.05003 
-0.966461 -4.05003 -1.93681 
-3.46332 -0.317285 -1.28495 
-0.317285 -2.70983 -4.00788 
-1.28495 -4.00788 -3.64733 
-1.95682 0.0614923 -1.9136 
0.0614923 -1.89763 -0.893359 
-1.9136 -0.893359 -1.83397 
-1.75357 -0.221729 -1.93342 
-0.221729 -1.46894 -0.774471 
-1.93342 -0.774471 -2.46591 
-1.90958 0.0673076 -1.7868 
0.0673076 -2.03326 -1.0223 
-1.7868 -1.0223 -1.74559 
-1.88325 -0.0412076 -1.72153 
-0.0412076 -1.72897 -0.750686 
-1.72153 -0.750686 -2.07619 
-1.26997 -0.116115 3.3572 
-0.116115 -1.4652 -1.52581 
3.3572 -1.52581 -1.14862 
-1.21541 0.0411245 3.36884 
0.0411245 -1.29864 -1.50512 
3.36884 -1.50512 -1.36974 
-1.93033 -0.0319922 3.25247 
-0.0319922 -1.02693 -1.37905 
3.25247 -1.37905 -0.926536 
-1.66895 -0.00346786 3.24153 
-0.00346786 -0.750979 -1.20531 
3.24153 -1.20531 -1.46386 
-2.80876 -0.14786 2.2762 
-0.14786 -2.82096 -3.59383 
2.2762 -3.59383 -2.52909 
-2.59167 0.0748989 2.28897 
0.0748989 -3.00298 -3.96355 
2.28897 -3.96355 -2.56416 
-2.22818 -0.225638 1.98375 
-0.225638 -3.10287 -3.9096 
1.98375 -3.9096 -2.82775 
-2.96697 -0.0273704 2.29629 
-0.0273704 -2.93639 -3.33118 
2.29629 -3.33118 -2.25545 
-3.61607 0.0853427 4.36839 
0.0853427 -3.76751 0.485308 
4.36839 0.485308 -3.60337 
-4.39528 -0.0196301 4.1271 
-0.0196301 -3.99928 1.07767 
4.1271 1.07767 -2.59239 
-3.71869 0.123457 4.36968 
0.123457 -3.61296 0.360831 
4.36968 0.360831 -3.6553 
-3.26321 -0.106791 3.87706 
-0.106791 -3.34593 -0.169865 
3.87706 -0.169865 -4.3778 
-2.02963 0.0848418 -1.80594 
0.0848418 -2.17598 -2.37751 
-1.80594 -2.37751 -1.69825 
-1.96503 -0.144406 -1.67374 
-0.144406 -1.81156 -2.12547 
-1.67374 -2.12547 -2.12726 
-1.49947 0.0348328 -1.6112 
0.0348328 -1.46178 -2.38326 
-1.6112 -2.38326 -2.9426 
-1.92846 -0.0533813 -1.62442 
-0.0533813 -1.9052 -2.11955 
-1.62442 -2.11955 -2.07019 
-4.14295 -0.0441343 0.339768 
-0.0441343 -3.94397 -3.71159 
0.339768 -3.71159 -4.03713 
-4.14139 -0.100337 0.380009 
-0.100337 -3.95869 -3.5919 
0.380009 -3.5919 -4.02397 
-3.74362 0.0642872 -0.0168465 
0.0642872 -3.98377 -4.04917 
-0.0168465 -4.04917 -4.39665 
-4.05471 0.0492461 0.573072 
0.0492461 -4.20597 -3.64366 
0.573072 -3.64366 -3.86337 
-0.443372 -0.1027 -0.788605 
-0.1027 -0.252383 1.40789 
-0.788605 1.40789 -0.244349 
-0.682538 -0.256334 -1.01162 
-0.256334 -0.83367 1.30331 
-1.01162 1.30331 0.576105 
-0.421283 -0.193314 -0.784557 
-0.193314 -0.389163 1.34268 
-0.784557 1.34268 -0.129658 
-0.249153 -0.0810895 -0.705999 
-0.0810895 -0.296174 1.31402 
-0.705999 1.31402 -0.394777 
-4.99331 0.184717 0.221522 
0.184717 -4.76439 -2.89945 
0.221522 -2.89945 -4.314 
-4.75965 0.120519 0.346696 
0.120519 -4.71965 -3.07626 
0.346696 -3.07626 -4.5924 
-4.83032 0.050603 0.570704 
0.050603 -4.51587 -2.9842 
0.570704 -2.9842 -4.72551 
-4.49335 -0.268536 0.413778 
-0.268536 -4.68426 -2.90994 
0.413778 -2.90994 -4.89409 
-5.02843 -0.141936 -3.36279 
-0.141936 -5.22026 -1.01909 
-3.36279 -1.01909 -5.23064 
-5.12785 -0.0671628 -3.34264 
-0.0671628 -5.28568 -1.01802 
-3.34264 -1.01802 -5.0658 
-5.2283 -0.00711846 -3.02399 
-0.00711846 -5.16754 -0.993368 
-3.02399 -0.993368 -5.0835 
-5.09011 -0.0357385 -3.26701 
-0.0357385 -5.17929 -0.884981 
-3.26701 -0.884981 -5.20994 
-6.06366 -0.18832 3.09541 
-0.18832 -6.35914 -3.0574 
3.09541 -3.0574 -6.34805 
-5.7771 -0.475971 3.04503 
-0.475971 -5.85506 -3.37749 
3.04503 -3.37749 -7.13869 
-6.73458 0.549907 3.28295 
0.549907 -6.50036 -3.55856 
3.28295 -3.55856 -5.53591 
-6.66726 0.00442523 2.58965 
0.00442523 -6.27895 -2.5683 
2.58965 -2.5683 -5.82463 
-1.62189 -0.0062155 -2.40089 
-0.0062155 -1.30809 -2.59807 
-2.40089 -2.59807 -0.656277 
-1.41835 -0.0936318 -2.19185 
-0.0936318 -0.503907 -2.55621 
-2.19185 -2.55621 -1.66401 
-1.01374 -0.0482064 -2.31331 
-0.0482064 -1.40554 -2.42697 
-2.31331 -2.42697 -1.16698 
-1.0807 -0.0187988 -2.35644 
-0.0187988 -1.23426 -2.26593 
-2.35644 -2.26593 -1.27131 
-8.03229 0.0641353 2.14558 
0.0641353 -8.32388 -2.92548 
2.14558 -2.92548 -7.73628 
-8.08337 0.0777298 2.00823 
0.0777298 -8.22024 -2.66851 
2.00823 -2.66851 -7.78885 
-8.34772 0.0980461 2.19148 
0.0980461 -7.90925 -2.98084 
2.19148 -2.98084 -7.83548 
-8.20196 0.0419816 1.58747 
0.0419816 -8.10375 -2.62569 
1.58747 -2.62569 -7.78675 
-1.29333 0.344774 0.324749 
0.344774 -0.928285 -2.30327 
0.324749 -2.30327 -0.596168 
-0.913852 -0.0328072 1.02386 
-0.0328072 -0.839889 -1.81527 
1.02386 -1.81527 -1.06405 
-1.10578 0.256229 0.949941 
0.256229 -0.954599 -1.85165 
0.949941 -1.85165 -0.757409 
-0.988455 -0.0979529 0.339621 
-0.0979529 -0.878846 -2.2029 
0.339621 -2.2029 -0.950486 
-3.61205 -0.250708 1.92568 
-0.250708 -3.68194 3.75252 
1.92568 3.75252 -3.52147 
-2.92381 -0.0679616 2.4274 
-0.0679616 -4.14357 3.08256 
2.4274 3.08256 -3.74807 
-3.22751 0.28879 2.90369 
0.28879 -3.70434 3.459 
2.90369 3.459 -3.8836 
-3.51472 0.148106 1.99135 
0.148106 -3.48637 3.59008 
1.99135 3.59008 -3.81436 
-8.77777 0.0741703 2.49892 
0.0741703 -8.66708 1.90815 
2.49892 1.90815 -8.78643 
-9.09881 -0.267404 2.32811 
-0.267404 -8.77703 1.98936 
2.32811 1.98936 -8.35544 
-8.74364 -0.34252 2.9506 
-0.34252 -8.21342 2.01423 
2.9506 2.01423 -9.27423 
-8.72512 -0.0661019 2.71029 
-0.0661019 -8.72394 1.86624 
2.71029 1.86624 -8.78223 
-3.46794 -0.0981534 -1.9237 
-0.0981534 -3.40883 -1.79579 
-1.9237 -1.79579 -3.575 
-3.20627 -0.105989 -2.46523 
-0.105989 -3.98593 -1.79209 
-2.46523 -1.79209 -3.25958 
-3.52235 -0.0271014 -2.42653 
-0.0271014 -3.43968 -1.85815 
-2.42653 -1.85815 -3.48974 
-3.67293 0.00331464 -2.4313 
0.00331464 -3.14244 -1.75623 
-2.4313 -1.75623 -3.6364 
-4.08791 0.165281 -4.40206 
0.165281 -4.65218 -0.0746902 
-4.40206 -0.0746902 -4.19254 
-3.8568 0.0712889 -3.94871 
0.0712889 -4.49358 -0.0976464 
-3.94871 -0.0976464 -4.58225 
-5.09664 0.0609159 -4.06537 
0.0609159 -4.24034 0.163529 
-4.06537 0.163529 -3.59566 
-4.10951 -0.0601382 -4.03348 
-0.0601382 -4.43042 0.210954 
-4.03348 0.210954 -4.39271 
-4.40363 -0.192381 0.374815 
-0.192381 -4.07108 -4.18748 
0.374815 -4.18748 -4.15808 
-4.09408 -0.0155956 0.104558 
-0.0155956 -3.94337 -4.14788 
0.104558 -4.14788 -4.59535 
-4.30627 -0.0381078 0.485144 
-0.0381078 -4.09553 -4.26781 
0.485144 -4.26781 -4.23099 
-4.14994 -0.0850776 0.589102 
-0.0850776 -4.55493 -4.13202 
0.589102 -4.13202 -3.92792 
-9.2211 0.00605992 -1.2779 
0.00605992 -9.24889 3.78496 
-1.2779 3.78496 -10.0993 
-9.34293 0.104222 -1.28525 
0.104222 -9.48957 3.66266 
-1.28525 3.66266 -9.73684 
-9.53505 0.032894 -1.27866 
0.032894 -9.47713 3.7102 
-1.27866 3.7102 -9.55715 
-9.65798 0.0178413 -1.24945 
0.0178413 -9.51548 3.65816 
-1.24945 3.65816 -9.39588 
-2.65141 -0.160651 2.07963 
-0.160651 -2.68837 -1.06102 
2.07963 -1.06102 -3.18115 
-3.13999 -0.192112 2.16092 
-0.192112 -3.22939 -0.727099 
2.16092 -0.727099 -2.15154 
-2.78533 0.231305 2.55465 
0.231305 -2.79648 -1.1693 
2.55465 -1.1693 -2.93911 
-2.82785 0.0540609 2.23945 
0.0540609 -2.92671 -1.02651 
2.23945 -1.02651 -2.76636 
-5.31364 -0.213294 -2.73836 
-0.213294 -5.14374 1.432 
-2.73836 1.432 -5.2968 
-5.08557 -0.304102 -2.6872 
-0.304102 -5.43438 0.728877 
-2.6872 0.728877 -5.23423 
-5.09504 -0.242164 -2.98098 
-0.242164 -5.26953 1.59593 
-2.98098 1.59593 -5.38961 
-5.43823 -0.317848 -3.12108 
-0.317848 -5.24905 0.586178 
-3.12108 0.586178 -5.06691 
-5.91144 -0.130756 -3.13907 
-0.130756 -6.19699 0.040306 
-3.13907 0.040306 -6.23518 
-5.94377 -0.0835798 -3.05041 
-0.0835798 -6.2088 0.13678 
-3.05041 0.13678 -6.19104 
-6.34195 -0.107128 -3.11131 
-0.107128 -6.36367 0.312074 
-3.11131 0.312074 -5.63798 
-6.0896 0.178053 -2.5468 
0.178053 -5.28303 0.23263 
-2.5468 0.23263 -6.97098 
-9.02549 0.149644 0.436498 
0.149644 -8.81627 -0.411707 
0.436498 -0.411707 -8.97413 
-8.88687 -0.118311 0.516824 
-0.118311 -9.1743 -0.28588 
0.516824 -0.28588 -8.75472 
-8.39945 -0.256033 0.412447 
-0.256033 -9.01728 -0.573068 
0.412447 -0.573068 -9.39915 
-8.99118 0.0723105 0.459345 
0.0723105 -8.85207 -0.385899 
0.459345 -0.385899 -8.97263 
-6.37427 0.147929 -1.37079 
0.147929 -6.05485 -3.88437 
-1.37079 -3.88437 -6.48015 
-6.06567 0.594536 -0.355095 
0.594536 -6.23855 -4.0605 
-0.355095 -4.0605 -6.60505 
-5.93869 0.0256057 -0.754894 
0.0256057 -6.7125 -4.37392 
-0.754894 -4.37392 -6.25808 
-6.25536 -0.227455 -1.51496 
-0.227455 -6.44571 -3.42572 
-1.51496 -3.42572 -6.2082 
-9.01241 -0.159723 2.26946 
-0.159723 -8.60435 -2.0742 
2.26946 -2.0742 -9.06083 
-8.95276 -0.131469 1.65976 
-0.131469 -8.45087 -2.40414 
1.65976 -2.40414 -9.27396 
-9.15666 0.0437178 2.29822 
0.0437178 -8.87695 -2.02541 
2.29822 -2.02541 -8.64398 
-8.94407 0.132125 1.83377 
0.132125 -8.84395 -2.49573 
1.83377 -2.49573 -8.88957 
-6.46838 0.0357462 2.50279 
0.0357462 -6.52869 -2.44671 
2.50279 -2.44671 -6.69554 
-6.53837 0.0303176 2.48491 
0.0303176 -6.61778 -2.36714 
2.48491 -2.36714 -6.53646 
-6.42639 0.0197606 2.78676 
0.0197606 -6.5603 -2.33877 
2.78676 -2.33877 -6.70592 
-6.51642 -0.0677948 2.54083 
-0.0677948 -6.33083 -2.43635 
2.54083 -2.43635 -6.84536 
-6.64121 0.0817216 -0.349738 
0.0817216 -6.50332 0.281035 
-0.349738 0.281035 -6.42945 
-6.32342 0.0272526 -0.383842 
0.0272526 -6.64207 0.227866 
-0.383842 0.227866 -6.60849 
-6.51104 -0.0272738 -0.155395 
-0.0272738 -6.47559 0.274269 
-0.155395 0.274269 -6.58735 
-6.31403 0.0638557 -0.345809 
0.0638557 -7.00322 0.308008 
-0.345809 0.308008 -6.25673 
-6.35807 -0.0147069 0.853124 
-0.0147069 -5.35419 4.30727 
0.853124 4.30727 -7.49519 
-6.48895 -0.0311988 0.592103 
-0.0311988 -6.5265 4.69996 
0.592103 4.69996 -6.192 
-6.36963 -0.0649102 0.430889 
-0.0649102 -6.37301 4.4499 
0.430889 4.4499 -6.46481 
-6.22053 -0.0755405 0.525331 
-0.0755405 -6.64823 4.39911 
0.525331 4.39911 -6.33869 
-7.18292 -0.138509 -1.74104 
-0.138509 -7.38421 2.9777 
-1.74104 2.9777 -6.97931 
-7.25602 0.216039 -1.70101 
0.216039 -7.03202 3.03128 
-1.70101 3.03128 -7.2584 
-7.2462 0.0362172 -1.70111 
0.0362172 -7.17609 3.14271 
-1.70111 3.14271 -7.12416 
-6.88237 -0.0433115 -1.79601 
-0.0433115 -6.87204 2.88912 
-1.79601 2.88912 -7.79204 
-1.47464 0.0471743 4.48415 
0.0471743 -1.58217 0.346071 
4.48415 0.346071 -4.00581 
-2.35546 -0.148953 3.82951 
-0.148953 -2.43163 0.663417 
3.82951 0.663417 -2.27554 
-3.14037 0.13589 4.56531 
0.13589 -3.0939 1.22018 
4.56531 1.22018 -0.828347 
-2.4633 -0.135902 3.68638 
-0.135902 -2.12791 0.863168 
3.68638 0.863168 -2.47141 
-9.32755 -0.153139 3.69319 
-0.153139 -9.34408 -0.179733 
3.69319 -0.179733 -9.68663 
-9.12746 0.0196146 3.80409 
0.0196146 -9.05867 0.0261415 
3.80409 0.0261415 -10.1721 
-9.34955 -0.00852537 3.70705 
-0.00852537 -9.51221 -0.110962 
3.70705 -0.110962 -9.4965 
-9.46968 0.00593428 3.64464 
0.00593428 -9.56511 -0.161218 
3.64464 -0.161218 -9.32347 
-2.13013 0.0424503 3.19702 
0.0424503 -1.82601 0.214811 
3.19702 0.214811 -1.59541 
-2.02124 -0.00894737 2.9624 
-0.00894737 -1.65212 0.252414 
2.9624 0.252414 -1.8782 
-1.43403 0.0301136 2.74356 
0.0301136 -1.40564 0.683324 
2.74356 0.683324 -2.71188 
-2.00274 -0.0168753 2.91677 
-0.0168753 -1.68752 0.27974 
2.91677 0.27974 -1.8613 
-3.04022 -0.163885 0.0948107 
-0.163885 -3.02616 -2.38313 
0.0948107 -2.38313 -3.41545 
-3.19129 -0.0988148 0.447086 
-0.0988148 -3.19055 -2.65436 
0.447086 -2.65436 -3.09999 
-3.02058 -0.0805449 0.00725744 
-0.0805449 -3.09154 -2.40615 
0.00725744 -2.40615 -3.36971 
-3.0097 0.0965461 0.164891 
0.0965461 -2.90199 -2.31537 
0.164891 -2.31537 -3.57014 
-8.66053 -0.0773802 -1.91698 
-0.0773802 -8.92958 0.889432 
-1.91698 0.889432 -9.15073 
-8.90043 0.0310898 -1.99643 
0.0310898 -9.01355 0.793322 
-1.99643 0.793322 -8.82686 
-8.77781 -0.118204 -1.65766 
-0.118204 -8.80238 1.08718 
-1.65766 1.08718 -9.16065 
-8.94417 0.0383922 -1.73933 
0.0383922 -8.95527 1.10388 
-1.73933 1.10388 -8.8414 
-4.89283 -0.0909194 -1.96086 
-0.0909194 -5.0831 -2.18138 
-1.96086 -2.18138 -4.71788 
-4.44585 0.0455624 -2.04581 
0.0455624 -4.52192 -2.08543 
-2.04581 -2.08543 -5.72604 
-5.33491 -0.0323419 -2.00834 
-0.0323419 -5.1644 -2.70234 
-2.00834 -2.70234 -4.1945 
-5.07156 -0.0298748 -1.94845 
-0.0298748 -4.88073 -2.36985 
-1.94845 -2.36985 -4.74153 
-7.02168 -0.135512 -4.04312 
-0.135512 -7.89479 1.98149 
-4.04312 1.98149 -7.63698 
-7.24734 -0.0429899 -3.63886 
-0.0429899 -7.47389 1.71658 
-3.63886 1.71658 -7.83222 
-7.91795 0.201482 -4.11306 
0.201482 -7.43437 1.7853 
-4.11306 1.7853 -7.20113 
-7.10359 -0.275103 -3.49987 
-0.275103 -7.70002 1.8732 
-3.49987 1.8732 -7.74984 
-6.56605 0.150729 2.90904 
0.150729 -6.87006 -3.39833 
2.90904 -3.39833 -7.01188 
-6.51171 -0.185345 3.19896 
-0.185345 -6.95529 -2.92746 
3.19896 -2.92746 -6.981 
-6.67464 0.355071 3.37008 
0.355071 -7.22897 -2.70209 
3.37008 -2.70209 -6.54438 
-6.57922 -0.0630448 2.44483 
-0.0630448 -6.76432 -3.32712 
2.44483 -3.32712 -7.10446 
-6.16612 -0.0902232 -3.56017 
-0.0902232 -6.37107 -2.39072 
-3.56017 -2.39072 -6.03306 
-5.65475 -0.00799027 -3.55174 
-0.00799027 -5.91297 -2.98932 
-3.55174 -2.98932 -7.00253 
-6.19221 -0.131876 -3.52183 
-0.131876 -6.30889 -2.43892 
-3.52183 -2.43892 -6.06915 
-6.73507 0.282003 -3.14204 
0.282003 -6.36653 -1.85634 
-3.14204 -1.85634 -5.46866 
-4.40098 -0.00670725 0.913257 
-0.00670725 -4.40941 -1.78528 
0.913257 -1.78528 -4.15763 
-4.2867 0.0918617 0.83458 
0.0918617 -4.21198 -1.76917 
0.83458 -1.76917 -4.46936 
-3.88064 0.0233612 0.825198 
0.0233612 -3.922 -1.60969 
0.825198 -1.60969 -5.16539 
-4.34433 0.0226208 0.846261 
0.0226208 -4.17182 -1.66444 
0.846261 -1.66444 -4.45188 
-7.09381 0.132856 -0.528737 
0.132856 -7.17455 2.81014 
-0.528737 2.81014 -7.33973 
-7.17665 0.1449 -1.00001 
0.1449 -6.90511 3.11994 
-1.00001 3.11994 -7.52633 
-7.52552 0.20641 -0.374415 
0.20641 -7.32712 2.67487 
-0.374415 2.67487 -6.75545 
-6.66344 -0.265253 -0.0180497 
-0.265253 -6.74685 3.1883 
-0.0180497 3.1883 -8.1978 
-8.67437 -0.0969155 -1.15107 
-0.0969155 -8.76575 0.73521 
-1.15107 0.73521 -9.1819 
-8.88678 -0.179321 -0.90725 
-0.179321 -9.02346 0.478536 
-0.90725 0.478536 -8.71178 
-8.81062 -0.0799615 -1.08562 
-0.0799615 -8.90358 0.449762 
-1.08562 0.449762 -8.90782 
-8.98094 -0.00997906 -1.13781 
-0.00997906 -8.78715 0.594004 
-1.13781 0.594004 -8.85393 
-8.04969 -0.0170155 2.90227 
-0.0170155 -8.15316 -1.06379 
2.90227 -1.06379 -8.09902 
-8.22809 -0.0316296 2.96549 
-0.0316296 -8.19217 -1.16515 
2.96549 -1.16515 -7.8816 
-8.43347 -0.110742 2.84807 
-0.110742 -8.17739 -1.06233 
2.84807 -1.06233 -7.69101 
-8.21249 -0.0459188 2.95403 
-0.0459188 -8.12325 -1.01833 
2.95403 -1.01833 -7.96612 
-3.01688 0.128971 2.73892 
0.128971 -2.97475 -0.135669 
2.73892 -0.135669 -2.532 
-2.9814 0.271846 3.02969 
0.271846 -3.12217 0.0309205 
3.02969 0.0309205 -2.42007 
-2.75405 0.0690245 2.93424 
0.0690245 -2.85196 0.1586 
2.93424 0.1586 -2.91762 
-2.69094 -0.0847817 3.00372 
-0.0847817 -2.80992 0.12582 
3.00372 0.12582 -3.02278 
-4.99338 0.11639 4.77066 
0.11639 -5.94132 -0.641492 
4.77066 -0.641492 -6.31256 
-6.81273 -0.048249 4.53884 
-0.048249 -5.64309 -0.679888 
4.53884 -0.679888 -4.79143 
-5.8242 -0.0191366 4.30177 
-0.0191366 -5.75427 -0.377892 
4.30177 -0.377892 -5.66879 
-5.60862 0.134904 3.74411 
0.134904 -5.66513 -0.43478 
3.74411 -0.43478 -5.9735 
-9.58393 0.120236 -3.53982 
0.120236 -9.59924 -0.779458 
-3.53982 -0.779458 -9.64795 
-9.31404 -0.0295158 -3.59306 
-0.0295158 -9.61174 -0.819324 
-3.59306 -0.819324 -9.90534 
-9.40722 0.0677514 -3.55394 
0.0677514 -9.63321 -0.655447 
-3.55394 -0.655447 -9.79069 
-9.56608 0.00890898 -3.37506 
0.00890898 -9.75556 -0.704997 
-3.37506 -0.704997 -9.50949 
-6.3903 0.0822721 -2.51104 
0.0822721 -6.56521 1.10568 
-2.51104 1.10568 -6.11123 
-6.36108 0.261453 -2.54209 
0.261453 -6.28235 1.21881 
-2.54209 1.21881 -6.42332 
-6.30899 0.235525 -1.84326 
0.235525 -6.33375 0.937416 
-1.84326 0.937416 -6.42401 
-6.22819 0.24661 -1.75461 
0.24661 -6.77602 0.878065 
-1.75461 0.878065 -6.06253 
-1.65332 -0.374823 3.14115 
-0.374823 -2.34356 -1.2534 
3.14115 -1.2534 -1.76818 
-1.78561 -0.18672 2.84353 
-0.18672 -1.78638 -1.37759 
2.84353 -1.37759 -2.19307 
-2.05738 0.098419 2.84644 
0.098419 -1.79718 -1.54198 
2.84644 -1.54198 -1.9105 
-1.99668 -0.21521 2.42379 
-0.21521 -1.65082 -1.32641 
2.42379 -1.32641 -2.11756 
-8.1161 0.0576006 1.1919 
0.0576006 -8.3159 -0.597247 
1.1919 -0.597247 -8.36582 
-8.23669 0.0135827 1.08708 
0.0135827 -8.42704 -0.632711 
1.08708 -0.632711 -8.13409 
-8.68213 -0.149998 1.35902 
-0.149998 -8.60062 -0.830322 
1.35902 -0.830322 -7.51507 
-8.29759 -0.0536628 1.14437 
-0.0536628 -8.40215 -0.735704 
1.14437 -0.735704 -8.09808 
-4.53871 -0.157573 4.26038 
-0.157573 -4.65954 1.66045 
4.26038 1.66045 -6.65715 
-5.36101 -0.0965033 3.57662 
-0.0965033 -5.18395 1.32133 
3.57662 1.32133 -5.31044 
-5.86814 -0.0142109 4.29936 
-0.0142109 -5.87274 1.61666 
4.29936 1.61666 -4.11452 
-5.37759 0.0382039 3.42079 
0.0382039 -5.314 1.66913 
3.42079 1.66913 -5.16382 
-5.00906 -0.0126004 1.03882 
-0.0126004 -5.1131 2.24295 
1.03882 2.24295 -5.95704 
-5.47444 -0.0659469 1.02792 
-0.0659469 -5.21195 1.68621 
1.02792 1.68621 -5.39282 
-5.8991 0.102785 0.929495 
0.102785 -5.59969 1.49122 
0.929495 1.49122 -4.58042 
-5.37742 -0.0103699 1.08775 
-0.0103699 -5.28416 1.75078 
1.08775 1.75078 -5.41762 
-4.85574 -0.158119 -4.09369 
-0.158119 -4.52704 -2.02006 
-4.09369 -2.02006 -4.76699 
-3.66027 0.595714 -4.02102 
0.595714 -4.9334 -1.58777 
-4.02102 -1.58777 -5.5561 
-5.26003 -0.163948 -4.34744 
-0.163948 -4.53971 -2.10142 
-4.34744 -2.10142 -4.35002 
-5.27258 -0.43348 -3.39537 
-0.43348 -4.61594 -1.83192 
-3.39537 -1.83192 -4.26125 
-8.32142 -0.291561 -1.37436 
-0.291561 -8.78621 3.4741 
-1.37436 3.4741 -9.27311 
-8.82785 -0.207772 -1.41446 
-0.207772 -9.11732 3.24244 
-1.41446 3.24244 -8.43557 
-8.98749 0.0988893 -1.51923 
0.0988893 -8.64265 3.29191 
-1.51923 3.29191 -8.75061 
-8.89336 0.081808 -1.52333 
0.081808 -8.70113 3.20097 
-1.52333 3.20097 -8.78625 
-6.58017 0.113858 -0.310871 
0.113858 -6.43131 4.47803 
-0.310871 4.47803 -6.50103 
-6.53331 0.0571171 -0.343303 
0.0571171 -6.48384 4.31628 
-0.343303 4.31628 -6.49536 
-6.66441 0.118733 0.00200228 
0.118733 -6.72967 4.22401 
0.00200228 4.22401 -6.11843 
-6.27895 -0.0657092 -0.591241 
-0.0657092 -6.22402 4.09443 
-0.591241 4.09443 -7.00954 
-1.35379 -0.0494902 -2.71783 
-0.0494902 -1.10307 1.25012 
-2.71783 1.25012 -1.14242 
-0.338137 0.215438 -3.04732 
0.215438 -1.4224 0.946789 
-3.04732 0.946789 -1.83874 
-1.34423 0.202917 -2.415 
0.202917 -1.70357 1.52739 
-2.415 1.52739 -0.551478 
-1.41864 -0.129556 -2.92458 
-0.129556 -1.02533 1.36763 
-2.92458 1.36763 -1.15531 
-2.10595 0.0717869 0.0170173 
0.0717869 -1.94936 2.36916 
0.0170173 2.36916 -1.94702 
-1.9225 -0.208188 0.099242 
-0.208188 -1.84474 2.35721 
0.099242 2.35721 -2.23508 
-2.02354 -0.0949062 -0.0282612 
-0.0949062 -1.7677 2.55553 
-0.0282612 2.55553 -2.21109 
-2.01596 -0.0202444 0.257093 
-0.0202444 -1.76201 2.61092 
0.257093 2.61092 -2.22436 
-8.04195 -0.0912237 -0.12737 
-0.0912237 -8.04923 -0.360584 
-0.12737 -0.360584 -8.37121 
-8.19041 0.185121 0.000807289 
0.185121 -8.24898 -0.534767 
0.000807289 -0.534767 -8.02299 
-8.43858 0.107507 0.188023 
0.107507 -8.30051 -0.303916 
0.188023 -0.303916 -7.72329 
-7.99758 0.0420921 0.0393716 
0.0420921 -8.20821 -0.388159 
0.0393716 -0.388159 -8.25659 
-0.518777 0.109115 -1.39086 
0.109115 -0.421036 1.28913 
-1.39086 1.28913 -0.27271 
-0.726617 0.226972 -1.41202 
0.226972 -0.494222 1.19757 
-1.41202 1.19757 0.00831647 
-0.659009 0.19054 -1.31667 
0.19054 -0.651319 1.3306 
-1.31667 1.3306 0.0978049 
-0.389949 0.0674524 -1.47835 
0.0674524 -0.354539 1.31923 
-1.47835 1.31923 -0.468035 
-2.09229 -0.0873222 1.70236 
-0.0873222 -2.05735 -2.35726 
1.70236 -2.35726 -1.69033 
-2.04981 -0.083343 1.75797 
-0.083343 -1.6638 -2.38343 
1.75797 -2.38343 -2.12635 
-1.99408 -0.0411756 1.6414 
-0.0411756 -1.82154 -2.55472 
1.6414 -2.55472 -2.02434 
-1.76408 -0.179425 1.42636 
-0.179425 -1.62114 -2.58263 
1.42636 -2.58263 -2.45474 
-5.15208 0.0864035 3.16367 
0.0864035 -4.88667 -3.88553 
3.16367 -3.88553 -3.4192 
-3.4395 -0.738574 2.7742 
-0.738574 -4.11709 -3.08678 
2.7742 -3.08678 -5.90136 
-4.62823 0.381587 2.75862 
0.381587 -4.56283 -3.89216 
2.75862 -3.89216 -4.26689 
-4.85626 0.270049 2.18781 
0.270049 -4.41598 -3.7745 
2.18781 -3.7745 -4.1857 
-2.7939 0.608679 1.44931 
0.608679 -0.743235 4.18035 
1.44931 4.18035 -3.50449 
-2.11843 -0.296627 1.85772 
-0.296627 -2.70132 4.17392 
1.85772 4.17392 -2.22188 
-2.24879 -0.0905722 1.9514 
-0.0905722 -3.15291 4.37317 
1.9514 4.37317 -1.63992 
-1.94217 -0.188111 1.71566 
-0.188111 -2.99029 2.90966 
1.71566 2.90966 -2.10916 
-3.24768 0.266251 -3.79539 
0.266251 -3.15244 -2.88377 
-3.79539 -2.88377 -3.11026 
-4.45136 0.107589 -3.11739 
0.107589 -3.38834 -2.50084 
-3.11739 -2.50084 -1.67069 
-3.44678 0.0795647 -3.53991 
0.0795647 -3.02566 -2.60526 
-3.53991 -2.60526 -3.03795 
-2.85106 -0.140356 -3.33511 
-0.140356 -2.66936 -2.2274 
-3.33511 -2.2274 -3.98997 
-6.73074 0.0285122 -4.27205 
0.0285122 -6.52624 0.924846 
-4.27205 0.924846 -6.64049 
-7.16962 0.0352049 -3.90095 
0.0352049 -6.84587 1.61403 
-3.90095 1.61403 -5.88198 
-6.51398 -0.0859763 -4.13393 
-0.0859763 -6.8012 1.25101 
-4.13393 1.25101 -6.58229 
-6.3103 -0.0852884 -4.00819 
-0.0852884 -6.47878 0.491959 
-4.00819 0.491959 -7.10839 
-3.79385 -0.085885 -4.26189 
-0.085885 -3.97475 1.48601 
-4.26189 1.48601 -3.83592 
-3.86847 -0.144284 -4.26935 
-0.144284 -3.9196 1.41035 
-4.26935 1.41035 -3.81644 
-4.14067 0.0619768 -3.98631 
0.0619768 -4.0507 1.72742 
-3.98631 1.72742 -3.41315 
-3.4803 0.246441 -4.13968 
0.246441 -3.73618 0.77598 
-4.13968 0.77598 -4.38804 
-3.62169 0.0398452 -3.86035 
0.0398452 -3.51452 1.85335 
-3.86035 1.85335 -3.61313 
-3.49156 0.253207 -3.58253 
0.253207 -3.67464 1.99863 
-3.58253 1.99863 -3.58314 
-3.46035 0.0716508 -3.66363 
0.0716508 -3.51302 2.08492 
-3.66363 2.08492 -3.77597 
-3.60046 -0.534778 -3.46596 
-0.534778 -2.99818 1.64037 
-3.46596 1.64037 -4.1507 
-1.07604 0.0858553 4.12325 
0.0858553 -0.932372 0.473045 
4.12325 0.473045 -0.826286 
-1.18893 -0.0421708 4.09961 
-0.0421708 -1.07899 0.514924 
4.09961 0.514924 -0.566782 
-1.17416 0.0506135 4.07202 
0.0506135 -1.08734 0.365393 
4.07202 0.365393 -0.573199 
-0.767432 0.0323474 4.27971 
0.0323474 -1.02179 0.469937 
4.27971 0.469937 -1.04548 
-4.04329 0.21174 -2.4261 
0.21174 -3.89508 -3.63983 
-2.4261 -3.63983 -3.88321 
-4.59364 -0.0785164 -2.12125 
-0.0785164 -4.4899 -3.93118 
-2.12125 -3.93118 -2.73804 
-3.8324 -0.0969899 -2.61318 
-0.0969899 -3.88987 -3.56066 
-2.61318 -3.56066 -4.0993 
-3.40155 -0.0190002 -2.43149 
-0.0190002 -3.62653 -2.69086 
-2.43149 -2.69086 -4.7935 
-9.15985 0.0347508 3.08855 
0.0347508 -9.0372 2.20116 
3.08855 2.20116 -10.331 
-9.42482 0.133358 2.99734 
0.133358 -9.55839 2.13561 
2.99734 2.13561 -9.54485 
-9.58517 0.141166 2.97024 
0.141166 -9.46131 2.09762 
2.97024 2.09762 -9.48157 
-9.67891 0.0475226 2.84718 
0.0475226 -9.56961 2.12274 
2.84718 2.12274 -9.27953 
-3.95703 0.334029 3.05061 
0.334029 -4.77454 -2.72015 
3.05061 -2.72015 -3.3289 
-3.18912 0.591965 2.66428 
0.591965 -4.32619 -4.19356 
2.66428 -4.19356 -4.54516 
-4.11356 -0.186207 2.66576 
-0.186207 -3.96472 -3.59648 
2.66576 -3.59648 -3.98219 
-4.15713 -0.24983 2.8025 
-0.24983 -3.93838 -3.51021 
2.8025 -3.51021 -3.96496 
-4.82093 0.23594 2.89181 
0.23594 -5.08755 -3.46325 
2.89181 -3.46325 -5.55212 
-5.16269 0.448785 2.47544 
0.448785 -5.27996 -3.22765 
2.47544 -3.22765 -5.01796 
-4.66829 -0.313742 2.57972 
-0.313742 -4.98237 -3.19317 
2.57972 -3.19317 -5.80995 
-5.4547 0.242414 2.72172 
0.242414 -5.16049 -2.89129 
2.72172 -2.89129 -4.84541 
-8.85905 0.00754318 -2.36465 
0.00754318 -8.87827 -0.578571 
-2.36465 -0.578571 -9.29702 
-8.81212 0.147432 -2.17684 
0.147432 -8.91557 -0.70524 
-2.17684 -0.70524 -9.30664 
-8.96762 -0.298438 -2.23462 
-0.298438 -9.33442 -0.139695 
-2.23462 -0.139695 -8.73229 
-9.12697 0.203275 -2.14253 
0.203275 -8.81533 -0.443002 
-2.14253 -0.443002 -9.09204 
-2.35492 0.085379 1.56437 
0.085379 -2.54916 -2.43915 
1.56437 -2.43915 -2.64265 
-2.43082 0.0933732 1.86072 
0.0933732 -2.73314 -2.54919 
1.86072 -2.54919 -2.38277 
-2.34078 0.0939676 1.3775 
0.0939676 -2.42876 -2.28884 
1.3775 -2.28884 -2.77718 
-2.48596 0.21602 1.53437 
0.21602 -2.53787 -2.54156 
1.53437 -2.54156 -2.5229 
-6.99646 0.100083 3.77504 
0.100083 -7.04391 2.12815 
3.77504 2.12815 -6.38029 
-6.69362 0.0571371 3.67678 
0.0571371 -6.92547 2.07624 
3.67678 2.07624 -6.80157 
-6.96162 0.139483 3.63866 
0.139483 -7.08325 1.97705 
3.63866 1.97705 -6.37578 
-7.33323 -0.262576 2.94402 
-0.262576 -6.96706 2.37819 
2.94402 2.37819 -6.12037 
-5.36612 -0.208467 -3.70144 
-0.208467 -5.6477 2.35912 
-3.70144 2.35912 -6.17353 
-5.94439 0.404331 -3.35541 
0.404331 -5.63824 2.43335 
-3.35541 2.43335 -5.60473 
-5.82149 0.381792 -3.71357 
0.381792 -5.71596 2.60133 
-3.71357 2.60133 -5.64991 
-5.96253 0.125959 -3.08705 
0.125959 -6.12843 2.3603 
-3.08705 2.3603 -5.09639 
-8.81625 0.137716 -0.93967 
0.137716 -8.77453 3.13584 
-0.93967 3.13584 -8.83587 
-8.67559 -0.167444 -0.918454 
-0.167444 -9.22019 3.07902 
-0.918454 3.07902 -8.53087 
-8.3663 -0.172697 -0.911886 
-0.172697 -8.9443 3.13573 
-0.911886 3.13573 -9.11605 
-8.90365 0.0764676 -0.979109 
0.0764676 -8.75048 3.04196 
-0.979109 3.04196 -8.77252 
-1.0018 -0.376459 -1.38493 
-0.376459 -1.59938 0.626791 
-1.38493 0.626791 -0.657823 
-1.19687 0.0585474 -1.64327 
0.0585474 -0.987379 0.730773 
-1.64327 0.730773 -1.07476 
-1.14158 -0.00629414 -1.64369 
-0.00629414 -1.04995 0.751879 
-1.64369 0.751879 -1.06748 
-0.711679 -0.239248 -1.8871 
-0.239248 -1.14926 0.993258 
-1.8871 0.993258 -1.39807 
-6.32643 0.00733648 0.43303 
0.00733648 -6.17968 -1.0291 
0.43303 -1.0291 -6.31656 
-6.25757 0.209973 0.267423 
0.209973 -6.17544 -1.04782 
0.267423 -1.04782 -6.38966 
-6.32099 0.0338258 0.623595 
0.0338258 -6.32082 -1.29686 
0.623595 -1.29686 -6.18085 
-6.33616 0.0587157 0.239886 
0.0587157 -6.2742 -1.1351 
0.239886 -1.1351 -6.21231 
-4.37233 0.0327325 -1.95677 
0.0327325 -4.40214 3.09864 
-1.95677 3.09864 -4.3614 
-5.2459 -0.0572758 -2.03403 
-0.0572758 -4.087 3.20154 
-2.03403 3.20154 -3.80296 
-4.37267 0.0861578 -1.78763 
0.0861578 -4.22099 2.83824 
-1.78763 2.83824 -4.54221 
-4.20631 -0.00420157 -1.99438 
-0.00420157 -4.61095 3.00266 
-1.99438 3.00266 -4.3186 
-1.87038 0.0027392 1.61621 
0.0027392 -1.83209 1.10046 
1.61621 1.10046 -1.54099 
-1.83802 0.0403632 1.59143 
0.0403632 -1.63552 1.00511 
1.59143 1.00511 -1.76992 
-1.82937 0.0103898 1.66538 
0.0103898 -1.77897 1.13245 
1.66538 1.13245 -1.63513 
-1.73192 0.0253666 1.96302 
0.0253666 -1.55032 0.9803 
1.96302 0.9803 -1.96122 
-7.368 0.116944 0.0348979 
0.116944 -6.87637 -1.13015 
0.0348979 -1.13015 -7.07776 
-7.34974 -0.0452015 0.0954046 
-0.0452015 -6.73306 -0.909287 
0.0954046 -0.909287 -7.23932 
-7.06533 -0.0382004 -0.232011 
-0.0382004 -7.4277 -1.18776 
-0.232011 -1.18776 -6.8291 
-6.94607 -0.0434218 -0.15928 
-0.0434218 -7.00741 -0.906242 
-0.15928 -0.906242 -7.36864 
-6.56489 -0.0196467 0.850474 
-0.0196467 -6.58159 0.213016 
0.850474 0.213016 -6.39333 
-6.46661 0.0722317 0.728293 
0.0722317 -6.55789 0.128877 
0.728293 0.128877 -6.51531 
-6.84734 -0.0674618 0.805193 
-0.0674618 -6.47138 0.139866 
0.805193 0.139866 -6.22109 
-6.54253 -0.0219611 0.752067 
-0.0219611 -6.39033 0.144062 
0.752067 0.144062 -6.60695 
-4.72498 0.227502 1.36507 
0.227502 -5.18781 1.36707 
1.36507 1.36707 -4.19489 
-5.02244 0.133019 0.886601 
0.133019 -4.6897 1.8099 
0.886601 1.8099 -4.39554 
-4.47047 -0.168398 0.973735 
-0.168398 -4.27477 1.66859 
0.973735 1.66859 -5.36244 
-4.90583 -0.0666682 1.10632 
-0.0666682 -4.53425 1.6879 
1.10632 1.6879 -4.66761 
-2.99279 -0.00483605 -2.02009 
-0.00483605 -2.9076 -1.17136 
-2.02009 -1.17136 -2.34963 
-2.55164 -0.00728158 -1.93377 
-0.00728158 -2.6897 -0.607615 
-1.93377 -0.607615 -3.00869 
-2.78463 -0.00404996 -1.96026 
-0.00404996 -2.66844 -0.808319 
-1.96026 -0.808319 -2.79696 
-2.81836 0.0043026 -1.87972 
0.0043026 -2.67675 -0.775337 
-1.87972 -0.775337 -2.75493 
-8.60959 -0.0544753 3.05024 
-0.0544753 -8.69546 -1.52723 
3.05024 -1.52723 -8.82826 
-8.81845 -0.169867 3.01776 
-0.169867 -8.7893 -1.35159 
3.01776 -1.35159 -8.52555 
-8.65317 -0.117573 3.07336 
-0.117573 -8.69721 -1.34246 
3.07336 -1.34246 -8.78292 
-8.75804 0.0037513 3.08754 
0.0037513 -8.71582 -1.46113 
3.08754 -1.46113 -8.65944 
-8.28486 0.063567 -0.9526 
0.063567 -8.3911 4.08092 
-0.9526 4.08092 -8.81485 
-8.50067 -0.00639049 -1.13382 
-0.00639049 -8.49672 4.20886 
-1.13382 4.20886 -8.49342 
-8.55695 -0.0142131 -1.01444 
-0.0142131 -8.48793 4.23322 
-1.01444 4.23322 -8.44592 
-8.54206 -0.114169 -1.1153 
-0.114169 -8.49542 4.43591 
-1.1153 4.43591 -8.45332 
-3.55104 -0.216276 -3.86988 
-0.216276 -3.29205 -1.57327 
-3.86988 -1.57327 -3.19839 
-3.00746 0.238666 -4.0317 
0.238666 -3.1632 -1.31201 
-4.0317 -1.31201 -3.87082 
-3.59519 -0.181616 -3.97456 
-0.181616 -3.33593 -1.6181 
-3.97456 -1.6181 -3.11037 
-3.72131 0.450997 -3.54181 
0.450997 -4.12535 -1.29689 
-3.54181 -1.29689 -2.19482 
-3.99508 0.150396 -3.55936 
0.150396 -3.81712 2.37428 
-3.55936 2.37428 -3.86707 
-4.66719 0.140614 -3.15361 
0.140614 -3.61849 3.15031 
-3.15361 3.15031 -3.39359 
-3.93656 -0.245354 -3.47615 
-0.245354 -3.77152 2.76379 
-3.47615 2.76379 -3.97119 
-3.51452 0.0550754 -3.37954 
0.0550754 -3.95294 1.73989 
-3.37954 1.73989 -4.21182 
-1.7164 -0.108825 1.67521 
-0.108825 -1.81234 1.38651 
1.67521 1.38651 -1.70632 
-1.55613 -0.139033 1.62323 
-0.139033 -1.74394 1.52338 
1.62323 1.52338 -1.93499 
-1.59099 0.078697 1.47603 
0.078697 -1.79402 1.73862 
1.47603 1.73862 -1.85004 
-1.79517 0.0737471 1.75417 
0.0737471 -1.69596 1.67208 
1.75417 1.67208 -1.74393 
-2.79005 -0.399465 -2.52061 
-0.399465 -2.21121 -2.12841 
-2.52061 -2.12841 -3.3913 
-2.7174 0.227241 -2.67787 
0.227241 -2.985 -1.92742 
-2.67787 -1.92742 -2.69016 
-2.47375 0.278525 -2.49612 
0.278525 -3.14683 -2.49445 
-2.49612 -2.49445 -2.77199 
-2.81983 0.0791005 -2.95108 
0.0791005 -3.18811 -1.81501 
-2.95108 -1.81501 -2.38463 
-3.97138 -0.0369181 2.70872 
-0.0369181 -3.73892 -3.72552 
2.70872 -3.72552 -3.56742 
-3.78821 0.0552605 2.66572 
0.0552605 -3.62163 -3.64832 
2.66572 -3.64832 -3.86788 
-4.08099 -0.0461003 2.57322 
-0.0461003 -3.61918 -3.53123 
2.57322 -3.53123 -3.57754 
-4.4118 -0.00710997 2.22808 
-0.00710997 -3.64035 -3.51147 
2.22808 -3.51147 -3.22556 
-8.03785 -0.00452111 -2.97323 
-0.00452111 -8.027 -1.7561 
-2.97323 -1.7561 -8.0923 
-8.17524 -0.0368298 -2.79159 
-0.0368298 -8.1793 -1.91113 
-2.79159 -1.91113 -7.80261 
-8.15176 -0.0556769 -3.00453 
-0.0556769 -8.27717 -1.8031 
-3.00453 -1.8031 -7.72822 
-8.07172 -0.0437075 -2.98469 
-0.0437075 -8.10127 -1.74812 
-2.98469 -1.74812 -7.98416 
-1.15574 -0.184561 -2.84789 
-0.184561 -1.16573 1.20373 
-2.84789 1.20373 -1.04635 
-1.286 -0.447961 -2.57149 
-0.447961 -1.73586 0.516283 
-2.57149 0.516283 -0.345968 
-0.764409 -0.514962 -2.86613 
-0.514962 -0.97718 1.5433 
-2.86613 1.5433 -1.62624 
-1.0462 0.124937 -2.91195 
0.124937 -1.40966 0.776471 
-2.91195 0.776471 -0.911966 
-4.98983 0.0565117 -1.52527 
0.0565117 -4.99504 1.84352 
-1.52527 1.84352 -5.05491 
-4.66439 -0.074268 -1.58998 
-0.074268 -4.55358 2.12363 
-1.58998 2.12363 -5.82181 
-5.09049 -0.0750746 -1.39076 
-0.0750746 -5.10094 1.71372 
-1.39076 1.71372 -4.84835 
-5.10915 0.0597806 -1.46941 
0.0597806 -4.76076 1.94905 
-1.46941 1.94905 -5.16988 
-0.510832 -0.00801119 1.31591 
-0.00801119 -0.570736 -1.87574 
1.31591 -1.87574 -0.199285 
-0.620984 0.0116975 1.3203 
0.0116975 -0.630934 -1.97524 
1.3203 -1.97524 -0.0289344 
-0.473546 -0.0717182 1.19924 
-0.0717182 -0.627628 -1.95549 
1.19924 -1.95549 -0.179679 
-0.350975 0.00994369 1.17846 
0.00994369 -0.452756 -1.86988 
1.17846 -1.86988 -0.477122 
-8.31631 -0.132327 1.01319 
-0.132327 -8.67851 0.893877 
1.01319 0.893877 -8.21213 
-8.4812 0.185175 0.878494 
0.185175 -8.30655 0.839345 
0.878494 0.839345 -8.4192 
-8.36043 -0.0517671 1.05715 
-0.0517671 -8.51519 0.898221 
1.05715 0.898221 -8.33133 
-8.33951 0.050362 1.41512 
0.050362 -8.53639 0.749111 
1.41512 0.749111 -8.33105 
-1.21622 -0.0306999 -0.120117 
-0.0306999 -1.05075 1.91658 
-0.120117 1.91658 -1.00178 
-1.23104 0.0294848 -0.182345 
0.0294848 -1.0794 1.77235 
-0.182345 1.77235 -0.95831 
-1.15869 -0.181182 -0.0777904 
-0.181182 -0.824005 1.98464 
-0.0777904 1.98464 -1.28605 
-1.08368 -0.0287983 -0.122445 
-0.0287983 -1.0171 1.779 
-0.122445 1.779 -1.16797 
-1.5482 0.173506 -3.84673 
0.173506 -2.62403 2.62162 
-3.84673 2.62162 -4.61974 
-3.24937 -0.0847136 -3.4216 
-0.0847136 -2.76645 1.82797 
-3.4216 1.82797 -2.77614 
-3.53526 -0.00920457 -4.32772 
-0.00920457 -4.24361 2.1246 
-4.32772 2.1246 -1.01311 
-3.25427 -0.0990512 -3.69386 
-0.0990512 -2.69967 1.8544 
-3.69386 1.8544 -2.83803 
-2.98525 -0.0539371 -3.43314 
-0.0539371 -3.59764 -2.84478 
-3.43314 -2.84478 -3.73691 
-3.41245 -0.142793 -3.44116 
-0.142793 -3.50322 -2.79279 
-3.44116 -2.79279 -3.40413 
-3.4711 -0.146073 -3.86223 
-0.146073 -3.65831 -2.20853 
-3.86223 -2.20853 -3.19039 
-3.46603 0.243356 -3.69322 
0.243356 -3.40596 -2.26924 
-3.69322 -2.26924 -3.44781 
-1.57049 0.367759 -1.71178 
0.367759 -1.28606 -3.57391 
-1.71178 -3.57391 -0.346737 
-1.09018 0.0456462 -1.86811 
0.0456462 -1.21964 -3.66058 
-1.86811 -3.66058 -0.893458 
-1.03834 -0.188318 -1.94643 
-0.188318 -1.24025 -3.78783 
-1.94643 -3.78783 -0.924695 
-0.999606 0.08636 -1.90594 
0.08636 -0.951779 -3.91223 
-1.90594 -3.91223 -1.2519 
-4.01141 0.0564243 0.863332 
0.0564243 -3.60901 -1.81317 
0.863332 -1.81317 -3.59536 
-3.68972 0.009691 0.630202 
0.009691 -3.63575 -1.8383 
0.630202 -1.8383 -3.89032 
-3.50762 -0.0815616 0.615465 
-0.0815616 -3.88859 -1.7442 
0.615465 -1.7442 -3.81958 
-3.71624 0.0397269 0.663718 
0.0397269 -3.57612 -1.60398 
0.663718 -1.60398 -3.92342 
-7.72965 -0.10441 3.17855 
-0.10441 -7.13646 0.610054 
3.17855 0.610054 -7.17408 
-7.7416 -0.118396 2.91727 
-0.118396 -7.07469 0.418893 
2.91727 0.418893 -7.2239 
-7.6764 -0.174793 3.38795 
-0.174793 -7.34535 0.362893 
3.38795 0.362893 -7.01844 
-7.15126 0.0609666 2.68124 
0.0609666 -7.2991 0.512588 
2.68124 0.512588 -7.58983 
-8.05892 -0.0784555 -2.03072 
-0.0784555 -8.06517 0.865929 
-2.03072 0.865929 -8.47636 
-8.17175 0.263401 -1.98806 
0.263401 -8.3902 0.803591 
-1.98806 0.803591 -8.03851 
-8.511 0.0611292 -1.8161 
0.0611292 -8.45634 1.15394 
-1.8161 1.15394 -7.63311 
-8.13954 0.117272 -1.92403 
0.117272 -8.24637 0.913527 
-1.92403 0.913527 -8.21455 
-1.10079 -0.112602 1.38269 
-0.112602 -1.29386 -2.37422 
1.38269 -2.37422 -1.22252 
-1.63204 0.251024 1.33568 
0.251024 -1.11147 -2.49438 
1.33568 -2.49438 -0.873664 
-1.13742 -0.0737352 1.38346 
-0.0737352 -1.27768 -2.36508 
1.38346 -2.36508 -1.20208 
-1.25003 0.177715 1.42855 
0.177715 -0.935102 -2.12656 
1.42855 -2.12656 -1.43205 
-3.51118 -0.0834356 -1.23937 
-0.0834356 -3.9165 4.08618 
-1.23937 4.08618 -4.20366 
-3.71459 0.0248197 -0.960648 
0.0248197 -3.93807 3.51849 
-0.960648 3.51849 -3.97867 
-3.9198 -0.00753034 -1.07654 
-0.00753034 -3.83073 3.8536 
-1.07654 3.8536 -3.88081 
-3.80283 -0.177943 -0.783575 
-0.177943 -4.16826 3.52777 
-0.783575 3.52777 -3.66025 
-2.86241 0.00375586 -1.62042 
0.00375586 -3.00506 -0.409579 
-1.62042 -0.409579 -2.47356 
-2.99248 0.174315 -1.44722 
0.174315 -2.96106 -0.620336 
-1.44722 -0.620336 -2.38749 
-2.83483 0.0657075 -1.46109 
0.0657075 -2.70827 -0.452459 
-1.46109 -0.452459 -2.79793 
-3.04373 0.220422 -0.932596 
0.220422 -3.3242 0.0995387 
-0.932596 0.0995387 -1.9731 
-4.29949 0.309717 2.18903 
0.309717 -4.41362 4.23403 
2.18903 4.23403 -4.15235 
-5.34756 -0.116793 1.68563 
-0.116793 -4.49445 3.81249 
1.68563 3.81249 -3.02344 
-3.73132 -0.328182 1.92421 
-0.328182 -4.4039 4.13622 
1.92421 4.13622 -4.73022 
-3.59864 -0.370005 1.43355 
-0.370005 -3.03235 3.17085 
1.43355 3.17085 -6.23445 
-3.36649 -0.102917 -0.893497 
-0.102917 -3.24658 2.70872 
-0.893497 2.70872 -4.17133 
-3.2312 -0.173495 -0.451928 
-0.173495 -3.6299 2.45706 
-0.451928 2.45706 -3.9233 
-3.96294 0.139033 -0.801387 
0.139033 -3.2462 2.65168 
-0.801387 2.65168 -3.57526 
-3.81526 -0.00447092 -0.737126 
-0.00447092 -3.64785 3.01397 
-0.737126 3.01397 -3.32129 
-8.81035 0.0212819 0.481598 
0.0212819 -8.77194 3.97285 
0.481598 3.97285 -8.89903 
-9.12246 0.0359526 0.663492 
0.0359526 -8.67028 3.9541 
0.663492 3.9541 -8.68857 
-8.84943 0.0544076 0.353985 
0.0544076 -8.66806 4.05216 
0.353985 4.05216 -8.96383 
-8.81182 -0.0056475 0.444387 
-0.0056475 -8.84997 4.05601 
0.444387 4.05601 -8.81952 
-3.34099 -0.0750071 1.84521 
-0.0750071 -3.06289 -3.88847 
1.84521 -3.88847 -3.01651 
-3.23215 -0.00286468 2.01435 
-0.00286468 -2.99914 -3.77508 
2.01435 -3.77508 -3.18911 
-3.49716 0.0315614 1.68093 
0.0315614 -3.03365 -3.7233 
1.68093 -3.7233 -2.88958 
-3.32609 -0.0516998 1.95484 
-0.0516998 -3.10417 -3.78268 
1.95484 -3.78268 -2.99013 
-1.67993 0.319883 2.61906 
0.319883 -1.95543 -1.39578 
2.61906 -1.39578 -2.21177 
-1.88161 0.0695106 2.93516 
0.0695106 -1.77474 -1.38291 
2.93516 -1.38291 -2.19078 
-1.87877 0.176088 2.51913 
0.176088 -2.08001 -1.39959 
2.51913 -1.39959 -1.88834 
-1.88878 -0.145392 2.94819 
-0.145392 -1.93452 -1.70818 
2.94819 -1.70818 -2.02383 
-8.66006 0.0675285 -3.09439 
0.0675285 -8.95866 -1.10461 
-3.09439 -1.10461 -9.21784 
-8.81661 0.149733 -3.24765 
0.149733 -8.79995 -0.767721 
-3.24765 -0.767721 -9.22 
-9.21315 0.215447 -3.41583 
0.215447 -8.78907 -0.524551 
-3.41583 -0.524551 -8.83433 
-8.88949 -0.139854 -3.21592 
-0.139854 -8.98103 -1.00171 
-3.21592 -1.00171 -8.96604 
-8.04921 -0.177334 -1.70369 
-0.177334 -8.125 -1.91024 
-1.70369 -1.91024 -8.54573 
-8.4979 0.284742 -2.08873 
0.284742 -8.31965 -1.75054 
-2.08873 -1.75054 -7.90239 
-7.98868 -0.0125194 -2.03991 
-0.0125194 -8.29365 -1.80729 
-2.03991 -1.80729 -8.43761 
-8.24719 0.0753029 -1.88262 
0.0753029 -8.32534 -1.60454 
-1.88262 -1.60454 -8.14742 
-5.86476 0.0652687 -2.95334 
0.0652687 -6.2086 1.13781 
-2.95334 1.13781 -6.28281 
-6.26662 0.0386186 -3.01144 
0.0386186 -6.30112 0.915406 
-3.01144 0.915406 -5.78843 
-5.95901 -0.0346534 -2.84478 
-0.0346534 -6.23441 1.01477 
-2.84478 1.01477 -6.16275 
-6.10586 -0.0415523 -2.64492 
-0.0415523 -5.43377 0.930094 
-2.64492 0.930094 -6.81654 
-1.2798 0.655924 1.55409 
0.655924 -1.39649 -0.209165 
1.55409 -0.209165 -0.00661981 
-0.372201 0.518446 0.530728 
0.518446 -0.775859 -0.401286 
0.530728 -0.401286 -1.53485 
-1.09268 -0.112509 1.07617 
-0.112509 -0.872902 -0.522637 
1.07617 -0.522637 -0.717328 
-1.13263 -0.240214 0.988745 
-0.240214 -0.83551 -0.687046 
0.988745 -0.687046 -0.714773 
-2.97597 0.0415153 2.46166 
0.0415153 -2.95997 3.68833 
2.46166 3.68833 -3.20808 
-3.11678 -0.49856 2.59174 
-0.49856 -3.46184 3.91802 
2.59174 3.91802 -2.56539 
-2.7549 0.268756 2.39023 
0.268756 -2.60669 3.96244 
2.39023 3.96244 -3.78243 
-3.03626 -0.0247203 2.22854 
-0.0247203 -2.93924 3.13195 
2.22854 3.13195 -3.16852 
-1.73106 0.0567904 1.1764 
0.0567904 -1.84186 -0.392398 
1.1764 -0.392398 -2.30813 
-1.86144 -0.041723 1.12505 
-0.041723 -1.76538 -0.553848 
1.12505 -0.553848 -2.25423 
-1.88426 -0.108647 1.1408 
-0.108647 -1.87601 -0.703489 
1.1408 -0.703489 -2.12078 
-1.72649 -0.00755176 1.08584 
-0.00755176 -1.73042 -0.622209 
1.08584 -0.622209 -2.42414 
-0.76252 0.191202 0.406552 
0.191202 -0.976654 -2.57188 
0.406552 -2.57188 0.541094 
-0.202127 0.0835329 0.452324 
0.0835329 -0.679829 -2.30516 
0.452324 -2.30516 -0.316124 
-0.316834 -0.082776 0.422713 
-0.082776 -0.540727 -2.29189 
0.422713 -2.29189 -0.340519 
-0.2529 0.100008 0.597866 
0.100008 -0.363935 -2.20636 
0.597866 -2.20636 -0.581246 
-9.603 0.00757038 -2.50491 
0.00757038 -9.71333 -1.88957 
-2.50491 -1.88957 -9.34333 
-9.54042 0.367804 -2.4355 
0.367804 -9.45612 -1.92148 
-2.4355 -1.92148 -9.66312 
-9.0116 -0.0154444 -2.09466 
-0.0154444 -9.14025 -2.02501 
-2.09466 -2.02501 -10.5078 
-9.50209 0.00988215 -2.48272 
0.00988215 -9.81062 -2.1429 
-2.48272 -2.1429 -9.34694 
-7.03638 -0.00650194 -4.6638 
-0.00650194 -7.16511 -1.04932 
-4.6638 -1.04932 -6.89148 
-6.84681 0.23496 -4.46117 
0.23496 -7.10354 -1.05747 
-4.46117 -1.05747 -7.14263 
-6.68868 0.0476002 -4.35464 
0.0476002 -6.80609 -1.08226 
-4.35464 -1.08226 -7.59821 
-7.1606 0.0324425 -4.58204 
0.0324425 -7.01773 -1.10656 
-4.58204 -1.10656 -6.91464 
-8.93789 0.132646 3.61679 
0.132646 -8.45434 1.34432 
3.61679 1.34432 -8.97094 
-8.81961 -0.0498365 3.4815 
-0.0498365 -8.66757 1.29983 
3.4815 1.29983 -8.876 
-8.91698 0.000923042 3.56579 
0.000923042 -8.74507 1.34899 
3.56579 1.34899 -8.70112 
-8.90541 0.0455762 3.33329 
0.0455762 -8.7496 1.35281 
3.33329 1.35281 -8.70816 
-4.17778 0.114863 3.90926 
0.114863 -4.16857 -1.99525 
3.90926 -1.99525 -4.06337 
-3.83634 -0.0125482 3.73633 
-0.0125482 -4.32571 -2.02206 
3.73633 -2.02206 -4.24767 
-4.1173 -0.146102 3.86501 
-0.146102 -4.02066 -1.62019 
3.86501 -1.62019 -4.27177 
-4.15119 0.0910338 3.96426 
0.0910338 -4.25862 -1.62685 
3.96426 -1.62685 -3.99991 
-1.18895 0.344991 4.6028 
0.344991 -2.65365 0.431637 
4.6028 0.431637 -3.06283 
-2.55253 0.00745302 4.53689 
0.00745302 -2.25118 0.370743 
4.53689 0.370743 -2.10171 
-3.02709 -0.120031 4.77004 
-0.120031 -2.43217 0.551815 
4.77004 0.551815 -1.44617 
-2.61902 -0.0687889 3.80516 
-0.0687889 -2.28979 -0.0772777 
3.80516 -0.0772777 -1.99662 
-5.88983 -0.0497423 0.707943 
-0.0497423 -5.77048 -2.70562 
0.707943 -2.70562 -6.80327 
-6.20955 0.197281 0.243945 
0.197281 -6.32315 -2.72848 
0.243945 -2.72848 -5.93088 
-6.4331 0.151322 0.102749 
0.151322 -6.35344 -2.20947 
0.102749 -2.20947 -5.67704 
-6.14015 0.11684 0.267074 
0.11684 -6.27382 -2.62043 
0.267074 -2.62043 -6.04961 
-5.19811 0.212078 4.21563 
0.212078 -5.85392 1.39633 
4.21563 1.39633 -6.65478 
-6.17178 -0.192183 3.71242 
-0.192183 -5.69085 1.66873 
3.71242 1.66873 -5.84418 
-6.21114 -0.216477 4.39937 
-0.216477 -5.42694 1.72439 
4.39937 1.72439 -6.06873 
-6.01799 -0.0364577 3.95598 
-0.0364577 -5.70265 1.37845 
3.95598 1.37845 -5.98617 
-4.63089 0.0134185 -1.20694 
0.0134185 -5.32431 3.05916 
-1.20694 3.05916 -5.25336 
-5.39893 0.11518 -1.30651 
0.11518 -5.05852 3.22327 
-1.30651 3.22327 -4.75111 
-5.02747 0.0875054 -1.15022 
0.0875054 -5.28073 2.99738 
-1.15022 2.99738 -4.90036 
-4.76167 0.0251983 -1.24729 
0.0251983 -4.85781 2.67237 
-1.24729 2.67237 -5.58908 
-4.62966 0.336891 -0.911912 
0.336891 -4.82961 -2.01046 
-0.911912 -2.01046 -5.19195 
-5.01087 0.423079 -0.653862 
0.423079 -4.83636 -2.51483 
-0.653862 -2.51483 -4.80399 
-4.85484 0.266145 -0.300705 
0.266145 -5.05248 -2.33719 
-0.300705 -2.33719 -4.7439 
-4.67958 -0.244625 -0.651285 
-0.244625 -4.45005 -2.17709 
-0.651285 -2.17709 -5.52159 
-2.40951 -0.301734 -2.73953 
-0.301734 -3.37066 -3.95081 
-2.73953 -3.95081 -1.75298 
-2.69491 1.00153 -2.1384 
1.00153 -1.1368 -3.89385 
-2.1384 -3.89385 -3.70143 
-2.3969 -0.408218 -2.56059 
-0.408218 -2.73147 -3.77992 
-2.56059 -3.77992 -2.40478 
-2.24156 -0.435038 -2.13758 
-0.435038 -2.95272 -2.40064 
-2.13758 -2.40064 -2.33887 
-5.25215 0.0764393 2.82502 
0.0764393 -5.14479 -1.14423 
2.82502 -1.14423 -5.15143 
-5.11382 0.14868 2.79798 
0.14868 -5.09343 -0.976476 
2.79798 -0.976476 -5.34112 
-5.27141 -0.0247002 2.96441 
-0.0247002 -4.95641 -1.38397 
2.96441 -1.38397 -5.32053 
-5.1218 -0.0197677 2.61595 
-0.0197677 -4.99516 -1.29656 
2.61595 -1.29656 -5.4314 
-1.45087 -0.0260221 -0.21115 
-0.0260221 -0.975077 1.18012 
-0.21115 1.18012 -0.878857 
-1.08372 -0.028767 -0.109246 
-0.028767 -1.14447 1.05589 
-0.109246 1.05589 -1.07661 
-1.10913 -0.000124435 -0.0822023 
-0.000124435 -0.913391 0.998896 
-0.0822023 0.998896 -1.28228 
-1.11452 -0.00563912 -0.171028 
-0.00563912 -1.03169 1.12621 
-0.171028 1.12621 -1.15859 
-8.71119 0.148446 3.1566 
0.148446 -8.79322 -0.183544 
3.1566 -0.183544 -8.80581 
-8.87591 -0.266303 3.11199 
-0.266303 -8.28988 -0.0744543 
3.11199 -0.0744543 -9.14443 
-9.01593 -0.137939 3.14518 
-0.137939 -8.7574 -0.164358 
3.14518 -0.164358 -8.53688 
-8.68889 0.0322844 3.12498 
0.0322844 -8.91059 -0.257657 
3.12498 -0.257657 -8.71074 
-6.74464 0.00823231 -3.33119 
0.00823231 -6.73337 2.43062 
-3.33119 2.43062 -7.70046 
-7.22742 0.26611 -2.91226 
0.26611 -7.22199 2.85443 
-2.91226 2.85443 -6.72906 
-7.26845 -0.0759363 -3.25898 
-0.0759363 -6.88905 2.79571 
-3.25898 2.79571 -7.02097 
-7.14597 -0.124996 -3.15858 
-0.124996 -6.91995 2.81653 
-3.15858 2.81653 -7.11255 
-2.80741 -0.0530476 -4.81061 
-0.0530476 -3.09015 0.962886 
-4.81061 0.962886 -3.57705 
-3.12126 0.031735 -4.47255 
0.031735 -3.13701 1.25525 
-4.47255 1.25525 -3.21634 
-4.16893 0.00364389 -4.10886 
0.00364389 -3.31663 1.13173 
-4.10886 1.13173 -1.98905 
-2.82559 0.178857 -4.29918 
0.178857 -3.13367 1.27556 
-4.29918 1.27556 -3.51535 
-5.48441 0.205861 -2.6232 
0.205861 -5.51807 -1.18294 
-2.6232 -1.18294 -5.71195 
-5.59981 0.163654 -2.78942 
0.163654 -5.58587 -1.22743 
-2.78942 -1.22743 -5.52876 
-5.80308 0.34121 -2.68468 
0.34121 -5.51766 -0.830038 
-2.68468 -0.830038 -5.3937 
-5.13275 0.247349 -2.59805 
0.247349 -5.82498 -0.756931 
-2.59805 -0.756931 -5.75671 
-4.77905 -0.21376 1.88296 
-0.21376 -5.00081 3.86005 
1.88296 3.86005 -3.04141 
-3.97254 0.324151 1.9734 
0.324151 -3.89279 3.09908 
1.9734 3.09908 -4.95595 
-4.31467 0.292401 2.5935 
0.292401 -4.45887 3.81548 
2.5935 3.81548 -4.04774 
-4.46912 0.165644 2.20164 
0.165644 -4.17822 3.53628 
2.20164 3.53628 -4.17394 
-1.86853 0.150677 -1.32195 
0.150677 -1.83722 -0.717314 
-1.32195 -0.717314 -1.55322 
-1.39523 -0.123197 -1.92734 
-0.123197 -1.39675 -0.618915 
-1.92734 -0.618915 -2.46699 
-1.76747 0.093978 -1.50006 
0.093978 -1.75932 -0.526915 
-1.50006 -0.526915 -1.73217 
-1.68154 0.0190514 -1.63577 
0.0190514 -1.75454 -0.660205 
-1.63577 -0.660205 -1.82288 
-3.71157 -0.152969 -2.72376 
-0.152969 -3.87281 -3.2391 
-2.72376 -3.2391 -3.81466 
-3.34771 -0.249042 -3.24439 
-0.249042 -4.4529 -2.67139 
-3.24439 -2.67139 -3.59844 
-3.52012 0.198688 -3.24663 
0.198688 -3.97367 -3.01317 
-3.24663 -3.01317 -3.90524 
-3.59512 0.138098 -2.28796 
0.138098 -3.67915 -3.23476 
-2.28796 -3.23476 -4.12477 
-7.78827 -0.0397579 4.61532 
-0.0397579 -7.14192 -0.117277 
4.61532 -0.117277 -6.10376 
-6.02147 -0.00415099 4.74225 
-0.00415099 -7.13701 -0.130274 
4.74225 -0.130274 -7.87547 
-7.11695 0.00132822 4.3974 
0.00132822 -6.9852 -0.493883 
4.3974 -0.493883 -6.93179 
-7.01984 -0.0755009 3.73106 
-0.0755009 -6.97911 -0.579899 
3.73106 -0.579899 -7.035 
-4.03151 0.00457325 -0.80507 
0.00457325 -4.14337 -3.62834 
-0.80507 -3.62834 -4.10917 
-4.00615 0.286097 -0.54885 
0.286097 -4.17993 -3.42074 
-0.54885 -3.42074 -4.09797 
-4.00392 0.263406 -0.551791 
0.263406 -4.16647 -3.43609 
-0.551791 -3.43609 -4.11365 
-4.18997 0.00816979 -0.39216 
0.00816979 -3.91614 -3.71649 
-0.39216 -3.71649 -4.17794 
-5.9341 -0.493177 -0.176128 
-0.493177 -5.49002 4.08789 
-0.176128 4.08789 -7.23648 
-6.15139 0.0562509 -1.26328 
0.0562509 -6.2529 4.32339 
-1.26328 4.32339 -6.25632 
-6.9354 -0.536266 -1.77228 
-0.536266 -6.25767 4.76108 
-1.77228 4.76108 -5.46753 
-5.85938 0.00911785 -0.963967 
0.00911785 -6.40678 4.16629 
-0.963967 4.16629 -6.39444 
-7.21431 0.335425 -1.02278 
0.335425 -7.1878 -0.186511 
-1.02278 -0.186511 -7.65412 
-7.30124 0.393317 -0.875937 
0.393317 -7.14029 -0.396758 
-0.875937 -0.396758 -7.61471 
-7.20331 0.055685 -0.888362 
0.055685 -7.42529 0.10408 
-0.888362 0.10408 -7.42764 
-6.93318 0.0223544 -1.14043 
0.0223544 -7.2149 -0.612003 
-1.14043 -0.612003 -7.90815 
-9.06573 -0.000610717 -1.46658 
-0.000610717 -9.13125 1.35022 
-1.46658 1.35022 -10.3388 
-9.34841 0.138123 -1.45091 
0.138123 -9.4945 1.51379 
-1.45091 1.51379 -9.69285 
-9.59503 0.0882571 -1.40635 
0.0882571 -9.4732 1.4279 
-1.40635 1.4279 -9.46753 
-9.6932 -0.0103839 -1.50206 
-0.0103839 -9.55691 1.50559 
-1.50206 1.50559 -9.28565 
-3.1006 0.0034079 -3.68196 
0.0034079 -3.1133 2.50665 
-3.68196 2.50665 -3.22676 
-3.68275 0.427062 -3.88271 
0.427062 -3.1143 2.7224 
-3.88271 2.7224 -2.64361 
-2.53712 -0.389331 -3.84892 
-0.389331 -2.93636 2.44256 
-3.84892 2.44256 -3.96718 
-3.24897 0.100847 -2.95188 
0.100847 -3.0971 2.42705 
-2.95188 2.42705 -3.09458 
-4.04374 0.307807 3.90179 
0.307807 -4.2304 -1.72854 
3.90179 -1.72854 -3.16554 
-3.24258 0.407935 3.67278 
0.407935 -4.00526 -3.01972 
3.67278 -3.01972 -4.19184 
-3.82518 -0.372802 3.69675 
-0.372802 -3.95219 -2.18451 
3.69675 -2.18451 -3.66231 
-3.89339 0.0348501 3.68605 
0.0348501 -3.84912 -2.59912 
3.68605 -2.59912 -3.69718 
-3.59364 0.0261826 -1.76878 
0.0261826 -3.78772 1.36697 
-1.76878 1.36697 -3.56682 
-3.78846 -0.127648 -1.73988 
-0.127648 -3.77939 1.42016 
-1.73988 1.42016 -3.38033 
-3.58434 0.0910362 -1.69589 
0.0910362 -3.68566 1.27425 
-1.69589 1.27425 -3.67819 
-3.66779 -0.0298426 -1.92112 
-0.0298426 -3.58751 1.46314 
-1.92112 1.46314 -3.69288 
-3.11459 0.0957376 -0.0365636 
0.0957376 -2.94789 -2.35245 
-0.0365636 -2.35245 -3.45126 
-3.00013 0.179346 -0.0159635 
0.179346 -3.01834 -2.45577 
-0.0159635 -2.45577 -3.49526 
-3.96593 -0.00837766 -0.0171399 
-0.00837766 -3.12483 -2.58509 
-0.0171399 -2.58509 -2.42297 
-2.92748 -0.262876 0.0375419 
-0.262876 -2.70509 -1.78428 
0.0375419 -1.78428 -3.88116 
-8.22176 -0.0121002 0.389627 
-0.0121002 -8.10084 1.05164 
0.389627 1.05164 -8.2032 
-8.04329 0.0147215 0.306661 
0.0147215 -8.49784 1.09572 
0.306661 1.09572 -7.98468 
-8.14712 0.0512124 0.236066 
0.0512124 -8.29692 1.15387 
0.236066 1.15387 -8.08177 
-8.21017 0.0197295 -0.0434687 
0.0197295 -8.2764 1.10721 
-0.0434687 1.10721 -8.03923 
-3.00998 -0.0467857 0.602907 
-0.0467857 -2.98486 -1.48886 
0.602907 -1.48886 -2.82574 
-2.89514 -0.0947263 0.594475 
-0.0947263 -2.90041 -1.42295 
0.594475 -1.42295 -3.02503 
-2.9288 -0.0621864 0.742342 
-0.0621864 -3.01699 -1.38251 
0.742342 -1.38251 -2.87479 
-3.12797 0.290702 0.587059 
0.290702 -3.177 -1.3225 
0.587059 -1.3225 -2.51561 
-8.03085 0.196957 -0.376213 
0.196957 -8.14619 -3.1371 
-0.376213 -3.1371 -7.75829 
-8.09254 0.101183 -0.442786 
0.101183 -7.96199 -3.16822 
-0.442786 -3.16822 -7.8808 
-7.97934 -0.0328382 -0.308806 
-0.0328382 -7.93499 -3.12339 
-0.308806 -3.12339 -8.02099 
-8.18925 0.0192985 -0.693911 
0.0192985 -8.18489 -3.28744 
-0.693911 -3.28744 -7.56119 
-5.93652 -0.0080589 -1.62927 
-0.0080589 -6.26922 -1.30814 
-1.62927 -1.30814 -6.06329 
-6.14707 -0.0923082 -1.35761 
-0.0923082 -5.45346 -1.41268 
-1.35761 -1.41268 -6.66849 
-6.68956 -0.0694286 -1.53749 
-0.0694286 -6.27175 -1.69227 
-1.53749 -1.69227 -5.30771 
-5.95614 -0.0482373 -1.54017 
-0.0482373 -6.3314 -1.43422 
-1.54017 -1.43422 -5.98148 
-8.88863 0.0993155 3.59484 
0.0993155 -8.70829 0.317802 
3.59484 0.317802 -8.79727 
-8.92028 0.0887183 3.58836 
0.0887183 -8.66916 0.381342 
3.58836 0.381342 -8.80475 
-8.34533 -0.0451428 3.51419 
-0.0451428 -8.97285 0.544923 
3.51419 0.544923 -9.07602 
-8.69206 -0.164776 3.64715 
-0.164776 -9.11813 -0.111047 
3.64715 -0.111047 -8.584 
-5.0878 0.156503 -2.89172 
0.156503 -5.43828 3.72381 
-2.89172 3.72381 -4.64289 
-4.86729 -0.225166 -2.86856 
-0.225166 -4.61647 3.68338 
-2.86856 3.68338 -5.68521 
-5.00703 -0.0308789 -2.57825 
-0.0308789 -5.01453 3.59186 
-2.57825 3.59186 -5.14741 
-4.99315 -0.0123311 -2.41127 
-0.0123311 -5.09576 3.27638 
-2.41127 3.27638 -5.08006 
-4.64234 -0.192826 -1.4866 
-0.192826 -4.72998 -2.52745 
-1.4866 -2.52745 -4.52073 
-4.80809 -0.103551 -1.75638 
-0.103551 -4.99151 -2.83612 
-1.75638 -2.83612 -4.09345 
-4.46038 0.119338 -1.70342 
0.119338 -4.13111 -2.35401 
-1.70342 -2.35401 -5.30156 
-4.48508 -0.0489619 -1.72978 
-0.0489619 -4.9731 -2.67412 
-1.72978 -2.67412 -4.43488 
-4.06068 -0.360709 -3.83394 
-0.360709 -4.65031 2.64335 
-3.83394 2.64335 -4.49147 
-4.11404 -0.402756 -3.40945 
-0.402756 -4.61032 2.38996 
-3.40945 2.38996 -4.4781 
-4.74284 0.362265 -3.79411 
0.362265 -4.53843 2.46464 
-3.79411 2.46464 -3.9212 
-4.15429 -0.342775 -2.83537 
-0.342775 -4.01126 2.35491 
-2.83537 2.35491 -5.03691 
-5.14963 0.0240969 4.20352 
0.0240969 -5.37538 1.93263 
4.20352 1.93263 -5.26257 
-4.4793 0.0281609 4.22463 
0.0281609 -5.3579 1.76889 
4.22463 1.76889 -5.95039 
-5.9378 -0.00185641 4.45694 
-0.00185641 -5.41261 1.97197 
4.45694 1.97197 -4.43717 
-5.36122 -0.0934926 3.95822 
-0.0934926 -5.24224 2.27244 
3.95822 2.27244 -5.18412 
-1.19003 -0.0544105 -1.55249 
-0.0544105 -0.987123 -0.52712 
-1.55249 -0.52712 -1.04837 
-1.09396 -0.0387038 -1.54309 
-0.0387038 -1.03629 -0.416576 
-1.54309 -0.416576 -1.09527 
-0.840192 -0.0222507 -1.68226 
-0.0222507 -1.7461 -0.386327 
-1.68226 -0.386327 -0.639234 
-0.994679 -0.00698566 -1.69462 
-0.00698566 -1.15776 -0.436016 
-1.69462 -0.436016 -1.07308 
-6.10821 0.0408704 -2.78315 
0.0408704 -6.13155 -1.04141 
-2.78315 -1.04141 -6.45837 
-6.1112 -0.00793478 -2.71857 
-0.00793478 -6.30034 -1.05208 
-2.71857 -1.05208 -6.28658 
-6.19056 -0.113975 -2.52706 
-0.113975 -5.84914 -1.23665 
-2.52706 -1.23665 -6.65843 
-6.41755 -0.0581852 -2.78347 
-0.0581852 -6.29278 -1.04771 
-2.78347 -1.04771 -5.9878 
-8.91108 0.588921 -2.1089 
0.588921 -8.33518 -0.0138623 
-2.1089 -0.0138623 -9.42342 
-8.85248 0.0308534 -2.17516 
0.0308534 -9.01763 -0.021257 
-2.17516 -0.021257 -8.79957 
-8.7111 -0.104829 -2.2897 
-0.104829 -9.01961 -0.0811573 
-2.2897 -0.0811573 -8.93897 
-9.03944 0.0826561 -2.45203 
0.0826561 -8.97482 0.164466 
-2.45203 0.164466 -8.65542 
-1.45238 0.0722248 -2.54197 
0.0722248 -1.41695 -3.08681 
-2.54197 -3.08681 -0.917607 
-1.27632 0.00737406 -2.60798 
0.00737406 -1.26122 -3.24952 
-2.60798 -3.24952 -1.2494 
-1.30066 -0.113715 -2.54803 
-0.113715 -1.42118 -3.22992 
-2.54803 -3.22992 -1.0651 
-1.12485 0.104919 -2.70023 
0.104919 -1.24049 -3.42419 
-2.70023 -3.42419 -1.4216 
-2.00246 0.0889902 -2.25633 
0.0889902 -2.02086 -3.36904 
-2.25633 -3.36904 -1.44866 
-1.80945 0.0277421 -2.40269 
0.0277421 -1.81351 -3.43884 
-2.40269 -3.43884 -1.84903 
-1.76505 -0.0285331 -2.31845 
-0.0285331 -1.87261 -3.6373 
-2.31845 -3.6373 -1.83433 
-1.67269 0.00543456 -2.44234 
0.00543456 -1.87891 -3.78575 
-2.44234 -3.78575 -1.92038 
-6.64911 -0.00370286 0.995949 
-0.00370286 -6.58731 -0.337763 
0.995949 -0.337763 -6.51613 
-6.84251 -0.196118 0.96361 
-0.196118 -6.62003 -0.292349 
0.96361 -0.292349 -6.29001 
-6.53206 0.0287883 0.913249 
0.0287883 -6.61415 -0.364365 
0.913249 -0.364365 -6.60634 
-6.54813 -0.0537774 0.943768 
-0.0537774 -6.46922 -0.288196 
0.943768 -0.288196 -6.7352 
-9.02944 0.180357 3.70703 
0.180357 -9.12169 -2.48066 
3.70703 -2.48066 -9.36015 
-8.92663 0.271842 3.31519 
0.271842 -8.90656 -1.9358 
3.31519 -1.9358 -9.67809 
-9.18014 -0.214292 3.44305 
-0.214292 -9.06402 -1.93708 
3.44305 -1.93708 -9.26712 
-9.29517 -0.0396469 3.80573 
-0.0396469 -9.20361 -2.71697 
3.80573 -2.71697 -9.01251 
-8.20749 -0.147579 -1.95372 
-0.147579 -8.04554 2.25001 
-1.95372 2.25001 -8.15461 
-8.52475 -0.13245 -2.0524 
-0.13245 -8.16014 2.01662 
-2.0524 2.01662 -7.72275 
-8.44168 -0.183885 -2.28797 
-0.183885 -8.39553 2.31428 
-2.28797 2.31428 -7.57044 
-8.30662 -0.104046 -2.18821 
-0.104046 -8.17543 2.14196 
-2.18821 2.14196 -7.92559 
-1.22448 -0.327276 -1.5039 
-0.327276 -1.0089 2.48744 
-1.5039 2.48744 -1.02275 
-0.898282 -0.0688054 -1.19778 
-0.0688054 -1.29978 1.68139 
-1.19778 1.68139 -1.05806 
-1.12829 -0.403523 -1.11563 
-0.403523 -1.40364 1.79927 
-1.11563 1.79927 -0.724201 
-0.872969 -0.0677591 -1.57637 
-0.0677591 -0.912049 2.55724 
-1.57637 2.55724 -1.47111 
-8.78402 -0.281806 -0.539788 
-0.281806 -8.95251 -4.0592 
-0.539788 -4.0592 -9.6404 
-9.26079 0.145406 -0.755308 
0.145406 -8.935 -4.24982 
-0.755308 -4.24982 -9.18114 
-9.14956 -0.0287311 -0.707061 
-0.0287311 -9.04975 -4.17119 
-0.707061 -4.17119 -9.17762 
-9.22527 -0.044031 -0.749548 
-0.044031 -9.16272 -4.35406 
-0.749548 -4.35406 -8.98893 
-1.74184 -0.0139795 -0.632562 
-0.0139795 -1.8431 0.96886 
-0.632562 0.96886 -1.55126 
-1.47028 0.0786304 -0.140519 
0.0786304 -1.36737 1.172 
-0.140519 1.172 -2.29855 
-1.85 -0.0513911 -0.429693 
-0.0513911 -1.57383 1.00661 
-0.429693 1.00661 -1.71237 
-1.76923 0.0392891 -0.433745 
0.0392891 -1.58458 1.08292 
-0.433745 1.08292 -1.78239 
-1.76706 0.0998762 3.93154 
0.0998762 -1.56037 0.720139 
3.93154 0.720139 -1.71601 
-1.74616 0.0391154 4.21392 
0.0391154 -1.67535 0.810235 
4.21392 0.810235 -1.62193 
-1.92593 -0.00381213 4.05946 
-0.00381213 -1.62034 0.820972 
4.05946 0.820972 -1.49717 
-1.67884 0.0416301 4.2369 
0.0416301 -1.58229 0.656343 
4.2369 0.656343 -1.78231 
-3.99343 0.145147 2.67655 
0.145147 -3.91129 -3.22269 
2.67655 -3.22269 -3.67661 
-3.75684 0.176394 2.41133 
0.176394 -3.86431 -2.94075 
2.41133 -2.94075 -3.96018 
-3.75674 0.0509497 2.45429 
0.0509497 -3.97036 -3.25704 
2.45429 -3.25704 -3.85423 
-3.80669 -0.0252942 2.42434 
-0.0252942 -4.05253 -3.09294 
2.42434 -3.09294 -3.72212 
-8.66051 0.0101312 -2.67711 
0.0101312 -8.41693 -2.27686 
-2.67711 -2.27686 -8.05118 
-8.57031 -0.0247686 -2.54648 
-0.0247686 -8.33874 -2.25264 
-2.54648 -2.25264 -8.21957 
-8.46308 0.00122534 -2.51497 
0.00122534 -8.35296 -2.43898 
-2.51497 -2.43898 -8.31259 
-8.50691 -0.0064071 -2.65392 
-0.0064071 -8.36978 -2.31285 
-2.65392 -2.31285 -8.25193 
-7.1826 0.0240873 0.502057 
0.0240873 -6.97906 -0.0412237 
0.502057 -0.0412237 -7.19293 
-7.2185 0.121376 0.514334 
0.121376 -6.92396 0.33783 
0.514334 0.33783 -7.21213 
-6.9934 0.016854 0.705166 
0.016854 -6.97797 0.0585624 
0.705166 0.0585624 -7.38322 
-7.05274 0.0760961 0.471483 
0.0760961 -6.91996 0.166026 
0.471483 0.166026 -7.38189 
-2.8961 0.527468 -3.42735 
0.527468 -3.8381 -2.54058 
-3.42735 -2.54058 -4.80391 
-4.25025 -0.182473 -4.16647 
-0.182473 -4.11181 -2.67935 
-4.16647 -2.67935 -3.17605 
-3.93408 -0.0502866 -3.72758 
-0.0502866 -3.79206 -2.6883 
-3.72758 -2.6883 -3.81197 
-4.489 -0.24315 -3.22418 
-0.24315 -3.79213 -2.81715 
-3.22418 -2.81715 -3.25698 
-0.468602 -0.0813665 -0.323214 
-0.0813665 -0.572518 -0.774832 
-0.323214 -0.774832 -0.257456 
-0.71464 -0.137598 -0.369894 
-0.137598 -0.707412 -0.590226 
-0.369894 -0.590226 0.123476 
-0.350457 -0.0130567 -0.383457 
-0.0130567 -0.567543 -0.720045 
-0.383457 -0.720045 -0.380575 
-0.353195 -0.0129779 -0.387979 
-0.0129779 -0.390386 -0.823744 
-0.387979 -0.823744 -0.554995 
-6.69619 0.0333181 -1.74968 
0.0333181 -6.41823 4.05418 
-1.74968 4.05418 -6.31974 
-6.44936 -0.110786 -2.1299 
-0.110786 -6.03944 3.98246 
-2.1299 3.98246 -6.94535 
-6.85406 -0.0959847 -1.75878 
-0.0959847 -6.38548 4.13025 
-1.75878 4.13025 -6.19461 
-6.9902 -0.177097 -1.258 
-0.177097 -6.87831 3.80203 
-1.258 3.80203 -5.56565 
-1.22872 -0.0926788 1.78546 
-0.0926788 -1.05023 1.28153 
1.78546 1.28153 -0.866784 
-1.02163 0.013969 1.53294 
0.013969 -1.06902 1.45233 
1.53294 1.45233 -1.05508 
-1.07377 -0.0985675 1.57334 
-0.0985675 -1.30992 1.42427 
1.57334 1.42427 -0.762045 
-1.01999 0.0162458 1.88505 
0.0162458 -1.0335 1.25654 
1.88505 1.25654 -1.09224 
-4.60915 0.053272 2.34936 
0.053272 -3.73464 -3.67523 
2.34936 -3.67523 -3.10629 
-3.75159 -0.27411 2.98034 
-0.27411 -3.97999 -3.21453 
2.98034 -3.21453 -3.7185 
-4.26198 0.0563842 3.50362 
0.0563842 -2.94994 -3.13376 
3.50362 -3.13376 -4.23816 
-3.7817 -0.1743 3.06904 
-0.1743 -3.95929 -3.28892 
3.06904 -3.28892 -3.70908 
-2.52153 0.533256 -3.87331 
0.533256 -1.90616 -2.73574 
-3.87331 -2.73574 -2.89073 
-2.36214 0.275618 -3.58635 
0.275618 -2.32569 -2.82285 
-3.58635 -2.82285 -2.63059 
-2.65798 -0.831242 -3.6051 
-0.831242 -3.12214 -2.92103 
-3.6051 -2.92103 -1.5383 
-2.79917 0.10972 -3.59907 
0.10972 -2.29048 -1.84073 
-3.59907 -1.84073 -2.22877 
-1.33974 0.133803 0.362786 
0.133803 -1.31757 2.79961 
0.362786 2.79961 -1.33504 
-1.42536 -0.26707 0.359412 
-0.26707 -1.54993 2.91489 
0.359412 2.91489 -1.01706 
-1.21045 -0.102 0.321404 
-0.102 -1.26033 2.72612 
0.321404 2.72612 -1.52157 
-1.34402 -0.0121259 0.288078 
-0.0121259 -1.27355 2.79547 
0.288078 2.79547 -1.37479 
-6.05908 0.112132 0.0958847 
0.112132 -6.26539 2.24049 
0.0958847 2.24049 -6.12136 
-6.14024 -0.180919 -0.0245925 
-0.180919 -6.04571 1.92841 
-0.0245925 1.92841 -6.25988 
-5.59394 0.0853223 0.0732746 
0.0853223 -6.30753 2.37687 
0.0732746 2.37687 -6.54435 
-6.31617 0.10727 -0.207367 
0.10727 -6.21234 1.80502 
-0.207367 1.80502 -5.91732 
-3.1576 -0.135142 -2.81318 
-0.135142 -3.62117 -2.05933 
-2.81318 -2.05933 -3.44232 
-3.52989 0.165499 -2.50945 
0.165499 -3.3238 -1.97046 
-2.50945 -1.97046 -3.3674 
-3.28589 -0.193792 -2.80137 
-0.193792 -3.36424 -2.218 
-2.80137 -2.218 -3.57096 
-3.2048 -0.144088 -2.89956 
-0.144088 -3.29912 -2.01523 
-2.89956 -2.01523 -3.71717 
-1.20934 -0.0315318 -0.202772 
-0.0315318 -1.24542 2.80272 
-0.202772 2.80272 -1.07772 
-1.16252 -0.0446162 -0.306889 
-0.0446162 -1.14705 2.78837 
-0.306889 2.78837 -1.22291 
-1.25101 0.197048 -0.337759 
0.197048 -1.31624 2.84159 
-0.337759 2.84159 -0.965227 
-1.20171 -0.0059356 -0.186157 
-0.0059356 -1.13215 2.83357 
-0.186157 2.83357 -1.19862 
-6.90968 0.0773045 1.03119 
0.0773045 -6.99838 3.28045 
1.03119 3.28045 -6.8127 
-7.17784 -0.358461 1.3197 
-0.358461 -6.99577 3.24471 
1.3197 3.24471 -6.54715 
-6.70636 0.105658 1.02371 
0.105658 -6.84902 3.42598 
1.02371 3.42598 -7.16537 
-6.81725 0.265465 1.23733 
0.265465 -6.69197 3.33181 
1.23733 3.33181 -7.21153 
-4.764 0.0389456 2.10648 
0.0389456 -4.48671 3.67178 
2.10648 3.67178 -5.15747 
-4.80216 -0.0492939 2.24847 
-0.0492939 -5.14363 3.79218 
2.24847 3.79218 -4.46239 
-4.8627 -0.0567899 2.01837 
-0.0567899 -4.55805 3.61076 
2.01837 3.61076 -4.98743 
-4.091 -0.0635186 2.33594 
-0.0635186 -4.85471 3.21407 
2.33594 3.21407 -5.46247 
-5.81913 -0.0362775 0.360566 
-0.0362775 -5.94431 1.21454 
0.360566 1.21454 -6.54455 
-6.06014 -0.0871641 0.352699 
-0.0871641 -6.26544 0.648284 
0.352699 0.648284 -5.9824 
-6.31422 0.12114 0.332684 
0.12114 -5.91224 1.03398 
0.332684 1.03398 -6.08153 
-6.38553 -0.39533 0.62581 
-0.39533 -6.27374 0.498686 
0.62581 0.498686 -5.64872 
-3.83889 -0.137563 -1.62985 
-0.137563 -3.67616 0.236727 
-1.62985 0.236727 -3.45768 
-3.5086 -0.0133591 -1.31783 
-0.0133591 -3.77506 0.365229 
-1.31783 0.365229 -3.68907 
-3.58069 0.0966085 -1.28148 
0.0966085 -3.63478 0.446754 
-1.28148 0.446754 -3.75725 
-3.60503 -0.0421301 -1.39249 
-0.0421301 -3.55842 0.278204 
-1.39249 0.278204 -3.80927 
-6.90522 0.013122 -1.12107 
0.013122 -6.83377 -4.26709 
-1.12107 -4.26709 -6.73324 
-6.9222 0.0795851 -1.00811 
0.0795851 -6.73051 -4.03065 
-1.00811 -4.03065 -6.81953 
-7.01036 -0.162401 -0.548947 
-0.162401 -7.17897 -3.93406 
-0.548947 -3.93406 -6.28291 
-6.4996 0.195412 -0.662266 
0.195412 -6.38285 -3.99473 
-0.662266 -3.99473 -7.58979 
-4.49355 0.138244 -1.0348 
0.138244 -3.89825 2.22599 
-1.0348 2.22599 -4.62066 
-4.22767 0.114426 -0.737212 
0.114426 -4.44973 1.91107 
-0.737212 1.91107 -4.33506 
-4.49811 0.000883923 -0.779277 
0.000883923 -4.4507 1.74827 
-0.779277 1.74827 -4.06366 
-4.56679 0.0887422 -1.04132 
0.0887422 -4.21393 1.98581 
-1.04132 1.98581 -4.23174 
-6.22597 0.0860796 0.0294195 
0.0860796 -6.61001 0.658114 
0.0294195 0.658114 -7.38848 
-6.95376 0.0240199 0.329333 
0.0240199 -6.79275 0.678947 
0.329333 0.678947 -6.47795 
-6.65489 0.0429727 0.339723 
0.0429727 -6.76837 0.811379 
0.339723 0.811379 -6.8012 
-6.61937 0.0524685 0.353765 
0.0524685 -6.78865 0.782449 
0.353765 0.782449 -6.81643 
-1.49663 -0.0233986 1.92968 
-0.0233986 -1.3728 3.327 
1.92968 3.327 -0.773611 
-1.07946 0.0334036 2.04444 
0.0334036 -1.37169 3.65059 
2.04444 3.65059 -1.19189 
-1.16779 -0.0343451 1.89073 
-0.0343451 -1.44141 3.607 
1.89073 3.607 -1.03384 
-1.16129 0.111117 1.98062 
0.111117 -1.08513 3.86859 
1.98062 3.86859 -1.39662 
-3.53768 -0.00206156 1.97268 
-0.00206156 -3.45109 -4.08473 
1.97268 -4.08473 -3.4252 
-3.41748 -0.0216734 1.86178 
-0.0216734 -3.55532 -4.1749 
1.86178 -4.1749 -3.44117 
-3.40578 -0.048539 1.68723 
-0.048539 -3.42824 -4.08104 
1.68723 -4.08104 -3.57994 
-3.6224 0.081829 2.06045 
0.081829 -3.66235 -3.87239 
2.06045 -3.87239 -3.12922 
-6.2349 0.0586178 2.1541 
0.0586178 -6.72829 0.873269 
2.1541 0.873269 -5.26179 
-5.31988 0.129936 1.81449 
0.129936 -6.15043 0.276079 
1.81449 0.276079 -6.75467 
-6.14272 -0.120367 1.7443 
-0.120367 -6.05032 0.775145 
1.7443 0.775145 -6.03193 
-6.11334 -0.0461544 1.81744 
-0.0461544 -6.10643 0.644804 
1.81744 0.644804 -6.0052 
-3.87662 -0.0125502 2.03304 
-0.0125502 -4.28868 3.92712 
2.03304 3.92712 -4.12734 
-3.93746 0.152066 1.35267 
0.152066 -4.06837 4.08603 
1.35267 4.08603 -4.28682 
-4.00197 -0.16065 1.16381 
-0.16065 -4.31486 4.24449 
1.16381 4.24449 -3.97582 
-3.75615 0.32704 2.18914 
0.32704 -4.12909 3.68713 
2.18914 3.68713 -4.40741 
-1.01778 -0.551799 0.696828 
-0.551799 -1.65226 -0.298434 
0.696828 -0.298434 -0.226644 
-1.0521 0.0749141 1.28698 
0.0749141 -0.964454 -0.511561 
1.28698 -0.511561 -0.880124 
-0.523716 -0.295574 1.68985 
-0.295574 -0.891941 -0.412625 
1.68985 -0.412625 -1.48102 
-1.17863 0.0932437 1.26045 
0.0932437 -0.918669 -0.606164 
1.26045 -0.606164 -0.799373 
-7.15653 0.51187 -1.39225 
0.51187 -5.63886 -4.59044 
-1.39225 -4.59044 -8.05627 
-6.75678 -0.536141 -1.20187 
-0.536141 -8.10664 -4.47447 
-1.20187 -4.47447 -5.98825 
-6.8222 -0.0123951 -1.11083 
-0.0123951 -7.05038 -4.20337 
-1.11083 -4.20337 -6.97908 
-6.74379 -0.0501396 -0.421403 
-0.0501396 -6.79862 -3.30312 
-0.421403 -3.30312 -7.30925 
-3.36392 0.0795446 -2.43194 
0.0795446 -3.30145 4.18262 
-2.43194 4.18262 -1.56172 
-1.88105 -0.00912175 -2.0374 
-0.00912175 -1.88438 3.71486 
-2.0374 3.71486 -4.46166 
-2.61531 0.237567 -1.8646 
0.237567 -3.11037 3.31422 
-1.8646 3.31422 -2.50141 
-2.48599 -0.0112437 -2.19798 
-0.0112437 -3.13311 3.37584 
-2.19798 3.37584 -2.60799 
-8.81425 -0.170693 -0.828582 
-0.170693 -8.63777 2.26822 
-0.828582 2.26822 -8.90563 
-9.33511 0.0791539 -1.14158 
0.0791539 -8.44038 2.01427 
-1.14158 2.01427 -8.58217 
-9.04494 -0.0131744 -1.04201 
-0.0131744 -8.36306 2.10236 
-1.04201 2.10236 -8.94965 
-8.93196 -0.0109574 -0.801191 
-0.0109574 -8.78651 2.25766 
-0.801191 2.25766 -8.63918 
-6.89297 -0.0186952 2.9545 
-0.0186952 -6.86187 3.72104 
2.9545 3.72104 -7.15005 
-7.12895 -0.199384 2.72661 
-0.199384 -7.13985 3.59049 
2.72661 3.59049 -6.63609 
-6.85598 0.00497111 2.76911 
0.00497111 -6.95392 3.80862 
2.76911 3.80862 -7.09498 
-6.8519 0.0389107 2.79566 
0.0389107 -6.9217 3.7686 
2.79566 3.7686 -7.13129 
-6.58967 0.0784925 -0.848614 
0.0784925 -6.9627 2.94753 
-0.848614 2.94753 -7.84796 
-7.15052 -0.0814731 -0.565178 
-0.0814731 -7.47372 2.51464 
-0.565178 2.51464 -6.77609 
-7.11985 0.257891 -0.682182 
0.257891 -7.19697 2.77077 
-0.682182 2.77077 -7.08351 
-7.21402 0.213774 -0.61663 
0.213774 -7.02984 2.81927 
-0.61663 2.81927 -7.15646 
-2.85471 0.0344249 -2.3254 
0.0344249 -2.75924 -1.01575 
-2.3254 -1.01575 -2.28301 
-2.52696 -0.058257 -2.19831 
-0.058257 -2.51767 -0.571816 
-2.19831 -0.571816 -2.85234 
-2.77723 0.149238 -2.25132 
0.149238 -2.57097 -0.638655 
-2.25132 -0.638655 -2.54877 
-2.66538 -0.0501639 -2.23219 
-0.0501639 -2.56753 -0.690688 
-2.23219 -0.690688 -2.66406 
-5.91275 0.501813 -1.48659 
0.501813 -5.69263 4.26549 
-1.48659 4.26549 -6.53637 
-6.34932 0.399178 -0.162592 
0.399178 -6.28031 4.42524 
-0.162592 4.42524 -5.51212 
-6.26931 0.00819478 -0.415724 
0.00819478 -5.89465 4.24296 
-0.415724 4.24296 -5.97779 
-5.93755 0.186916 -1.1054 
0.186916 -6.12788 4.21692 
-1.1054 4.21692 -6.07631 
-7.35674 0.0288353 3.34673 
0.0288353 -6.94847 -3.19813 
3.34673 -3.19813 -8.36005 
-7.18309 -0.174644 2.86249 
-0.174644 -7.85767 -3.19958 
2.86249 -3.19958 -7.6245 
-8.14235 0.104926 2.40778 
0.104926 -7.86558 -3.64094 
2.40778 -3.64094 -6.65734 
-7.24201 -0.226853 2.83933 
-0.226853 -7.88252 -3.13223 
2.83933 -3.13223 -7.54073 
-8.32067 -0.162439 -0.65919 
-0.162439 -8.33804 4.09463 
-0.65919 4.09463 -8.32256 
-8.17721 0.0543815 -0.573233 
0.0543815 -8.35759 4.26589 
-0.573233 4.26589 -8.44648 
-8.43667 -0.0790922 -0.453327 
-0.0790922 -7.99602 4.05797 
-0.453327 4.05797 -8.54859 
-8.56774 -0.0442843 -0.829114 
-0.0442843 -8.43442 4.18315 
-0.829114 4.18315 -7.97912 
-3.97801 0.0316972 3.32688 
0.0316972 -4.04784 2.5948 
3.32688 2.5948 -3.47952 
-3.64411 0.0467466 3.29345 
0.0467466 -3.95665 2.45285 
3.29345 2.45285 -3.90461 
-3.68334 0.204096 3.22275 
0.204096 -3.93272 2.68817 
3.22275 2.68817 -3.88931 
-4.0756 -0.150974 3.10468 
-0.150974 -3.95075 2.41106 
3.10468 2.41106 -3.47903 
-1.52106 -0.0998711 1.13626 
-0.0998711 -1.54832 -1.34317 
1.13626 -1.34317 -1.41901 
-1.44753 0.0430645 1.15808 
0.0430645 -1.43169 -1.28361 
1.15808 -1.28361 -1.60917 
-1.28883 0.208166 1.15308 
0.208166 -1.15689 -1.40217 
1.15308 -1.40217 -2.04267 
-1.38464 0.0787549 1.31106 
0.0787549 -1.40049 -1.37591 
1.31106 -1.37591 -1.70326 
-3.68957 0.0927737 -1.27229 
0.0927737 -3.38853 3.93893 
-1.27229 3.93893 -3.49379 
-4.23218 -0.134865 -0.917968 
-0.134865 -3.61406 4.1629 
-0.917968 4.1629 -2.72565 
-3.44196 -0.326341 -1.56243 
-0.326341 -3.19373 3.5875 
-1.56243 3.5875 -3.93621 
-3.43109 0.272253 -1.42338 
0.272253 -3.4915 4.04195 
-1.42338 4.04195 -3.6493 
-6.82724 -0.0614663 0.20423 
-0.0614663 -6.51098 -4.62806 
0.20423 -4.62806 -6.46654 
-6.65735 0.0344071 0.197665 
0.0344071 -6.5514 -4.55448 
0.197665 -4.55448 -6.59601 
-7.12463 -0.161877 -0.311267 
-0.161877 -7.48425 -4.33062 
-0.311267 -4.33062 -5.19589 
-5.53938 -0.296037 0.444446 
-0.296037 -6.43081 -3.74824 
0.444446 -3.74824 -7.83458 
-7.04503 -0.00154886 -2.37393 
-0.00154886 -6.85211 1.25882 
-2.37393 1.25882 -6.89903 
-7.06044 -0.0187692 -2.57318 
-0.0187692 -7.13671 1.22481 
-2.57318 1.22481 -6.59902 
-6.85749 0.271665 -2.50282 
0.271665 -6.3125 1.18352 
-2.50282 1.18352 -7.62617 
-7.00795 -0.0214065 -2.16153 
-0.0214065 -7.31091 1.54613 
-2.16153 1.54613 -6.47731 
-5.30862 0.134215 -1.52642 
0.134215 -5.27863 -1.18356 
-1.52642 -1.18356 -5.42971 
-5.4352 0.248317 -1.83316 
0.248317 -5.92718 -1.14998 
-1.83316 -1.14998 -4.65459 
-5.08708 0.00231948 -1.26831 
0.00231948 -5.20039 -1.0495 
-1.26831 -1.0495 -5.72949 
-5.42059 0.258657 -1.42854 
0.258657 -5.37778 -1.06075 
-1.42854 -1.06075 -5.2186 
-8.04394 0.135696 0.727194 
0.135696 -8.02672 3.14124 
0.727194 3.14124 -8.67423 
-8.18479 -0.0435478 0.898226 
-0.0435478 -8.61428 3.41693 
0.898226 3.41693 -7.94582 
-8.25631 0.0878776 0.569129 
0.0878776 -8.0789 2.91928 
0.569129 2.91928 -8.40968 
-8.06182 0.069674 0.634917 
0.069674 -8.50696 3.30263 
0.634917 3.30263 -8.17611 
-0.657399 0.0556778 3.05536 
0.0556778 -1.94609 -1.05028 
3.05536 -1.05028 -0.875845 
-0.902125 0.0346709 3.15848 
0.0346709 -1.27144 -1.02094 
3.15848 -1.02094 -1.30577 
-1.21877 0.171415 3.42298 
0.171415 -1.13599 -0.843514 
3.42298 -0.843514 -1.12457 
-0.890693 -0.0332565 3.6458 
-0.0332565 -1.04456 -0.799697 
3.6458 -0.799697 -1.54407 
-9.00911 0.0804696 1.05935 
0.0804696 -8.8029 -0.626486 
1.05935 -0.626486 -8.9946 
-8.48251 -0.217359 0.99455 
-0.217359 -8.97191 -0.792895 
0.99455 -0.792895 -9.3522 
-8.93914 -0.0579666 1.06025 
-0.0579666 -9.03521 -0.553226 
1.06025 -0.553226 -8.83226 
-8.92066 -0.0446389 1.07104 
-0.0446389 -8.89222 -0.709001 
1.07104 -0.709001 -8.99374 
-0.188763 0.0726705 0.795956 
0.0726705 -0.572143 -1.71733 
0.795956 -1.71733 -0.138724 
-0.448686 0.173705 0.903578 
0.173705 -0.89757 -1.54651 
0.903578 -1.54651 0.446626 
-0.177286 0.110613 0.770432 
0.110613 -0.636908 -1.74854 
0.770432 -1.74854 -0.0854364 
-0.139655 0.057837 0.657363 
0.057837 -0.378442 -1.86652 
0.657363 -1.86652 -0.381533 
-9.6183 -0.0439517 2.55255 
-0.0439517 -9.4749 0.715548 
2.55255 0.715548 -9.53953 
-9.27379 0.08279 2.63687 
0.08279 -9.14731 0.603674 
2.63687 0.603674 -10.2116 
-9.6374 0.0276465 2.49416 
0.0276465 -9.3255 0.749518 
2.49416 0.749518 -9.66982 
-9.66423 0.000103708 2.47162 
0.000103708 -9.63715 0.795139 
2.47162 0.795139 -9.33136 
-6.16543 -0.306049 -0.781632 
-0.306049 -6.44239 -1.24203 
-0.781632 -1.24203 -5.20894 
-5.89576 0.146978 -0.607481 
0.146978 -6.06473 -1.64915 
-0.607481 -1.64915 -5.85627 
-5.58067 -0.381992 -0.781296 
-0.381992 -5.90899 -2.06564 
-0.781296 -2.06564 -6.32711 
-5.97605 0.0806869 -0.64947 
0.0806869 -6.0145 -1.77326 
-0.64947 -1.77326 -5.82621 
-2.31579 -0.0581794 -0.719921 
-0.0581794 -2.92608 -0.641998 
-0.719921 -0.641998 -2.44003 
-2.41267 -0.34346 -0.381844 
-0.34346 -2.95009 -0.470367 
-0.381844 -0.470367 -2.31914 
-2.57452 0.180507 -0.702526 
0.180507 -2.36458 -0.627147 
-0.702526 -0.627147 -2.7428 
-3.0562 0.113885 -0.573355 
0.113885 -2.73056 -0.304518 
-0.573355 -0.304518 -1.89514 
-3.4035 0.10424 3.60401 
0.10424 -3.55626 2.16213 
3.60401 2.16213 -3.33706 
-2.80166 0.0599229 3.20026 
0.0599229 -3.63272 2.83098 
3.20026 2.83098 -3.86244 
-3.39776 -0.244957 3.59218 
-0.244957 -3.58761 2.53403 
3.59218 2.53403 -3.31145 
-3.81031 -0.0354924 3.50367 
-0.0354924 -3.57996 1.73823 
3.50367 1.73823 -2.90655 
-3.6449 0.0281415 4.13626 
0.0281415 -3.19714 -2.05785 
4.13626 -2.05785 -3.47389 
-3.27735 -0.0475802 4.30162 
-0.0475802 -3.35351 -2.30923 
4.30162 -2.30923 -3.68506 
-3.97587 0.182149 3.88401 
0.182149 -3.64273 -2.02023 
3.88401 -2.02023 -2.69733 
-3.27234 -0.139526 4.09401 
-0.139526 -3.26826 -2.11682 
4.09401 -2.11682 -3.77532 
-4.08942 -0.0817528 3.65358 
-0.0817528 -3.82233 -1.68638 
3.65358 -1.68638 -4.13408 
-4.07531 -0.0274927 3.11837 
-0.0274927 -3.96569 -1.73695 
3.11837 -1.73695 -4.00483 
-3.95375 -0.0937394 3.45662 
-0.0937394 -4.23701 -1.71424 
3.45662 -1.71424 -3.85507 
-4.10645 0.0798783 3.15314 
0.0798783 -4.18299 -1.85617 
3.15314 -1.85617 -3.75639 
-8.32705 -0.0497522 -2.02239 
-0.0497522 -8.08539 -0.579539 
-2.02239 -0.579539 -8.24682 
-8.34387 -0.0450676 -1.78268 
-0.0450676 -8.33204 -0.544183 
-1.78268 -0.544183 -7.98335 
-8.50456 -0.0474426 -1.95046 
-0.0474426 -8.29206 -0.621149 
-1.95046 -0.621149 -7.86265 
-8.2651 0.0486966 -1.97899 
0.0486966 -8.31309 -0.749308 
-1.97899 -0.749308 -8.08107 
-7.01598 -0.0859638 -2.93832 
-0.0859638 -7.05286 2.41047 
-2.93832 2.41047 -7.13831 
-7.0384 0.00196198 -2.66652 
0.00196198 -7.22046 2.42056 
-2.66652 2.42056 -6.94828 
-6.62611 0.0157768 -3.3041 
0.0157768 -6.97556 2.49738 
-3.3041 2.49738 -7.60547 
-7.09846 -0.0500842 -2.84928 
-0.0500842 -7.02587 2.28493 
-2.84928 2.28493 -7.08281 
-4.93972 -0.2141 -0.690715 
-0.2141 -5.22498 -1.88681 
-0.690715 -1.88681 -5.05657 
-5.13898 -0.0811923 -0.74955 
-0.0811923 -5.6571 -2.54997 
-0.74955 -2.54997 -4.42519 
-4.54013 -0.114801 0.0874178 
-0.114801 -5.26137 -1.88311 
0.0874178 -1.88311 -5.41977 
-5.07241 -0.214348 -0.620137 
-0.214348 -5.237 -2.17283 
-0.620137 -2.17283 -4.91186 
-5.74505 -0.124867 1.30851 
-0.124867 -5.4947 1.99457 
1.30851 1.99457 -5.76124 
-5.99631 0.0644158 1.11123 
0.0644158 -6.02969 1.64474 
1.11123 1.64474 -4.97499 
-5.43398 -0.134968 1.18492 
-0.134968 -5.34638 2.3271 
1.18492 2.3271 -6.22063 
-5.69734 -0.190622 1.36836 
-0.190622 -5.59459 1.96321 
1.36836 1.96321 -5.70905 
-7.12118 -0.0446897 -2.42226 
-0.0446897 -7.06394 2.14555 
-2.42226 2.14555 -6.56589 
-6.6295 0.141312 -2.1307 
0.141312 -7.01433 2.41776 
-2.1307 2.41776 -7.10718 
-6.88071 0.212463 -2.23794 
0.212463 -7.01524 2.17499 
-2.23794 2.17499 -6.85506 
-6.8009 0.161047 -1.95978 
0.161047 -6.78708 2.08755 
-1.95978 2.08755 -7.16303 
-7.53893 0.226371 -0.0217546 
0.226371 -8.12351 2.13577 
-0.0217546 2.13577 -7.63148 
-7.75107 -0.12211 0.0363447 
-0.12211 -7.96463 1.83671 
0.0363447 1.83671 -7.57822 
-8.17106 -0.00449624 0.114057 
-0.00449624 -7.84912 1.64534 
0.114057 1.64534 -7.27375 
-7.30633 -0.0129754 0.342294 
-0.0129754 -8.08812 2.27759 
0.342294 2.27759 -7.89948 
-0.589033 0.0778632 1.4018 
0.0778632 -0.471689 -2.19057 
1.4018 -2.19057 -0.474836 
-0.722589 0.10201 1.50506 
0.10201 -0.740657 -2.05652 
1.50506 -2.05652 -0.0723118 
-0.705497 0.143646 1.25036 
0.143646 -0.990503 -2.15792 
1.25036 -2.15792 0.160442 
-0.473664 -0.0196691 1.40872 
-0.0196691 -0.437709 -2.16654 
1.40872 -2.16654 -0.624186 
-3.65698 0.328846 -3.25181 
0.328846 -3.37932 2.83743 
-3.25181 2.83743 -3.34946 
-2.95865 -0.180738 -2.92726 
-0.180738 -3.60375 2.44115 
-2.92726 2.44115 -3.82335 
-3.28024 0.0272666 -3.35621 
0.0272666 -3.22 2.72122 
-3.35621 2.72122 -3.88551 
-3.67457 0.0829375 -3.28145 
0.0829375 -3.51803 2.58114 
-3.28145 2.58114 -3.19316 
-8.37299 -0.0170235 3.46715 
-0.0170235 -7.63175 -1.6654 
3.46715 -1.6654 -7.91175 
-8.45861 0.200292 2.7329 
0.200292 -8.20246 -1.72917 
2.7329 -1.72917 -7.25543 
-8.08266 0.188611 3.29586 
0.188611 -8.22905 -1.80642 
3.29586 -1.80642 -7.60479 
-8.09825 0.221699 3.25766 
0.221699 -8.10718 -1.75334 
3.25766 -1.75334 -7.71107 
-7.05379 0.105815 -1.9333 
0.105815 -7.17275 4.11174 
-1.9333 4.11174 -6.98462 
-7.56019 0.485888 -1.70191 
0.485888 -7.44829 4.47861 
-1.70191 4.47861 -6.20268 
-6.86031 -0.942025 -2.25542 
-0.942025 -6.51337 4.02609 
-2.25542 4.02609 -7.83748 
-6.41638 0.349973 -1.12834 
0.349973 -7.46981 3.64027 
-1.12834 3.64027 -7.32497 
-6.47929 0.0985203 -2.18225 
0.0985203 -6.25216 2.0619 
-2.18225 2.0619 -6.25011 
-6.10511 -0.110763 -2.24785 
-0.110763 -6.43361 2.0876 
-2.24785 2.0876 -6.44283 
-6.62036 0.0156278 -2.19134 
0.0156278 -6.20912 2.04351 
-2.19134 2.04351 -6.15208 
-6.40713 -0.164839 -2.06501 
-0.164839 -6.75238 1.93157 
-2.06501 1.93157 -5.82205 
-7.97678 0.00282163 0.278379 
0.00282163 -8.00095 -3.33098 
0.278379 -3.33098 -8.01734 
-8.02983 0.0113057 0.356096 
0.0113057 -8.1352 -3.28493 
0.356096 -3.28493 -7.83005 
-8.1956 -0.15337 0.355953 
-0.15337 -8.21745 -3.29979 
0.355953 -3.29979 -7.58203 
-8.07652 0.012908 0.355813 
0.012908 -8.02771 -3.40216 
0.355813 -3.40216 -7.89085 
-5.30386 0.016034 -1.11847 
0.016034 -5.43577 4.31415 
-1.11847 4.31415 -5.68595 
-5.59427 0.0116331 -1.06561 
0.0116331 -4.97999 3.94129 
-1.06561 3.94129 -5.85131 
-5.37579 0.206021 -1.19498 
0.206021 -6.43469 3.98381 
-1.19498 3.98381 -4.61509 
-5.4328 -0.0555256 -0.929872 
-0.0555256 -5.82035 4.14929 
-0.929872 4.14929 -5.17242 
-5.20468 -0.159873 -1.75472 
-0.159873 -5.48027 -1.02678 
-1.75472 -1.02678 -5.23738 
-5.42019 -0.0140985 -1.52513 
-0.0140985 -5.53471 -0.977205 
-1.52513 -0.977205 -4.96742 
-5.26917 0.0236281 -1.57876 
0.0236281 -5.09857 -0.94198 
-1.57876 -0.94198 -5.55458 
-5.17882 -0.0393809 -1.58734 
-0.0393809 -5.31242 -1.01264 
-1.58734 -1.01264 -5.43108 
-2.27168 -0.04791 4.72957 
-0.04791 -2.8679 0.25186 
4.72957 0.25186 -3.49203 
-3.82149 0.0554214 4.67085 
0.0554214 -2.67976 0.204212 
4.67085 0.204212 -2.13037 
-2.88645 -0.025464 4.49624 
-0.025464 -2.84184 0.319359 
4.49624 0.319359 -2.90333 
-2.72415 -0.0168751 4.00751 
-0.0168751 -2.89008 0.586162 
4.00751 0.586162 -3.01739 
-3.37868 -0.50766 1.91644 
-0.50766 -4.81764 3.99965 
1.91644 3.99965 -2.75444 
-3.44155 0.220433 1.74911 
0.220433 -3.04329 4.46589 
1.74911 4.46589 -4.46593 
-3.67175 0.0840889 1.95373 
0.0840889 -3.47639 4.08445 
1.95373 4.08445 -3.80263 
-3.75995 0.048341 1.88999 
0.048341 -2.92014 3.12376 
1.88999 3.12376 -4.27068 
-8.2713 -0.008836 1.93644 
-0.008836 -8.4854 4.09589 
1.93644 4.09589 -8.62097 
-8.15769 -0.145124 1.87846 
-0.145124 -8.27123 3.68131 
1.87846 3.68131 -8.94875 
-8.59258 0.109099 1.75156 
0.109099 -8.43955 3.92262 
1.75156 3.92262 -8.34554 
-8.65794 0.160114 1.89244 
0.160114 -8.67756 4.18699 
1.89244 4.18699 -8.04217 
-4.41573 0.0735813 -1.13603 
0.0735813 -3.9882 4.10134 
-1.13603 4.10134 -4.21072 
-4.23348 0.0277345 -1.02969 
0.0277345 -4.00799 4.14604 
-1.02969 4.14604 -4.37317 
-3.92758 0.0543974 -1.30218 
0.0543974 -3.84012 3.96051 
-1.30218 3.96051 -4.84695 
-4.2629 0.158963 -0.922472 
0.158963 -4.42112 4.09847 
-0.922472 4.09847 -3.93062 
-6.89042 -0.0545365 4.30873 
-0.0545365 -6.92976 -0.517807 
4.30873 -0.517807 -6.7802 
-7.42118 -0.140678 3.8153 
-0.140678 -6.82719 -0.81337 
3.8153 -0.81337 -6.35202 
-6.77812 -0.0297659 4.11581 
-0.0297659 -6.95291 -0.723696 
4.11581 -0.723696 -6.86935 
-6.21206 0.118757 3.94389 
0.118757 -6.86111 -0.841947 
3.94389 -0.841947 -7.52721 
-8.60977 0.137582 -1.01746 
0.137582 -8.64056 -4.06954 
-1.01746 -4.06954 -8.57728 
-8.41812 0.272759 -0.60641 
0.272759 -8.76701 -4.21774 
-0.60641 -4.21774 -8.64249 
-8.6109 0.0580318 -0.692558 
0.0580318 -8.7296 -4.04706 
-0.692558 -4.04706 -8.48711 
-8.32931 0.133533 -1.08603 
0.133533 -9.06411 -4.0705 
-1.08603 -4.0705 -8.43419 
-5.1174 -0.0827857 0.792363 
-0.0827857 -5.07761 1.95463 
0.792363 1.95463 -5.6773 
-5.48381 0.0737532 0.685543 
0.0737532 -5.50722 1.51946 
0.685543 1.51946 -4.88129 
-5.33669 0.107829 0.823549 
0.107829 -5.26573 1.73516 
0.823549 1.73516 -5.26989 
-5.26391 0.0610992 0.712883 
0.0610992 -5.22682 1.7509 
0.712883 1.7509 -5.38159 
-3.41371 0.199058 -3.59644 
0.199058 -2.96163 -1.22762 
-3.59644 -1.22762 -3.27921 
-2.91508 0.0555968 -3.64066 
0.0555968 -2.94754 -1.0564 
-3.64066 -1.0564 -3.79195 
-3.53577 0.0768287 -3.59767 
0.0768287 -2.93803 -1.33897 
-3.59767 -1.33897 -3.18077 
-3.27573 -0.076961 -3.90142 
-0.076961 -3.91852 -1.29908 
-3.90142 -1.29908 -2.46031 
-5.13002 -0.15567 1.48005 
-0.15567 -5.35237 0.475467 
1.48005 0.475467 -5.79902 
-5.99219 0.122998 1.56421 
0.122998 -5.34634 0.813727 
1.56421 0.813727 -4.94288 
-5.31439 -0.00508535 1.71942 
-0.00508535 -5.26932 0.55193 
1.71942 0.55193 -5.6977 
-5.73212 0.257404 1.39859 
0.257404 -5.54365 0.44427 
1.39859 0.44427 -5.00564 
-1.75403 -0.0219173 -2.81306 
-0.0219173 -1.7179 1.54361 
-2.81306 1.54361 -2.78147 
-1.94531 0.0515382 -2.93342 
0.0515382 -1.98849 1.39643 
-2.93342 1.39643 -2.3196 
-2.14158 -0.0275736 -2.81745 
-0.0275736 -2.09637 1.40827 
-2.81745 1.40827 -2.01546 
-2.02277 0.0570322 -2.7704 
0.0570322 -1.97089 1.32696 
-2.7704 1.32696 -2.25974 
-1.73271 0.0880568 1.40095 
0.0880568 -1.71366 0.747287 
1.40095 0.747287 -1.50548 
-1.4889 0.280367 1.42452 
0.280367 -1.59202 0.870955 
1.42452 0.870955 -1.87093 
-1.73085 0.105333 1.40201 
0.105333 -1.55327 0.793574 
1.40201 0.793574 -1.66773 
-1.53997 0.1235 1.75331 
0.1235 -1.43926 0.665888 
1.75331 0.665888 -1.97262 
-4.98155 -0.014164 3.08954 
-0.014164 -5.15988 -1.61157 
3.08954 -1.61157 -4.99703 
-5.02609 -0.0736146 3.01686 
-0.0736146 -5.03754 -1.37818 
3.01686 -1.37818 -5.07482 
-4.83391 -0.0101432 3.09284 
-0.0101432 -4.96215 -1.61464 
3.09284 -1.61464 -5.34239 
-4.97925 -0.0359437 3.0152 
-0.0359437 -4.94527 -1.63447 
3.0152 -1.63447 -5.21395 
-3.13263 0.206621 -1.10517 
0.206621 -3.5691 3.17618 
-1.10517 3.17618 -2.7572 
-3.06982 0.0228856 -0.700971 
0.0228856 -3.47821 2.89289 
-0.700971 2.89289 -2.91091 
-3.73388 0.3634 -0.474431 
0.3634 -3.38414 2.16703 
-0.474431 2.16703 -2.34092 
-2.65005 -0.193706 -0.935217 
-0.193706 -2.88098 2.79805 
-0.935217 2.79805 -3.92791 
-7.39967 0.181255 2.31466 
0.181255 -7.23121 -2.04617 
2.31466 -2.04617 -7.03191 
-7.486 0.300154 1.74076 
0.300154 -6.97317 -1.97147 
1.74076 -1.97147 -7.20362 
-7.40671 0.13074 2.09873 
0.13074 -7.10196 -2.24198 
2.09873 -2.24198 -7.15412 
-6.77202 -0.231193 1.83125 
-0.231193 -7.2081 -2.08879 
1.83125 -2.08879 -7.68267 
-2.14196 0.0749856 -0.667326 
0.0749856 -2.16509 3.22716 
-0.667326 3.22716 -1.85075 
-1.73592 -0.060758 -0.908195 
-0.060758 -2.15707 3.30619 
-0.908195 3.30619 -2.26481 
-2.02354 -0.0720796 -0.642951 
-0.0720796 -2.07481 3.11677 
-0.642951 3.11677 -2.05945 
-1.71296 0.035656 -0.901841 
0.035656 -2.00893 2.92245 
-0.901841 2.92245 -2.43591 
-1.7745 0.0674369 2.01728 
0.0674369 -2.31916 0.666721 
2.01728 0.666721 -2.54004 
-2.01738 0.0945123 1.72557 
0.0945123 -2.07104 0.914542 
1.72557 0.914542 -2.54528 
-2.01731 -0.164075 1.27211 
-0.164075 -1.60318 0.813797 
1.27211 0.813797 -3.01321 
-2.16136 0.291306 1.94425 
0.291306 -2.51189 1.30786 
1.94425 1.30786 -1.96045 
-6.44704 -0.0865076 -1.41215 
-0.0865076 -6.17187 -3.9671 
-1.41215 -3.9671 -6.80581 
-6.25427 0.137606 -1.51099 
0.137606 -7.00304 -3.8813 
-1.51099 -3.8813 -6.16742 
-6.46059 -0.0411581 -1.60895 
-0.0411581 -6.33419 -3.77074 
-1.60895 -3.77074 -6.62994 
-6.32126 0.0235885 -1.75696 
0.0235885 -6.16613 -3.51719 
-1.75696 -3.51719 -6.93733 
-2.25722 0.0625174 1.74255 
0.0625174 -2.05486 -2.521 
1.74255 -2.521 -2.00183 
-1.88981 -0.0608701 1.72166 
-0.0608701 -1.9304 -2.5623 
1.72166 -2.5623 -2.49369 
-2.056 -0.049525 1.78803 
-0.049525 -2.04832 -2.56012 
1.78803 -2.56012 -2.20959 
-1.96102 -0.00267957 1.58384 
-0.00267957 -1.92213 -2.8277 
1.58384 -2.8277 -2.43075 
-6.30177 -0.005534 -1.10393 
-0.005534 -6.58784 2.91899 
-1.10393 2.91899 -6.43981 
-6.21235 -0.0179703 -1.0886 
-0.0179703 -6.63134 2.89592 
-1.0886 2.89592 -6.48573 
-7.1031 0.174597 -0.795315 
0.174597 -6.46706 2.61798 
-0.795315 2.61798 -5.75926 
-6.55135 0.1558 -1.40965 
0.1558 -5.86236 2.78038 
-1.40965 2.78038 -6.9157 
-8.95857 0.0945457 -1.8792 
0.0945457 -8.76561 2.02569 
-1.8792 2.02569 -8.89424 
-8.69813 -0.22945 -1.86554 
-0.22945 -9.46265 2.09567 
-1.86554 2.09567 -8.45762 
-8.53723 -0.119128 -1.94338 
-0.119128 -8.87103 1.9042 
-1.94338 1.9042 -9.21015 
-8.99991 0.0658063 -1.87852 
0.0658063 -8.74812 2.17276 
-1.87852 2.17276 -8.87038 
-7.2722 0.128633 1.21329 
0.128633 -7.74238 3.06951 
1.21329 3.06951 -7.29469 
-7.31925 0.273692 1.21784 
0.273692 -7.53256 3.26313 
1.21784 3.26313 -7.45747 
-7.18631 0.0117427 0.997817 
0.0117427 -7.43193 3.43688 
0.997817 3.43688 -7.69104 
-6.98055 0.20377 0.779686 
0.20377 -7.52385 3.33289 
0.779686 3.33289 -7.80488 
-8.99999 0.0465118 2.95291 
0.0465118 -8.93658 3.0189 
2.95291 3.0189 -9.03286 
-8.93057 0.0567404 3.00867 
0.0567404 -8.80603 2.98118 
3.00867 2.98118 -9.23284 
-8.89566 -0.0486085 2.85155 
-0.0486085 -8.73569 3.01698 
2.85155 3.01698 -9.33809 
-8.99704 -0.114627 3.12932 
-0.114627 -9.16551 3.15596 
3.12932 3.15596 -8.80689 
-5.52028 0.253094 0.332443 
0.253094 -5.52036 2.20679 
0.332443 2.20679 -5.16146 
-5.88471 0.114054 0.262658 
0.114054 -5.621 1.91678 
0.262658 1.91678 -4.69638 
-5.15546 -0.12495 0.421197 
-0.12495 -5.25681 2.32737 
0.421197 2.32737 -5.78983 
-5.41942 0.106476 0.139974 
0.106476 -5.32125 2.16743 
0.139974 2.16743 -5.46142 
-8.04767 -0.035365 -0.184025 
-0.035365 -8.16987 3.19841 
-0.184025 3.19841 -8.27779 
-8.25491 -0.145415 -0.355862 
-0.145415 -8.14842 3.24734 
-0.355862 3.24734 -8.092 
-8.07541 -0.157509 -0.2403 
-0.157509 -8.16605 3.30591 
-0.2403 3.30591 -8.25386 
-8.40367 -0.0724815 -0.577692 
-0.0724815 -8.26405 3.49096 
-0.577692 3.49096 -7.8276 
-8.10892 -0.290871 -3.74422 
-0.290871 -8.22256 -2.04187 
-3.74422 -2.04187 -8.86918 
-8.53438 0.257402 -3.71122 
0.257402 -8.70519 -2.57917 
-3.71122 -2.57917 -7.9611 
-8.55831 0.246097 -3.52556 
0.246097 -8.35223 -2.39838 
-3.52556 -2.39838 -8.29012 
-8.26719 0.0542268 -3.52348 
0.0542268 -8.15081 -2.6541 
-3.52348 -2.6541 -8.78267 
-6.32937 -0.23305 2.105 
-0.23305 -6.61986 4.0417 
2.105 4.0417 -6.55643 
-6.52459 -0.105948 2.09889 
-0.105948 -6.67042 3.64104 
2.09889 3.64104 -6.31065 
-6.7192 0.300657 1.85517 
0.300657 -5.61738 3.84765 
1.85517 3.84765 -7.16908 
-6.32609 0.00111816 1.98851 
0.00111816 -6.76084 3.71684 
1.98851 3.71684 -6.41872 
-9.63681 0.0740326 0.515078 
0.0740326 -9.60743 -1.50459 
0.515078 -1.50459 -9.51094 
-9.52502 0.117614 0.384123 
0.117614 -9.30986 -1.37579 
0.384123 -1.37579 -9.9203 
-9.53945 0.0152146 0.648574 
0.0152146 -9.21693 -1.42538 
0.648574 -1.42538 -9.99881 
-9.68705 -0.0161834 0.480443 
-0.0161834 -9.71972 -1.52851 
0.480443 -1.52851 -9.34842 
-9.00519 0.307353 -0.948198 
0.307353 -8.682 3.12348 
-0.948198 3.12348 -9.38854 
-8.90885 0.295026 -0.441239 
0.295026 -8.94065 2.44027 
-0.441239 2.44027 -9.22623 
-9.1153 -0.117922 -0.515517 
-0.117922 -9.12974 2.43211 
-0.515517 2.43211 -8.83069 
-9.2424 -0.03779 -0.902508 
-0.03779 -8.81849 3.23499 
-0.902508 3.23499 -9.01484 
-1.18708 0.0225453 -1.64874 
0.0225453 -0.938075 1.26898 
-1.64874 1.26898 -1.04661 
-0.742896 0.1758 -1.24928 
0.1758 -1.8294 1.42053 
-1.24928 1.42053 -0.599468 
-1.09497 -0.0118131 -1.57875 
-0.0118131 -1.02807 1.33098 
-1.57875 1.33098 -1.04872 
-0.662548 -0.00393678 -1.91911 
-0.00393678 -1.103 1.05119 
-1.91911 1.05119 -1.40622 
-8.34728 0.0169771 -3.14693 
0.0169771 -8.14309 -2.18037 
-3.14693 -2.18037 -7.7379 
-8.2349 -0.044685 -2.87788 
-0.044685 -8.2645 -2.22022 
-2.87788 -2.22022 -7.72886 
-8.19938 0.0226677 -3.19227 
0.0226677 -7.95816 -2.11912 
-3.19227 -2.11912 -8.07072 
-8.14493 -0.126314 -3.11967 
-0.126314 -8.14362 -2.12682 
-3.11967 -2.12682 -7.93972 
-5.96979 0.220436 2.58129 
0.220436 -6.58633 2.03372 
2.58129 2.03372 -6.47694 
-5.98982 0.0923919 2.73224 
0.0923919 -6.55837 1.9157 
2.73224 1.9157 -6.48487 
-6.35338 0.0114663 2.67921 
0.0114663 -5.91712 1.94907 
2.67921 1.94907 -6.76255 
-6.61442 0.0561858 2.51466 
0.0561858 -6.26026 2.05167 
2.51466 2.05167 -6.15838 
-7.70363 -0.212954 0.653049 
-0.212954 -9.27216 -4.52981 
0.653049 -4.52981 -7.152 
-8.22111 -0.0198653 1.06059 
-0.0198653 -7.58994 -4.52292 
1.06059 -4.52292 -8.31673 
-7.7058 0.151592 1.20852 
0.151592 -7.18547 -4.63566 
1.20852 -4.63566 -9.23652 
-8.46296 -0.105961 1.60063 
-0.105961 -7.72353 -3.79075 
1.60063 -3.79075 -7.94129 
-3.59808 0.026704 2.12259 
0.026704 -3.76316 -3.7773 
2.12259 -3.7773 -3.90075 
-3.66316 0.140419 2.35868 
0.140419 -3.60131 -3.83242 
2.35868 -3.83242 -3.99752 
-3.8598 0.0510062 1.78404 
0.0510062 -4.09005 -4.40642 
1.78404 -4.40642 -3.31214 
-2.99715 -0.126233 2.35074 
-0.126233 -3.92541 -3.1884 
2.35074 -3.1884 -4.33943 
-3.92203 -0.088692 -2.52197 
-0.088692 -4.22823 1.31594 
-2.52197 1.31594 -4.09298 
-4.48033 0.324149 -2.48649 
0.324149 -3.90144 1.04983 
-2.48649 1.04983 -3.86147 
-3.97483 -0.0751245 -2.2475 
-0.0751245 -3.84105 1.37356 
-2.2475 1.37356 -4.42735 
-4.08547 0.118217 -2.45403 
0.118217 -3.80876 1.16676 
-2.45403 1.16676 -4.349 
-6.02781 0.489702 0.462183 
0.489702 -6.82375 -4.50884 
0.462183 -4.50884 -4.654 
-5.56767 -0.208779 0.807948 
-0.208779 -5.13578 -4.75978 
0.807948 -4.75978 -6.80212 
-5.85192 -0.0561547 0.390297 
-0.0561547 -5.67333 -4.60825 
0.390297 -4.60825 -5.98031 
-5.67802 -0.162083 -0.191895 
-0.162083 -5.61255 -4.23337 
-0.191895 -4.23337 -6.215 
-3.38363 -0.407645 -3.09603 
-0.407645 -3.4388 -3.4822 
-3.09603 -3.4822 -2.73482 
-2.80555 0.204068 -3.0173 
0.204068 -2.82805 -3.47568 
-3.0173 -3.47568 -3.92366 
-3.14446 0.030647 -3.0454 
0.030647 -3.1572 -3.22213 
-3.0454 -3.22213 -3.25559 
-3.11508 0.0525058 -2.71832 
0.0525058 -3.22086 -2.77775 
-2.71832 -2.77775 -3.22131 
-7.00443 -0.158937 3.10295 
-0.158937 -6.95444 -3.96431 
3.10295 -3.96431 -8.58775 
-7.45299 -0.248468 2.44427 
-0.248468 -7.45887 -3.86843 
2.44427 -3.86843 -7.63476 
-8.04468 0.830519 2.63366 
0.830519 -8.27213 -3.38539 
2.63366 -3.38539 -6.22981 
-7.23504 -0.438451 1.99505 
-0.438451 -7.16318 -3.40803 
1.99505 -3.40803 -8.1484 
-6.79249 0.0914957 -1.1501 
0.0914957 -6.47539 4.41056 
-1.1501 4.41056 -6.36307 
-6.28021 0.270148 -1.14117 
0.270148 -6.60943 4.19241 
-1.14117 4.19241 -6.74132 
-5.95241 0.407107 -1.39873 
0.407107 -6.04464 4.16229 
-1.39873 4.16229 -7.6339 
-7.05083 0.0420167 -0.856313 
0.0420167 -6.91274 3.91369 
-0.856313 3.91369 -5.66738 
-5.77766 0.14735 -4.69704 
0.14735 -5.829 -0.286299 
-4.69704 -0.286299 -3.56388 
-4.26833 0.272055 -4.60724 
0.272055 -4.34403 0.400075 
-4.60724 0.400075 -6.55818 
-5.05604 -0.200238 -3.77855 
-0.200238 -5.29433 0.133689 
-3.77855 0.133689 -4.82016 
-5.11687 -0.12958 -3.88705 
-0.12958 -4.88132 -0.133083 
-3.88705 -0.133083 -5.17234 
-8.43637 -0.502995 -0.583459 
-0.502995 -8.67917 -2.61453 
-0.583459 -2.61453 -8.91012 
-8.49352 -0.0955748 -0.660604 
-0.0955748 -8.78498 -3.0535 
-0.660604 -3.0535 -8.74715 
-8.66358 -0.20726 -0.673248 
-0.20726 -8.77891 -2.76272 
-0.673248 -2.76272 -8.58316 
-8.76171 -0.164864 -0.727667 
-0.164864 -8.81937 -3.26834 
-0.727667 -3.26834 -8.44457 
-8.62875 0.0726197 -0.743916 
0.0726197 -8.66082 -3.50378 
-0.743916 -3.50378 -8.83601 
-8.84807 0.199829 -0.710296 
0.199829 -8.82812 -3.47513 
-0.710296 -3.47513 -8.4494 
-8.59195 0.0977347 -0.667831 
0.0977347 -8.64793 -3.34925 
-0.667831 -3.34925 -8.8857 
-8.70491 -0.0238001 -0.677616 
-0.0238001 -8.7657 -3.44546 
-0.677616 -3.44546 -8.65497 
-5.56173 -0.0134539 -3.22864 
-0.0134539 -5.70301 -3.23356 
-3.22864 -3.23356 -5.64881 
-5.51631 -0.0494256 -3.45252 
-0.0494256 -5.50116 -3.22208 
-3.45252 -3.22208 -5.89608 
-5.96725 -0.225873 -3.42093 
-0.225873 -5.93404 -2.95561 
-3.42093 -2.95561 -5.01225 
-5.51991 0.161864 -3.22478 
0.161864 -5.53908 -3.14145 
-3.22478 -3.14145 -5.85455 
-5.64861 -0.146747 -2.6408 
-0.146747 -5.66677 3.51325 
-2.6408 3.51325 -5.51786 
-5.22962 -0.0230023 -2.41929 
-0.0230023 -5.34467 4.24417 
-2.41929 4.24417 -6.25895 
-6.11568 0.520325 -2.41968 
0.520325 -6.21197 3.96747 
-2.41968 3.96747 -4.5056 
-5.52187 -0.162448 -2.13585 
-0.162448 -5.59009 3.33889 
-2.13585 3.33889 -5.72129 
-0.555455 0.0704158 -0.694039 
0.0704158 -0.432764 -2.03045 
-0.694039 -2.03045 -0.410848 
-0.492469 0.039578 -0.742325 
0.039578 -0.51081 -2.03104 
-0.742325 -2.03104 -0.395788 
-0.851266 0.0124032 -0.667809 
0.0124032 -0.87782 -2.00571 
-0.667809 -2.00571 0.330019 
-0.38777 0.00108815 -0.736079 
0.00108815 -0.379941 -2.07157 
-0.736079 -2.07157 -0.631356 
-1.28389 -0.116921 0.710135 
-0.116921 -1.0883 0.0359991 
0.710135 0.0359991 -0.368475 
-0.818661 -0.00131719 0.849159 
-0.00131719 -1.18353 -0.212105 
0.849159 -0.212105 -0.738475 
-1.14591 0.0868995 0.947603 
0.0868995 -0.305653 -0.732543 
0.947603 -0.732543 -1.28911 
-0.710589 0.0373738 0.68205 
0.0373738 -1.24831 -0.512952 
0.68205 -0.512952 -0.781768 
-9.53466 0.0235451 -2.12697 
0.0235451 -9.80498 -0.400726 
-2.12697 -0.400726 -9.44602 
-9.13214 0.0589779 -1.76962 
0.0589779 -9.2784 -0.3232 
-1.76962 -0.3232 -10.3751 
-9.41849 -0.198374 -2.08217 
-0.198374 -9.78292 -0.385968 
-2.08217 -0.385968 -9.58426 
-9.64033 0.00644086 -2.20485 
0.00644086 -9.79939 -0.231065 
-2.20485 -0.231065 -9.34594 
-7.32367 0.143109 -0.652319 
0.143109 -6.97766 -1.88715 
-0.652319 -1.88715 -6.81784 
-6.26941 -0.414033 -0.638421 
-0.414033 -6.92857 -2.57724 
-0.638421 -2.57724 -7.92119 
-6.99436 0.0480951 -0.455223 
0.0480951 -7.10134 -2.27546 
-0.455223 -2.27546 -7.02348 
-7.5235 0.21337 -0.0800358 
0.21337 -7.36298 -2.48867 
-0.0800358 -2.48867 -6.23269 
-8.95126 0.306392 0.308608 
0.306392 -8.69327 -0.016534 
0.308608 -0.016534 -9.26853 
-9.22098 0.269053 0.430887 
0.269053 -8.968 -0.0750644 
0.430887 -0.0750644 -8.72408 
-8.86438 -0.0986088 0.360307 
-0.0986088 -9.05357 0.0220751 
0.360307 0.0220751 -8.99511 
-8.96205 -0.103065 0.393634 
-0.103065 -9.01388 -0.00742648 
0.393634 -0.00742648 -8.93713 
-5.02233 0.0861168 -1.17124 
0.0861168 -5.00373 3.51832 
-1.17124 3.51832 -4.31079 
-4.97655 0.103525 -0.885443 
0.103525 -4.58901 3.17382 
-0.885443 3.17382 -4.7713 
-4.99462 0.284528 -0.795686 
0.284528 -4.70413 3.16996 
-0.795686 3.16996 -4.63811 
-4.3139 0.00824422 -0.930444 
0.00824422 -4.2764 2.7926 
-0.930444 2.7926 -5.74656 
-1.97542 -0.14068 -2.27146 
-0.14068 -1.90364 -1.00707 
-2.27146 -1.00707 -1.71767 
-1.77351 0.0110559 -2.3073 
0.0110559 -2.00109 -0.792038 
-2.3073 -0.792038 -1.82213 
-1.57821 0.0439613 -2.29831 
0.0439613 -1.66048 -0.397465 
-2.29831 -0.397465 -2.35805 
-1.75 0.0671999 -2.21965 
0.0671999 -1.87182 -0.754074 
-2.21965 -0.754074 -1.97492 
-9.02224 -0.215724 -3.74529 
-0.215724 -8.84131 -2.62121 
-3.74529 -2.62121 -9.2478 
-8.97043 0.164312 -3.47864 
0.164312 -8.80827 -2.15094 
-3.47864 -2.15094 -9.33265 
-9.00393 -0.145442 -3.19554 
-0.145442 -8.47261 -2.29916 
-3.19554 -2.29916 -9.63481 
-9.33871 -0.0624523 -3.88926 
-0.0624523 -8.9749 -2.66719 
-3.88926 -2.66719 -8.79774 
-1.95458 -0.3373 2.46783 
-0.3373 -3.12586 -4.28842 
2.46783 -4.28842 -4.29885 
-3.52444 0.118192 1.99162 
0.118192 -2.65796 -3.27282 
1.99162 -3.27282 -3.19688 
-3.92197 -0.288966 2.64992 
-0.288966 -4.02407 -3.82447 
2.64992 -3.82447 -1.43325 
-3.67777 0.0883074 2.38597 
0.0883074 -2.7783 -3.64342 
2.38597 -3.64342 -2.92321 
-5.65521 -0.0490219 -0.739216 
-0.0490219 -5.65465 -2.33131 
-0.739216 -2.33131 -5.53795 
-5.57226 0.221169 -0.889271 
0.221169 -6.41664 -2.78888 
-0.889271 -2.78888 -4.8589 
-5.51465 -0.0140284 -0.829877 
-0.0140284 -5.47415 -2.54808 
-0.829877 -2.54808 -5.859 
-5.662 -0.0238912 -0.763003 
-0.0238912 -5.68358 -2.43578 
-0.763003 -2.43578 -5.50222 
-2.17307 -0.0147259 -2.08335 
-0.0147259 -1.98899 2.92737 
-2.08335 2.92737 -2.1311 
-2.08494 0.053096 -2.17331 
0.053096 -1.79609 3.10123 
-2.17331 3.10123 -2.41214 
-2.04994 -0.0223607 -2.11738 
-0.0223607 -1.99661 3.12622 
-2.11738 3.12622 -2.24662 
-1.65495 0.08325 -1.96375 
0.08325 -1.95017 3.21142 
-1.96375 3.21142 -2.68805 
-1.48499 -0.00307599 1.0505 
-0.00307599 -1.30816 3.28136 
1.0505 3.28136 -1.11103 
-1.22801 -0.0970546 1.03675 
-0.0970546 -1.20279 3.61191 
1.03675 3.61191 -1.47337 
-1.50195 -0.156261 1.04455 
-0.156261 -1.28866 3.61736 
1.04455 3.61736 -1.11356 
-1.21236 -0.0715314 1.0631 
-0.0715314 -1.30508 3.23769 
1.0631 3.23769 -1.38673 
-2.20565 0.212109 -1.6034 
0.212109 -1.81059 2.5286 
-1.6034 2.5286 -1.60849 
-1.68782 -0.0409209 -1.32288 
-0.0409209 -1.78395 2.78344 
-1.32288 2.78344 -2.15295 
-1.60768 -0.30331 -1.54677 
-0.30331 -1.79987 2.53171 
-1.54677 2.53171 -2.21718 
-1.95463 -0.17542 -1.39464 
-0.17542 -1.83587 2.48984 
-1.39464 2.48984 -1.83423 
-7.13117 0.0161623 2.56441 
0.0161623 -7.03242 1.65779 
2.56441 1.65779 -6.60987 
-6.85733 -0.249187 2.39726 
-0.249187 -6.83594 1.81954 
2.39726 1.81954 -7.08019 
-6.91042 -0.258581 2.54673 
-0.258581 -6.90092 1.89057 
2.54673 1.89057 -6.96212 
-6.55756 -0.243228 2.36605 
-0.243228 -6.79354 2.24322 
2.36605 2.24322 -7.42237 
-5.10188 -0.0759815 3.06803 
-0.0759815 -4.93602 -0.95836 
3.06803 -0.95836 -4.39397 
-4.71071 -0.00910077 2.59249 
-0.00910077 -4.83923 -0.892484 
2.59249 -0.892484 -4.88193 
-5.03196 0.151169 2.88221 
0.151169 -4.74283 -0.910802 
2.88221 -0.910802 -4.65708 
-5.04777 -0.0277831 2.83268 
-0.0277831 -4.82228 -0.932736 
2.83268 -0.932736 -4.56183 
-4.92692 0.170702 0.184384 
0.170702 -4.13013 4.80773 
0.184384 4.80773 -5.56411 
-4.83059 -0.0415201 0.400144 
-0.0415201 -4.84178 4.41878 
0.400144 4.41878 -4.9488 
-4.86839 -0.22494 0.152275 
-0.22494 -5.71013 4.81437 
0.152275 4.81437 -4.04265 
-4.90911 -0.0466738 0.217227 
-0.0466738 -4.71956 3.88595 
0.217227 3.88595 -4.99249 
-8.26273 -0.0516724 3.39138 
-0.0516724 -8.66148 2.38218 
3.39138 2.38218 -8.04785 
-8.16461 -0.0171525 3.76055 
-0.0171525 -8.52517 2.39452 
3.76055 2.39452 -8.28228 
-8.10487 -0.0927846 3.474 
-0.0927846 -8.28825 2.49802 
3.474 2.49802 -8.57893 
-8.26772 -0.2614 3.78837 
-0.2614 -8.76966 2.25125 
3.78837 2.25125 -7.93468 
-1.05245 -0.088944 2.66931 
-0.088944 -1.26346 0.826876 
2.66931 0.826876 -1.16082 
-1.03268 -0.0693272 2.60075 
-0.0693272 -1.24452 0.874516 
2.60075 0.874516 -1.19953 
-1.82266 0.313205 2.59651 
0.313205 -0.941681 0.813243 
2.59651 0.813243 -0.712386 
-1.18521 0.0339669 2.55646 
0.0339669 -0.977496 0.707552 
2.55646 0.707552 -1.31403 
-5.21331 0.152439 0.695555 
0.152439 -5.23994 -1.67889 
0.695555 -1.67889 -5.09322 
-5.39728 0.14985 0.661045 
0.14985 -5.06658 -1.71038 
0.661045 -1.71038 -5.08261 
-5.02489 -0.00728328 0.647622 
-0.00728328 -5.08799 -1.89993 
0.647622 -1.89993 -5.43359 
-5.77659 -0.0241525 0.391973 
-0.0241525 -5.48172 -1.54437 
0.391973 -1.54437 -4.28816 
-6.19748 0.184909 -2.66849 
0.184909 -5.88738 1.20584 
-2.66849 1.20584 -5.97974 
-6.68693 -0.322449 -2.39198 
-0.322449 -6.46811 0.815584 
-2.39198 0.815584 -4.90956 
-5.4445 -0.430585 -2.73706 
-0.430585 -5.76877 0.612511 
-2.73706 0.612511 -6.85133 
-6.18026 0.124159 -2.6537 
0.124159 -5.93996 1.05504 
-2.6537 1.05504 -5.94439 
-1.05289 -0.0746659 1.63581 
-0.0746659 -1.8527 -2.23672 
1.63581 -2.23672 -0.875379 
-1.39065 0.10222 1.7841 
0.10222 -1.19394 -2.18728 
1.7841 -2.18728 -1.19638 
-1.1234 -0.0276218 1.86451 
-0.0276218 -1.2672 -2.10798 
1.86451 -2.10798 -1.39037 
-1.05301 -0.0255482 1.60515 
-0.0255482 -1.3905 -2.1734 
1.60515 -2.1734 -1.33746 
-6.64882 -0.0802345 -2.10228 
-0.0802345 -6.45033 -4.17948 
-2.10228 -4.17948 -8.80709 
-7.82958 -0.394131 -0.803287 
-0.394131 -7.83489 -4.48015 
-0.803287 -4.48015 -6.24177 
-6.89077 0.166083 -1.49572 
0.166083 -7.54481 -3.71168 
-1.49572 -3.71168 -7.47066 
-7.33433 0.105177 -1.38214 
0.105177 -7.28875 -3.90192 
-1.38214 -3.90192 -7.28315 
-9.67109 -0.0682175 1.59286 
-0.0682175 -9.69171 -2.19375 
1.59286 -2.19375 -9.5669 
-9.47063 -0.13918 1.45892 
-0.13918 -9.36927 -2.25517 
1.45892 -2.25517 -10.0898 
-9.49182 -0.187483 1.64728 
-0.187483 -9.59543 -2.12841 
1.64728 -2.12841 -9.84245 
-9.77278 -0.0132904 1.65818 
-0.0132904 -9.75876 -2.1712 
1.65818 -2.1712 -9.39816 
-8.13381 0.288853 -2.47315 
0.288853 -8.11572 3.23863 
-2.47315 3.23863 -8.76235 
-8.39054 -0.0452353 -2.65848 
-0.0452353 -8.23888 3.67806 
-2.65848 3.67806 -8.38246 
-8.4879 -0.0482534 -2.53573 
-0.0482534 -8.34289 3.61041 
-2.53573 3.61041 -8.18108 
-8.57034 -0.11553 -2.72938 
-0.11553 -8.60112 3.87577 
-2.72938 3.87577 -7.84042 
-9.36281 0.0277618 3.46811 
0.0277618 -9.37096 -0.0211185 
3.46811 -0.0211185 -9.64453 
-9.30757 0.0536098 3.58695 
0.0536098 -9.43957 -0.0148976 
3.58695 -0.0148976 -9.63116 
-9.12511 -0.00755328 3.56842 
-0.00755328 -9.0899 0.185656 
3.56842 0.185656 -10.1633 
-9.54454 0.044049 3.52259 
0.044049 -9.48633 -0.0591427 
3.52259 -0.0591427 -9.34743 
-5.6234 0.0672745 1.22596 
0.0672745 -5.60389 -4.13889 
1.22596 -4.13889 -4.65542 
-5.06347 -0.0385172 1.91759 
-0.0385172 -5.13592 -4.34059 
1.91759 -4.34059 -5.68332 
-5.13106 -0.341358 1.4804 
-0.341358 -5.1011 -4.061 
1.4804 -4.061 -5.65055 
-5.33975 -0.104293 1.61702 
-0.104293 -5.15053 -4.08541 
1.61702 -4.08541 -5.39243 
-9.12648 0.111121 4.01603 
0.111121 -8.88088 1.63724 
4.01603 1.63724 -9.17988 
-8.74824 -0.330992 3.73406 
-0.330992 -8.78889 1.39519 
3.73406 1.39519 -9.6501 
-8.93883 0.0938568 3.82753 
0.0938568 -9.03511 1.62849 
3.82753 1.62849 -9.2133 
-9.14789 -0.154455 4.24564 
-0.154455 -9.27356 1.74283 
4.24564 1.74283 -8.76578 
-5.69013 -0.176276 -1.17669 
-0.176276 -5.74767 3.01439 
-1.17669 3.01439 -5.88942 
-5.81466 -0.304691 -1.14775 
-0.304691 -5.65334 2.98499 
-1.14775 2.98499 -5.85921 
-5.57415 -0.0473606 -1.31826 
-0.0473606 -5.5851 3.09702 
-1.31826 3.09702 -6.16796 
-5.95823 -0.105679 -0.776433 
-0.105679 -6.12849 2.98841 
-0.776433 2.98841 -5.2405 
-1.45229 -0.057049 -1.09935 
-0.057049 -1.29164 3.11933 
-1.09935 3.11933 -0.827649 
-1.09085 -0.114725 -1.29926 
-0.114725 -1.05639 2.71128 
-1.29926 2.71128 -1.42433 
-1.2606 -0.0055925 -1.18936 
-0.0055925 -1.20265 2.77176 
-1.18936 2.77176 -1.10832 
-1.10425 -0.018035 -1.16692 
-0.018035 -1.2481 2.99208 
-1.16692 2.99208 -1.21924 
-2.19199 -0.0370996 0.612959 
-0.0370996 -2.22103 3.20905 
0.612959 3.20905 -1.86378 
-1.84128 0.0613629 0.961284 
0.0613629 -1.99637 2.93524 
0.961284 2.93524 -2.43916 
-1.98995 -0.103684 0.608099 
-0.103684 -2.12548 3.14371 
0.608099 3.14371 -2.16137 
-1.90178 0.161089 0.795714 
0.161089 -2.11393 3.31508 
0.795714 3.31508 -2.26109 
-0.918253 -0.0387035 1.18538 
-0.0387035 -1.17479 1.71676 
1.18538 1.71676 -1.09555 
-1.85758 -0.268838 1.3076 
-0.268838 -0.924163 1.27988 
1.3076 1.27988 -0.406849 
-1.01462 0.045896 1.22727 
0.045896 -1.1998 1.68132 
1.22727 1.68132 -0.974178 
-1.06868 -0.153677 0.814159 
-0.153677 -0.415705 1.89679 
0.814159 1.89679 -1.70422 
-8.24258 0.0800382 2.48995 
0.0800382 -8.18928 3.07463 
2.48995 3.07463 -8.14053 
-8.23153 0.0713296 2.71307 
0.0713296 -8.17792 3.25351 
2.71307 3.25351 -8.16294 
-8.11737 0.0312598 2.6534 
0.0312598 -8.09885 3.26141 
2.6534 3.26141 -8.35617 
-8.30767 0.132294 2.58638 
0.132294 -8.11633 3.35479 
2.58638 3.35479 -8.1484 
-3.78255 0.0345584 3.49355 
0.0345584 -3.85834 2.48661 
3.49355 2.48661 -4.39176 
-4.34158 0.200632 4.02268 
0.200632 -4.06603 2.65399 
4.02268 2.65399 -3.62505 
-3.95051 0.101662 3.50093 
0.101662 -3.90288 2.37453 
3.50093 2.37453 -4.17927 
-4.02873 -0.134134 3.25367 
-0.134134 -3.60329 2.15601 
3.25367 2.15601 -4.40063 
-4.59648 0.306686 -2.35133 
0.306686 -4.11657 -3.68663 
-2.35133 -3.68663 -5.23807 
-4.61204 0.157537 -2.5022 
0.157537 -4.63431 -3.71595 
-2.5022 -3.71595 -4.70477 
-4.88949 -0.0492605 -2.57518 
-0.0492605 -4.86163 -4.09861 
-2.57518 -4.09861 -4.2 
-4.80534 -0.184468 -2.61239 
-0.184468 -4.89055 -3.58402 
-2.61239 -3.58402 -4.25522 
-9.41483 -0.0178509 -1.18498 
-0.0178509 -9.72818 2.03365 
-1.18498 2.03365 -9.51947 
-9.23237 -0.173878 -1.41794 
-0.173878 -9.09561 2.17221 
-1.41794 2.17221 -10.3345 
-9.41127 -0.140142 -1.16618 
-0.140142 -9.61006 2.10084 
-1.16618 2.10084 -9.64115 
-9.61672 0.0307855 -1.06871 
0.0307855 -9.7315 2.0984 
-1.06871 2.0984 -9.31426 
-4.67543 0.139212 -1.02595 
0.139212 -3.97951 2.9048 
-1.02595 2.9048 -3.61086 
-3.90159 -0.0814518 -0.361859 
-0.0814518 -3.86515 3.28085 
-0.361859 3.28085 -4.49906 
-3.66979 -0.0253974 -0.793105 
-0.0253974 -4.33755 3.30547 
-0.793105 3.30547 -4.25846 
-3.98375 -0.0702824 -0.754295 
-0.0702824 -4.12371 3.10708 
-0.754295 3.10708 -4.15834 
-2.2553 0.0341945 -1.57845 
0.0341945 -2.23652 -2.84881 
-1.57845 -2.84881 -1.95143 
-2.14645 0.00580544 -1.46359 
0.00580544 -2.07185 -2.82485 
-1.46359 -2.82485 -2.22494 
-1.75125 0.017895 -1.44617 
0.017895 -1.71362 -2.86282 
-1.44617 -2.86282 -2.97838 
-2.22148 -0.0111056 -1.52111 
-0.0111056 -1.87249 -2.9449 
-1.52111 -2.9449 -2.34927 
-4.20582 0.146747 3.26079 
0.146747 -3.76884 2.64082 
3.26079 2.64082 -4.64226 
-4.38308 0.0106236 3.41818 
0.0106236 -4.13869 2.87386 
3.41818 2.87386 -4.09515 
-4.09673 0.0961784 3.09798 
0.0961784 -3.86041 2.59894 
3.09798 2.59894 -4.65978 
-3.87136 -0.0300753 3.18209 
-0.0300753 -4.01297 2.2087 
3.18209 2.2087 -4.73259 
-0.363737 0.043374 -0.551145 
0.043374 -0.677478 -2.21502 
-0.551145 -2.21502 -0.268459 
-0.938904 0.0143107 -0.458988 
0.0143107 -0.9446 -2.24717 
-0.458988 -2.24717 0.57383 
-0.431663 0.0535123 -0.506088 
0.0535123 -0.475917 -2.23721 
-0.506088 -2.23721 -0.402094 
-0.379774 0.0390277 -0.621606 
0.0390277 -0.343097 -2.29833 
-0.621606 -2.29833 -0.586803 
-5.45599 -0.0784424 3.08109 
-0.0784424 -5.18817 0.353508 
3.08109 0.353508 -5.50349 
-5.40782 -0.0473555 3.0815 
-0.0473555 -5.15065 0.258386 
3.0815 0.258386 -5.58917 
-5.78335 0.0267038 3.13446 
0.0267038 -5.01646 0.351205 
3.13446 0.351205 -5.34783 
-5.73809 -0.226762 3.20666 
-0.226762 -5.64283 0.274019 
3.20666 0.274019 -4.76673 
-1.82429 0.0320452 1.64469 
0.0320452 -1.68956 -0.439234 
1.64469 -0.439234 -1.48527 
-1.53859 0.0519827 1.66304 
0.0519827 -1.79114 -0.241295 
1.66304 -0.241295 -1.66939 
-1.57837 -0.0152566 1.57955 
-0.0152566 -1.76871 -0.263731 
1.57955 -0.263731 -1.65204 
-1.35882 0.00873466 1.69164 
0.00873466 -1.49447 0.119138 
1.69164 0.119138 -2.14582 
-3.64837 -0.103082 3.71541 
-0.103082 -3.80394 1.10559 
3.71541 1.10559 -3.19938 
-3.39686 -0.291612 3.19747 
-0.291612 -3.67224 0.757017 
3.19747 0.757017 -3.58258 
-3.69376 -0.206698 3.8362 
-0.206698 -3.43412 0.954882 
3.8362 0.954882 -3.5238 
-3.38301 -0.303574 3.11407 
-0.303574 -3.88063 0.848244 
3.11407 0.848244 -3.38805 
-3.35261 0.15616 -0.450247 
0.15616 -2.50072 4.25923 
-0.450247 4.25923 -3.81652 
-3.09544 0.00215848 -0.20376 
0.00215848 -3.34522 4.2263 
-0.20376 4.2263 -3.22919 
-3.04404 0.0496929 -0.0639105 
0.0496929 -3.33682 4.3426 
-0.0639105 4.3426 -3.289 
-3.64737 -0.0499313 -0.0259909 
-0.0499313 -3.41059 3.89255 
-0.0259909 3.89255 -2.61189 
-5.80151 1.01843 4.31514 
1.01843 -6.92228 2.24575 
4.31514 2.24575 -7.9728 
-7.42719 -0.37689 4.00405 
-0.37689 -6.60109 2.06057 
4.00405 2.06057 -6.66831 
-7.48095 -0.606055 4.18115 
-0.606055 -7.10103 1.76673 
4.18115 1.76673 -6.11461 
-7.01789 -0.044555 2.92073 
-0.044555 -6.0568 1.28157 
2.92073 1.28157 -7.62189 
-9.04724 -0.106678 2.18827 
-0.106678 -8.96135 2.01679 
2.18827 2.01679 -10.4855 
-9.50335 -0.0115499 2.09783 
-0.0115499 -9.55291 2.10714 
2.09783 2.10714 -9.43782 
-9.21594 -0.122411 2.1294 
-0.122411 -9.78292 2.15748 
2.1294 2.15748 -9.49523 
-9.5778 -0.0287774 2.04808 
-0.0287774 -9.6706 2.03173 
2.04808 2.03173 -9.24568 
-9.44511 -0.0960734 0.822614 
-0.0960734 -9.41386 3.75519 
0.822614 3.75519 -9.68868 
-9.25082 -0.00318182 0.728666 
-0.00318182 -9.11875 3.6608 
0.728666 3.6608 -10.1781 
-9.52774 -0.0423799 0.819477 
-0.0423799 -9.4542 3.65797 
0.819477 3.65797 -9.56573 
-9.59604 -0.014049 0.913102 
-0.014049 -9.54137 3.64603 
0.913102 3.64603 -9.41025 
-4.97197 -0.0356217 1.1915 
-0.0356217 -4.85319 -0.436622 
1.1915 -0.436622 -4.39022 
-4.68214 0.015332 1.24781 
0.015332 -4.69254 -0.782892 
1.24781 -0.782892 -4.84071 
-4.84215 -0.00586105 1.22413 
-0.00586105 -4.87229 -0.694633 
1.22413 -0.694633 -4.50094 
-4.81896 0.0188597 1.21625 
0.0188597 -4.89774 -0.715979 
1.21625 -0.715979 -4.49869 
-7.88524 0.220534 -3.98138 
0.220534 -7.078 0.864975 
-3.98138 0.864975 -6.64839 
-6.73238 -0.223432 -3.87153 
-0.223432 -7.11783 1.03493 
-3.87153 1.03493 -7.76142 
-7.01675 0.0322948 -4.40149 
0.0322948 -7.54256 0.9377 
-4.40149 0.9377 -7.05232 
-6.77377 -0.0509872 -4.08557 
-0.0509872 -7.43038 0.769489 
-4.08557 0.769489 -7.40749 
-6.91462 0.24597 1.47238 
0.24597 -6.52958 4.00933 
1.47238 4.00933 -7.54586 
-7.1457 -0.337218 1.59313 
-0.337218 -7.26015 3.71692 
1.59313 3.71692 -6.5842 
-7.19598 0.10141 1.72837 
0.10141 -6.98755 4.14652 
1.72837 4.14652 -6.80653 
-6.90233 0.256566 1.69431 
0.256566 -6.90193 3.95167 
1.69431 3.95167 -7.1858 
-9.31608 0.115996 0.712623 
0.115996 -9.50976 -0.272808 
0.712623 -0.272808 -9.9571 
-9.58128 0.0010758 0.535544 
0.0010758 -9.70041 -0.182888 
0.535544 -0.182888 -9.50125 
-9.30518 0.0265157 0.617594 
0.0265157 -9.57282 0.00264245 
0.617594 0.00264245 -9.90494 
-9.74433 -0.0181977 0.497724 
-0.0181977 -9.68836 -0.176231 
0.497724 -0.176231 -9.35025 
-5.30829 -0.0452914 -0.552786 
-0.0452914 -5.42397 -2.20551 
-0.552786 -2.20551 -5.67508 
-5.5664 0.101446 -0.526112 
0.101446 -5.34277 -2.09752 
-0.526112 -2.09752 -5.49818 
-5.25651 -0.124509 -0.503873 
-0.124509 -5.12826 -1.81338 
-0.503873 -1.81338 -6.02257 
-5.78059 -0.0445149 -0.325773 
-0.0445149 -5.60025 -2.23112 
-0.325773 -2.23112 -5.02651 
-6.38612 -0.0315312 1.66709 
-0.0315312 -6.43633 3.9282 
1.66709 3.9282 -5.65038 
-5.85754 0.371515 1.88666 
0.371515 -6.11093 3.61491 
1.88666 3.61491 -6.50436 
-5.99514 0.0570353 2.45032 
0.0570353 -5.96018 3.83401 
2.45032 3.83401 -6.51752 
-6.2249 0.208769 2.05584 
0.208769 -6.02836 3.66753 
2.05584 3.66753 -6.21958 
-3.74377 -0.121389 4.01103 
-0.121389 -3.19435 1.60791 
4.01103 1.60791 -3.365 
-3.29224 0.416775 4.09609 
0.416775 -3.05124 1.23447 
4.09609 1.23447 -3.95964 
-3.41061 0.186758 3.74895 
0.186758 -3.57251 2.12078 
3.74895 2.12078 -3.32 
-3.72427 -0.127096 3.21542 
-0.127096 -3.64844 2.19116 
3.21542 2.19116 -2.93041 
-1.36564 -0.070357 -2.80497 
-0.070357 -1.22485 2.19184 
-2.80497 2.19184 -1.19365 
-1.44328 0.518985 -2.86244 
0.518985 -1.52751 2.16766 
-2.86244 2.16766 -0.81335 
-1.1798 0.147677 -2.79861 
0.147677 -1.18441 1.99362 
-2.79861 1.99362 -1.41994 
-1.20169 -0.0605365 -2.80811 
-0.0605365 -1.30626 2.09649 
-2.80811 2.09649 -1.2762 
-2.26909 -0.00379063 2.84489 
-0.00379063 -2.388 -1.94364 
2.84489 -1.94364 -2.25555 
-2.17504 -0.00487062 2.99741 
-0.00487062 -2.02548 -1.54449 
2.99741 -1.54449 -2.71212 
-2.19035 -0.107541 2.87257 
-0.107541 -2.29002 -1.88113 
2.87257 -1.88113 -2.43227 
-2.23908 -0.0656877 2.82442 
-0.0656877 -2.22584 -1.76575 
2.82442 -1.76575 -2.44773 
-8.36613 -0.0318295 -3.33418 
-0.0318295 -8.45519 -0.903039 
-3.33418 -0.903039 -7.92074 
-8.26993 -0.00885654 -3.51925 
-0.00885654 -8.31335 -1.0334 
-3.51925 -1.0334 -8.15879 
-8.1358 -0.0706867 -3.37384 
-0.0706867 -8.21075 -1.09097 
-3.37384 -1.09097 -8.39551 
-8.35961 -0.0729641 -3.24817 
-0.0729641 -8.24238 -1.1053 
-3.24817 -1.1053 -8.14007 
-8.70853 -0.52014 -2.283 
-0.52014 -8.55094 -2.20068 
-2.283 -2.20068 -9.53983 
-8.79741 0.0866531 -2.61574 
0.0866531 -8.95767 -2.35331 
-2.61574 -2.35331 -9.04423 
-8.84884 -0.0312068 -2.56495 
-0.0312068 -8.86738 -2.30034 
-2.56495 -2.30034 -9.08308 
-9.07309 -0.186411 -2.65083 
-0.186411 -9.05841 -2.53905 
-2.65083 -2.53905 -8.6678 
-6.808 -0.0770143 0.0616034 
-0.0770143 -6.79024 1.66316 
0.0616034 1.66316 -6.59388 
-6.58089 0.0843626 0.20372 
0.0843626 -6.83728 1.67942 
0.20372 1.67942 -6.77395 
-6.66947 -0.0490189 0.145328 
-0.0490189 -6.84273 1.71652 
0.145328 1.71652 -6.67992 
-6.52127 0.000776608 0.126793 
0.000776608 -6.57843 1.86058 
0.126793 1.86058 -7.09241 
-1.9235 0.211507 -4.63825 
0.211507 -2.13089 0.24277 
-4.63825 0.24277 -4.21807 
-2.66657 -0.183128 -3.8688 
-0.183128 -2.93223 -0.201568 
-3.8688 -0.201568 -2.67366 
-3.57427 0.122106 -4.62902 
0.122106 -3.67024 -0.434379 
-4.62902 -0.434379 -1.02795 
-2.78243 -0.0960069 -4.02084 
-0.0960069 -2.60355 -0.292118 
-4.02084 -0.292118 -2.88648 
-0.602672 -0.0445413 2.43244 
-0.0445413 -0.580168 0.607631 
2.43244 0.607631 -0.170718 
-0.823545 0.00639154 2.41999 
0.00639154 -0.530353 0.38043 
2.41999 0.38043 0.000340329 
-0.42547 -0.0577746 2.46148 
-0.0577746 -0.485002 0.502246 
2.46148 0.502246 -0.443086 
-0.321028 0.00121028 2.5062 
0.00121028 -0.428948 0.573252 
2.5062 0.573252 -0.603582 
-2.07827 -0.0481755 -0.521772 
-0.0481755 -2.22495 1.34308 
-0.521772 1.34308 -2.72018 
-2.73721 -0.00922656 -0.79939 
-0.00922656 -2.06362 1.76414 
-0.79939 1.76414 -2.22257 
-2.49536 0.113285 -0.517016 
0.113285 -2.0664 1.59342 
-0.517016 1.59342 -2.46165 
-2.49626 0.0380814 -0.766157 
0.0380814 -2.25056 1.39477 
-0.766157 1.39477 -2.27658 
-5.97198 -0.263516 -0.0380211 
-0.263516 -6.33334 2.60207 
-0.0380211 2.60207 -7.3472 
-6.56646 -0.0813345 0.240254 
-0.0813345 -6.76339 2.43824 
0.240254 2.43824 -6.32267 
-6.54115 -0.24693 0.0368077 
-0.24693 -6.53428 2.39357 
0.0368077 2.39357 -6.57708 
-6.8465 0.0252763 -0.263372 
0.0252763 -6.96633 2.20954 
-0.263372 2.20954 -5.83969 
-1.18201 0.0978553 3.86477 
0.0978553 -1.28417 -0.400683 
3.86477 -0.400683 -2.7902 
-1.50434 0.0396158 3.49977 
0.0396158 -1.83081 -0.297838 
3.49977 -0.297838 -1.92124 
-1.84266 0.0159346 3.49114 
0.0159346 -1.88166 -0.146052 
3.49114 -0.146052 -1.53207 
-1.57423 -0.0443936 3.52513 
-0.0443936 -1.82306 -0.408884 
3.52513 -0.408884 -1.85909 
-4.95201 -0.00927392 0.159817 
-0.00927392 -4.84831 2.66424 
0.159817 2.66424 -4.9892 
-5.04896 -0.0127699 0.105405 
-0.0127699 -4.79477 2.85635 
0.105405 2.85635 -4.9458 
-5.06055 0.17301 0.0491105 
0.17301 -4.90202 2.6409 
0.0491105 2.6409 -4.82696 
-4.81363 -0.00604035 0.275648 
-0.00604035 -4.8121 3.01749 
0.275648 3.01749 -5.16381 
-3.41675 0.0477171 3.96987 
0.0477171 -3.24131 -1.52186 
3.96987 -1.52186 -3.36442 
-3.59317 0.0101401 3.75585 
0.0101401 -3.6505 -1.49963 
3.75585 -1.49963 -2.77881 
-3.16331 -0.0569927 3.911 
-0.0569927 -3.27425 -1.37954 
3.911 -1.37954 -3.58493 
-3.49129 0.0429528 3.96777 
0.0429528 -3.32648 -1.386 
3.96777 -1.386 -3.20471 
-1.36633 -0.0173806 -1.13307 
-0.0173806 -1.28118 3.52836 
-1.13307 3.52836 -1.31096 
-1.24318 0.0314706 -1.16901 
0.0314706 -1.21026 3.55643 
-1.16901 3.55643 -1.50503 
-1.51033 0.186881 -1.11777 
0.186881 -1.32196 3.29044 
-1.11777 3.29044 -1.12618 
-1.28267 0.0334503 -1.12751 
0.0334503 -1.26472 3.37529 
-1.12751 3.37529 -1.41108 
-2.18763 0.0285319 0.659631 
0.0285319 -2.26192 3.16628 
0.659631 3.16628 -2.00069 
-2.02992 0.0941758 0.68228 
0.0941758 -2.10806 3.17834 
0.68228 3.17834 -2.31226 
-1.85111 0.107429 0.501964 
0.107429 -2.10869 2.91287 
0.501964 2.91287 -2.49044 
-1.69967 0.0311629 0.350246 
0.0311629 -2.23853 3.30167 
0.350246 3.30167 -2.51204 
-6.47844 -0.146048 -0.960636 
-0.146048 -6.62453 2.75703 
-0.960636 2.75703 -6.55096 
-6.88864 -0.175054 -0.831479 
-0.175054 -6.60539 2.98371 
-0.831479 2.98371 -6.15989 
-6.68173 -0.018946 -1.06703 
-0.018946 -6.44096 2.1735 
-1.06703 2.1735 -6.53123 
-6.53788 -0.335376 -1.30309 
-0.335376 -6.24958 2.14992 
-1.30309 2.14992 -6.86646 
-8.84366 0.154122 1.19245 
0.154122 -8.59604 -4.31571 
1.19245 -4.31571 -8.65089 
-8.6354 0.132317 1.13422 
0.132317 -8.70433 -4.3395 
1.13422 -4.3395 -8.75086 
-8.17069 0.191616 1.2911 
0.191616 -8.59605 -3.84781 
1.2911 -3.84781 -9.32386 
-9.02696 0.114048 0.981591 
0.114048 -9.06317 -4.45878 
0.981591 -4.45878 -8.00046 
-5.45112 0.108451 0.243093 
0.108451 -5.63869 -1.30713 
0.243093 -1.30713 -5.55325 
-5.44595 0.0295675 -0.0059851 
0.0295675 -5.51672 -1.05408 
-0.0059851 -1.05408 -5.6804 
-5.58549 -0.0398993 0.0144408 
-0.0398993 -5.67319 -1.20547 
0.0144408 -1.20547 -5.38439 
-5.62764 -0.0794951 0.275328 
-0.0794951 -5.70748 -1.31127 
0.275328 -1.31127 -5.30795 
-8.75041 -0.129484 -2.22325 
-0.129484 -9.08556 -1.90988 
-2.22325 -1.90988 -9.05652 
-8.90751 0.0913252 -2.33826 
0.0913252 -9.44662 -2.04657 
-2.33826 -2.04657 -8.53835 
-8.41755 -0.0592686 -1.96442 
-0.0592686 -8.92548 -1.15664 
-1.96442 -1.15664 -9.54945 
-8.95743 0.219764 -1.77518 
0.219764 -8.82002 -1.57874 
-1.77518 -1.57874 -9.11503 
-1.47694 -0.267449 1.92386 
-0.267449 -1.76318 3.17828 
1.92386 3.17828 -0.628009 
-0.937877 -0.172542 2.15755 
-0.172542 -1.29177 2.71142 
2.15755 2.71142 -1.63848 
-1.3758 0.296 2.22084 
0.296 -1.19055 2.9854 
2.22084 2.9854 -1.30177 
-1.29603 0.0644779 2.1947 
0.0644779 -1.32219 2.95244 
2.1947 2.95244 -1.24991 
-8.00389 -0.0949318 -1.6717 
-0.0949318 -7.74872 -1.61019 
-1.6717 -1.61019 -7.25524 
-7.06647 0.0959372 -2.13429 
0.0959372 -8.19302 -1.71394 
-2.13429 -1.71394 -7.74837 
-7.47414 0.192463 -1.60963 
0.192463 -7.98859 -1.67125 
-1.60963 -1.67125 -7.54512 
-7.38862 0.0621006 -2.35188 
0.0621006 -7.52761 -1.55988 
-2.35188 -1.55988 -8.09163 
-9.6124 -0.0291602 1.0122 
-0.0291602 -9.71496 -2.0662 
1.0122 -2.0662 -9.5441 
-9.36649 -0.00546986 1.02161 
-0.00546986 -9.64321 -1.96454 
1.02161 -1.96454 -9.86176 
-9.26445 0.115326 1.12351 
0.115326 -9.48669 -2.17083 
1.12351 -2.17083 -10.1203 
-9.75712 -0.0427914 1.00469 
-0.0427914 -9.71535 -2.0087 
1.00469 -2.0087 -9.39898 
-3.66736 -0.109177 -4.06349 
-0.109177 -3.48635 1.85527 
-4.06349 1.85527 -3.61712 
-4.13267 -0.0832698 -3.8414 
-0.0832698 -3.78964 1.81347 
-3.8414 1.81347 -2.84853 
-3.59603 -0.0697962 -4.20477 
-0.0697962 -3.52587 1.94896 
-4.20477 1.94896 -3.64893 
-3.45123 -0.0190213 -3.66757 
-0.0190213 -2.80457 1.59895 
-3.66757 1.59895 -4.51504 
-1.29501 0.0419899 4.0587 
0.0419899 -1.39896 -0.490203 
4.0587 -0.490203 -1.62461 
-1.48637 -0.133771 4.36764 
-0.133771 -1.41791 -0.3127 
4.36764 -0.3127 -1.4143 
-1.5191 -0.194924 4.32142 
-0.194924 -1.46323 -0.561374 
4.32142 -0.561374 -1.33625 
-1.13103 -0.315555 4.22288 
-0.315555 -1.57859 -0.114808 
4.22288 -0.114808 -1.60895 
-1.21425 -0.283609 -3.30754 
-0.283609 -1.3881 1.87556 
-3.30754 1.87556 -1.43644 
-1.22761 0.37736 -2.99307 
0.37736 -1.07347 1.77 
-2.99307 1.77 -1.73771 
-1.74132 0.473066 -3.16193 
0.473066 -1.59729 1.99553 
-3.16193 1.99553 -0.700172 
-1.40989 -0.170717 -3.41049 
-0.170717 -1.22267 1.5487 
-3.41049 1.5487 -1.40622 
-1.01578 0.032379 1.47677 
0.032379 -1.08757 -1.42218 
1.47677 -1.42218 -0.912132 
-1.13997 0.299233 1.38121 
0.299233 -0.550392 -1.45328 
1.38121 -1.45328 -1.32512 
-1.17588 0.00242692 1.52405 
0.00242692 -1.16072 -1.60202 
1.52405 -1.60202 -0.678889 
-0.932835 0.0691383 1.56981 
0.0691383 -1.08735 -1.44235 
1.56981 -1.44235 -0.995304 
-3.42708 0.0391506 1.51317 
0.0391506 -3.37471 2.29429 
1.51317 2.29429 -2.97319 
-3.24098 -0.162436 1.2117 
-0.162436 -3.11123 2.32308 
1.2117 2.32308 -3.42278 
-3.40526 0.00978104 1.65252 
0.00978104 -3.35979 2.19998 
1.65252 2.19998 -3.00994 
-3.80069 0.231055 1.02137 
0.231055 -3.82128 2.5391 
1.02137 2.5391 -2.15301 
-0.711708 -0.181966 -1.7208 
-0.181966 -0.513027 -3.26 
-1.7208 -3.26 -0.438334 
-1.1636 0.0273189 -1.46583 
0.0273189 -1.12274 -3.23851 
-1.46583 -3.23851 0.623267 
-0.46623 -0.151596 -1.80495 
-0.151596 -0.7018 -3.27686 
-1.80495 -3.27686 -0.495039 
-0.492627 0.0104449 -1.71884 
0.0104449 -0.466143 -3.38526 
-1.71884 -3.38526 -0.7043 
-4.73307 -0.0632661 -0.645831 
-0.0632661 -4.79206 -4.86955 
-0.645831 -4.86955 -3.95915 
-4.49932 -0.0929634 -0.331159 
-0.0929634 -4.57819 -4.61913 
-0.331159 -4.61913 -4.40677 
-4.5469 0.319381 -0.611953 
0.319381 -3.48253 -4.20954 
-0.611953 -4.20954 -5.45485 
-4.54466 -0.192096 -0.241784 
-0.192096 -4.79188 -4.44436 
-0.241784 -4.44436 -4.14774 
-9.72012 0.0254528 1.44721 
0.0254528 -9.64959 -1.63148 
1.44721 -1.63148 -9.54542 
-9.48059 0.0968817 1.58987 
0.0968817 -9.32237 -1.72264 
1.58987 -1.72264 -10.1122 
-9.69276 0.0322651 1.36454 
0.0322651 -9.34051 -1.62834 
1.36454 -1.62834 -9.88186 
-9.72917 -0.0173486 1.37696 
-0.0173486 -9.77726 -1.63479 
1.37696 -1.63479 -9.40871 
-3.37586 -0.004278 -4.60598 
-0.004278 -2.9318 0.287652 
-4.60598 0.287652 -2.51914 
-2.39296 0.00171771 -4.62649 
0.00171771 -3.07781 0.324734 
-4.62649 0.324734 -3.35604 
-3.13885 0.0710227 -4.51666 
0.0710227 -2.85346 0.207244 
-4.51666 0.207244 -2.8345 
-2.99547 -0.0920834 -4.0504 
-0.0920834 -2.86727 0.510841 
-4.0504 0.510841 -2.96406 
-0.732006 0.00634853 -0.0709357 
0.00634853 -0.766563 2.93706 
-0.0709357 2.93706 -0.324818 
-0.749763 -0.0747133 0.0377446 
-0.0747133 -0.85695 3.07274 
0.0377446 3.07274 -0.216673 
-0.736279 -0.0347887 0.154954 
-0.0347887 -0.822281 2.92622 
0.154954 2.92622 -0.264827 
-0.49238 -0.0185646 0.035552 
-0.0185646 -0.653581 2.87761 
0.035552 2.87761 -0.677426 
-6.22806 -0.173235 -2.42016 
-0.173235 -6.44923 2.3187 
-2.42016 2.3187 -6.2514 
-6.35801 0.111398 -2.41495 
0.111398 -5.99386 2.31445 
-2.41495 2.31445 -6.57681 
-6.12893 -0.00720349 -2.42121 
-0.00720349 -6.4226 2.35001 
-2.42121 2.35001 -6.37715 
-6.78759 0.134319 -2.40518 
0.134319 -6.2003 2.34723 
-2.40518 2.34723 -5.94079 
-6.35596 -0.01363 -3.53616 
-0.01363 -6.41772 1.46156 
-3.53616 1.46156 -5.99504 
-6.21574 0.0639386 -3.38037 
0.0639386 -6.53114 1.28485 
-3.38037 1.28485 -6.02184 
-6.34988 -0.00297245 -3.42067 
-0.00297245 -6.21693 1.31959 
-3.42067 1.31959 -6.20191 
-6.05657 0.103379 -3.43374 
0.103379 -6.39864 1.17396 
-3.43374 1.17396 -6.31352 
-1.47881 0.0537415 1.62184 
0.0537415 -0.806136 0.0407941 
1.62184 0.0407941 -0.629802 
-1.09199 -0.0675324 1.33551 
-0.0675324 -0.681197 -0.621726 
1.33551 -0.621726 -1.14156 
-1.15486 0.0976677 1.42313 
0.0976677 -0.932573 -0.428809 
1.42313 -0.428809 -0.827307 
-1.01398 -0.0448688 1.6277 
-0.0448688 -0.922195 -0.0736875 
1.6277 -0.0736875 -0.97857 
-2.58625 0.292912 2.3692 
0.292912 -2.49505 -3.89791 
2.3692 -3.89791 -2.50712 
-2.41078 0.247815 2.01521 
0.247815 -2.91206 -3.5866 
2.01521 -3.5866 -2.26559 
-2.36192 -0.0525849 2.34728 
-0.0525849 -2.37307 -4.12433 
2.34728 -4.12433 -2.85343 
-2.6599 0.345436 2.19838 
0.345436 -2.75655 -3.40786 
2.19838 -3.40786 -2.17197 
-5.00685 -0.035267 -3.35951 
-0.035267 -4.87265 2.73834 
-3.35951 2.73834 -5.71915 
-5.24699 -0.0709788 -3.51329 
-0.0709788 -4.8458 2.45176 
-3.51329 2.45176 -5.50587 
-5.39754 0.0133237 -3.88107 
0.0133237 -5.08393 2.00508 
-3.88107 2.00508 -5.11718 
-5.32577 -0.128108 -3.61703 
-0.128108 -4.81201 2.43175 
-3.61703 2.43175 -5.46088 
-4.36725 0.284979 -3.00427 
0.284979 -4.48434 -3.30222 
-3.00427 -3.30222 -4.35388 
-4.70721 -0.366578 -2.68853 
-0.366578 -4.82586 -3.29802 
-2.68853 -3.29802 -3.67239 
-4.13208 0.20464 -2.46701 
0.20464 -4.10317 -2.89137 
-2.46701 -2.89137 -4.97021 
-4.51672 0.249746 -2.72122 
0.249746 -4.23042 -3.13296 
-2.72122 -3.13296 -4.45832 
-9.03998 0.116634 -3.06758 
0.116634 -8.18321 0.0753475 
-3.06758 0.0753475 -9.21392 
-8.69536 0.0539581 -3.37059 
0.0539581 -8.84174 0.219243 
-3.37059 0.219243 -8.9 
-9.00933 -0.0180582 -3.39967 
-0.0180582 -8.75827 0.333927 
-3.39967 0.333927 -8.6695 
-9.03332 0.0165144 -3.10903 
0.0165144 -8.60368 0.105958 
-3.10903 0.105958 -8.8001 
-3.71361 0.0445998 1.72079 
0.0445998 -3.62493 -3.68905 
1.72079 -3.68905 -3.94297 
-3.44736 0.0531792 1.5647 
0.0531792 -3.7877 -3.54664 
1.5647 -3.54664 -4.04645 
-3.84356 -0.017215 1.60069 
-0.017215 -3.6487 -3.67981 
1.60069 -3.67981 -3.78925 
-3.84965 0.0155127 1.54256 
0.0155127 -3.66785 -3.56676 
1.54256 -3.56676 -3.76402 
-5.83095 -0.230724 2.83937 
-0.230724 -5.75466 -3.35366 
2.83937 -3.35366 -5.68103 
-5.40381 0.127746 2.80711 
0.127746 -6.02533 -3.87946 
2.80711 -3.87946 -5.8375 
-5.26178 -0.10965 2.24309 
-0.10965 -6.09919 -3.79459 
2.24309 -3.79459 -5.90567 
-6.26653 0.0708669 2.89811 
0.0708669 -5.7588 -3.0217 
2.89811 -3.0217 -5.24131 
-4.08743 -0.385117 -2.62727 
-0.385117 -4.88454 3.80158 
-2.62727 3.80158 -3.41605 
-3.65507 -0.119844 -1.94849 
-0.119844 -3.8227 4.08617 
-1.94849 4.08617 -4.91025 
-4.22468 -0.0108715 -2.35828 
-0.0108715 -4.04922 3.72474 
-2.35828 3.72474 -4.11413 
-4.02851 0.277896 -2.14917 
0.277896 -4.03513 3.59337 
-2.14917 3.59337 -4.32438 
-4.56114 0.0131739 -3.69652 
0.0131739 -4.53349 2.97805 
-3.69652 2.97805 -4.08467 
-4.30681 0.0763654 -3.69992 
0.0763654 -4.39181 2.4176 
-3.69992 2.4176 -4.48068 
-3.58711 -0.508374 -3.37734 
-0.508374 -3.99895 2.72941 
-3.37734 2.72941 -5.59324 
-4.47649 0.186225 -3.40135 
0.186225 -4.43971 2.44262 
-3.40135 2.44262 -4.26309 
-2.83061 -0.0832214 0.636972 
-0.0832214 -2.31183 3.01851 
0.636972 3.01851 -2.80742 
-2.95796 0.0243244 0.562475 
0.0243244 -2.24668 3.08923 
0.562475 3.08923 -2.74522 
-2.71528 -0.0196452 0.864663 
-0.0196452 -2.37279 3.22372 
0.864663 3.22372 -2.8618 
-2.77335 0.0654491 0.668393 
0.0654491 -2.53511 3.44744 
0.668393 3.44744 -2.6414 
-7.16106 -0.180698 0.872626 
-0.180698 -7.32528 -0.691456 
0.872626 -0.691456 -7.21121 
-7.21141 -0.178818 0.636626 
-0.178818 -7.20897 -0.321595 
0.636626 -0.321595 -7.27716 
-6.98797 -0.0129987 0.698591 
-0.0129987 -7.17392 -0.229604 
0.698591 -0.229604 -7.53566 
-7.07518 -0.0611374 0.815969 
-0.0611374 -7.20895 -0.597875 
0.815969 -0.597875 -7.41342 
-7.71868 0.145408 -0.905936 
0.145408 -7.36501 -4.63513 
-0.905936 -4.63513 -8.76042 
-8.08844 0.320028 -1.00029 
0.320028 -7.79713 -4.32271 
-1.00029 -4.32271 -7.95855 
-7.87078 -0.428517 -0.830257 
-0.428517 -8.68561 -4.66279 
-0.830257 -4.66279 -7.28772 
-8.12011 0.13365 -0.645631 
0.13365 -7.92524 -3.74558 
-0.645631 -3.74558 -7.79876 
-0.617585 -0.112808 -2.20506 
-0.112808 -0.76315 -0.314838 
-2.20506 -0.314838 0.00897125 
-0.494738 -0.0390888 -2.07448 
-0.0390888 -0.547399 -0.293349 
-2.07448 -0.293349 -0.329627 
-0.541837 -0.0415878 -1.99337 
-0.0415878 -0.792246 -0.390743 
-1.99337 -0.390743 -0.0376805 
-0.417938 -0.00825164 -2.06855 
-0.00825164 -0.420553 -0.342892 
-2.06855 -0.342892 -0.533272 
-1.45501 -0.0537429 0.714647 
-0.0537429 -1.51133 1.83357 
0.714647 1.83357 -2.15678 
-1.65346 -0.0827488 0.568137 
-0.0827488 -1.54046 1.62058 
0.568137 1.62058 -1.9292 
-1.75615 -0.00515874 0.597172 
-0.00515874 -1.78299 1.68126 
0.597172 1.68126 -1.58398 
-1.74284 -0.0211388 0.665172 
-0.0211388 -1.61461 1.76698 
0.665172 1.76698 -1.76566 
-4.62863 -0.0815854 3.09909 
-0.0815854 -4.62417 0.256864 
3.09909 0.256864 -4.46953 
-3.8158 -0.127694 3.16153 
-0.127694 -4.52526 0.196673 
3.16153 0.196673 -5.38127 
-4.84715 0.107362 3.33055 
0.107362 -4.62946 0.41838 
3.33055 0.41838 -4.24572 
-4.48843 0.0596844 3.23117 
0.0596844 -4.50892 0.442813 
3.23117 0.442813 -4.72497 
-9.20287 0.0286793 -0.915296 
0.0286793 -9.31613 3.85279 
-0.915296 3.85279 -10.1163 
-9.33347 -0.0927348 -1.04498 
-0.0927348 -9.5216 3.70409 
-1.04498 3.70409 -9.78019 
-9.54972 -0.0251158 -0.952127 
-0.0251158 -9.52516 3.74654 
-0.952127 3.74654 -9.56038 
-9.57196 0.0159954 -0.914181 
0.0159954 -9.62289 3.6668 
-0.914181 3.6668 -9.44042 
-3.28692 0.238486 3.42749 
0.238486 -3.09135 -2.91258 
3.42749 -2.91258 -3.4389 
-3.24347 0.146767 3.10306 
0.146767 -3.34252 -2.86322 
3.10306 -2.86322 -3.23118 
-2.8261 -0.334185 3.38801 
-0.334185 -3.11697 -2.8706 
3.38801 -2.8706 -3.8741 
-3.38651 0.0672669 3.28649 
0.0672669 -3.18998 -2.62744 
3.28649 -2.62744 -3.24068 
-2.92985 -0.262932 3.97789 
-0.262932 -2.44674 2.25332 
3.97789 2.25332 -2.94736 
-3.17917 -0.205342 3.51331 
-0.205342 -2.62709 1.82066 
3.51331 1.82066 -2.5177 
-2.14969 0.43518 3.63927 
0.43518 -2.70216 1.98457 
3.63927 1.98457 -3.47211 
-3.02631 -0.319936 3.31507 
-0.319936 -2.88665 2.09025 
3.31507 2.09025 -2.411 
-4.25371 -0.00537869 -1.97035 
-0.00537869 -4.15459 1.08921 
-1.97035 1.08921 -4.48663 
-4.11904 -0.0415161 -2.0776 
-0.0415161 -4.13434 0.887198 
-2.0776 0.887198 -4.64155 
-4.36509 -0.0183013 -1.98357 
-0.0183013 -4.35194 1.07405 
-1.98357 1.07405 -4.17792 
-4.20197 -0.010079 -1.74585 
-0.010079 -4.53638 0.833566 
-1.74585 0.833566 -4.15659 
-1.42923 0.174605 -3.51568 
0.174605 -1.5166 -1.04246 
-3.51568 -1.04246 -2.5665 
-1.62844 0.0485958 -3.36974 
0.0485958 -1.80817 -1.34394 
-3.36974 -1.34394 -2.07572 
-2.04524 -0.121849 -3.37654 
-0.121849 -1.88266 -1.53258 
-3.37654 -1.53258 -1.58443 
-1.74555 -0.000635558 -3.42522 
-0.000635558 -1.9365 -1.24922 
-3.42522 -1.24922 -1.83028 
-1.29026 -0.455478 2.69583 
-0.455478 -1.30179 0.152921 
2.69583 0.152921 -0.78105 
-1.02748 0.0661113 2.75891 
0.0661113 -1.16726 0.12304 
2.75891 0.12304 -1.17836 
-1.01809 0.102605 2.76776 
0.102605 -1.19756 0.172564 
2.76776 0.172564 -1.15745 
-1.00641 -0.135836 2.60082 
-0.135836 -1.05029 0.256592 
2.60082 0.256592 -1.3164 
-5.64964 -0.0659778 -2.14228 
-0.0659778 -5.65178 2.19367 
-2.14228 2.19367 -5.96621 
-5.93076 -0.229498 -2.41183 
-0.229498 -5.63534 2.31416 
-2.41183 2.31416 -5.70152 
-6.00594 -0.301748 -2.48895 
-0.301748 -5.6995 2.10279 
-2.48895 2.10279 -5.56219 
-5.93206 -0.279423 -2.88111 
-0.279423 -6.06675 2.25447 
-2.88111 2.25447 -5.26882 
-8.50348 -0.356205 -0.697595 
-0.356205 -8.57507 3.17762 
-0.697595 3.17762 -9.62127 
-8.99966 -0.585407 -0.960675 
-0.585407 -9.3745 3.72438 
-0.960675 3.72438 -8.32566 
-8.88035 -0.0326962 -0.60138 
-0.0326962 -8.94815 3.6119 
-0.60138 3.6119 -8.87132 
-8.96827 0.0424215 -0.482312 
0.0424215 -8.83172 3.55066 
-0.482312 3.55066 -8.89983 
-5.25303 -0.053492 -1.97637 
-0.053492 -5.12406 -0.236704 
-1.97637 -0.236704 -5.75714 
-5.30233 0.0477078 -1.88589 
0.0477078 -5.42203 -0.0648493 
-1.88589 -0.0648493 -5.40988 
-5.85718 0.311888 -1.77992 
0.311888 -5.91552 -0.301 
-1.77992 -0.301 -4.36154 
-5.62738 0.208717 -1.93046 
0.208717 -5.33821 -0.15209 
-1.93046 -0.15209 -5.16865 
-7.12482 0.0698415 -0.808313 
0.0698415 -7.1207 -2.59559 
-0.808313 -2.59559 -7.04623 
-6.75872 -0.504426 -0.546596 
-0.504426 -6.44364 -2.5248 
-0.546596 -2.5248 -8.08939 
-7.15996 0.15105 -1.17707 
0.15105 -7.32663 -2.29484 
-1.17707 -2.29484 -6.80516 
-7.45144 0.17939 -0.296502 
0.17939 -7.64075 -2.72104 
-0.296502 -2.72104 -6.19956 
-2.08527 0.0203767 -0.297138 
0.0203767 -2.01505 3.54284 
-0.297138 3.54284 -1.83702 
-1.98814 0.108863 -0.286652 
0.108863 -1.96535 3.52113 
-0.286652 3.52113 -1.98386 
-1.8341 0.258193 -0.42379 
0.258193 -1.77412 3.43757 
-0.42379 3.43757 -2.32912 
-1.805 0.072214 -0.191168 
0.072214 -1.85771 3.20472 
-0.191168 3.20472 -2.27464 
-7.50208 0.220297 0.170094 
0.220297 -7.15571 1.67976 
0.170094 1.67976 -7.29564 
-7.59544 0.223007 0.585954 
0.223007 -7.49897 1.62211 
0.585954 1.62211 -6.85902 
-7.41475 0.188798 0.0018299 
0.188798 -7.13503 1.81497 
0.0018299 1.81497 -7.40365 
-7.13805 -0.11956 0.0777334 
-0.11956 -7.17086 1.88513 
0.0777334 1.88513 -7.64452 
-0.826537 0.0437303 1.18113 
0.0437303 -0.846596 1.90331 
1.18113 1.90331 0.529247 
-0.465866 -0.0457377 1.19818 
-0.0457377 -0.363394 1.93591 
1.19818 1.93591 -0.314624 
-0.687309 -0.00997991 1.22311 
-0.00997991 -0.191614 1.94083 
1.22311 1.94083 -0.264962 
-0.297259 0.0648247 1.18406 
0.0648247 -0.253905 2.03907 
1.18406 2.03907 -0.592721 
-4.47181 0.125995 -0.861475 
0.125995 -4.78832 1.02554 
-0.861475 1.02554 -4.6097 
-4.99651 -0.201238 -0.90993 
-0.201238 -4.64639 0.842477 
-0.90993 0.842477 -4.22693 
-4.64783 -0.184151 -0.90748 
-0.184151 -4.60834 0.685214 
-0.90748 0.685214 -4.61365 
-4.64417 0.225272 -0.936759 
0.225272 -4.73565 1.0072 
-0.936759 1.0072 -4.49001 
-6.97914 -0.0139624 -1.1286 
-0.0139624 -7.06587 1.40316 
-1.1286 1.40316 -6.97038 
-6.99688 -0.019713 -0.942587 
-0.019713 -6.98796 1.46669 
-0.942587 1.46669 -7.03054 
-7.11973 0.0320868 -1.02647 
0.0320868 -7.02268 1.51709 
-1.02647 1.51709 -6.87298 
-7.03211 -0.0194255 -1.18586 
-0.0194255 -7.20223 1.53357 
-1.18586 1.53357 -6.78105 
-7.54793 -0.0698292 1.49049 
-0.0698292 -7.03549 -0.14118 
1.49049 -0.14118 -7.2348 
-7.3135 -0.274407 2.02672 
-0.274407 -6.89684 0.198447 
2.02672 0.198447 -7.60788 
-7.24325 -0.0987138 1.66039 
-0.0987138 -7.00033 0.275575 
1.66039 0.275575 -7.57465 
-6.76398 0.0340358 1.63703 
0.0340358 -7.08059 0.686364 
1.63703 0.686364 -7.97365 
-0.557914 0.0227661 -0.00514044 
0.0227661 -0.561753 1.56698 
-0.00514044 1.56698 -0.204235 
-0.541912 0.0630364 0.0999159 
0.0630364 -0.554498 1.4433 
0.0999159 1.4433 -0.227492 
-0.559357 0.041789 -0.0330948 
0.041789 -0.538736 1.41956 
-0.0330948 1.41956 -0.225809 
-0.404321 0.0493272 0.0160743 
0.0493272 -0.393339 1.459 
0.0160743 1.459 -0.526242 
-3.71039 -0.123502 -0.0250403 
-0.123502 -3.47397 1.20174 
-0.0250403 1.20174 -3.91244 
-3.72651 0.00161722 -0.0333563 
0.00161722 -3.69979 1.08655 
-0.0333563 1.08655 -3.67051 
-3.78533 0.120886 -0.0107895 
0.120886 -3.90863 1.21122 
-0.0107895 1.21122 -3.40284 
-3.74051 0.00596636 0.11837 
0.00596636 -3.69155 1.17926 
0.11837 1.17926 -3.66474 
-2.22424 -0.0664766 2.77543 
-0.0664766 -2.13718 -2.74839 
2.77543 -2.74839 -1.8846 
-1.88265 -0.00777688 2.91345 
-0.00777688 -2.11886 -2.60781 
2.91345 -2.60781 -2.2445 
-1.92815 -0.080826 2.77737 
-0.080826 -2.15036 -2.59495 
2.77737 -2.59495 -2.1675 
-1.67283 0.000536226 2.9285 
0.000536226 -1.76986 -2.31044 
2.9285 -2.31044 -2.80332 
-3.25999 -0.441851 -2.19609 
-0.441851 -3.73375 3.79491 
-2.19609 3.79491 -3.51908 
-3.33328 -0.0822446 -1.92252 
-0.0822446 -3.2865 3.45085 
-1.92252 3.45085 -3.89304 
-3.76948 -0.00871855 -2.26384 
-0.00871855 -3.95686 3.99714 
-2.26384 3.99714 -2.78648 
-3.33861 -0.0815646 -2.18479 
-0.0815646 -3.55864 3.72161 
-2.18479 3.72161 -3.61556 
-9.25535 -0.0112343 -1.08345 
-0.0112343 -9.31245 -3.20835 
-1.08345 -3.20835 -9.80193 
-9.25879 -0.0170133 -0.910829 
-0.0170133 -9.28299 -3.266 
-0.910829 -3.266 -9.82795 
-9.24044 -0.00664112 -0.947404 
-0.00664112 -9.32377 -3.05549 
-0.947404 -3.05549 -9.80552 
-9.43639 -0.0285012 -0.98055 
-0.0285012 -9.51393 -3.12237 
-0.98055 -3.12237 -9.4194 
-9.11553 0.0226534 -0.417945 
0.0226534 -9.30114 -2.44342 
-0.417945 -2.44342 -10.3304 
-9.49432 0.104506 -0.615103 
0.104506 -9.72163 -2.52166 
-0.615103 -2.52166 -9.53113 
-9.62321 0.224065 -0.613549 
0.224065 -9.54624 -2.49376 
-0.613549 -2.49376 -9.57763 
-9.64882 0.0451637 -0.62914 
0.0451637 -9.76683 -2.62678 
-0.62914 -2.62678 -9.33144 
-2.64673 -0.0200272 -4.59294 
-0.0200272 -2.79352 -0.443806 
-4.59294 -0.443806 -2.78562 
-2.05088 -0.185462 -4.91794 
-0.185462 -2.54483 -0.230969 
-4.91794 -0.230969 -3.63015 
-3.93189 0.356472 -4.4183 
0.356472 -2.71838 -0.0981553 
-4.4183 -0.0981553 -1.57559 
-2.46416 -0.102512 -4.25362 
-0.102512 -2.81294 -0.879657 
-4.25362 -0.879657 -2.94876 
-1.98522 -0.000343843 3.10535 
-0.000343843 -2.0581 -2.98503 
3.10535 -2.98503 -1.57756 
-1.84045 -0.165871 3.25222 
-0.165871 -1.88539 -2.86179 
3.25222 -2.86179 -1.89502 
-1.90898 -0.104028 3.1866 
-0.104028 -1.78354 -2.73543 
3.1866 -2.73543 -1.92835 
-1.52063 -0.00880255 3.3142 
-0.00880255 -1.54369 -2.53948 
3.3142 -2.53948 -2.55654 
-4.94403 0.191741 4.03074 
0.191741 -4.4545 -2.45145 
4.03074 -2.45145 -3.13959 
-2.98814 -0.506287 3.79938 
-0.506287 -4.26392 -2.48861 
3.79938 -2.48861 -5.28605 
-4.46828 0.276783 3.73032 
0.276783 -4.13805 -2.6101 
3.73032 -2.6101 -3.93178 
-4.55573 0.0543391 2.68738 
0.0543391 -4.03681 -2.68679 
2.68738 -2.68679 -3.94558 
-6.83361 0.190821 4.48631 
0.190821 -7.34554 1.22212 
4.48631 1.22212 -8.02903 
-7.83441 -0.166053 3.77512 
-0.166053 -7.4513 2.3067 
3.77512 2.3067 -6.92247 
-7.13847 -0.315866 4.0067 
-0.315866 -7.62706 1.33809 
4.0067 1.33809 -7.44264 
-7.3937 0.18689 3.70851 
0.18689 -7.4467 1.79196 
3.70851 1.79196 -7.36778 
-1.49813 -0.249506 -2.01582 
-0.249506 -1.67937 -3.17383 
-2.01582 -3.17383 -0.978444 
-1.47017 0.159994 -1.87272 
0.159994 -1.27488 -3.22742 
-1.87272 -3.22742 -1.41089 
-1.0596 -0.402971 -1.78307 
-0.402971 -1.28103 -3.12459 
-1.78307 -3.12459 -1.8153 
-1.39526 0.0857019 -1.78792 
0.0857019 -1.34936 -3.24796 
-1.78792 -3.24796 -1.41133 
-8.91068 0.26435 2.42629 
0.26435 -8.10766 2.25378 
2.42629 2.25378 -9.77589 
-9.46633 0.138222 1.32412 
0.138222 -9.05235 1.86262 
1.32412 1.86262 -8.27554 
-8.84028 -0.180725 1.70823 
-0.180725 -8.96627 2.19595 
1.70823 2.19595 -8.98768 
-8.77421 -0.0754455 1.8519 
-0.0754455 -8.98634 2.28076 
1.8519 2.28076 -9.03368 
-1.14914 0.176326 -0.775926 
0.176326 -0.895292 2.80085 
-0.775926 2.80085 0.820729 
-0.537505 -0.146762 -1.17376 
-0.146762 -0.36802 2.86391 
-1.17376 2.86391 -0.31818 
-0.860758 0.0962785 -1.02786 
0.0962785 -0.0976658 2.90401 
-1.02786 2.90401 -0.265281 
-0.257269 0.00426076 -1.07364 
0.00426076 -0.393626 2.77394 
-1.07364 2.77394 -0.57281 
-6.66835 -0.0668981 -1.25838 
-0.0668981 -6.4714 1.92685 
-1.25838 1.92685 -6.45446 
-6.39723 0.0339092 -1.13254 
0.0339092 -6.58242 2.07137 
-1.13254 2.07137 -6.61457 
-6.47527 -0.0656797 -1.30876 
-0.0656797 -6.50656 1.86451 
-1.30876 1.86451 -6.61239 
-6.55124 0.160611 -1.19904 
0.160611 -6.80406 2.05819 
-1.19904 2.05819 -6.23891 
-8.80926 -0.0492152 -1.35411 
-0.0492152 -8.53818 -3.19531 
-1.35411 -3.19531 -8.93459 
-8.92729 -0.0421343 -1.3728 
-0.0421343 -8.74984 -3.25446 
-1.3728 -3.25446 -8.60491 
-8.75241 -0.00483193 -1.28596 
-0.00483193 -8.62422 -3.35161 
-1.28596 -3.35161 -8.9054 
-8.74729 -0.0114915 -1.35763 
-0.0114915 -8.81426 -3.31887 
-1.35763 -3.31887 -8.72048 
-3.21857 -0.0194052 3.45584 
-0.0194052 -3.2134 -1.28311 
3.45584 -1.28311 -3.44764 
-3.40582 -0.0308335 3.46018 
-0.0308335 -3.59107 -1.40274 
3.46018 -1.40274 -2.88273 
-3.36581 -0.0539562 3.2466 
-0.0539562 -3.05376 -1.25734 
3.2466 -1.25734 -3.46005 
-3.40304 0.0518299 3.45784 
0.0518299 -3.32731 -1.22108 
3.45784 -1.22108 -3.14926 
-6.60098 0.085582 3.8983 
0.085582 -6.49687 1.44114 
3.8983 1.44114 -6.6524 
-6.70712 -0.316286 3.87566 
-0.316286 -6.78647 1.28915 
3.87566 1.28915 -6.25667 
-6.48281 0.108617 3.9353 
0.108617 -6.55474 1.28395 
3.9353 1.28395 -6.71271 
-6.35726 0.125248 3.80506 
0.125248 -6.36521 1.06023 
3.80506 1.06023 -7.02778 
-8.57186 0.0726652 4.34321 
0.0726652 -8.43197 1.53502 
4.34321 1.53502 -8.6991 
-8.5643 -0.127234 4.05133 
-0.127234 -8.14718 1.13602 
4.05133 1.13602 -8.99145 
-8.61516 0.0931587 4.22589 
0.0931587 -8.55975 1.50297 
4.22589 1.50297 -8.52803 
-8.89881 0.0410194 4.35926 
0.0410194 -8.91512 1.77036 
4.35926 1.77036 -7.88901 
-3.7425 0.208117 0.528429 
0.208117 -3.65339 -0.63826 
0.528429 -0.63826 -3.73582 
-3.70083 0.0310655 0.570983 
0.0310655 -3.76974 -0.478676 
0.570983 -0.478676 -3.66113 
-4.11503 -0.0920549 0.342404 
-0.0920549 -3.69858 -0.273424 
0.342404 -0.273424 -3.31809 
-3.54064 -0.0659981 0.400582 
-0.0659981 -3.19567 -0.988366 
0.400582 -0.988366 -4.3954 
-9.30268 0.0882322 -1.1572 
0.0882322 -9.4366 2.92501 
-1.1572 2.92501 -10.0434 
-9.53187 0.0426145 -1.04308 
0.0426145 -9.69743 2.83387 
-1.04308 2.83387 -9.55337 
-9.31757 0.0763115 -1.05544 
0.0763115 -9.6952 2.74536 
-1.05544 2.74536 -9.76989 
-9.66314 0.0510334 -0.949067 
0.0510334 -9.74229 2.80587 
-0.949067 2.80587 -9.37725 
-0.780918 -0.18622 -1.41824 
-0.18622 -0.335065 0.653989 
-1.41824 0.653989 0.0158163 
-0.547113 -0.0864842 -1.38311 
-0.0864842 -0.362199 0.595257 
-1.38311 0.595257 -0.190854 
-0.708963 -0.153087 -1.32701 
-0.153087 -0.560092 0.535854 
-1.32701 0.535854 0.168889 
-0.434322 -0.0997269 -1.48699 
-0.0997269 -0.302957 0.544303 
-1.48699 0.544303 -0.362886 
-3.02493 0.19582 -4.1517 
0.19582 -2.84662 -1.11425 
-4.1517 -1.11425 -2.31802 
-2.46954 0.282361 -4.11285 
0.282361 -2.77762 -1.45279 
-4.11285 -1.45279 -2.94242 
-2.59089 0.024228 -4.2308 
0.024228 -2.43348 -2.03694 
-4.2308 -2.03694 -3.16521 
-2.49705 0.351456 -4.01138 
0.351456 -2.47187 -1.37058 
-4.01138 -1.37058 -3.22066 
-8.68848 0.0759935 2.35563 
0.0759935 -8.58091 3.63588 
2.35563 3.63588 -8.51898 
-8.23946 -0.0862373 2.18985 
-0.0862373 -8.46698 3.51634 
2.18985 3.51634 -9.08193 
-8.60631 -0.0697116 2.3717 
-0.0697116 -8.48902 3.79301 
2.3717 3.79301 -8.69304 
-8.91927 0.0272063 2.43277 
0.0272063 -8.59771 3.89528 
2.43277 3.89528 -8.27139 
-1.57274 0.0227391 -3.06788 
0.0227391 -1.41634 3.18316 
-3.06788 3.18316 -1.5839 
-1.53198 0.0279109 -3.17926 
0.0279109 -1.42637 3.14834 
-3.17926 3.14834 -1.61464 
-1.92004 -0.0213409 -2.96992 
-0.0213409 -1.59414 3.11438 
-2.96992 3.11438 -1.0588 
-1.31502 0.00829679 -3.07888 
0.00829679 -1.19352 3.05189 
-3.07888 3.05189 -2.06444 
-1.23722 -0.0513833 -4.10574 
-0.0513833 -1.4348 -0.502718 
-4.10574 -0.502718 -1.59567 
-1.45637 0.229524 -4.29907 
0.229524 -1.43515 -0.578224 
-4.29907 -0.578224 -1.37617 
-1.49044 0.113304 -4.37027 
0.113304 -1.34618 -0.229179 
-4.37027 -0.229179 -1.43108 
-1.07469 0.311815 -4.20862 
0.311815 -1.5895 -0.0999278 
-4.20862 -0.0999278 -1.6035 
-7.34657 0.136812 -3.62725 
0.136812 -7.22996 -2.49851 
-3.62725 -2.49851 -7.28171 
-6.71255 0.594629 -3.92809 
0.594629 -6.9361 -2.43818 
-3.92809 -2.43818 -8.2096 
-7.5267 -0.168887 -4.17641 
-0.168887 -7.6125 -2.50946 
-4.17641 -2.50946 -6.71905 
-7.35138 -0.00118331 -3.40887 
-0.00118331 -7.55003 -2.29773 
-3.40887 -2.29773 -6.95684 
-8.04717 0.157776 2.53199 
0.157776 -7.80384 3.85318 
2.53199 3.85318 -8.1314 
-7.74111 0.594356 2.50146 
0.594356 -7.89164 4.01624 
2.50146 4.01624 -8.34967 
-8.2249 -1.01479 2.59177 
-1.01479 -8.51393 3.78062 
2.59177 3.78062 -7.24358 
-8.24189 0.419442 1.58738 
0.419442 -7.72188 3.09858 
1.58738 3.09858 -8.01865 
-2.91093 0.0554655 1.16983 
0.0554655 -2.63004 -3.38263 
1.16983 -3.38263 -2.95322 
-2.24893 0.0129692 0.916671 
0.0129692 -2.7727 -3.74229 
0.916671 -3.74229 -3.47256 
-2.8779 0.117161 1.12843 
0.117161 -2.63776 -3.32957 
1.12843 -3.32957 -2.97853 
-3.05905 0.166505 1.0716 
0.166505 -3.39574 -3.16011 
1.0716 -3.16011 -2.03939 
-3.06247 0.0503965 3.92582 
0.0503965 -3.0227 2.34539 
3.92582 2.34539 -0.479413 
-2.12009 0.0127925 2.91304 
0.0127925 -2.21032 2.01609 
2.91304 2.01609 -2.23418 
-1.31603 -0.0216067 4.09847 
-0.0216067 -1.48046 2.07467 
4.09847 2.07467 -3.7681 
-2.13592 0.00953239 3.25972 
0.00953239 -2.21057 1.55385 
3.25972 1.55385 -2.21809 
-2.69574 0.198559 -2.22097 
0.198559 -2.99809 4.44874 
-2.22097 4.44874 -1.36203 
-2.2342 -0.774404 -1.96826 
-0.774404 -1.35928 3.9648 
-1.96826 3.9648 -3.46238 
-2.31152 0.100061 -1.76069 
0.100061 -2.4099 4.15309 
-1.76069 4.15309 -2.33444 
-2.33245 0.249571 -1.2419 
0.249571 -2.88988 3.58415 
-1.2419 3.58415 -1.83354 
-1.87481 0.0231492 1.45761 
0.0231492 -1.78999 -3.21467 
1.45761 -3.21467 -1.8685 
-1.80036 0.00681522 1.52457 
0.00681522 -1.69994 -3.20281 
1.52457 -3.20281 -2.03299 
-1.58521 -0.0209013 1.60003 
-0.0209013 -1.62168 -3.0203 
1.60003 -3.0203 -2.32641 
-1.74502 -0.0167695 1.49765 
-0.0167695 -1.74439 -3.0301 
1.49765 -3.0301 -2.04388 
-7.1369 0.256078 -4.28501 
0.256078 -6.90437 -1.27166 
-4.28501 -1.27166 -7.25201 
-7.46358 -0.080002 -3.99748 
-0.080002 -7.15128 -1.50509 
-3.99748 -1.50509 -6.67842 
-6.59162 -0.0586372 -3.64096 
-0.0586372 -6.48555 -1.12411 
-3.64096 -1.12411 -8.21611 
-6.94214 0.207396 -4.07052 
0.207396 -7.18745 -1.3162 
-4.07052 -1.3162 -7.16368 
-3.05108 0.0434939 -2.32106 
0.0434939 -3.12112 -1.04103 
-2.32106 -1.04103 -3.24447 
-3.12419 0.119571 -2.44966 
0.119571 -3.30474 -0.918062 
-2.44966 -0.918062 -2.98774 
-3.0618 -0.123326 -2.4811 
-0.123326 -3.17184 -1.09889 
-2.4811 -1.09889 -3.18302 
-3.06621 0.00122612 -2.35017 
0.00122612 -3.2529 -1.04953 
-2.35017 -1.04953 -3.09756 
-4.17548 -0.0935064 -2.23279 
-0.0935064 -4.22431 -2.18557 
-2.23279 -2.18557 -4.06656 
-4.19165 -0.276734 -2.69078 
-0.276734 -4.0256 -2.07502 
-2.69078 -2.07502 -4.24909 
-4.21171 -0.113069 -2.43703 
-0.113069 -3.96515 -1.9822 
-2.43703 -1.9822 -4.2895 
-4.14302 -0.0922131 -2.60725 
-0.0922131 -3.95039 -2.13601 
-2.60725 -2.13601 -4.37294 
-9.3383 0.446669 4.21661 
0.446669 -8.07263 -2.25125 
4.21661 -2.25125 -6.67151 
-6.75054 -0.238874 3.92976 
-0.238874 -7.65482 -2.56258 
3.92976 -2.56258 -9.67709 
-7.87709 -0.17409 3.71365 
-0.17409 -8.10166 -2.62934 
3.71365 -2.62934 -8.10369 
-8.15683 -0.246897 2.53896 
-0.246897 -8.13267 -2.71866 
2.53896 -2.71866 -7.79294 
-8.07564 -0.0562041 -1.65764 
-0.0562041 -8.10396 -2.96652 
-1.65764 -2.96652 -8.1737 
-8.24792 -0.0939153 -1.40551 
-0.0939153 -8.08047 -2.9035 
-1.40551 -2.9035 -8.0249 
-8.15309 -0.118085 -1.61957 
-0.118085 -8.1536 -2.94435 
-1.61957 -2.94435 -8.0466 
-8.17471 -0.0745603 -1.36258 
-0.0745603 -8.23762 -3.07376 
-1.36258 -3.07376 -7.94096 
-2.15735 0.0244071 -1.49546 
0.0244071 -3.04989 2.57614 
-1.49546 2.57614 -2.53163 
-2.4528 0.0910095 -1.26561 
0.0910095 -2.71229 2.60108 
-1.26561 2.60108 -2.57378 
-2.47884 -0.176626 -1.14596 
-0.176626 -2.35336 2.811 
-1.14596 2.811 -2.90667 
-2.43506 0.123725 -1.56547 
0.123725 -2.85354 2.15217 
-1.56547 2.15217 -2.45027 
-5.74746 -0.0395927 0.283144 
-0.0395927 -5.8338 2.34131 
0.283144 2.34131 -5.8362 
-5.43371 -0.0416923 0.467497 
-0.0416923 -5.87878 2.64126 
0.467497 2.64126 -6.10497 
-6.37151 -0.0870605 0.231782 
-0.0870605 -5.79047 2.17472 
0.231782 2.17472 -5.25548 
-5.60956 0.076375 0.185471 
0.076375 -6.02155 2.55646 
0.185471 2.55646 -5.78635 
-1.43537 0.337048 2.61805 
0.337048 -1.08191 2.92478 
2.61805 2.92478 0.0546738 
-0.913673 -0.286443 2.66795 
-0.286443 -0.963398 3.21961 
2.66795 3.21961 -0.585533 
-0.962957 -0.153889 2.69585 
-0.153889 -0.913568 3.26704 
2.69585 3.26704 -0.586079 
-0.780532 0.082967 2.83507 
0.082967 -0.647875 3.28134 
2.83507 3.28134 -1.0342 
-2.9095 0.255448 2.0375 
0.255448 -2.65238 4.1792 
2.0375 4.1792 -3.65753 
-3.24898 -0.139032 2.19839 
-0.139032 -3.39395 4.07684 
2.19839 4.07684 -2.57648 
-3.01283 -0.0683452 1.94043 
-0.0683452 -3.27182 4.05363 
1.94043 4.05363 -2.93478 
-3.26265 -0.0398789 1.59555 
-0.0398789 -2.919 3.81266 
1.59555 3.81266 -3.03777 
-3.58027 0.147767 -1.24402 
0.147767 -3.85003 -2.53677 
-1.24402 -2.53677 -3.95234 
-4.26456 -0.14217 -1.43428 
-0.14217 -3.67822 -2.30632 
-1.43428 -2.30632 -3.43986 
-3.67302 0.0797733 -1.40602 
0.0797733 -3.91554 -2.5331 
-1.40602 -2.5331 -3.79409 
-3.78164 -0.0497358 -1.34177 
-0.0497358 -3.57278 -2.25738 
-1.34177 -2.25738 -4.02823 
-1.53067 0.0565865 -1.41298 
0.0565865 -0.746729 0.551525 
-1.41298 0.551525 -0.49809 
-0.832811 -0.019117 -1.4304 
-0.019117 -1.09446 0.346005 
-1.4304 0.346005 -0.848225 
-0.898532 0.0186292 -1.39433 
0.0186292 -0.922206 0.278518 
-1.39433 0.278518 -0.954753 
-0.951762 0.0220147 -1.44595 
0.0220147 -0.951563 0.41695 
-1.44595 0.41695 -0.872167 
-1.83065 0.0170503 1.88501 
0.0170503 -1.9509 -1.64518 
1.88501 -1.64518 -1.70705 
-1.89241 0.0465841 1.92406 
0.0465841 -1.625 -1.4964 
1.92406 -1.4964 -1.9712 
-1.5372 -0.0027013 2.14271 
-0.0027013 -1.61831 -1.63015 
2.14271 -1.63015 -2.33309 
-1.86531 0.0215988 2.00223 
0.0215988 -1.74331 -1.60074 
2.00223 -1.60074 -1.87998 
-7.91275 0.0856688 -3.26195 
0.0856688 -7.46366 -2.7576 
-3.26195 -2.7576 -8.07185 
-8.12931 0.138937 -3.55333 
0.138937 -7.59297 -2.18953 
-3.55333 -2.18953 -7.72597 
-7.95405 -0.0886474 -3.28372 
-0.0886474 -8.1088 -2.10104 
-3.28372 -2.10104 -7.38541 
-8.11579 0.00130272 -3.71043 
0.00130272 -7.29918 -2.65825 
-3.71043 -2.65825 -8.0333 
-1.22184 0.0180351 1.65304 
0.0180351 -0.979334 0.0591033 
1.65304 0.0591033 -1.04133 
-0.933256 0.160404 1.61584 
0.160404 -1.5554 0.0610726 
1.61584 0.0610726 -0.753846 
-0.982836 0.0543192 1.56647 
0.0543192 -1.10369 0.0657078 
1.56647 0.0657078 -1.15598 
-0.999163 0.0195171 1.71204 
0.0195171 -1.10817 0.12898 
1.71204 0.12898 -1.13518 
-2.05541 0.0123472 0.693572 
0.0123472 -2.01426 -0.322669 
0.693572 -0.322669 -2.58553 
-2.56133 -0.0156742 0.80797 
-0.0156742 -2.00934 -0.724759 
0.80797 -0.724759 -2.08453 
-2.34254 0.0652436 0.684224 
0.0652436 -1.92031 -0.388733 
0.684224 -0.388733 -2.39235 
-2.35107 0.0617235 0.789985 
0.0617235 -2.07413 -0.293071 
0.789985 -0.293071 -2.23 
-9.3104 0.0100614 -2.94512 
0.0100614 -9.6075 0.143853 
-2.94512 0.143853 -9.54811 
-9.06997 0.0448664 -2.72842 
0.0448664 -9.10604 0.115454 
-2.72842 0.115454 -10.29 
-9.42641 -0.0559565 -2.96541 
-0.0559565 -9.59717 0.0799507 
-2.96541 0.0799507 -9.44243 
-9.57464 0.00962753 -3.02082 
0.00962753 -9.61099 0.195951 
-3.02082 0.195951 -9.28038 
-7.10005 0.0087118 1.71985 
0.0087118 -7.04344 0.936869 
1.71985 0.936869 -6.83249 
-6.88081 -0.183908 1.75508 
-0.183908 -6.64588 0.908949 
1.75508 0.908949 -7.44929 
-6.92066 -0.138797 1.88077 
-0.138797 -6.99176 1.00988 
1.88077 1.00988 -7.06355 
-7.14023 0.0417466 1.77229 
0.0417466 -7.10457 1.12912 
1.77229 1.12912 -6.73118 
-5.36042 0.10441 -1.17123 
0.10441 -5.15309 4.88021 
-1.17123 4.88021 -6.93621 
-5.73304 -0.119469 -0.765041 
-0.119469 -7.10828 4.23983 
-0.765041 4.23983 -4.6084 
-5.98114 -0.00877552 -1.24048 
-0.00877552 -5.54604 4.5164 
-1.24048 4.5164 -5.92254 
-6.07075 0.0203881 -1.6214 
0.0203881 -5.3686 4.09353 
-1.6214 4.09353 -6.01038 
-4.96558 -0.0773194 -0.235031 
-0.0773194 -4.92258 3.06194 
-0.235031 3.06194 -5.08876 
-4.96976 -0.0138785 -0.0814428 
-0.0138785 -4.94432 3.16839 
-0.0814428 3.16839 -5.06284 
-5.06137 0.0543519 -0.214851 
0.0543519 -5.07822 3.03619 
-0.214851 3.03619 -4.83733 
-5.00366 -0.0433068 -0.161601 
-0.0433068 -4.99703 3.03348 
-0.161601 3.03348 -4.97622 
-1.4445 0.00367881 -0.0157955 
0.00367881 -1.23634 3.39363 
-0.0157955 3.39363 -1.20543 
-1.23021 0.0472141 -0.0820569 
0.0472141 -1.20249 3.35094 
-0.0820569 3.35094 -1.45358 
-1.51006 0.024497 0.211504 
0.024497 -1.30909 3.10887 
0.211504 3.10887 -1.06713 
-1.24653 0.078964 0.10107 
0.078964 -1.24801 3.10625 
0.10107 3.10625 -1.39174 
-3.63518 -0.00401858 -0.967399 
-0.00401858 -3.64695 4.29242 
-0.967399 4.29242 -3.44256 
-3.75347 -0.0925825 -0.913747 
-0.0925825 -3.56313 4.47216 
-0.913747 4.47216 -3.4081 
-3.22426 -0.126677 -1.16894 
-0.126677 -3.41125 4.19693 
-1.16894 4.19693 -4.08919 
-3.94193 -0.0824695 -0.502487 
-0.0824695 -4.07666 4.1439 
-0.502487 4.1439 -2.70611 
-7.32742 0.0760325 1.46566 
0.0760325 -7.26548 1.84995 
1.46566 1.84995 -7.00641 
-6.83644 0.0686658 1.52914 
0.0686658 -7.39167 2.43747 
1.52914 2.43747 -7.3712 
-7.25838 0.25613 1.48748 
0.25613 -7.27997 2.16871 
1.48748 2.16871 -7.06095 
-7.13564 -0.0414228 1.41009 
-0.0414228 -7.18727 1.89274 
1.41009 1.89274 -7.27639 
-1.71834 -0.132853 -2.52406 
-0.132853 -1.86987 3.44697 
-2.52406 3.44697 -1.17472 
-1.5392 -0.00322081 -2.54032 
-0.00322081 -1.6465 3.7884 
-2.54032 3.7884 -1.57723 
-1.50678 -0.0205524 -2.5611 
-0.0205524 -1.67159 3.57042 
-2.5611 3.57042 -1.58456 
-1.47109 -0.0237426 -2.53217 
-0.0237426 -1.54866 3.80005 
-2.53217 3.80005 -1.74318 
-4.94141 -0.0227007 -3.4616 
-0.0227007 -5.08355 2.91477 
-3.4616 2.91477 -4.39382 
-4.38645 0.0389625 -3.99259 
0.0389625 -4.92726 2.07844 
-3.99259 2.07844 -5.10508 
-4.87973 0.293336 -3.59244 
0.293336 -4.92741 2.12943 
-3.59244 2.12943 -4.61164 
-4.91426 0.0237567 -3.45107 
0.0237567 -5.03213 2.50364 
-3.45107 2.50364 -4.4724 
-4.72681 -0.0666357 2.00221 
-0.0666357 -4.72567 3.01182 
2.00221 3.01182 -4.7288 
-4.5919 -0.0647511 1.91287 
-0.0647511 -4.63662 2.68434 
1.91287 2.68434 -4.95276 
-5.0641 -0.0799615 1.90185 
-0.0799615 -4.69848 3.04942 
1.90185 3.04942 -4.41869 
-4.72726 0.0310735 1.8985 
0.0310735 -4.81174 2.89277 
1.8985 2.89277 -4.64228 
-7.91983 -0.0112554 -0.697224 
-0.0112554 -7.61936 3.183 
-0.697224 3.183 -7.54156 
-7.95791 -0.0264718 -0.481096 
-0.0264718 -7.41263 2.75543 
-0.481096 2.75543 -7.71021 
-8.0392 -0.182683 -0.622685 
-0.182683 -7.33625 2.93403 
-0.622685 2.93403 -7.7053 
-7.97445 -0.114487 -0.786764 
-0.114487 -7.37242 2.69445 
-0.786764 2.69445 -7.73388 
-9.57826 0.0348315 0.404058 
0.0348315 -9.76781 -2.69862 
0.404058 -2.69862 -9.52446 
-9.43533 0.0325797 0.398849 
0.0325797 -9.55041 -2.86476 
0.398849 -2.86476 -9.88479 
-9.26578 0.248188 0.259157 
0.248188 -9.65535 -2.6114 
0.259157 -2.6114 -9.9494 
-9.70478 0.00569852 0.493996 
0.00569852 -9.80604 -2.70529 
0.493996 -2.70529 -9.35971 
-7.06741 -0.259998 0.0479934 
-0.259998 -6.96892 4.36234 
0.0479934 4.36234 -7.26961 
-7.03582 -0.116334 0.549086 
-0.116334 -7.30556 4.3266 
0.549086 4.3266 -6.96456 
-7.03071 -0.159296 0.571238 
-0.159296 -7.26925 4.33849 
0.571238 4.33849 -7.00598 
-6.7567 -0.233413 0.0664669 
-0.233413 -7.63023 4.30215 
0.0664669 4.30215 -6.91902 
-8.42127 -0.201666 -3.14545 
-0.201666 -8.40216 -2.85431 
-3.14545 -2.85431 -9.09753 
-8.41307 -0.0867406 -3.78915 
-0.0867406 -8.66449 -2.74509 
-3.78915 -2.74509 -8.84341 
-8.59292 -0.0340645 -3.53994 
-0.0340645 -8.69839 -2.61854 
-3.53994 -2.61854 -8.62965 
-8.92599 0.0600211 -3.88513 
0.0600211 -8.97352 -2.41388 
-3.88513 -2.41388 -8.02145 
-1.05096 0.014322 0.270823 
0.014322 -1.15416 1.33905 
0.270823 1.33905 -0.900625 
-1.04011 -0.030752 0.346582 
-0.030752 -1.14448 1.43381 
0.346582 1.43381 -0.921155 
-0.74637 -0.127607 0.399163 
-0.127607 -1.10362 1.43769 
0.399163 1.43769 -1.25576 
-1.04847 0.0176291 0.359267 
0.0176291 -0.991925 1.36719 
0.359267 1.36719 -1.06536 
-5.05033 -0.181305 -3.15567 
-0.181305 -5.60857 -1.28138 
-3.15567 -1.28138 -4.26144 
-4.91046 0.186109 -2.52352 
0.186109 -4.73548 -1.1825 
-2.52352 -1.1825 -5.27439 
-5.20462 0.114546 -2.52119 
0.114546 -4.9747 -1.08398 
-2.52119 -1.08398 -4.74102 
-5.11856 0.0750716 -2.73586 
0.0750716 -4.92973 -1.14033 
-2.73586 -1.14033 -4.87205 
-1.76214 -0.0244843 1.11298 
-0.0244843 -1.79851 -0.382043 
1.11298 -0.382043 -1.10433 
-1.61913 -0.155504 1.02266 
-0.155504 -1.29218 -0.592223 
1.02266 -0.592223 -1.75366 
-1.44546 0.164091 1.10606 
0.164091 -2.00287 -0.919775 
1.10606 -0.919775 -1.21665 
-1.67707 0.0202863 1.32178 
0.0202863 -1.17222 -0.49229 
1.32178 -0.49229 -1.81567 
-6.56242 0.11665 1.35119 
0.11665 -6.24193 1.95247 
1.35119 1.95247 -6.41368 
-5.81343 -0.174528 1.39555 
-0.174528 -6.43906 1.65184 
1.39555 1.65184 -6.96554 
-6.58723 0.0430907 1.49813 
0.0430907 -6.29613 1.79366 
1.49813 1.79366 -6.33467 
-6.6525 0.0914372 1.71861 
0.0914372 -6.60891 1.85438 
1.71861 1.85438 -5.95661 
-9.62706 0.00407391 3.04029 
0.00407391 -9.49917 2.42824 
3.04029 2.42824 -9.53042 
-9.42005 -0.0159841 2.95257 
-0.0159841 -9.35221 2.34836 
2.95257 2.34836 -9.88439 
-9.31348 -0.110343 3.13186 
-0.110343 -9.31745 2.46959 
3.13186 2.46959 -10.0257 
-9.64698 0.0799385 3.03514 
0.0799385 -9.62869 2.49379 
3.03514 2.49379 -9.38097 
-5.26077 -0.124148 -0.918448 
-0.124148 -5.54898 3.237 
-0.918448 3.237 -5.70949 
-5.49789 -0.0520387 -1.0021 
-0.0520387 -5.58494 3.21397 
-1.0021 3.21397 -5.43641 
-5.45253 -0.101362 -1.00681 
-0.101362 -5.28049 3.35273 
-1.00681 3.35273 -5.78621 
-5.47047 0.0799909 -0.697888 
0.0799909 -5.78831 3.22365 
-0.697888 3.22365 -5.26044 
-0.591352 0.0856147 -0.261889 
0.0856147 -0.340992 2.25876 
-0.261889 2.25876 -0.076416 
-0.479048 0.136813 -0.324001 
0.136813 -0.403789 2.06298 
-0.324001 2.06298 -0.125923 
-0.296855 0.0885984 -0.218626 
0.0885984 -0.293526 2.13752 
-0.218626 2.13752 -0.418379 
-0.243995 0.0501279 -0.160115 
0.0501279 -0.213896 2.07568 
-0.160115 2.07568 -0.550869 
-6.59826 -0.130576 4.21067 
-0.130576 -6.69028 -1.72685 
4.21067 -1.72685 -6.39898 
-7.66457 -0.0765049 4.01605 
-0.0765049 -7.06343 -1.03534 
4.01605 -1.03534 -4.95951 
-6.45684 -0.0811265 4.2803 
-0.0811265 -6.74589 -1.71539 
4.2803 -1.71539 -6.48478 
-6.38468 -0.0361601 3.43399 
-0.0361601 -5.67287 -1.68208 
3.43399 -1.68208 -7.62996 
-5.69134 0.237699 -0.965296 
0.237699 -5.23927 -4.70187 
-0.965296 -4.70187 -6.39816 
-5.87374 0.0699773 -1.23607 
0.0699773 -5.77114 -4.11217 
-1.23607 -4.11217 -5.68389 
-6.00633 -0.356255 -0.770598 
-0.356255 -6.75497 -4.61668 
-0.770598 -4.61668 -4.56748 
-5.85458 0.132025 -0.863159 
0.132025 -5.63728 -3.67754 
-0.863159 -3.67754 -5.83692 
-7.86168 -0.0648735 2.61064 
-0.0648735 -7.63008 3.20084 
2.61064 3.20084 -7.22644 
-7.51078 0.205041 2.87232 
0.205041 -7.53807 3.33131 
2.87232 3.33131 -7.66935 
-7.71636 0.0311377 2.58532 
0.0311377 -7.58827 3.22834 
2.58532 3.22834 -7.41357 
-7.61664 0.0653487 2.46768 
0.0653487 -7.76512 3.29005 
2.46768 3.29005 -7.33644 
-4.67563 0.0538531 -2.20697 
0.0538531 -4.4299 -2.25093 
-2.20697 -2.25093 -5.44008 
-4.83731 -0.114483 -2.42298 
-0.114483 -5.09753 -2.43756 
-2.42298 -2.43756 -4.61078 
-5.0972 -0.0515242 -2.25175 
-0.0515242 -5.15911 -2.74125 
-2.25175 -2.74125 -4.28931 
-4.75688 0.0704276 -2.39902 
0.0704276 -5.08635 -2.36961 
-2.39902 -2.36961 -4.70238 
-7.77766 0.0524068 0.0601915 
0.0524068 -7.75524 -0.406244 
0.0601915 -0.406244 -7.38166 
-7.66927 0.0530178 0.0349909 
0.0530178 -7.74131 -0.547098 
0.0349909 -0.547098 -7.50398 
-7.86402 -0.104696 0.23309 
-0.104696 -7.76927 -0.474436 
0.23309 -0.474436 -7.28127 
-7.62246 0.00977401 -0.0475083 
0.00977401 -7.70646 -0.312449 
-0.0475083 -0.312449 -7.58565 
-3.99955 -0.0164436 1.57878 
-0.0164436 -3.91855 -4.05736 
1.57878 -4.05736 -3.95836 
-3.8868 0.0395339 1.58641 
0.0395339 -3.64183 -4.02186 
1.58641 -4.02186 -4.34784 
-3.90788 0.00206956 1.76061 
0.00206956 -3.81899 -4.04171 
1.76061 -4.04171 -4.14959 
-3.96569 0.0373811 1.62447 
0.0373811 -4.10709 -3.92425 
1.62447 -3.92425 -3.80368 
-8.66981 -0.091386 -1.85378 
-0.091386 -9.03076 3.11296 
-1.85378 3.11296 -8.82076 
-9.09398 -0.0049316 -1.75972 
-0.0049316 -8.82369 2.98649 
-1.75972 2.98649 -8.60366 
-9.09952 0.114222 -2.03601 
0.114222 -8.10128 3.07204 
-2.03601 3.07204 -9.32052 
-8.7721 -0.0325905 -1.87632 
-0.0325905 -8.93798 3.05369 
-1.87632 3.05369 -8.81125 
-5.56733 0.0511927 3.44837 
0.0511927 -5.51816 1.42881 
3.44837 1.42881 -5.2011 
-5.32737 -0.0732549 3.41614 
-0.0732549 -5.57644 1.61712 
3.41614 1.61712 -5.38279 
-5.39608 0.22641 3.43323 
0.22641 -5.2031 1.43034 
3.43323 1.43034 -5.68742 
-5.33694 -0.10331 3.69845 
-0.10331 -5.42116 1.59718 
3.69845 1.59718 -5.52849 
-5.0441 -0.0580289 1.41841 
-0.0580289 -5.13312 2.87725 
1.41841 2.87725 -4.68309 
-4.80406 0.0414364 1.25008 
0.0414364 -4.99075 3.01586 
1.25008 3.01586 -5.0655 
-4.96552 0.132628 1.23257 
0.132628 -5.09433 2.94199 
1.23257 2.94199 -4.80046 
-4.80959 0.0757282 1.37504 
0.0757282 -4.97304 2.78657 
1.37504 2.78657 -5.07768 
-6.7735 -0.516046 3.62256 
-0.516046 -7.28282 -2.8247 
3.62256 -2.8247 -8.09069 
-7.53905 -0.0727492 3.70942 
-0.0727492 -7.68243 -2.88198 
3.70942 -2.88198 -6.92553 
-7.46128 0.130434 3.74053 
0.130434 -7.41108 -2.56439 
3.74053 -2.56439 -7.27464 
-7.45985 0.223445 3.52036 
0.223445 -7.4979 -2.50424 
3.52036 -2.50424 -7.18926 
-0.375548 0.0290493 -1.42724 
0.0290493 -0.685225 -2.24227 
-1.42724 -2.24227 -0.383684 
-0.393957 -0.128429 -1.40907 
-0.128429 -0.729667 -2.3031 
-1.40907 -2.3031 -0.320833 
-0.842108 0.0302858 -1.44761 
0.0302858 -0.916068 -2.27886 
-1.44761 -2.27886 0.31372 
-0.365455 -0.00360152 -1.38846 
-0.00360152 -0.440133 -2.23719 
-1.38846 -2.23719 -0.638868 
-0.574517 0.0948893 3.10748 
0.0948893 -0.205178 -1.3298 
3.10748 -1.3298 -0.459272 
-0.98625 0.168104 2.78438 
0.168104 -0.901533 -0.935351 
2.78438 -0.935351 0.648816 
-0.725305 -0.0990695 3.10103 
-0.0990695 -0.271506 -1.2074 
3.10103 -1.2074 -0.242155 
-0.423874 0.19619 3.33141 
0.19619 -0.181572 -1.00235 
3.33141 -1.00235 -0.633521 
-3.50054 0.192176 -4.43047 
0.192176 -3.35017 0.0160319 
-4.43047 0.0160319 -3.4402 
-2.59198 -0.451645 -4.10852 
-0.451645 -3.47011 -0.462516 
-4.10852 -0.462516 -4.22882 
-3.53668 0.101301 -4.14103 
0.101301 -3.32557 -0.25284 
-4.14103 -0.25284 -3.42867 
-3.66421 0.147409 -3.98253 
0.147409 -3.63706 -0.333949 
-3.98253 -0.333949 -2.98963 
-7.04363 -0.0654237 2.20509 
-0.0654237 -6.90349 3.73435 
2.20509 3.73435 -7.09867 
-7.0719 -0.137252 2.31843 
-0.137252 -6.94508 3.84108 
2.31843 3.84108 -7.02881 
-7.01983 -0.181448 2.67384 
-0.181448 -6.39475 3.60594 
2.67384 3.60594 -7.63122 
-7.16902 -0.0156855 1.65954 
-0.0156855 -7.2734 3.58638 
1.65954 3.58638 -6.60337 
-6.58526 -0.0368434 -0.142374 
-0.0368434 -6.61784 3.81251 
-0.142374 3.81251 -6.97579 
-6.74884 0.087465 -0.438324 
0.087465 -6.82278 3.50754 
-0.438324 3.50754 -6.60726 
-6.8377 -0.0291636 -0.3284 
-0.0291636 -6.60161 3.76882 
-0.3284 3.76882 -6.73958 
-6.63718 0.0445018 -0.300824 
0.0445018 -6.72035 3.52866 
-0.300824 3.52866 -6.82135 
-6.34975 -0.275791 4.1536 
-0.275791 -6.70116 1.89813 
4.1536 1.89813 -6.23612 
-6.28309 -0.152004 3.52756 
-0.152004 -6.5253 1.77821 
3.52756 1.77821 -6.47864 
-5.80473 -0.344312 3.59964 
-0.344312 -6.83674 2.25333 
3.59964 2.25333 -6.64556 
-6.75132 0.153183 3.68329 
0.153183 -6.71717 1.21246 
3.68329 1.21246 -5.81854 
-6.8891 0.0283084 -1.43858 
0.0283084 -6.88248 0.0473685 
-1.43858 0.0473685 -6.97146 
-6.76541 0.0877071 -1.28841 
0.0877071 -6.93414 0.0847305 
-1.28841 0.0847305 -7.04349 
-6.90812 -0.0391215 -1.41463 
-0.0391215 -6.84655 0.344393 
-1.41463 0.344393 -6.98836 
-6.949 0.0470485 -1.25385 
0.0470485 -6.96003 0.0660666 
-1.25385 0.0660666 -6.834 
-5.10019 -0.153402 -0.711738 
-0.153402 -5.42439 0.770884 
-0.711738 0.770884 -4.8339 
-5.61876 0.0955845 -1.11283 
0.0955845 -5.13506 0.803109 
-1.11283 0.803109 -4.60466 
-4.68195 -0.401383 -1.18551 
-0.401383 -5.28221 0.789124 
-1.18551 0.789124 -5.39433 
-4.54331 -0.105564 -1.1623 
-0.105564 -5.1398 1.19585 
-1.1623 1.19585 -5.67537 
-6.61469 -0.0094971 4.40328 
-0.0094971 -6.49053 1.05686 
4.40328 1.05686 -6.69261 
-6.62351 0.0560902 4.42038 
0.0560902 -6.52071 1.0501 
4.42038 1.0501 -6.65362 
-6.89067 -0.0589182 4.12162 
-0.0589182 -6.91462 1.12696 
4.12162 1.12696 -5.99256 
-6.17849 -0.0608498 3.90747 
-0.0608498 -6.15286 0.675906 
3.90747 0.675906 -7.46648 
-8.35575 0.00702654 3.26192 
0.00702654 -8.47465 3.07824 
3.26192 3.07824 -8.39205 
-8.37721 -0.118939 3.05617 
-0.118939 -8.1031 2.95447 
3.05617 2.95447 -8.74214 
-8.50493 0.143793 3.16774 
0.143793 -8.55212 3.04599 
3.16774 3.04599 -8.1654 
-8.4977 0.0562233 3.41057 
0.0562233 -8.73932 3.13378 
3.41057 3.13378 -7.98543 
-9.10054 0.0452224 -0.470405 
0.0452224 -9.13151 -3.72494 
-0.470405 -3.72494 -10.409 
-9.51155 0.186216 -0.502841 
0.186216 -9.59671 -3.58061 
-0.502841 -3.58061 -9.53276 
-9.77497 0.140642 -0.56998 
0.140642 -9.40758 -3.60294 
-0.56998 -3.60294 -9.45847 
-9.70904 0.0470966 -0.390056 
0.0470966 -9.65628 -3.63774 
-0.390056 -3.63774 -9.2757 
-2.76128 0.156482 -1.33756 
0.156482 -3.02455 0.606963 
-1.33756 0.606963 -3.17204 
-3.04725 0.206213 -1.45177 
0.206213 -2.90255 0.298277 
-1.45177 0.298277 -3.00807 
-3.14459 -0.308102 -1.38646 
-0.308102 -3.12931 0.326348 
-1.38646 0.326348 -2.68397 
-2.822 0.0246995 -1.20454 
0.0246995 -2.83961 0.513035 
-1.20454 0.513035 -3.29626 
-6.48519 -0.146767 2.10145 
-0.146767 -6.46283 -3.71755 
2.10145 -3.71755 -6.48795 
-6.36485 -0.0334895 2.14848 
-0.0334895 -6.47613 -3.58361 
2.14848 -3.58361 -6.59499 
-6.4567 -0.0776539 2.2598 
-0.0776539 -6.66594 -3.62433 
2.2598 -3.62433 -6.31334 
-6.85062 0.561565 1.83654 
0.561565 -6.60487 -3.41043 
1.83654 -3.41043 -5.98048 
-0.622366 0.00604849 -1.53134 
0.00604849 -0.685697 3.18988 
-1.53134 3.18988 -0.368765 
-0.8435 -0.00594842 -1.34094 
-0.00594842 -0.778851 3.31263 
-1.34094 3.31263 -0.0544775 
-0.675993 0.00180452 -1.42622 
0.00180452 -0.731797 3.11507 
-1.42622 3.11507 -0.269037 
-0.461282 -0.0156186 -1.48991 
-0.0156186 -0.584781 3.18995 
-1.48991 3.18995 -0.630765 
-8.26559 0.00931317 0.417862 
0.00931317 -8.2388 4.40967 
0.417862 4.40967 -8.51614 
-8.45717 0.151207 0.544171 
0.151207 -8.35912 4.09901 
0.544171 4.09901 -8.20425 
-8.51258 0.139908 0.674517 
0.139908 -8.30595 4.39009 
0.674517 4.39009 -8.202 
-8.31725 0.0206647 0.479311 
0.0206647 -8.21276 4.44228 
0.479311 4.44228 -8.49053 
-6.79427 -0.147419 1.35875 
-0.147419 -6.62299 1.54331 
1.35875 1.54331 -6.91773 
-6.44443 -0.21243 1.27992 
-0.21243 -6.57543 1.36054 
1.27992 1.36054 -7.31513 
-6.81167 -0.0546109 1.10443 
-0.0546109 -6.90472 1.49069 
1.10443 1.49069 -6.6186 
-7.01794 0.265178 1.58388 
0.265178 -7.00396 1.41961 
1.58388 1.41961 -6.31308 
-3.34371 -0.457055 -2.80454 
-0.457055 -3.54424 -3.73691 
-2.80454 -3.73691 -2.66604 
-3.13624 0.0293553 -2.56294 
0.0293553 -3.18865 -3.63963 
-2.56294 -3.63963 -3.22911 
-2.8379 0.263039 -2.7793 
0.263039 -2.77634 -3.66774 
-2.7793 -3.66774 -3.93976 
-3.24858 0.0628221 -2.06796 
0.0628221 -3.11509 -3.2932 
-2.06796 -3.2932 -3.19032 
-9.4862 0.103773 0.813475 
0.103773 -9.30235 3.89752 
0.813475 3.89752 -9.72673 
-9.43536 0.05198 0.804758 
0.05198 -9.49655 3.97167 
0.804758 3.97167 -9.58338 
-9.28014 0.0111065 0.695887 
0.0111065 -9.1787 3.96819 
0.695887 3.96819 -10.0564 
-9.57859 0.0193202 0.819195 
0.0193202 -9.499 4.0029 
0.819195 4.0029 -9.43771 
-2.83034 -0.106132 -0.678825 
-0.106132 -2.24189 3.34083 
-0.678825 3.34083 -2.69868 
-2.80882 0.126173 -0.424916 
0.126173 -2.463 3.35503 
-0.424916 3.35503 -2.49909 
-2.56422 -0.130061 -0.963232 
-0.130061 -2.24434 2.74888 
-0.963232 2.74888 -2.96236 
-2.68023 0.224591 -1.03355 
0.224591 -2.37045 2.96378 
-1.03355 2.96378 -2.72023 
-4.11336 0.0611889 -1.72748 
0.0611889 -4.18165 0.298591 
-1.72748 0.298591 -4.40634 
-4.29082 0.0732694 -1.74881 
0.0732694 -4.15071 0.484915 
-1.74881 0.484915 -4.25982 
-4.26325 0.0449294 -1.70696 
0.0449294 -4.25236 0.466311 
-1.70696 0.466311 -4.18574 
-4.0487 -0.0594593 -1.89239 
-0.0594593 -4.12836 0.289231 
-1.89239 0.289231 -4.52429 
-5.31194 0.383885 -3.96779 
0.383885 -5.29298 2.55606 
-3.96779 2.55606 -4.37512 
-4.64266 -0.449588 -3.99427 
-0.449588 -4.65722 2.58641 
-3.99427 2.58641 -5.68016 
-4.97858 0.0308781 -3.58286 
0.0308781 -4.98872 2.52809 
-3.58286 2.52809 -5.01274 
-4.97677 0.0159009 -3.2644 
0.0159009 -4.97393 2.20501 
-3.2644 2.20501 -5.02933 
-3.5819 -0.292585 -0.160937 
-0.292585 -4.00652 -0.722023 
-0.160937 -0.722023 -3.11336 
-3.61522 -0.161547 -0.00856588 
-0.161547 -3.60071 -0.962149 
-0.00856588 -0.962149 -3.48586 
-3.35211 0.153978 0.429463 
0.153978 -3.76089 -0.859589 
0.429463 -0.859589 -3.5888 
-3.24155 -0.0962676 0.655321 
-0.0962676 -3.36929 -0.817817 
0.655321 -0.817817 -4.09095 
-2.42955 -0.365991 1.23694 
-0.365991 -2.51303 -3.28794 
1.23694 -3.28794 -2.17802 
-2.39686 -0.202654 0.996709 
-0.202654 -2.34624 -3.39672 
0.996709 -3.39672 -2.3775 
-2.17954 0.00812467 0.994957 
0.00812467 -2.24422 -3.64161 
0.994957 -3.64161 -2.69684 
-2.68328 -0.182628 1.16825 
-0.182628 -2.48578 -3.03111 
1.16825 -3.03111 -1.95154 
-9.04534 0.0690881 2.3979 
0.0690881 -8.94344 3.43006 
2.3979 3.43006 -9.08993 
-8.72172 -0.0426883 2.31616 
-0.0426883 -8.91366 3.32871 
2.31616 3.32871 -9.44333 
-8.88191 0.0422033 2.35101 
0.0422033 -8.9469 3.56942 
2.35101 3.56942 -9.2499 
-9.15818 -0.145237 2.48332 
-0.145237 -9.06889 3.73547 
2.48332 3.73547 -8.85164 
-6.71943 -0.0577043 1.4222 
-0.0577043 -6.49512 -3.05548 
1.4222 -3.05548 -6.69123 
-6.51412 -0.0177592 1.44876 
-0.0177592 -6.59894 -3.03112 
1.44876 -3.03112 -6.79272 
-6.21386 -0.260427 1.77084 
-0.260427 -6.54734 -3.34208 
1.77084 -3.34208 -7.14458 
-6.7106 -0.0226108 1.46623 
-0.0226108 -6.68854 -3.28835 
1.46623 -3.28835 -6.50664 
-1.46174 -0.165799 -3.78379 
-0.165799 -1.24085 0.533242 
-3.78379 0.533242 -1.15257 
-1.37496 -0.279322 -3.84485 
-0.279322 -0.887794 0.514194 
-3.84485 0.514194 -1.59242 
-1.31785 -0.0491589 -3.53212 
-0.0491589 -1.42676 0.458407 
-3.53212 0.458407 -1.11055 
-1.27106 0.0791997 -3.617 
0.0791997 -1.2213 0.563375 
-3.617 0.563375 -1.36281 
-1.0671 -0.03388 -3.25937 
-0.03388 -1.30952 -1.45841 
-3.25937 -1.45841 -1.05515 
-1.25189 0.392673 -3.19141 
0.392673 -0.568947 -1.18126 
-3.19141 -1.18126 -1.61093 
-1.33166 -0.0303175 -3.17932 
-0.0303175 -1.25713 -1.66887 
-3.17932 -1.66887 -0.84298 
-0.97184 -0.0926156 -3.10923 
-0.0926156 -1.36146 -1.35689 
-3.10923 -1.35689 -1.09846 
-2.12943 -0.0513338 2.26054 
-0.0513338 -2.17932 -2.80038 
2.26054 -2.80038 -2.12527 
-1.87817 -0.0343638 2.13682 
-0.0343638 -1.94668 -2.7337 
2.13682 -2.7337 -2.60917 
-2.03504 -0.053608 2.13797 
-0.053608 -2.05202 -2.88668 
2.13797 -2.88668 -2.34697 
-2.11969 -0.034969 2.1589 
-0.034969 -1.98854 -2.72269 
2.1589 -2.72269 -2.3258 
-2.70331 0.137705 -0.683716 
0.137705 -2.74382 1.46917 
-0.683716 1.46917 -2.76532 
-2.80958 -0.0660306 -0.553586 
-0.0660306 -2.78273 1.54327 
-0.553586 1.54327 -2.62013 
-2.61128 0.160142 -0.708401 
0.160142 -2.77683 1.57651 
-0.708401 1.57651 -2.82433 
-2.53561 -0.251168 -0.787269 
-0.251168 -2.51913 1.26683 
-0.787269 1.26683 -3.15771 
-4.77892 0.0947951 0.66814 
0.0947951 -4.51325 -0.217451 
0.66814 -0.217451 -3.95048 
-4.11946 0.00210564 0.76015 
0.00210564 -4.39073 -0.624952 
0.76015 -0.624952 -4.73245 
-4.33522 -0.0622863 0.668149 
-0.0622863 -4.48551 -0.374219 
0.668149 -0.374219 -4.42192 
-4.31397 -0.0535749 0.545298 
-0.0535749 -4.58844 -0.458783 
0.545298 -0.458783 -4.34023 
-2.85552 0.0196019 1.13924 
0.0196019 -2.45706 -4.12696 
1.13924 -4.12696 -3.18302 
-3.08082 0.0403494 1.35768 
0.0403494 -3.00506 -4.07879 
1.35768 -4.07879 -2.40972 
-2.63249 -0.020376 1.12873 
-0.020376 -2.90335 -4.31578 
1.12873 -4.31578 -2.95976 
-2.60911 -0.101376 1.06238 
-0.101376 -3.17211 -4.1407 
1.06238 -4.1407 -2.71438 
-0.694946 0.0968792 0.242847 
0.0968792 -0.610638 -3.55106 
0.242847 -3.55106 0.0884727 
-0.431305 0.102105 0.065801 
0.102105 -0.356071 -3.59586 
0.065801 -3.59586 -0.429734 
-0.986366 0.287768 0.105868 
0.287768 -0.460652 -3.81498 
0.105868 -3.81498 0.229907 
-0.252454 -0.0891046 0.194759 
-0.0891046 -0.341342 -3.52581 
0.194759 -3.52581 -0.623315 
-2.00672 0.0199431 1.97347 
0.0199431 -1.9646 -3.26151 
1.97347 -3.26151 -1.88395 
-1.46166 -0.0250454 1.94532 
-0.0250454 -1.70074 -2.94466 
1.94532 -2.94466 -2.69288 
-1.90118 0.0388678 2.09128 
0.0388678 -1.77457 -3.36214 
2.09128 -3.36214 -2.17952 
-1.93684 -0.0186161 2.10542 
-0.0186161 -1.78182 -3.32813 
2.10542 -3.32813 -2.13662 
-1.12371 0.0764654 -2.26048 
0.0764654 -1.37341 -0.467322 
-2.26048 -0.467322 -1.07399 
-1.07943 0.0570461 -2.55255 
0.0570461 -1.10424 -0.372835 
-2.55255 -0.372835 -1.38744 
-1.11549 0.0247135 -2.57691 
0.0247135 -1.33656 -0.373941 
-2.57691 -0.373941 -1.11906 
-1.0507 0.139794 -2.25623 
0.139794 -1.17008 -0.497406 
-2.25623 -0.497406 -1.35033 
-1.45003 0.439061 0.93109 
0.439061 -1.23949 3.90673 
0.93109 3.90673 -0.132389 
-1.03236 0.0084967 1.17564 
0.0084967 -1.09186 4.0166 
1.17564 4.0166 -0.697688 
-0.951606 -0.224434 1.2077 
-0.224434 -1.11673 3.99896 
1.2077 3.99896 -0.753568 
-0.961765 0.0970325 1.21324 
0.0970325 -0.875656 4.16642 
1.21324 4.16642 -0.984485 
-6.54699 -0.0893418 1.74108 
-0.0893418 -6.59129 3.96977 
1.74108 3.96977 -6.43018 
-6.66998 0.143084 1.39865 
0.143084 -6.36434 4.31224 
1.39865 4.31224 -6.53413 
-6.80209 -0.172423 1.15423 
-0.172423 -6.55988 4.26769 
1.15423 4.26769 -6.20648 
-6.43655 0.210503 1.97039 
0.210503 -6.33 3.6268 
1.97039 3.6268 -6.8019 
-6.85973 -0.0033105 1.20073 
-0.0033105 -6.87808 0.101375 
1.20073 0.101375 -6.92802 
-7.02046 0.124656 1.25127 
0.124656 -6.85912 0.0755885 
1.25127 0.0755885 -6.78624 
-6.8514 0.0374407 1.04354 
0.0374407 -6.85476 -0.234853 
1.04354 -0.234853 -6.95966 
-6.65287 -0.192032 1.16916 
-0.192032 -6.91796 0.0453175 
1.16916 0.0453175 -7.095 
-8.46684 -0.1319 3.76702 
-0.1319 -8.78863 -2.64692 
3.76702 -2.64692 -8.75754 
-8.3011 0.316669 3.1019 
0.316669 -8.36384 -2.25958 
3.1019 -2.25958 -9.34807 
-8.58646 0.00697251 3.67889 
0.00697251 -8.65728 -2.5828 
3.67889 -2.5828 -8.76927 
-9.01372 -0.0905524 3.86323 
-0.0905524 -8.99279 -2.79796 
3.86323 -2.79796 -8.0065 
-8.99715 -0.123129 2.64528 
-0.123129 -8.66644 0.054465 
2.64528 0.054465 -8.85594 
-8.88862 0.119083 2.71006 
0.119083 -8.92354 -0.0488191 
2.71006 -0.0488191 -8.70737 
-8.4591 0.500132 2.77669 
0.500132 -8.82558 -0.0455521 
2.77669 -0.0455521 -9.23485 
-8.90557 0.0367869 2.45543 
0.0367869 -8.97483 0.156767 
2.45543 0.156767 -8.63913 
-7.39424 -0.0620431 -4.30937 
-0.0620431 -7.5006 1.56899 
-4.30937 1.56899 -7.26965 
-7.00256 -0.173519 -4.24991 
-0.173519 -7.39081 1.61548 
-4.24991 1.61548 -7.77112 
-7.50774 0.0731809 -4.24319 
0.0731809 -7.37973 1.76068 
-4.24319 1.76068 -7.27701 
-7.55384 -0.066658 -4.17378 
-0.066658 -7.27696 1.67226 
-4.17378 1.67226 -7.33369 
-8.1222 -0.0751537 1.08912 
-0.0751537 -8.3565 2.00945 
1.08912 2.00945 -8.66366 
-8.15408 -0.0671027 1.26036 
-0.0671027 -8.20059 1.86909 
1.26036 1.86909 -8.78769 
-8.71495 0.282221 1.30142 
0.282221 -8.37883 1.65025 
1.30142 1.65025 -8.04858 
-8.57258 0.0273329 1.3354 
0.0273329 -8.33311 2.03409 
1.3354 2.03409 -8.23668 
-8.98787 0.304905 -2.09183 
0.304905 -8.31035 2.40925 
-2.09183 2.40925 -9.23673 
-9.09164 0.140298 -1.95085 
0.140298 -8.7974 2.37029 
-1.95085 2.37029 -8.64591 
-8.67374 -0.0555839 -2.10094 
-0.0555839 -9.00967 2.40191 
-2.10094 2.40191 -8.85155 
-8.81277 -0.0692381 -2.07466 
-0.0692381 -8.94178 2.45815 
-2.07466 2.45815 -8.78041 
-6.21935 -0.0536626 -4.29476 
-0.0536626 -5.13722 -1.31542 
-4.29476 -1.31542 -5.78993 
-6.42161 -0.20512 -4.44277 
-0.20512 -6.01364 -1.17082 
-4.44277 -1.17082 -4.71125 
-4.54316 0.303089 -4.51073 
0.303089 -6.06735 -1.67607 
-4.51073 -1.67607 -6.53599 
-5.66585 0.122553 -3.3298 
0.122553 -5.30728 -1.27848 
-3.3298 -1.27848 -6.17336 
-6.48932 -0.136199 -3.02873 
-0.136199 -6.38551 3.2857 
-3.02873 3.2857 -6.38068 
-6.15402 -0.122739 -3.19799 
-0.122739 -6.06404 2.8365 
-3.19799 2.8365 -7.03746 
-6.42276 0.0369576 -3.10637 
0.0369576 -6.39704 3.10574 
-3.10637 3.10574 -6.43571 
-6.76087 0.00553759 -2.54924 
0.00553759 -6.78234 3.27803 
-2.54924 3.27803 -5.7123 
-4.57898 0.216462 -4.09317 
0.216462 -4.11129 -1.96242 
-4.09317 -1.96242 -6.59292 
-6.02367 0.19445 -3.8115 
0.19445 -5.60177 -2.81451 
-3.8115 -2.81451 -3.65775 
-4.85123 -0.116038 -3.33486 
-0.116038 -5.25331 -2.2261 
-3.33486 -2.2261 -5.17865 
-4.90774 -0.110997 -3.38698 
-0.110997 -5.33631 -2.04966 
-3.38698 -2.04966 -5.03914 
-8.78289 -0.0399085 1.72178 
-0.0399085 -8.79235 3.963 
1.72178 3.963 -9.1246 
-8.68261 -0.104102 1.54373 
-0.104102 -8.70593 3.67786 
1.54373 3.67786 -9.3113 
-8.9336 0.0968556 1.4858 
0.0968556 -8.77256 3.90471 
1.4858 3.90471 -8.99368 
-8.76196 0.0160856 1.72938 
0.0160856 -9.28016 4.16086 
1.72938 4.16086 -8.65772 
-2.08177 -0.15886 -0.754322 
-0.15886 -2.143 3.24081 
-0.754322 3.24081 -1.80804 
-1.91929 -0.126319 -0.687968 
-0.126319 -2.00561 3.13842 
-0.687968 3.13842 -2.1079 
-1.81488 0.0944159 -0.455592 
0.0944159 -2.09939 3.25005 
-0.455592 3.25005 -2.11854 
-1.67357 -0.00965273 -0.215504 
-0.00965273 -1.88665 2.9238 
-0.215504 2.9238 -2.47259 
-7.22315 -0.512006 -2.45877 
-0.512006 -7.25241 -3.59178 
-2.45877 -3.59178 -6.46393 
-6.6928 -0.0819321 -2.61712 
-0.0819321 -6.88995 -3.06838 
-2.61712 -3.06838 -7.35673 
-7.05931 0.137219 -2.68656 
0.137219 -6.92058 -3.34545 
-2.68656 -3.34545 -6.95959 
-6.94403 0.0362745 -2.55502 
0.0362745 -6.9695 -3.41027 
-2.55502 -3.41027 -7.02596 
-6.005 0.048314 -0.293381 
0.048314 -5.82127 1.08819 
-0.293381 1.08819 -4.89416 
-5.65065 0.174996 -0.375646 
0.174996 -5.52947 1.19534 
-0.375646 1.19534 -5.5403 
-5.45373 0.0910668 -0.556476 
0.0910668 -5.54086 1.16921 
-0.556476 1.16921 -5.72583 
-5.22517 -0.0847583 -0.18445 
-0.0847583 -5.55911 1.25343 
-0.18445 1.25343 -5.93614 
-3.64598 -0.024886 -0.493324 
-0.024886 -3.52265 4.52989 
-0.493324 4.52989 -3.39909 
-2.84047 0.347071 -0.389835 
0.347071 -3.25435 4.15138 
-0.389835 4.15138 -4.47289 
-3.51669 0.0173577 -0.453887 
0.0173577 -3.57595 4.55325 
-0.453887 4.55325 -3.47508 
-3.99422 0.20176 -0.569298 
0.20176 -4.08003 4.05472 
-0.569298 4.05472 -2.49347 
-4.42573 -0.0424424 4.5339 
-0.0424424 -4.43151 0.490489 
4.5339 0.490489 -4.35928 
-4.53347 0.00115309 4.63789 
0.00115309 -4.54259 0.608634 
4.63789 0.608634 -4.14047 
-3.80238 0.0710639 4.49751 
0.0710639 -4.46071 0.638441 
4.49751 0.638441 -4.95343 
-4.64613 -0.0525291 4.41817 
-0.0525291 -4.38128 0.448767 
4.41817 0.448767 -4.18912 
-4.45347 0.0367235 -1.79584 
0.0367235 -4.57691 -0.121308 
-1.79584 -0.121308 -4.72058 
-4.63016 0.0287668 -1.90334 
0.0287668 -4.66582 -0.0655697 
-1.90334 -0.0655697 -4.45499 
-4.38267 0.0756495 -1.77739 
0.0756495 -4.56851 0.118414 
-1.77739 0.118414 -4.79978 
-4.50166 0.0227964 -1.92388 
0.0227964 -4.60096 -0.0741805 
-1.92388 -0.0741805 -4.64834 
-8.34923 -0.090402 0.569199 
-0.090402 -8.33784 2.17289 
0.569199 2.17289 -7.71542 
-8.27848 3.61355e-05 0.634817 
3.61355e-05 -8.30459 2.08958 
0.634817 2.08958 -7.81943 
-8.24098 -0.0199283 0.654376 
-0.0199283 -8.38816 2.0694 
0.654376 2.0694 -7.77335 
-8.05746 -0.123094 0.640758 
-0.123094 -8.3184 2.31725 
0.640758 2.31725 -8.02663 
-3.47883 -0.0262682 -4.54432 
-0.0262682 -3.45389 -0.502966 
-4.54432 -0.502966 -3.46302 
-3.09717 -0.349247 -4.01675 
-0.349247 -2.59252 -0.282709 
-4.01675 -0.282709 -4.70605 
-3.36009 -0.101459 -4.61269 
-0.101459 -3.74547 -0.53868 
-4.61269 -0.53868 -3.29018 
-4.1212 -0.194168 -4.07444 
-0.194168 -4.08293 -0.774181 
-4.07444 -0.774181 -2.19161 
-8.92248 0.231412 -1.01306 
0.231412 -8.40272 4.2005 
-1.01306 4.2005 -9.2317 
-8.99887 0.166859 -0.561891 
0.166859 -8.73991 3.57986 
-0.561891 3.57986 -8.81812 
-9.60636 0.27924 -0.58456 
0.27924 -8.5162 3.22414 
-0.58456 3.22414 -8.43434 
-8.88202 -0.0338758 -0.70532 
-0.0338758 -8.88773 3.88631 
-0.70532 3.88631 -8.78715 
-5.38958 0.0375485 -3.71711 
0.0375485 -5.38198 -2.97118 
-3.71711 -2.97118 -5.85607 
-5.56866 0.0599941 -3.6777 
0.0599941 -5.47111 -2.7421 
-3.6777 -2.7421 -5.58786 
-5.99712 -0.439823 -3.45977 
-0.439823 -5.81316 -2.78249 
-3.45977 -2.78249 -4.81736 
-5.44702 0.215047 -3.60022 
0.215047 -5.38273 -2.65821 
-3.60022 -2.65821 -5.79788 
-9.14778 -0.208493 2.79916 
-0.208493 -9.20867 -3.06067 
2.79916 -3.06067 -9.19211 
-9.12286 0.131603 2.62551 
0.131603 -8.77289 -2.99008 
2.62551 -2.99008 -9.65281 
-9.21142 -0.0896573 3.0199 
-0.0896573 -9.00324 -3.04708 
3.0199 -3.04708 -9.3339 
-9.18054 0.143074 3.46384 
0.143074 -9.40096 -3.16783 
3.46384 -3.16783 -8.96706 
-6.27277 0.00269235 2.21111 
0.00269235 -6.68041 -4.15358 
2.21111 -4.15358 -8.66025 
-7.21737 -0.29903 2.79868 
-0.29903 -8.3971 -3.91281 
2.79868 -3.91281 -5.99896 
-7.43425 0.273749 2.18615 
0.273749 -6.90505 -3.38179 
2.18615 -3.38179 -7.27413 
-7.34574 0.2583 2.30926 
0.2583 -6.91702 -3.76401 
2.30926 -3.76401 -7.35067 
-9.6332 0.0741128 0.929039 
0.0741128 -9.62673 -1.06877 
0.929039 -1.06877 -9.55532 
-9.18351 0.00891716 0.869389 
0.00891716 -9.43192 -1.23103 
0.869389 -1.23103 -10.1998 
-9.42123 0.120258 0.886545 
0.120258 -9.61319 -0.978658 
0.886545 -0.978658 -9.78083 
-9.74086 -0.0110926 0.920389 
-0.0110926 -9.68988 -0.977509 
0.920389 -0.977509 -9.38451 
-1.09322 0.571004 -1.05877 
0.571004 -1.46642 2.86205 
-1.05877 2.86205 -0.5048 
-0.991374 -0.0296381 -1.33123 
-0.0296381 -1.13799 2.69617 
-1.33123 2.69617 -0.935082 
-1.15951 0.117036 -1.3987 
0.117036 -0.938481 2.24811 
-1.3987 2.24811 -0.966461 
-0.696657 0.187855 -1.54644 
0.187855 -0.886742 1.95181 
-1.54644 1.95181 -1.48105 
-3.2691 0.0180389 1.18372 
0.0180389 -3.29023 -4.18847 
1.18372 -4.18847 -3.48033 
-3.24478 0.13179 1.55232 
0.13179 -3.07054 -4.17534 
1.55232 -4.17534 -3.72434 
-3.26499 0.0326964 1.38587 
0.0326964 -3.39698 -4.17477 
1.38587 -4.17477 -3.37768 
-3.34571 0.0241118 0.967491 
0.0241118 -3.52979 -4.15836 
0.967491 -4.15836 -3.16416 
-1.49338 0.327371 0.422507 
0.327371 -1.08318 1.35972 
0.422507 1.35972 -0.579636 
-1.06852 0.167852 0.82976 
0.167852 -1.10642 1.73579 
0.82976 1.73579 -0.981252 
-1.13263 0.0222632 0.535489 
0.0222632 -1.0293 1.6223 
0.535489 1.6223 -0.994271 
-1.13992 0.297893 1.06355 
0.297893 -0.633232 1.84566 
1.06355 1.84566 -1.38305 
-5.54911 0.243304 -3.99487 
0.243304 -5.29257 -1.46938 
-3.99487 -1.46938 -5.20897 
-5.7239 0.220613 -3.70281 
0.220613 -5.51724 -1.84613 
-3.70281 -1.84613 -4.80952 
-5.60362 0.181458 -4.20775 
0.181458 -5.1682 -1.28948 
-4.20775 -1.28948 -5.27884 
-5.355 0.342777 -4.15318 
0.342777 -5.00331 -0.833738 
-4.15318 -0.833738 -5.69235 
-5.95686 -0.0853993 -0.618828 
-0.0853993 -5.92534 3.17306 
-0.618828 3.17306 -5.9028 
-5.9764 -0.0431286 -0.326625 
-0.0431286 -5.7029 3.38371 
-0.326625 3.38371 -6.10571 
-6.07691 0.0435405 -0.390526 
0.0435405 -5.83359 3.2162 
-0.390526 3.2162 -5.8745 
-5.98838 -0.0352643 -0.773592 
-0.0352643 -6.38758 3.1235 
-0.773592 3.1235 -5.40904 
-1.24196 0.0621572 -3.18581 
0.0621572 -0.677456 1.56711 
-3.18581 1.56711 0.614912 
-0.692893 0.211409 -2.91658 
0.211409 -0.341141 1.25972 
-2.91658 1.25972 -0.270469 
-0.577827 0.19531 -2.96951 
0.19531 -0.528241 1.33533 
-2.96951 1.33533 -0.198435 
-0.62942 0.108249 -2.90752 
0.108249 -0.209543 0.947857 
-2.90752 0.947857 -0.465541 
-1.22011 -0.0641361 1.55302 
-0.0641361 -1.03526 0.59497 
1.55302 0.59497 -1.07723 
-1.0101 -0.015251 1.48673 
-0.015251 -1.12975 0.568273 
1.48673 0.568273 -1.19275 
-0.934466 0.0241909 1.57154 
0.0241909 -1.61192 0.584022 
1.57154 0.584022 -0.78621 
-1.01933 0.00702434 1.64166 
0.00702434 -1.14346 0.564783 
1.64166 0.564783 -1.1698 
-4.9083 -0.00192945 2.3181 
-0.00192945 -4.82808 3.77209 
2.3181 3.77209 -6.54725 
-5.98045 -0.106557 2.23307 
-0.106557 -5.46848 4.10708 
2.23307 4.10708 -4.83471 
-5.25009 -0.191032 1.86179 
-0.191032 -5.65069 3.65056 
1.86179 3.65056 -5.38285 
-5.08293 -0.0389351 2.15145 
-0.0389351 -5.68083 3.80439 
2.15145 3.80439 -5.51987 
-9.19402 -0.0175947 3.6243 
-0.0175947 -8.796 -1.73994 
3.6243 -1.73994 -9.57799 
-9.25379 0.0482804 4.14057 
0.0482804 -8.90606 -1.75144 
4.14057 -1.75144 -9.40816 
-9.05876 0.0162518 3.60962 
0.0162518 -9.29686 -1.7544 
3.60962 -1.7544 -9.21239 
-9.20189 0.0271934 4.28994 
0.0271934 -9.2243 -1.69349 
4.28994 -1.69349 -9.14182 
-3.19415 -0.00351209 -0.112415 
-0.00351209 -3.18075 4.43131 
-0.112415 4.43131 -1.17891 
-2.17765 0.0947893 -0.0557914 
0.0947893 -2.21378 4.70561 
-0.0557914 4.70561 -3.16238 
-2.90403 -0.113422 -0.0864085 
-0.113422 -2.2648 4.24822 
-0.0864085 4.24822 -2.38499 
-2.58537 0.0697298 -0.221847 
0.0697298 -2.36253 4.15409 
-0.221847 4.15409 -2.6059 
-2.80746 -0.128924 -4.17874 
-0.128924 -2.89256 1.95211 
-4.17874 1.95211 -2.89865 
-2.62521 -0.289521 -4.40673 
-0.289521 -2.48549 2.08594 
-4.40673 2.08594 -3.48797 
-3.46608 0.720583 -3.88563 
0.720583 -3.28417 2.20589 
-3.88563 2.20589 -1.84842 
-2.8617 -0.24547 -4.05352 
-0.24547 -2.79781 1.49839 
-4.05352 1.49839 -2.93915 
-7.91435 -5.11126e-05 -3.44053 
-5.11126e-05 -8.0043 -1.10276 
-3.44053 -1.10276 -7.30328 
-7.85196 0.268297 -3.47068 
0.268297 -7.62245 -0.926632 
-3.47068 -0.926632 -7.74753 
-7.94749 0.0854609 -3.39013 
0.0854609 -7.74913 -1.05764 
-3.39013 -1.05764 -7.52532 
-7.8567 0.0566639 -3.08524 
0.0566639 -7.52339 -1.00326 
-3.08524 -1.00326 -7.84185 
-3.50744 -0.0473999 0.503895 
-0.0473999 -3.6378 -4.35758 
0.503895 -4.35758 -3.43612 
-3.32458 0.0886888 0.0824599 
0.0886888 -3.10946 -4.26542 
0.0824599 -4.26542 -4.14732 
-3.83272 -0.0371562 0.724926 
-0.0371562 -3.41054 -4.55676 
0.724926 -4.55676 -3.3381 
-3.89555 0.0238083 1.13248 
0.0238083 -3.97124 -4.06925 
1.13248 -4.06925 -2.71456 
-2.57866 -0.0103926 1.24939 
-0.0103926 -2.9889 -3.45989 
1.24939 -3.45989 -2.95805 
-3.22086 0.0459221 1.52553 
0.0459221 -3.13541 -3.82534 
1.52553 -3.82534 -2.16935 
-3.01382 0.341097 0.7525 
0.341097 -2.18259 -3.45515 
0.7525 -3.45515 -3.32922 
-2.82387 0.0388061 1.11067 
0.0388061 -2.9362 -3.52249 
1.11067 -3.52249 -2.76555 
-5.42096 0.303088 -0.27127 
0.303088 -4.99406 -1.97053 
-0.27127 -1.97053 -5.68075 
-5.32539 -0.209389 -0.397521 
-0.209389 -5.35535 -2.13117 
-0.397521 -2.13117 -5.41502 
-5.61755 0.0113953 -0.367062 
0.0113953 -5.43582 -1.92998 
-0.367062 -1.92998 -5.04239 
-5.35205 -0.167962 -0.255556 
-0.167962 -5.5256 -2.13433 
-0.255556 -2.13433 -5.21811 
-3.02598 -1.17036 -2.13419 
-1.17036 -3.49622 -4.04957 
-2.13419 -4.04957 -1.78658 
-2.8001 0.247255 -2.01459 
0.247255 -2.4998 -4.12912 
-2.01459 -4.12912 -3.00888 
-2.40303 0.593161 -1.78015 
0.593161 -2.51087 -4.39995 
-1.78015 -4.39995 -3.39488 
-3.32184 0.500025 -1.09015 
0.500025 -2.40709 -3.5314 
-1.09015 -3.5314 -2.57985 
-5.60542 0.0267259 -0.54988 
0.0267259 -5.48612 1.92961 
-0.54988 1.92961 -5.52016 
-5.46017 0.0202677 -0.537355 
0.0202677 -5.4767 1.97675 
-0.537355 1.97675 -5.67483 
-5.68271 0.0964604 -0.384562 
0.0964604 -5.51206 1.95391 
-0.384562 1.95391 -5.41692 
-5.70154 0.120769 -0.472039 
0.120769 -5.65859 1.74279 
-0.472039 1.74279 -5.25157 
-6.52588 -0.0995507 4.36496 
-0.0995507 -6.6256 -1.19372 
4.36496 -1.19372 -6.57869 
-7.04528 0.197451 3.85987 
0.197451 -7.25036 -1.43708 
3.85987 -1.43708 -5.43453 
-6.48962 -0.0563802 4.33847 
-0.0563802 -6.72162 -1.19049 
4.33847 -1.19049 -6.51893 
-6.05815 0.165948 3.99439 
0.165948 -6.27393 -0.85238 
3.99439 -0.85238 -7.39809 
-6.21857 0.128012 2.56421 
0.128012 -6.24104 -3.75175 
2.56421 -3.75175 -6.06232 
-6.49213 0.0483002 2.87399 
0.0483002 -6.43498 -3.70356 
2.87399 -3.70356 -5.59481 
-5.79218 -0.456138 2.9174 
-0.456138 -5.70796 -3.51682 
2.9174 -3.51682 -7.02179 
-6.39197 0.196571 2.27557 
0.196571 -6.14699 -3.43968 
2.27557 -3.43968 -5.98297 
-1.40132 -0.327614 2.25341 
-0.327614 -1.11069 -0.254136 
2.25341 -0.254136 -0.876336 
-1.16147 0.0882636 2.23195 
0.0882636 -1.09209 -0.100703 
2.23195 -0.100703 -1.13478 
-1.08447 -0.0496256 2.26343 
-0.0496256 -1.05149 -0.238199 
2.26343 -0.238199 -1.25239 
-1.02468 -0.0917752 2.23091 
-0.0917752 -1.03714 0.0152369 
2.23091 0.0152369 -1.32653 
-6.18456 -0.250324 0.976445 
-0.250324 -5.62708 1.54981 
0.976445 1.54981 -6.38052 
-5.98563 0.0354639 1.09392 
0.0354639 -6.22869 1.37041 
1.09392 1.37041 -5.97784 
-5.95748 0.148925 1.12329 
0.148925 -6.37016 1.55142 
1.12329 1.55142 -5.86452 
-6.24719 -0.0984396 1.21857 
-0.0984396 -6.23958 1.2168 
1.21857 1.2168 -5.7054 
-7.86786 0.0349425 0.337356 
0.0349425 -7.90305 -0.348687 
0.337356 -0.348687 -7.31736 
-7.48802 0.219604 0.302421 
0.219604 -7.74269 -0.118128 
0.302421 -0.118128 -7.85758 
-7.45196 0.0895444 0.429004 
0.0895444 -7.81978 -0.510493 
0.429004 -0.510493 -7.81654 
-7.77496 0.0632691 0.338861 
0.0632691 -7.89611 -0.304591 
0.338861 -0.304591 -7.41722 
-5.01315 -0.348122 -3.12519 
-0.348122 -5.51389 -3.4161 
-3.12519 -3.4161 -4.15558 
-4.69337 0.225441 -3.28918 
0.225441 -4.32525 -3.53778 
-3.28918 -3.53778 -5.664 
-4.84924 -0.0741748 -3.13054 
-0.0741748 -4.9171 -3.36973 
-3.13054 -3.36973 -4.91628 
-4.81949 0.0603743 -3.31761 
0.0603743 -4.82132 -2.80303 
-3.31761 -2.80303 -5.0418 
-7.09694 0.0834341 0.0106127 
0.0834341 -7.08975 2.29737 
0.0106127 2.29737 -6.89736 
-6.89272 0.0152846 0.0950704 
0.0152846 -6.81556 2.23686 
0.0950704 2.23686 -7.37577 
-6.90269 -0.0304552 -0.0145942 
-0.0304552 -6.85048 2.31084 
-0.0145942 2.31084 -7.33087 
-6.55324 0.19739 0.227414 
0.19739 -6.82752 2.85237 
0.227414 2.85237 -7.70329 
-1.74484 -0.00446288 2.04453 
-0.00446288 -1.7329 -0.364412 
2.04453 -0.364412 -1.49219 
-1.36363 -0.027913 2.09334 
-0.027913 -1.52327 -0.0149641 
2.09334 -0.0149641 -2.08303 
-1.406 -0.164237 2.05495 
-0.164237 -1.77297 -0.399672 
2.05495 -0.399672 -1.79097 
-1.58037 -0.0379405 2.10151 
-0.0379405 -1.7685 -0.372526 
2.10151 -0.372526 -1.62107 
-7.64188 0.109318 -4.5919 
0.109318 -7.28789 1.25486 
-4.5919 1.25486 -7.04511 
-7.43543 0.0178268 -4.3554 
0.0178268 -7.13917 1.06052 
-4.3554 1.06052 -7.40028 
-6.1624 -0.384214 -4.21944 
-0.384214 -7.4355 1.43169 
-4.21944 1.43169 -8.37698 
-7.58742 0.156544 -4.03301 
0.156544 -7.15791 0.980008 
-4.03301 0.980008 -7.22955 
-6.7823 -0.238651 -0.408924 
-0.238651 -5.97765 1.2078 
-0.408924 1.2078 -5.76108 
-6.167 0.150498 -0.399319 
0.150498 -6.15939 1.72873 
-0.399319 1.72873 -6.19463 
-6.15149 -0.0863889 -0.451774 
-0.0863889 -6.14275 1.44962 
-0.451774 1.44962 -6.22678 
-5.99795 -0.165822 -0.178657 
-0.165822 -5.92586 1.9375 
-0.178657 1.9375 -6.59721 
-1.24445 -0.0825353 -2.02438 
-0.0825353 -1.39588 2.96675 
-2.02438 2.96675 -1.25649 
-1.1601 0.175214 -1.95318 
0.175214 -1.22578 2.87182 
-1.95318 2.87182 -1.51094 
-1.52143 0.523427 -2.01268 
0.523427 -1.46497 2.94256 
-2.01268 2.94256 -0.91042 
-1.2864 0.0854774 -1.79888 
0.0854774 -1.19945 3.05893 
-1.79888 3.05893 -1.41097 
-8.46006 0.20095 1.33348 
0.20095 -7.87062 2.07543 
1.33348 2.07543 -7.23038 
-7.62221 -0.362125 1.07625 
-0.362125 -8.05603 1.84167 
1.07625 1.84167 -7.88282 
-7.62418 -0.146855 1.69344 
-0.146855 -8.35362 1.61685 
1.69344 1.61685 -7.58326 
-7.83456 -0.0843262 1.27883 
-0.0843262 -7.93679 2.05322 
1.27883 2.05322 -7.78971 
-4.71757 0.0379908 1.57594 
0.0379908 -4.85258 4.47886 
1.57594 4.47886 -4.52148 
-5.05176 0.0701647 1.4085 
0.0701647 -4.25468 4.36569 
1.4085 4.36569 -4.78518 
-4.40549 -0.0751915 1.25803 
-0.0751915 -4.53957 4.39021 
1.25803 4.39021 -5.14657 
-4.79903 0.0284192 1.44872 
0.0284192 -4.8125 4.32043 
1.44872 4.32043 -4.48008 
-2.73002 -0.307324 -0.102193 
-0.307324 -3.80121 4.43939 
-0.102193 4.43939 -1.73349 
-2.74731 -0.00562346 -0.345156 
-0.00562346 -2.80812 4.54904 
-0.345156 4.54904 -2.70929 
-2.65844 0.125714 -0.233202 
0.125714 -2.17008 4.91077 
-0.233202 4.91077 -3.4362 
-2.83937 0.0488317 -0.721165 
0.0488317 -2.4809 4.33073 
-0.721165 4.33073 -2.94446 
-1.69808 -0.104651 3.45106 
-0.104651 -1.7305 2.27595 
3.45106 2.27595 -1.09274 
-1.51443 -0.0423937 3.82494 
-0.0423937 -1.21281 1.99244 
3.82494 1.99244 -1.79408 
-1.68646 0.101786 3.54584 
0.101786 -1.34648 2.00391 
3.54584 2.00391 -1.48839 
-1.6968 -0.0280784 3.76284 
-0.0280784 -1.68105 2.00914 
3.76284 2.00914 -1.14347 
-9.07339 -0.0869752 3.98813 
-0.0869752 -9.16368 -0.712121 
3.98813 -0.712121 -9.25098 
-8.97651 0.093816 4.24596 
0.093816 -9.17765 -0.891973 
4.24596 -0.891973 -9.3339 
-9.0605 0.107051 4.00661 
0.107051 -8.82795 -0.711821 
4.00661 -0.711821 -9.59961 
-9.19518 -0.0147539 4.39979 
-0.0147539 -9.25103 -1.0203 
4.39979 -1.0203 -9.04184 
-1.01714 -0.0493519 -3.30102 
-0.0493519 -1.01568 -2.71215 
-3.30102 -2.71215 -0.743565 
-1.54185 0.353473 -3.21672 
0.353473 -1.0955 -2.32353 
-3.21672 -2.32353 -0.13904 
-0.917737 -0.180779 -3.2539 
-0.180779 -1.05715 -2.65782 
-3.2539 -2.65782 -0.801502 
-0.923755 0.128033 -3.38799 
0.128033 -0.777293 -2.67485 
-3.38799 -2.67485 -1.07534 
-1.81757 0.102813 -3.05453 
0.102813 -1.96796 -1.62655 
-3.05453 -1.62655 -1.52649 
-1.71688 0.00660587 -3.05917 
0.00660587 -1.56885 -1.52381 
-3.05917 -1.52381 -2.02629 
-1.93381 0.0080731 -2.74145 
0.0080731 -1.16467 -1.44453 
-2.74145 -1.44453 -2.21354 
-1.89063 0.0352948 -2.86775 
0.0352948 -1.73421 -1.46267 
-2.86775 -1.46267 -1.68718 
-1.10293 -0.0758215 -1.86495 
-0.0758215 -1.14542 -2.02533 
-1.86495 -2.02533 0.899784 
-0.588272 -0.352759 -2.15857 
-0.352759 -0.287501 -2.48143 
-2.15857 -2.48143 -0.472796 
-0.65916 -0.115304 -2.30203 
-0.115304 -0.324471 -2.37468 
-2.30203 -2.37468 -0.364938 
-0.2349 -0.200827 -2.70186 
-0.200827 -0.295418 -2.14768 
-2.70186 -2.14768 -0.818252 
-6.23321 -0.228403 -0.546211 
-0.228403 -5.96174 1.11567 
-0.546211 1.11567 -6.20442 
-6.23289 0.206348 -0.599935 
0.206348 -6.23744 1.37886 
-0.599935 1.37886 -5.92904 
-6.03788 0.0304124 -0.370285 
0.0304124 -5.97603 1.15644 
-0.370285 1.15644 -6.38546 
-6.1189 -0.240496 -0.480267 
-0.240496 -6.02583 0.980697 
-0.480267 0.980697 -6.25464 
-2.01917 -0.0255362 -2.43641 
-0.0255362 -2.06876 1.71549 
-2.43641 1.71549 -1.97839 
-1.94685 -0.00140389 -2.65164 
-0.00140389 -1.92518 1.83302 
-2.65164 1.83302 -2.19429 
-1.88177 -0.133293 -2.51336 
-0.133293 -1.87449 1.7568 
-2.51336 1.7568 -2.31005 
-1.92829 -0.00325718 -2.52656 
-0.00325718 -2.08993 1.68728 
-2.52656 1.68728 -2.04809 
-9.43111 -0.0350203 -1.79516 
-0.0350203 -9.6779 2.24691 
-1.79516 2.24691 -9.53178 
-9.41524 0.0509577 -1.83965 
0.0509577 -9.5559 2.37145 
-1.83965 2.37145 -9.66965 
-9.19636 0.163331 -1.58199 
0.163331 -9.27975 2.22079 
-1.58199 2.22079 -10.1647 
-9.61887 0.024535 -1.93986 
0.024535 -9.67384 2.3339 
-1.93986 2.3339 -9.34808 
-8.9909 -0.145621 -3.10333 
-0.145621 -9.00746 2.91159 
-3.10333 2.91159 -9.08312 
-8.91761 0.0548991 -2.96655 
0.0548991 -8.78992 3.07554 
-2.96655 3.07554 -9.37395 
-8.68112 -0.0387905 -2.94169 
-0.0387905 -9.06619 2.86205 
-2.94169 2.86205 -9.33416 
-9.33656 0.166623 -3.21173 
0.166623 -8.95053 3.13789 
-3.21173 3.13789 -8.7944 
-8.88024 -0.110412 -3.94433 
-0.110412 -9.01483 -1.41766 
-3.94433 -1.41766 -9.39131 
-9.1369 -0.138676 -4.14253 
-0.138676 -8.80718 -1.67787 
-4.14253 -1.67787 -9.34231 
-9.10174 0.0887574 -3.96969 
0.0887574 -9.0889 -1.44528 
-3.96969 -1.44528 -9.09574 
-9.39785 -0.0858842 -4.23344 
-0.0858842 -8.91319 -1.7731 
-4.23344 -1.7731 -8.97534 
-3.79158 -0.0799814 3.59216 
-0.0799814 -3.52333 -2.55885 
3.59216 -2.55885 -3.4282 
-3.56836 -0.0927326 3.69641 
-0.0927326 -2.89074 -2.30875 
3.69641 -2.30875 -4.28401 
-3.78047 -0.0577145 3.67469 
-0.0577145 -3.50323 -2.55272 
3.67469 -2.55272 -3.45942 
-4.26926 -0.303684 3.00241 
-0.303684 -3.81272 -2.46818 
3.00241 -2.46818 -2.66113 
-5.40071 0.124381 -3.23471 
0.124381 -5.95024 -3.40313 
-3.23471 -3.40313 -3.99227 
-5.21992 0.0149044 -2.73581 
0.0149044 -5.07122 -3.15988 
-2.73581 -3.15988 -5.05208 
-4.27345 0.0715373 -2.69617 
0.0715373 -4.6171 -3.69562 
-2.69617 -3.69562 -6.45267 
-5.08113 -0.197376 -2.67818 
-0.197376 -5.01821 -2.9921 
-2.67818 -2.9921 -5.24389 
-8.12927 0.0158804 1.43933 
0.0158804 -8.07249 3.94143 
1.43933 3.94143 -8.30361 
-8.16956 -0.0401512 1.4998 
-0.0401512 -8.29896 4.03227 
1.4998 4.03227 -8.03685 
-8.18866 0.0446982 1.55626 
0.0446982 -8.23174 3.90024 
1.55626 3.90024 -8.08498 
-8.55442 0.0609396 1.50244 
0.0609396 -8.44945 3.89187 
1.50244 3.89187 -7.50151 
-6.08219 -0.438516 1.73707 
-0.438516 -6.27017 4.16109 
1.73707 4.16109 -5.56255 
-5.8798 -0.207263 2.03574 
-0.207263 -6.28156 4.05003 
2.03574 4.05003 -5.75355 
-5.92792 0.400837 2.20577 
0.400837 -5.4875 4.40169 
2.20577 4.40169 -6.49949 
-5.54466 0.170315 1.55221 
0.170315 -5.55587 3.84975 
1.55221 3.84975 -6.81437 
-3.71188 0.106698 -1.40744 
0.106698 -3.4629 4.46278 
-1.40744 4.46278 -1.13278 
-2.87208 -0.180731 -1.34593 
-0.180731 -2.78638 3.72652 
-1.34593 3.72652 -2.64909 
-2.46431 0.42788 -1.81 
0.42788 -1.80992 4.40724 
-1.81 4.40724 -4.03333 
-2.77959 -0.164853 -1.35912 
-0.164853 -2.86296 4.00726 
-1.35912 4.00726 -2.665 
-7.4607 0.0574768 3.09421 
0.0574768 -7.33461 -0.569046 
3.09421 -0.569046 -7.24687 
-7.29081 0.188576 3.13372 
0.188576 -7.2692 -1.01574 
3.13372 -1.01574 -7.48217 
-7.47853 0.144998 3.10215 
0.144998 -7.23439 -0.976296 
3.10215 -0.976296 -7.32925 
-7.29499 0.114013 2.933 
0.114013 -7.25074 -0.776364 
2.933 -0.776364 -7.49645 
-6.30162 0.0294903 -2.55625 
0.0294903 -6.3055 -1.24779 
-2.55625 -1.24779 -6.49397 
-6.12242 0.05985 -2.64127 
0.05985 -6.5781 -1.53281 
-2.64127 -1.53281 -6.40057 
-6.25546 0.0914942 -2.60429 
0.0914942 -6.48169 -1.43499 
-2.60429 -1.43499 -6.36395 
-6.53119 0.114563 -2.72487 
0.114563 -6.37553 -1.44092 
-2.72487 -1.44092 -6.19438 
-4.33332 -0.12147 0.707836 
-0.12147 -3.97088 0.103199 
0.707836 0.103199 -3.66661 
-4.00676 -0.0848919 0.696093 
-0.0848919 -3.98339 -0.210724 
0.696093 -0.210724 -3.98067 
-3.64953 0.0855034 0.738723 
0.0855034 -3.87421 -0.355308 
0.738723 -0.355308 -4.44708 
-3.99222 -0.122288 0.561833 
-0.122288 -3.87133 -0.113613 
0.561833 -0.113613 -4.10726 
-8.48115 -0.0422967 -3.08828 
-0.0422967 -8.38787 3.26509 
-3.08828 3.26509 -8.46974 
-8.12296 0.112032 -2.94904 
0.112032 -8.41366 3.01787 
-2.94904 3.01787 -8.80213 
-8.57251 -0.157783 -3.01876 
-0.157783 -8.56739 3.16888 
-3.01876 3.16888 -8.19885 
-8.7572 -0.0878106 -3.15958 
-0.0878106 -8.52246 3.45044 
-3.15958 3.45044 -8.05909 
-9.00616 -0.117433 -0.298207 
-0.117433 -8.60809 -1.04734 
-0.298207 -1.04734 -9.18043 
-9.20842 0.0816646 0.175173 
0.0816646 -8.8566 -0.61635 
0.175173 -0.61635 -8.72967 
-8.96163 -0.0933487 0.151261 
-0.0933487 -8.7826 -0.742084 
0.151261 -0.742084 -9.05045 
-9.04723 0.0734375 -0.197766 
0.0734375 -8.93845 -1.0397 
-0.197766 -1.0397 -8.80899 
-1.44336 0.218207 -3.80179 
0.218207 -1.31861 -0.359339 
-3.80179 -0.359339 -1.1707 
-1.36595 0.0723826 -3.5563 
0.0723826 -1.34875 -0.275378 
-3.5563 -0.275378 -1.21797 
-1.31158 0.0849542 -3.7316 
0.0849542 -1.17378 -0.348369 
-3.7316 -0.348369 -1.44731 
-1.4009 0.107193 -3.47714 
0.107193 -1.12243 -0.274631 
-3.47714 -0.274631 -1.40933 
-4.07049 0.0071967 -1.01353 
0.0071967 -4.53582 -1.06384 
-1.01353 -1.06384 -5.01651 
-4.37035 -0.0219225 -1.02368 
-0.0219225 -4.4311 -1.40171 
-1.02368 -1.40171 -4.82138 
-4.61548 -0.0245513 -0.977499 
-0.0245513 -4.62606 -1.24894 
-0.977499 -1.24894 -4.38129 
-4.56113 -0.197922 -0.971879 
-0.197922 -4.53474 -1.19911 
-0.971879 -1.19911 -4.52695 
-1.49255 0.226924 1.13027 
0.226924 -1.25112 3.11548 
1.13027 3.11548 -0.798774 
-1.15432 -0.0630071 1.20041 
-0.0630071 -1.20665 2.82168 
1.20041 2.82168 -1.18147 
-1.07844 0.141308 1.38258 
0.141308 -0.98689 2.78865 
1.38258 2.78865 -1.47712 
-1.11165 -0.0750849 1.19646 
-0.0750849 -1.20704 2.86656 
1.19646 2.86656 -1.22375 
-3.50219 -0.192587 2.34562 
-0.192587 -3.65503 -3.64949 
2.34562 -3.64949 -3.73847 
-4.01409 -0.0174639 1.74771 
-0.0174639 -2.65397 -3.30237 
1.74771 -3.30237 -4.22762 
-4.28326 -0.399602 2.81275 
-0.399602 -3.99708 -3.45437 
2.81275 -3.45437 -2.61534 
-3.28144 -0.0960649 2.31069 
-0.0960649 -3.8575 -3.70626 
2.31069 -3.70626 -3.75674 
-1.68353 0.189484 2.27046 
0.189484 -0.730132 2.13619 
2.27046 2.13619 -0.667625 
-1.09503 0.0730675 2.34339 
0.0730675 -0.864599 2.03017 
2.34339 2.03017 -1.12166 
-0.900409 -0.0798374 2.31938 
-0.0798374 -1.1743 1.86153 
2.31938 1.86153 -1.00657 
-0.876081 0.0390356 2.40702 
0.0390356 -1.06951 1.80807 
2.40702 1.80807 -1.13569 
-6.45171 -0.128675 -0.850893 
-0.128675 -6.7197 1.26483 
-0.850893 1.26483 -7.13485 
-6.93687 0.0318031 -0.597041 
0.0318031 -6.93533 1.38483 
-0.597041 1.38483 -6.43407 
-6.34555 0.0493178 -0.68573 
0.0493178 -7.00637 1.60067 
-0.68573 1.60067 -6.95435 
-6.70167 -0.0430521 -0.610189 
-0.0430521 -6.96399 1.36154 
-0.610189 1.36154 -6.64061 
-9.58377 -0.0245771 -0.488459 
-0.0245771 -9.67227 3.63848 
-0.488459 3.63848 -9.55772 
-9.27973 0.000382803 -0.449198 
0.000382803 -9.71012 3.73278 
-0.449198 3.73278 -9.82391 
-9.18785 0.143933 -0.329806 
0.143933 -9.40149 3.55952 
-0.329806 3.55952 -10.2244 
-9.78155 -0.0433484 -0.538407 
-0.0433484 -9.69894 3.74719 
-0.538407 3.74719 -9.33328 
-1.51225 -0.0810749 -1.5103 
-0.0810749 -1.49687 -4.0531 
-1.5103 -4.0531 -1.60534 
-1.83357 -0.0442577 -1.32675 
-0.0442577 -1.74132 -3.91317 
-1.32675 -3.91317 -1.03957 
-1.57299 -0.0821881 -1.6444 
-0.0821881 -1.49982 -4.06205 
-1.6444 -4.06205 -1.54165 
-1.28948 -0.081479 -1.84627 
-0.081479 -1.1005 -4.07139 
-1.84627 -4.07139 -2.22449 
-5.25555 -0.0375276 -4.77379 
-0.0375276 -6.44564 -1.78976 
-4.77379 -1.78976 -3.43354 
-3.79997 -0.492805 -4.20202 
-0.492805 -4.48033 -1.56681 
-4.20202 -1.56681 -6.85444 
-5.64791 0.17895 -3.98065 
0.17895 -4.85756 -0.981943 
-3.98065 -0.981943 -4.62926 
-5.67765 -0.197022 -3.95204 
-0.197022 -4.46689 -1.25763 
-3.95204 -1.25763 -4.9902 
-4.66651 0.680496 2.21766 
0.680496 -4.53766 3.97258 
2.21766 3.97258 -5.86755 
-5.30367 -0.213016 2.18788 
-0.213016 -5.30592 4.12308 
2.18788 4.12308 -4.46213 
-4.98811 -0.198701 2.10995 
-0.198701 -5.2163 4.04214 
2.10995 4.04214 -4.86731 
-5.11186 -0.196485 1.50684 
-0.196485 -4.99885 3.8478 
1.50684 3.8478 -4.961 
-6.56013 0.238786 3.88364 
0.238786 -7.73433 2.80166 
3.88364 2.80166 -8.53453 
-9.0139 -0.598407 4.11813 
-0.598407 -7.3455 2.15103 
4.11813 2.15103 -6.46959 
-7.40896 0.274901 3.84147 
0.274901 -7.72728 2.48144 
3.84147 2.48144 -7.69275 
-7.51426 0.331018 2.62156 
0.331018 -7.97919 2.58891 
2.62156 2.58891 -7.33553 
-4.64109 -0.00642114 -0.292626 
-0.00642114 -4.65162 -2.56876 
-0.292626 -2.56876 -4.47903 
-4.53207 4.76966e-05 -0.215106 
4.76966e-05 -4.51411 -2.53802 
-0.215106 -2.53802 -4.72556 
-4.52834 -0.0421267 -0.343377 
-0.0421267 -4.51124 -2.57808 
-0.343377 -2.57808 -4.73216 
-4.40237 0.0325901 -0.170073 
0.0325901 -4.44775 -2.78764 
-0.170073 -2.78764 -4.92162 
-8.37157 -0.269367 -0.918054 
-0.269367 -8.51465 4.4782 
-0.918054 4.4782 -6.0733 
-7.6067 0.180226 -0.637944 
0.180226 -7.50948 3.75117 
-0.637944 3.75117 -7.84334 
-6.82265 -0.102728 -0.545615 
-0.102728 -6.96385 4.68561 
-0.545615 4.68561 -9.17302 
-7.79783 0.0817928 -0.41827 
0.0817928 -7.5499 3.94439 
-0.41827 3.94439 -7.61178 
-6.43353 0.462337 -3.52188 
0.462337 -6.16042 3.02592 
-3.52188 3.02592 -4.61534 
-5.73617 -0.0825864 -3.72757 
-0.0825864 -5.81877 2.50298 
-3.72757 2.50298 -5.65435 
-5.42526 -0.0430623 -3.76268 
-0.0430623 -5.49905 3.0347 
-3.76268 3.0347 -6.28498 
-5.60267 -0.178968 -3.28859 
-0.178968 -5.75661 2.3963 
-3.28859 2.3963 -5.85001 
-5.3668 -0.229647 2.62848 
-0.229647 -4.79214 2.39687 
2.62848 2.39687 -4.92905 
-5.22028 -0.0489378 2.52142 
-0.0489378 -5.05894 2.11238 
2.52142 2.11238 -4.80876 
-5.27953 -0.108065 2.61034 
-0.108065 -4.96541 2.3751 
2.61034 2.3751 -4.84304 
-4.96706 -0.0919324 2.37869 
-0.0919324 -5.03222 2.24025 
2.37869 2.24025 -5.0887 
-5.4194 -0.137135 1.85466 
-0.137135 -5.56949 3.10163 
1.85466 3.10163 -5.35845 
-5.71498 0.188422 2.07563 
0.188422 -5.62048 3.13566 
2.07563 3.13566 -5.01188 
-5.35075 -0.318295 2.0508 
-0.318295 -5.51279 2.96341 
2.0508 2.96341 -5.48381 
-5.07481 0.0505362 2.17401 
0.0505362 -5.17013 2.77909 
2.17401 2.77909 -6.10239 
-0.683157 -0.0102379 -2.69497 
-0.0102379 -0.390358 2.33958 
-2.69497 2.33958 -0.370394 
-0.906352 -0.0663113 -2.56201 
-0.0663113 -0.463526 2.2397 
-2.56201 2.2397 -0.0740305 
-0.887454 -0.00488058 -2.54964 
-0.00488058 -0.571255 2.48549 
-2.54964 2.48549 0.0148006 
-0.601734 -0.0226643 -2.80214 
-0.0226643 -0.342564 2.31016 
-2.80214 2.31016 -0.49961 
-8.34958 0.142128 1.7128 
0.142128 -7.3401 4.20784 
1.7128 4.20784 -7.8966 
-7.77742 0.327542 1.93125 
0.327542 -7.29374 4.37702 
1.93125 4.37702 -8.51511 
-7.6128 -0.631155 2.20783 
-0.631155 -9.26243 4.20658 
2.20783 4.20658 -6.71104 
-8.15284 0.339335 1.43601 
0.339335 -7.7367 2.97127 
1.43601 2.97127 -7.69673 
-9.78553 -0.0350004 -2.07244 
-0.0350004 -9.541 -1.2392 
-2.07244 -1.2392 -9.58457 
-9.63299 -0.148174 -2.14659 
-0.148174 -9.54255 -1.28301 
-2.14659 -1.28301 -9.73555 
-9.19558 -0.190183 -2.13479 
-0.190183 -9.40724 -1.09985 
-2.13479 -1.09985 -10.3083 
-9.76534 0.02116 -2.15395 
0.02116 -9.751 -1.30554 
-2.15395 -1.30554 -9.39475 
-3.79424 0.336343 3.76394 
0.336343 -4.56056 2.23424 
3.76394 2.23424 -5.20239 
-4.66833 -0.0561082 4.1061 
-0.0561082 -4.62835 2.5759 
4.1061 2.5759 -4.26051 
-4.49329 0.0195265 3.88994 
0.0195265 -4.50163 2.44986 
3.88994 2.44986 -4.56228 
-4.70499 -0.138029 3.83566 
-0.138029 -4.49395 2.56849 
3.83566 2.56849 -4.35826 
-2.06973 0.0790203 3.83711 
0.0790203 -1.70433 -1.62976 
3.83711 -1.62976 -1.43942 
-1.55404 -0.0683229 3.92432 
-0.0683229 -1.64941 -1.64885 
3.92432 -1.64885 -2.01003 
-1.70618 -0.0197294 3.99119 
-0.0197294 -1.82499 -1.51137 
3.99119 -1.51137 -1.68231 
-1.42787 0.0132042 3.998 
0.0132042 -1.68919 -1.36004 
3.998 -1.36004 -2.09642 
-8.68168 -0.155834 0.632234 
-0.155834 -9.16218 2.51748 
0.632234 2.51748 -9.52507 
-8.97649 -0.186386 0.311955 
-0.186386 -9.10614 1.808 
0.311955 1.808 -9.28631 
-9.23192 0.146707 0.10541 
0.146707 -9.22556 1.73089 
0.10541 1.73089 -8.91146 
-9.23448 0.146568 0.710504 
0.146568 -9.0153 2.36092 
0.710504 2.36092 -9.11915 
-0.763239 0.0868887 -1.73375 
0.0868887 -0.687785 3.35954 
-1.73375 3.35954 -0.216979 
-0.570496 0.0253098 -1.77141 
0.0253098 -0.559676 3.28456 
-1.77141 3.28456 -0.53783 
-0.913543 0.0157785 -1.7809 
0.0157785 -0.790608 3.16104 
-1.7809 3.16104 0.0361486 
-0.487192 -0.0292002 -1.66016 
-0.0292002 -0.535242 3.33564 
-1.66016 3.33564 -0.645569 
-6.22219 -0.118869 -2.18308 
-0.118869 -6.60055 -3.99908 
-2.18308 -3.99908 -6.7447 
-6.55257 -0.0436279 -1.97333 
-0.0436279 -6.37863 -4.06159 
-1.97333 -4.06159 -6.63624 
-6.71282 -0.013404 -1.47704 
-0.013404 -7.0061 -4.03077 
-1.47704 -4.03077 -5.84852 
-6.02552 0.0726094 -2.31852 
0.0726094 -6.17921 -3.44295 
-2.31852 -3.44295 -7.3627 
-4.82716 -0.0114598 0.329809 
-0.0114598 -4.88493 0.0788601 
0.329809 0.0788601 -4.42301 
-4.54178 -0.0120306 0.492348 
-0.0120306 -4.88324 -0.0571661 
0.492348 -0.0571661 -4.71008 
-4.80751 0.196105 0.32558 
0.196105 -4.69534 0.168474 
0.32558 0.168474 -4.63225 
-4.92282 0.0512043 0.291818 
0.0512043 -4.67868 0.243945 
0.291818 0.243945 -4.5336 
-0.428076 0.0660581 0.77915 
0.0660581 -0.339786 1.95771 
0.77915 1.95771 -0.252057 
-0.380346 0.108845 0.82792 
0.108845 -0.453169 1.93221 
0.82792 1.93221 -0.186404 
-0.631566 0.0275263 0.738914 
0.0275263 -0.780571 1.88348 
0.738914 1.88348 0.392218 
-0.274488 -0.0317554 0.835783 
-0.0317554 -0.265946 1.97819 
0.835783 1.97819 -0.479485 
-4.99718 0.324567 -4.07172 
0.324567 -5.20789 -2.07134 
-4.07172 -2.07134 -5.85628 
-5.44551 -0.0831396 -4.00698 
-0.0831396 -5.24518 -2.19956 
-4.00698 -2.19956 -5.37066 
-5.49895 -0.202368 -4.19136 
-0.202368 -5.42274 -2.10011 
-4.19136 -2.10011 -5.13966 
-5.23581 -0.117535 -3.89471 
-0.117535 -5.56854 -1.70129 
-3.89471 -1.70129 -5.257 
-8.64225 0.24835 0.491751 
0.24835 -8.6667 3.5832 
0.491751 3.5832 -9.44953 
-8.96707 0.254827 1.32316 
0.254827 -9.19914 3.47402 
1.32316 3.47402 -8.59228 
-8.9178 0.337721 1.23772 
0.337721 -8.83165 3.35133 
1.23772 3.35133 -9.00903 
-8.71675 -0.0180443 0.648915 
-0.0180443 -9.0548 3.42735 
0.648915 3.42735 -8.98693 
-3.26004 0.0691796 -1.90768 
0.0691796 -3.36823 0.505475 
-1.90768 0.505475 -3.60665 
-3.17011 0.0864129 -1.85487 
0.0864129 -3.80339 0.468234 
-1.85487 0.468234 -3.26142 
-3.43817 -0.0539157 -2.1594 
-0.0539157 -3.52245 0.7131 
-2.1594 0.7131 -3.2743 
-3.46867 0.117472 -1.99667 
0.117472 -3.21609 0.724452 
-1.99667 0.724452 -3.55015 
-2.5042 0.0297791 -1.58524 
0.0297791 -2.66118 0.592519 
-1.58524 0.592519 -2.57129 
-2.62618 -0.101921 -1.80092 
-0.101921 -2.83099 0.650532 
-1.80092 0.650532 -2.27949 
-2.41701 -0.0131908 -1.77101 
-0.0131908 -2.50664 0.522786 
-1.77101 0.522786 -2.81301 
-2.58419 0.177402 -1.41318 
0.177402 -2.15177 0.8048 
-1.41318 0.8048 -3.0007 
-2.47209 -0.830477 1.42178 
-0.830477 -3.34129 4.33108 
1.42178 4.33108 -1.39517 
-2.5079 0.126263 1.20371 
0.126263 -2.20549 4.42805 
1.20371 4.42805 -2.49516 
-2.13547 0.569866 1.01028 
0.569866 -1.92406 4.72632 
1.01028 4.72632 -3.14902 
-2.75389 0.303259 0.33918 
0.303259 -2.23794 3.95949 
0.33918 3.95949 -2.21672 
-5.38588 0.218047 1.10404 
0.218047 -5.73735 -4.30783 
1.10404 -4.30783 -4.56271 
-5.18276 -0.113844 1.60466 
-0.113844 -4.96239 -4.58161 
1.60466 -4.58161 -5.54078 
-5.05893 0.0490193 1.32267 
0.0490193 -5.50767 -4.39872 
1.32267 -4.39872 -5.11934 
-4.91814 -0.208793 1.20744 
-0.208793 -5.09675 -4.31275 
1.20744 -4.31275 -5.67104 
-4.45681 0.166831 -0.507481 
0.166831 -4.13442 0.745592 
-0.507481 0.745592 -3.535 
-4.37508 0.00443666 -0.695502 
0.00443666 -4.03081 0.521873 
-0.695502 0.521873 -3.72034 
-3.90852 -0.0226829 -0.853326 
-0.0226829 -3.98007 0.720331 
-0.853326 0.720331 -4.23765 
-4.17045 0.0420001 -0.806815 
0.0420001 -3.93835 0.761248 
-0.806815 0.761248 -4.01743 
-8.068 0.255753 -0.961821 
0.255753 -8.15028 2.64047 
-0.961821 2.64047 -8.38728 
-8.43696 -0.0758842 -0.564398 
-0.0758842 -8.41414 2.45346 
-0.564398 2.45346 -7.75445 
-8.34947 -0.0787602 -0.83285 
-0.0787602 -8.45245 2.6488 
-0.83285 2.6488 -7.80364 
-8.09698 -0.174391 -0.768223 
-0.174391 -8.35221 2.61033 
-0.768223 2.61033 -8.15637 
-5.302 -0.103771 0.522366 
-0.103771 -5.13024 -3.5169 
0.522366 -3.5169 -6.27831 
-5.60019 -0.165086 0.20698 
-0.165086 -5.27696 -3.402 
0.20698 -3.402 -5.8334 
-5.71284 -0.172963 0.247518 
-0.172963 -5.6273 -3.28194 
0.247518 -3.28194 -5.37041 
-5.45975 -0.179247 0.355597 
-0.179247 -5.56301 -3.47835 
0.355597 -3.47835 -5.68779 
-7.16104 0.0162462 3.33656 
0.0162462 -6.63518 3.22902 
3.33656 3.22902 -7.44469 
-6.95582 0.306574 2.89173 
0.306574 -7.23141 3.22577 
2.89173 3.22577 -7.05369 
-7.42352 -0.106046 2.58629 
-0.106046 -7.31452 3.55655 
2.58629 3.55655 -6.50287 
-6.99209 0.0849458 3.05441 
0.0849458 -7.24052 3.32809 
3.05441 3.32809 -7.00831 
-1.07665 -0.058355 2.03686 
-0.058355 -1.22944 0.903942 
2.03686 0.903942 -1.09367 
-1.50699 0.120003 2.04018 
0.120003 -1.0389 1.02988 
2.04018 1.02988 -0.853871 
-1.16004 0.0650755 2.02416 
0.0650755 -1.04696 1.0183 
2.02416 1.0183 -1.19276 
-1.164 0.0845847 2.06518 
0.0845847 -0.987368 0.788572 
2.06518 0.788572 -1.2484 
-9.70477 -0.0490501 3.86437 
-0.0490501 -9.36871 1.20203 
3.86437 1.20203 -9.88084 
-9.49838 -0.0446217 3.69889 
-0.0446217 -9.44306 1.15951 
3.69889 1.15951 -10.0129 
-9.71772 -0.0700858 3.78672 
-0.0700858 -9.69048 1.28422 
3.78672 1.28422 -9.54613 
-9.72929 -0.00638113 3.81969 
-0.00638113 -9.78468 1.28274 
3.81969 1.28274 -9.44035 
-9.47874 -1.61547e-05 -1.81991 
-1.61547e-05 -9.62994 1.3518 
-1.81991 1.3518 -9.61492 
-9.24427 -0.00661095 -1.84351 
-0.00661095 -9.26694 1.22681 
-1.84351 1.22681 -10.2124 
-9.41459 -0.108419 -1.72007 
-0.108419 -9.56627 1.3585 
-1.72007 1.3585 -9.74273 
-9.64133 0.0326562 -1.78234 
0.0326562 -9.6713 1.41067 
-1.78234 1.41067 -9.41097 
-7.26341 0.0269917 -1.3059 
0.0269917 -7.28914 2.22438 
-1.3059 2.22438 -6.86525 
-7.10054 0.0716916 -1.26122 
0.0716916 -7.21152 2.01806 
-1.26122 2.01806 -7.10573 
-6.90774 -0.000562522 -1.3299 
-0.000562522 -7.3436 2.02171 
-1.3299 2.02171 -7.16646 
-6.77306 0.0550215 -1.50163 
0.0550215 -6.72582 2.1548 
-1.50163 2.1548 -7.91892 
-2.76991 0.118122 0.772434 
0.118122 -2.78338 -0.11046 
0.772434 -0.11046 -3.01682 
-2.77542 0.235372 0.496687 
0.235372 -2.98559 -0.180103 
0.496687 -0.180103 -2.8091 
-2.77376 0.0978082 0.527731 
0.0978082 -2.93852 -0.0097905 
0.527731 -0.0097905 -2.85783 
-3.12253 -0.224402 0.3682 
-0.224402 -3.03273 -0.0527726 
0.3682 -0.0527726 -2.41485 
-3.46753 -0.238949 0.440536 
-0.238949 -3.61777 2.32787 
0.440536 2.32787 -3.37596 
-3.15123 0.139423 0.485248 
0.139423 -3.15068 2.19971 
0.485248 2.19971 -4.15935 
-3.84727 -0.133072 0.4615 
-0.133072 -3.65639 2.47855 
0.4615 2.47855 -2.9576 
-3.56696 -0.141371 0.194671 
-0.141371 -3.33505 2.3442 
0.194671 2.3442 -3.55925 
-6.74931 -0.0187708 3.1971 
-0.0187708 -6.64876 -1.0744 
3.1971 -1.0744 -6.71651 
-6.91511 -0.0478819 3.254 
-0.0478819 -6.68645 -0.966649 
3.254 -0.966649 -6.51302 
-6.77989 0.000484856 3.23412 
0.000484856 -6.60613 -0.905749 
3.23412 -0.905749 -6.72857 
-6.51686 0.0654901 3.35356 
0.0654901 -6.60368 -0.982353 
3.35356 -0.982353 -6.99405 
-5.81968 0.120876 -1.07603 
0.120876 -5.80108 2.14655 
-1.07603 2.14655 -5.91186 
-5.99697 0.179653 -0.877254 
0.179653 -5.93288 2.2583 
-0.877254 2.2583 -5.60277 
-5.61104 -0.117255 -0.884313 
-0.117255 -5.74596 2.24901 
-0.884313 2.24901 -6.17561 
-6.25194 0.10788 -0.96487 
0.10788 -5.89519 1.97175 
-0.96487 1.97175 -5.38548 
-1.05273 -0.0169576 3.45969 
-0.0169576 -1.17343 0.0212946 
3.45969 0.0212946 -0.857039 
-0.758792 0.513835 3.5012 
0.513835 -0.860011 0.086819 
3.5012 0.086819 -1.4644 
-1.16475 -0.0302992 3.36802 
-0.0302992 -1.11328 0.14577 
3.36802 0.14577 -0.80517 
-0.977989 -0.0970456 3.29114 
-0.0970456 -1.0327 -0.0282066 
3.29114 -0.0282066 -1.07251 
-0.467101 -0.0895277 1.95756 
-0.0895277 -0.600157 0.0954639 
1.95756 0.0954639 -0.191377 
-0.480484 -0.0767759 2.06932 
-0.0767759 -0.43794 0.08667 
2.06932 0.08667 -0.34021 
-0.597335 -0.00727937 2.18068 
-0.00727937 -0.746805 0.0512103 
2.18068 0.0512103 0.0855054 
-0.314621 -0.0107103 1.97179 
-0.0107103 -0.456341 0.0315537 
1.97179 0.0315537 -0.487673 
-7.52996 0.586796 -2.2325 
0.586796 -8.96931 4.21984 
-2.2325 4.21984 -6.60665 
-7.73975 -0.143523 -2.55779 
-0.143523 -7.61343 3.80418 
-2.55779 3.80418 -7.75275 
-7.77136 -0.3019 -2.88016 
-0.3019 -6.54628 3.81452 
-2.88016 3.81452 -8.78829 
-7.9519 -0.323242 -2.66418 
-0.323242 -7.84938 2.57153 
-2.66418 2.57153 -7.30465 
-2.62736 -0.177599 0.050797 
-0.177599 -2.6933 2.33748 
0.050797 2.33748 -2.86073 
-2.62133 -0.100845 -0.0570043 
-0.100845 -2.78147 2.31032 
-0.0570043 2.31032 -2.77859 
-2.79604 -0.080628 -0.0525364 
-0.080628 -2.77932 2.15522 
-0.0525364 2.15522 -2.60603 
-2.63952 0.329712 -0.122455 
0.329712 -2.39743 2.21128 
-0.122455 2.21128 -3.14444 
-4.92053 -0.0011856 0.338488 
-0.0011856 -5.09383 -3.47695 
0.338488 -3.47695 -4.91198 
-4.90253 -0.03176 0.268827 
-0.03176 -5.08736 -3.40448 
0.268827 -3.40448 -4.93645 
-5.65215 0.214154 0.115331 
0.214154 -4.8768 -2.99265 
0.115331 -2.99265 -4.39739 
-4.71914 -0.0372023 0.15809 
-0.0372023 -4.64714 -3.3979 
0.15809 -3.3979 -5.56005 
-7.0749 0.232459 2.53134 
0.232459 -7.36613 -3.85921 
2.53134 -3.85921 -6.24864 
-6.92488 -0.105509 2.43726 
-0.105509 -6.89809 -3.87147 
2.43726 -3.87147 -6.86669 
-6.95893 -0.185358 2.71238 
-0.185358 -6.58503 -3.82299 
2.71238 -3.82299 -7.14571 
-7.09786 -0.0315933 2.60284 
-0.0315933 -6.75263 -3.28979 
2.60284 -3.28979 -6.83917 
-7.01615 0.0168082 -2.78042 
0.0168082 -7.06313 -3.46827 
-2.78042 -3.46827 -9.01708 
-8.07206 0.0126224 -2.89062 
0.0126224 -7.7853 -3.66222 
-2.89062 -3.66222 -7.239 
-7.76381 -0.244452 -2.51793 
-0.244452 -7.65809 -3.3824 
-2.51793 -3.3824 -7.67446 
-7.51681 -0.122335 -2.69246 
-0.122335 -7.76724 -3.46673 
-2.69246 -3.46673 -7.81232 
-1.91608 0.163637 -1.45938 
0.163637 -2.64807 0.578136 
-1.45938 0.578136 -2.66282 
-2.91687 -0.232921 -1.11289 
-0.232921 -2.18003 0.217965 
-1.11289 0.217965 -2.13007 
-2.69148 0.104778 -1.51035 
0.104778 -2.09089 0.234378 
-1.51035 0.234378 -2.4446 
-2.51491 0.0328473 -1.26983 
0.0328473 -2.57664 0.411741 
-1.26983 0.411741 -2.13542 
-0.411368 -0.0276104 -2.02749 
-0.0276104 -0.571502 0.906373 
-2.02749 0.906373 -0.288372 
-0.388618 -0.0692337 -1.92338 
-0.0692337 -0.428474 0.915078 
-1.92338 0.915078 -0.454149 
-0.617985 0.0281243 -1.85322 
0.0281243 -0.681497 0.933423 
-1.85322 0.933423 0.0282413 
-0.336427 0.0122688 -1.97053 
0.0122688 -0.314463 0.930138 
-1.97053 0.930138 -0.620352 
-0.861576 -0.0229029 -1.19941 
-0.0229029 -0.33099 -2.79378 
-1.19941 -2.79378 -0.214319 
-0.565055 0.149821 -1.12113 
0.149821 -0.539134 -2.85007 
-1.12113 -2.85007 -0.302696 
-0.92766 -0.010303 -1.15141 
-0.010303 -0.986566 -2.89532 
-1.15141 -2.89532 0.507341 
-0.400298 -0.0291398 -1.13388 
-0.0291398 -0.427585 -2.77073 
-1.13388 -2.77073 -0.579002 
-2.302 -0.132012 0.270688 
-0.132012 -2.60508 2.3067 
0.270688 2.3067 -2.31714 
-2.19353 -0.0231798 0.160241 
-0.0231798 -2.65376 2.19968 
0.160241 2.19968 -2.37694 
-2.12806 -0.041806 -0.230287 
-0.041806 -2.434 2.03757 
-0.230287 2.03757 -2.66216 
-2.48546 0.0775882 0.361521 
0.0775882 -2.80716 2.68127 
0.361521 2.68127 -1.9316 
-4.24335 -0.17595 4.69953 
-0.17595 -5.1315 0.32894 
4.69953 0.32894 -5.86328 
-5.8108 0.163282 4.7719 
0.163282 -5.07567 0.344692 
4.7719 0.344692 -4.35165 
-5.06485 -0.000558594 4.58565 
-0.000558594 -5.09553 0.245087 
4.58565 0.245087 -5.07774 
-5.13716 0.0420635 4.13164 
0.0420635 -5.09541 0.851511 
4.13164 0.851511 -5.00555 
-3.35992 -0.00260204 3.46331 
-0.00260204 -3.21003 -2.91859 
3.46331 -2.91859 -1.46202 
-2.71153 -0.146703 3.1901 
-0.146703 -2.5987 -2.54755 
3.1901 -2.54755 -2.72175 
-2.33802 0.0457776 3.62323 
0.0457776 -2.41239 -2.95993 
3.62323 -2.95993 -3.28156 
-2.49532 -0.075733 2.97821 
-0.075733 -2.79255 -2.7985 
2.97821 -2.7985 -2.74409 
-1.36901 0.0935301 0.734605 
0.0935301 -1.51374 -0.370397 
0.734605 -0.370397 -1.86368 
-1.62965 -0.0758357 0.577057 
-0.0758357 -1.41009 -0.490465 
0.577057 -0.490465 -1.70669 
-1.63474 -0.049197 0.646232 
-0.049197 -1.62213 -0.420945 
0.646232 -0.420945 -1.48957 
-1.55081 -0.0378479 0.642075 
-0.0378479 -1.53567 -0.282511 
0.642075 -0.282511 -1.65995 
-6.89427 0.0195011 3.34647 
0.0195011 -6.97398 0.571786 
3.34647 0.571786 -6.94074 
-6.96881 0.0670771 3.53164 
0.0670771 -7.07123 0.654039 
3.53164 0.654039 -6.76895 
-6.87164 0.00699529 3.39884 
0.00699529 -6.94689 0.729178 
3.39884 0.729178 -6.99046 
-6.69295 0.0143889 3.45692 
0.0143889 -6.84499 0.604249 
3.45692 0.604249 -7.27105 
-2.37146 -0.00495568 0.551246 
-0.00495568 -2.26138 1.60739 
0.551246 1.60739 -2.65236 
-2.79098 -0.1207 0.791058 
-0.1207 -2.1673 1.8462 
0.791058 1.8462 -2.32692 
-2.63904 -0.0294436 0.735815 
-0.0294436 -2.28043 1.71959 
0.735815 1.71959 -2.36574 
-2.69055 -0.0204561 1.07836 
-0.0204561 -2.73357 1.86768 
1.07836 1.86768 -1.86108 
-6.48776 -0.0282252 2.28786 
-0.0282252 -6.66259 3.97972 
2.28786 3.97972 -6.79561 
-6.52591 -0.243983 2.39473 
-0.243983 -7.24984 3.87918 
2.39473 3.87918 -6.17021 
-6.91292 0.117915 2.30407 
0.117915 -6.42527 3.94851 
2.30407 3.94851 -6.60776 
-6.84934 0.198466 2.27282 
0.198466 -6.49234 3.67097 
2.27282 3.67097 -6.60428 
-1.83434 -0.176644 3.77115 
-0.176644 -1.74055 -1.92026 
3.77115 -1.92026 -1.11736 
-1.65798 -0.0825827 4.02583 
-0.0825827 -1.38188 -1.79041 
4.02583 -1.79041 -1.65239 
-1.64751 -0.0482472 4.13995 
-0.0482472 -1.42873 -1.7396 
4.13995 -1.7396 -1.61601 
-1.15675 -0.124802 4.03149 
-0.124802 -1.10507 -1.45972 
4.03149 -1.45972 -2.43043 
-0.900018 -0.0195039 1.23114 
-0.0195039 -0.807817 3.32343 
1.23114 3.32343 0.167161 
-0.659633 -0.0957976 1.48459 
-0.0957976 -0.677995 3.18813 
1.48459 3.18813 -0.203046 
-0.549006 -0.0260381 1.33763 
-0.0260381 -0.551075 3.17599 
1.33763 3.17599 -0.440593 
-0.485357 0.0072422 1.35767 
0.0072422 -0.46707 3.07328 
1.35767 3.07328 -0.588247 
-2.81693 0.0182078 0.025561 
0.0182078 -2.53662 2.20266 
0.025561 2.20266 -2.81585 
-2.59294 -0.00412288 0.0521892 
-0.00412288 -2.62566 2.31918 
0.0521892 2.31918 -2.9508 
-3.18002 -0.0625774 -0.153342 
-0.0625774 -2.71734 2.35381 
-0.153342 2.35381 -2.27203 
-2.55095 -0.244921 0.0644838 
-0.244921 -2.34867 1.87961 
0.0644838 1.87961 -3.26977 
-3.25177 0.0338493 0.710825 
0.0338493 -3.19084 3.01652 
0.710825 3.01652 -3.27693 
-3.11325 -0.164064 0.872863 
-0.164064 -3.16249 2.71114 
0.872863 2.71114 -3.4438 
-3.41003 0.0463241 0.682986 
0.0463241 -3.17286 2.87296 
0.682986 2.87296 -3.13665 
-3.47078 -0.0865117 0.753349 
-0.0865117 -3.47312 2.82121 
0.753349 2.82121 -2.77564 
-0.212323 0.0683153 1.53726 
0.0683153 -0.458661 2.31577 
1.53726 2.31577 -0.436109 
-0.178484 -0.175737 1.47091 
-0.175737 -0.710315 2.29597 
1.47091 2.29597 -0.218294 
-0.947703 0.0239903 1.42311 
0.0239903 -0.967086 2.28209 
1.42311 2.28209 0.807696 
-0.188819 0.07105 1.3363 
0.07105 -0.24879 2.26864 
1.3363 2.26864 -0.669485 
-9.68674 -0.121923 2.38677 
-0.121923 -9.68791 -2.30406 
2.38677 -2.30406 -9.61715 
-9.25682 -0.164748 2.46933 
-0.164748 -9.48114 -2.53252 
2.46933 -2.53252 -10.2538 
-9.85767 -0.0606711 2.34567 
-0.0606711 -9.56038 -2.35591 
2.34567 -2.35591 -9.57375 
-9.80122 -0.0123597 2.39394 
-0.0123597 -9.78844 -2.27226 
2.39394 -2.27226 -9.40214 
-9.23164 0.0850854 -2.25701 
0.0850854 -9.00119 -3.76473 
-2.25701 -3.76473 -9.27598 
-9.19223 0.0337377 -2.3278 
0.0337377 -9.14369 -3.73605 
-2.3278 -3.73605 -9.17289 
-8.96397 -0.127439 -2.22563 
-0.127439 -9.0379 -3.62208 
-2.22563 -3.62208 -9.50694 
-9.18218 -0.189205 -2.39087 
-0.189205 -9.32602 -3.7906 
-2.39087 -3.7906 -9.00062 
-5.47971 -0.205294 -4.48752 
-0.205294 -5.84073 2.1548 
-4.48752 2.1548 -6.1506 
-6.08673 0.231354 -4.141 
0.231354 -5.89112 1.80869 
-4.141 1.80869 -5.49318 
-6.38648 0.277662 -3.93542 
0.277662 -5.65766 2.04881 
-3.93542 2.04881 -5.42689 
-5.33203 -0.0888184 -4.14345 
-0.0888184 -5.64936 1.92372 
-4.14345 1.92372 -6.48964 
-1.01536 -0.267011 -2.85754 
-0.267011 -1.67247 -0.0164795 
-2.85754 -0.0164795 -1.18686 
-0.96182 -0.298946 -2.94022 
-0.298946 -1.34418 0.0567142 
-2.94022 0.0567142 -1.56869 
-1.21919 0.00171796 -3.48062 
0.00171796 -1.48919 -0.232706 
-3.48062 -0.232706 -1.16631 
-1.2485 -0.102295 -3.45727 
-0.102295 -1.14019 -0.242325 
-3.45727 -0.242325 -1.48601 
-5.22318 -0.362116 4.33354 
-0.362116 -5.24801 -2.18774 
4.33354 -2.18774 -6.59209 
-6.40254 0.805229 4.03239 
0.805229 -6.25701 -2.02289 
4.03239 -2.02289 -4.40374 
-5.51093 -0.181765 4.23078 
-0.181765 -5.71621 -1.84205 
4.23078 -1.84205 -5.83615 
-5.68222 -0.19144 3.98852 
-0.19144 -5.44673 -1.1189 
3.98852 -1.1189 -5.93434 
-0.637265 -0.0116181 -2.1092 
-0.0116181 -0.588834 -0.0165609 
-2.1092 -0.0165609 -0.196899 
-0.560251 -0.0578881 -1.92797 
-0.0578881 -0.603027 -0.0802596 
-1.92797 -0.0802596 -0.25972 
-0.471495 0.0403921 -2.02802 
0.0403921 -0.588826 -0.131511 
-2.02802 -0.131511 -0.362677 
-0.403254 0.00471073 -1.99254 
0.00471073 -0.425661 -0.115429 
-1.99254 -0.115429 -0.594083 
-7.13895 0.08091 -4.26454 
0.08091 -7.26801 1.66521 
-4.26454 1.66521 -9.56906 
-8.20245 0.0889161 -3.58322 
0.0889161 -7.7763 1.89177 
-3.58322 1.89177 -7.99728 
-8.42016 0.127772 -4.15185 
0.127772 -8.73146 2.36847 
-4.15185 2.36847 -6.82441 
-8.14398 0.18058 -3.4413 
0.18058 -7.94246 1.49198 
-3.4413 1.49198 -7.88959 
-6.95655 0.106752 -3.17721 
0.106752 -6.97667 0.938901 
-3.17721 0.938901 -6.94913 
-7.06152 0.0718612 -3.17623 
0.0718612 -6.72958 0.949322 
-3.17623 0.949322 -7.09125 
-7.02975 -0.0101388 -3.07637 
-0.0101388 -6.99798 1.04702 
-3.07637 1.04702 -6.85462 
-6.6509 -0.267867 -3.16966 
-0.267867 -6.79052 0.829213 
-3.16966 0.829213 -7.44092 
-0.701167 0.0144463 -3.5558 
0.0144463 -0.637611 0.143294 
-3.5558 0.143294 -0.295987 
-0.691757 -0.00417175 -3.4376 
-0.00417175 -0.647804 0.0457706 
-3.4376 0.0457706 -0.295204 
-0.746404 0.0443436 -3.57536 
0.0443436 -0.791672 -0.106728 
-3.57536 -0.106728 -0.0966897 
-0.541159 -0.0130122 -3.53952 
-0.0130122 -0.476735 0.0582018 
-3.53952 0.0582018 -0.616871 
-3.46573 -0.0615287 -0.74638 
-0.0615287 -3.22634 3.33313 
-0.74638 3.33313 -3.22211 
-3.11205 0.0653381 -0.686664 
0.0653381 -3.19204 3.43056 
-0.686664 3.43056 -3.61009 
-3.29442 -0.0429242 -0.721953 
-0.0429242 -3.27812 3.19805 
-0.721953 3.19805 -3.34163 
-3.61141 -0.0188767 -0.557564 
-0.0188767 -3.61714 3.43144 
-0.557564 3.43144 -2.68562 
-2.06635 0.0342878 -3.35781 
0.0342878 -2.01852 -0.583549 
-3.35781 -0.583549 -2.15003 
-2.07278 0.0198447 -3.32254 
0.0198447 -2.13074 -0.640425 
-3.32254 -0.640425 -2.03138 
-2.1049 0.0154811 -3.2866 
0.0154811 -1.67546 -0.354982 
-3.2866 -0.354982 -2.45455 
-1.96789 -0.0275504 -3.50536 
-0.0275504 -1.80608 -0.415344 
-3.50536 -0.415344 -2.46094 
-4.93252 -0.00316068 3.66833 
-0.00316068 -5 -2.77929 
3.66833 -2.77929 -4.3606 
-4.89197 0.0793713 3.67655 
0.0793713 -4.72443 -2.62649 
3.67655 -2.62649 -4.67672 
-4.5992 0.00577979 3.72759 
0.00577979 -4.66023 -2.77257 
3.72759 -2.77257 -5.03369 
-4.64425 0.0122084 3.59653 
0.0122084 -4.80693 -2.47161 
3.59653 -2.47161 -4.84194 
-1.59498 0.193139 -1.3347 
0.193139 -1.14173 -3.06797 
-1.3347 -3.06797 -0.915851 
-1.24075 0.0455105 -0.945794 
0.0455105 -0.891172 -2.85347 
-0.945794 -2.85347 -1.52063 
-1.16623 0.00735232 -1.06543 
0.00735232 -1.29804 -2.92761 
-1.06543 -2.92761 -1.18828 
-1.18976 -0.0216009 -1.21686 
-0.0216009 -1.15846 -3.02453 
-1.21686 -3.02453 -1.30434 
-7.64383 0.00780773 3.53599 
0.00780773 -7.72069 -3.17862 
3.53599 -3.17862 -6.96176 
-6.96831 -0.321688 3.43775 
-0.321688 -7.18826 -2.97105 
3.43775 -2.97105 -8.16971 
-7.46243 -0.0357442 3.16708 
-0.0357442 -7.37779 -3.18166 
3.16708 -3.18166 -7.48606 
-7.48018 0.130556 3.06177 
0.130556 -7.58173 -3.1098 
3.06177 -3.1098 -7.26436 
-5.09886 -0.020906 0.533268 
-0.020906 -5.23419 0.504032 
0.533268 0.504032 -4.79863 
-5.14304 -0.0333111 0.675352 
-0.0333111 -5.04903 0.486914 
0.675352 0.486914 -4.93962 
-5.13151 0.0276765 0.352496 
0.0276765 -5.26665 0.470139 
0.352496 0.470139 -4.73352 
-5.16626 -0.0440929 0.51276 
-0.0440929 -4.99636 0.388612 
0.51276 0.388612 -4.96907 
-0.587217 0.122891 -3.02818 
0.122891 -0.715656 -0.338033 
-3.02818 -0.338033 -0.0507668 
-0.586408 0.127079 -2.78078 
0.127079 -0.846477 -0.15584 
-2.78078 -0.15584 0.0792455 
-0.384698 0.0971589 -2.92086 
0.0971589 -0.449742 -0.136114 
-2.92086 -0.136114 -0.5192 
-0.34074 -0.0419009 -2.95415 
-0.0419009 -0.313568 -0.220826 
-2.95415 -0.220826 -0.699332 
-5.89944 -0.156365 -4.84633 
-0.156365 -5.25883 0.269393 
-4.84633 0.269393 -4.2724 
-3.64894 0.252586 -4.52758 
0.252586 -5.36219 0.174973 
-4.52758 0.174973 -6.41954 
-5.40999 0.00949362 -4.53691 
0.00949362 -4.96082 0.41294 
-4.53691 0.41294 -5.05985 
-5.4833 -0.155927 -3.86138 
-0.155927 -4.9899 0.857204 
-3.86138 0.857204 -4.95747 
-5.5872 0.013667 -0.68912 
0.013667 -5.17492 0.686373 
-0.68912 0.686373 -5.92248 
-5.4585 0.0231294 -1.0291 
0.0231294 -5.47629 0.83543 
-1.0291 0.83543 -5.74981 
-5.39252 -0.0109365 -0.932048 
-0.0109365 -5.29838 0.846895 
-0.932048 0.846895 -5.99371 
-5.37765 -0.0335284 -0.889471 
-0.0335284 -5.50126 0.861754 
-0.889471 0.861754 -5.8057 
-5.07208 0.0905496 0.548198 
0.0905496 -5.26461 0.272557 
0.548198 0.272557 -5.16204 
-4.98317 0.0283429 0.317419 
0.0283429 -5.28355 0.269825 
0.317419 0.269825 -5.23201 
-4.75156 0.0410528 0.14099 
0.0410528 -4.91196 0.0203954 
0.14099 0.0203954 -5.8352 
-5.54049 -0.153407 0.254853 
-0.153407 -5.22358 -0.0848122 
0.254853 -0.0848122 -4.73466 
-6.50806 -0.0680217 2.04448 
-0.0680217 -6.43731 -4.17099 
2.04448 -4.17099 -6.36032 
-6.2979 0.221306 1.92273 
0.221306 -6.00668 -3.79949 
1.92273 -3.79949 -7.00111 
-6.18982 0.142797 1.98217 
0.142797 -6.55165 -4.39448 
1.98217 -4.39448 -6.56422 
-6.91818 0.158995 1.76416 
0.158995 -6.65225 -3.78036 
1.76416 -3.78036 -5.73526 
-8.21965 -0.0969871 0.706621 
-0.0969871 -8.47159 1.84483 
0.706621 1.84483 -8.91702 
-8.70324 0.0714605 0.604363 
0.0714605 -8.50272 1.98838 
0.604363 1.98838 -8.40229 
-8.42524 0.0645665 0.585281 
0.0645665 -8.33518 2.23801 
0.585281 2.23801 -8.84783 
-8.79964 0.293423 0.718024 
0.293423 -8.56362 2.40341 
0.718024 2.40341 -8.24499 
-7.58067 -0.130362 2.36783 
-0.130362 -7.82455 3.9296 
2.36783 3.9296 -6.99689 
-7.46339 0.336429 2.18972 
0.336429 -7.0135 4.1472 
2.18972 4.1472 -7.92521 
-7.41321 -0.117341 2.28113 
-0.117341 -7.51106 3.89299 
2.28113 3.89299 -7.47783 
-7.34605 -0.153833 2.10884 
-0.153833 -7.40696 3.42255 
2.10884 3.42255 -7.6491 
-1.29342 0.00890829 2.25331 
0.00890829 -1.11237 -1.66399 
2.25331 -1.66399 -0.885035 
-1.28379 0.149719 2.01776 
0.149719 -1.22115 -1.8159 
2.01776 -1.8159 -0.785892 
-1.26427 -0.103713 2.28485 
-0.103713 -0.56742 -1.43584 
2.28485 -1.43584 -1.45913 
-0.942939 0.023001 2.07962 
0.023001 -1.2031 -1.60407 
2.07962 -1.60407 -1.14479 
-0.381378 -0.177975 -3.79751 
-0.177975 -0.774929 0.633126 
-3.79751 0.633126 -0.175784 
-0.506501 -0.0697409 -3.76228 
-0.0697409 -0.631784 0.689034 
-3.76228 0.689034 -0.193806 
-0.714264 -0.0185745 -3.62522 
-0.0185745 -0.914675 0.721679 
-3.62522 0.721679 0.296848 
-0.344459 -0.0369574 -3.87356 
-0.0369574 -0.584517 0.538179 
-3.87356 0.538179 -0.403115 
-5.9595 0.0185482 1.07694 
0.0185482 -5.53571 4.36547 
1.07694 4.36547 -5.87101 
-5.87092 -0.167902 0.812039 
-0.167902 -6.08234 4.4562 
0.812039 4.4562 -5.41296 
-5.62449 -0.0871389 1.49405 
-0.0871389 -5.8478 4.27871 
1.49405 4.27871 -5.89393 
-5.63885 0.0142616 1.56737 
0.0142616 -5.63007 3.92713 
1.56737 3.92713 -6.0973 
-0.548963 -0.0368847 -1.30824 
-0.0368847 -0.506654 -1.41804 
-1.30824 -1.41804 -0.417392 
-0.663228 -0.0576459 -1.25404 
-0.0576459 -0.821007 -1.492 
-1.25404 -1.492 0.0112258 
-0.588573 -0.0879433 -1.42014 
-0.0879433 -0.670836 -1.42193 
-1.42014 -1.42193 -0.213599 
-0.409313 0.0127167 -1.39482 
0.0127167 -0.476406 -1.34048 
-1.39482 -1.34048 -0.58729 
-3.55049 -0.0162652 3.21016 
-0.0162652 -3.8524 -3.15718 
3.21016 -3.15718 -3.44695 
-3.03412 0.13885 2.99622 
0.13885 -3.72382 -3.21933 
2.99622 -3.21933 -4.09189 
-3.52938 0.0435702 3.14302 
0.0435702 -3.81201 -3.05668 
3.14302 -3.05668 -3.50844 
-3.74975 -0.0674151 2.97339 
-0.0674151 -4.16948 -2.70388 
2.97339 -2.70388 -2.9306 
-4.95295 0.0736935 1.78348 
0.0736935 -5.41803 0.46545 
1.78348 0.46545 -4.54246 
-4.92851 -0.122181 1.63215 
-0.122181 -5.17058 0.500588 
1.63215 0.500588 -4.81435 
-4.98358 -0.0159708 1.73927 
-0.0159708 -5.10727 0.705623 
1.73927 0.705623 -4.82259 
-5.20806 0.0475487 1.60933 
0.0475487 -5.14409 0.701853 
1.60933 0.701853 -4.56129 
-8.82184 0.163018 -2.80532 
0.163018 -8.81896 0.880879 
-2.80532 0.880879 -9.1816 
-9.11811 0.375019 -2.9343 
0.375019 -9.13012 0.98957 
-2.9343 0.98957 -8.57416 
-8.8286 -0.0811066 -2.94801 
-0.0811066 -8.96602 0.794738 
-2.94801 0.794738 -9.02778 
-8.97493 -0.119417 -2.98712 
-0.119417 -8.95915 0.920565 
-2.98712 0.920565 -8.88831 
-4.8195 0.192364 0.713808 
0.192364 -4.88758 -4.32097 
0.713808 -4.32097 -4.64362 
-4.76587 0.246373 0.197135 
0.246373 -4.85228 -4.36541 
0.197135 -4.36541 -4.73255 
-4.82028 0.113479 -0.0218704 
0.113479 -4.56138 -4.27083 
-0.0218704 -4.27083 -4.96904 
-4.90047 0.333463 0.483814 
0.333463 -4.71017 -4.25169 
0.483814 -4.25169 -4.74006 
-1.4108 -0.181815 -0.550364 
-0.181815 -1.49287 4.32323 
-0.550364 4.32323 -1.30438 
-1.33978 -0.0923761 -0.228767 
-0.0923761 -1.45333 4.40393 
-0.228767 4.40393 -1.41494 
-1.40852 0.0108546 -0.433774 
0.0108546 -1.26365 4.24043 
-0.433774 4.24043 -1.53588 
-1.4151 -0.228605 0.0228324 
-0.228605 -1.06282 4.30034 
0.0228324 4.30034 -1.73012 
-2.60941 0.102057 -2.83988 
0.102057 -3.16152 4.31546 
-2.83988 4.31546 -1.43298 
-2.37818 -0.0623438 -2.5119 
-0.0623438 -2.36139 3.79018 
-2.5119 3.79018 -2.46434 
-2.57738 -0.341166 -2.05626 
-0.341166 -1.10813 3.74314 
-2.05626 3.74314 -3.5184 
-2.26491 0.370533 -2.88161 
0.370533 -2.8886 3.33513 
-2.88161 3.33513 -2.0504 
-7.47369 0.159431 -1.63807 
0.159431 -7.60491 4.25459 
-1.63807 4.25459 -8.01001 
-7.61041 0.478636 -1.69247 
0.478636 -8.15603 4.37209 
-1.69247 4.37209 -7.32217 
-7.67089 -0.412628 -1.54686 
-0.412628 -7.37802 4.41222 
-1.54686 4.41222 -8.0397 
-8.07337 -0.0646051 -1.34599 
-0.0646051 -7.38246 4.05309 
-1.34599 4.05309 -7.63278 
-3.00613 0.0110295 -1.74604 
0.0110295 -2.9739 4.14781 
-1.74604 4.14781 -3.07999 
-2.94626 -0.228897 -1.61578 
-0.228897 -2.20406 4.36927 
-1.61578 4.36927 -3.9097 
-2.86739 0.209211 -1.86174 
0.209211 -3.80712 4.40165 
-1.86174 4.40165 -2.38551 
-2.93848 -0.040627 -1.90712 
-0.040627 -3.05259 3.51852 
-1.90712 3.51852 -3.06895 
-4.0292 -0.0896033 1.83899 
-0.0896033 -3.86364 -4.13655 
1.83899 -4.13655 -4.47954 
-4.24848 -0.157391 2.10724 
-0.157391 -3.62342 -3.9277 
2.10724 -3.9277 -4.50047 
-4.04238 0.0754197 2.19215 
0.0754197 -4.40327 -4.37491 
2.19215 -4.37491 -3.92673 
-4.18598 0.0471876 2.07726 
0.0471876 -4.51061 -4.19173 
2.07726 -4.19173 -3.67579 
-3.55706 -0.100809 0.813506 
-0.100809 -3.15699 -0.0751146 
0.813506 -0.0751146 -3.44362 
-3.75313 0.0834279 0.320637 
0.0834279 -3.51201 -0.154051 
0.320637 -0.154051 -2.89253 
-3.43301 0.026603 0.597401 
0.026603 -3.35797 -0.0869596 
0.597401 -0.0869596 -3.36669 
-2.94571 -0.0497187 0.447498 
-0.0497187 -3.00346 -0.212243 
0.447498 -0.212243 -4.2085 
-0.572646 0.0661732 -2.27966 
0.0661732 -0.573988 -2.92964 
-2.27966 -2.92964 -0.575353 
-0.622449 0.0469152 -2.20902 
0.0469152 -0.708546 -2.93433 
-2.20902 -2.93433 -0.390991 
-0.92302 0.00790506 -2.37022 
0.00790506 -0.946681 -2.94877 
-2.37022 -2.94877 0.147715 
-0.567763 0.0088918 -2.17089 
0.0088918 -0.457955 -2.76683 
-2.17089 -2.76683 -0.696269 
-2.53679 -0.0781524 1.29297 
-0.0781524 -2.96132 0.850855 
1.29297 0.850855 -2.75547 
-2.54807 -0.0965173 1.55556 
-0.0965173 -2.81212 0.765283 
1.55556 0.765283 -2.8934 
-2.56558 -0.0634501 1.40753 
-0.0634501 -2.63983 0.882748 
1.40753 0.882748 -3.04817 
-2.6465 0.0690934 1.71062 
0.0690934 -2.82169 0.917845 
1.71062 0.917845 -2.78539 
-3.75006 0.146846 0.997595 
0.146846 -3.79625 0.854279 
0.997595 0.854279 -4.0597 
-3.76738 0.107297 0.945811 
0.107297 -3.8694 0.9358 
0.945811 0.9358 -3.96923 
-3.97007 0.0755637 1.17923 
0.0755637 -4.00148 1.22813 
1.17923 1.22813 -3.63445 
-3.78441 0.0385408 0.83428 
0.0385408 -3.71881 0.766459 
0.83428 0.766459 -4.10279 
-8.30839 -0.057234 3.23578 
-0.057234 -8.20612 -0.723908 
3.23578 -0.723908 -7.737 
-8.11568 -0.0571607 3.21342 
-0.0571607 -8.07067 -0.749637 
3.21342 -0.749637 -8.06515 
-7.97511 0.0122779 3.30508 
0.0122779 -8.10126 -0.687848 
3.30508 -0.687848 -8.17512 
-8.22581 -0.00199586 3.18144 
-0.00199586 -8.12174 -0.575222 
3.18144 -0.575222 -7.90396 
-3.84617 0.0868698 4.47608 
0.0868698 -4.28654 0.803871 
4.47608 0.803871 -5.06045 
-4.53676 0.0136606 4.62254 
0.0136606 -4.59062 0.983585 
4.62254 0.983585 -4.06578 
-4.40421 0.096565 4.40707 
0.096565 -4.3814 1.11805 
4.40707 1.11805 -4.40756 
-4.65008 -0.0514245 4.31675 
-0.0514245 -4.35349 1.07702 
4.31675 1.07702 -4.1896 
-2.25918 0.000831198 1.26585 
0.000831198 -2.4908 0.723179 
1.26585 0.723179 -2.3464 
-2.14641 -0.0411869 1.32461 
-0.0411869 -2.43005 0.683359 
1.32461 0.683359 -2.51992 
-2.45754 -0.0816992 1.46749 
-0.0816992 -2.35408 0.696724 
1.46749 0.696724 -2.28475 
-2.2648 -0.0441458 1.45698 
-0.0441458 -2.39209 0.62648 
1.45698 0.62648 -2.43948 
-4.49381 0.21561 3.25511 
0.21561 -4.71484 -3.4217 
3.25511 -3.4217 -3.54552 
-4.35298 0.2746 3.20975 
0.2746 -4.329 -3.26096 
3.20975 -3.26096 -4.07218 
-4.07705 -0.602667 3.22447 
-0.602667 -3.60827 -3.32155 
3.22447 -3.32155 -5.06884 
-4.1023 0.142307 3.10294 
0.142307 -4.49662 -2.52241 
3.10294 -2.52241 -4.15524 
-6.45585 -0.171103 -4.15533 
-0.171103 -6.27736 -1.86807 
-4.15533 -1.86807 -6.77081 
-5.82627 -0.181179 -3.55389 
-0.181179 -6.05414 -1.41735 
-3.55389 -1.41735 -7.62361 
-6.33966 0.193712 -4.13037 
0.193712 -6.72288 -1.99495 
-4.13037 -1.99495 -6.44148 
-6.99801 -0.0678446 -3.85034 
-0.0678446 -7.16503 -2.10359 
-3.85034 -2.10359 -5.34098 
-1.25236 0.0276273 -2.47554 
0.0276273 -1.30518 2.8766 
-2.47554 2.8766 -0.974887 
-1.20183 0.0522584 -2.4206 
0.0522584 -1.12615 2.91333 
-2.4206 2.91333 -1.20445 
-1.26792 -0.0960401 -2.35427 
-0.0960401 -1.28124 2.94427 
-2.35427 2.94427 -0.98327 
-1.10025 -0.10862 -2.38558 
-0.10862 -1.10324 2.95414 
-2.38558 2.95414 -1.32894 
-0.441571 0.108398 1.39654 
0.108398 -0.346863 -0.0635517 
1.39654 -0.0635517 -0.319631 
-0.532367 0.0830655 1.42305 
0.0830655 -0.564189 0.0263671 
1.42305 0.0263671 -0.0115094 
-0.524725 0.270146 1.26231 
0.270146 -0.699419 -0.0497107 
1.26231 -0.0497107 0.116078 
-0.33134 0.0702539 1.41865 
0.0702539 -0.350852 -0.079135 
1.41865 -0.079135 -0.425874 
-6.61108 -0.173319 -3.63726 
-0.173319 -6.96207 -1.2912 
-3.63726 -1.2912 -7.94518 
-7.39167 -0.107032 -3.34534 
-0.107032 -7.5185 -1.34933 
-3.34534 -1.34933 -6.60815 
-7.11186 0.140292 -3.44269 
0.140292 -7.28921 -1.03237 
-3.44269 -1.03237 -7.11726 
-7.2056 0.0977336 -3.38001 
0.0977336 -7.2183 -1.11425 
-3.38001 -1.11425 -7.09442 
-8.15272 0.0386175 1.12434 
0.0386175 -7.97119 3.5229 
1.12434 3.5229 -8.52908 
-8.33797 -0.14477 1.04654 
-0.14477 -8.35113 3.57991 
1.04654 3.57991 -7.9639 
-8.51058 -0.0455614 1.29691 
-0.0455614 -8.62628 3.56899 
1.29691 3.56899 -7.51615 
-8.14622 -0.139571 1.19026 
-0.139571 -8.23467 3.31585 
1.19026 3.31585 -8.27211 
-6.46324 0.0879825 -4.36114 
0.0879825 -6.52798 0.472613 
-4.36114 0.472613 -6.66867 
-6.93258 -0.0076982 -4.41521 
-0.0076982 -6.78965 -0.0229233 
-4.41521 -0.0229233 -5.93766 
-6.46846 0.0938506 -4.45391 
0.0938506 -6.52298 0.514769 
-4.45391 0.514769 -6.66844 
-6.09498 -0.156582 -3.9659 
-0.156582 -6.25952 0.924706 
-3.9659 0.924706 -7.30538 
-9.81505 0.0243006 1.83067 
0.0243006 -9.63723 -3.3656 
1.83067 -3.3656 -9.55593 
-9.54976 0.248578 1.84287 
0.248578 -9.48162 -3.463 
1.84287 -3.463 -9.97683 
-9.59799 0.10403 1.67945 
0.10403 -9.38995 -3.33546 
1.67945 -3.33546 -10.0203 
-9.80633 -0.0323261 1.84562 
-0.0323261 -9.78606 -3.38771 
1.84562 -3.38771 -9.41583 
-1.84914 0.0136457 -0.900642 
0.0136457 -1.48283 0.183652 
-0.900642 0.183652 -1.35694 
-1.34942 -0.0789717 -0.732358 
-0.0789717 -1.57479 0.277419 
-0.732358 0.277419 -1.7647 
-1.62145 -0.0769658 -0.719422 
-0.0769658 -1.62717 0.366666 
-0.719422 0.366666 -1.44029 
-1.13887 0.0582124 -0.664701 
0.0582124 -1.49288 0.611928 
-0.664701 0.611928 -2.05716 
-6.98216 0.0749008 -3.30396 
0.0749008 -7.18935 0.157537 
-3.30396 0.157537 -6.65264 
-7.11505 0.0189638 -3.31977 
0.0189638 -6.68584 0.249703 
-3.31977 0.249703 -7.02325 
-7.05849 -0.0330182 -3.24591 
-0.0330182 -6.85723 0.169702 
-3.24591 0.169702 -6.90842 
-6.54857 0.0852742 -3.15591 
0.0852742 -6.83497 0.416675 
-3.15591 0.416675 -7.4406 
-8.57867 -0.285232 0.29349 
-0.285232 -7.87501 2.81508 
0.29349 2.81508 -6.75106 
-7.42005 0.0602378 0.411618 
0.0602378 -8.347 3.7531 
0.411618 3.7531 -7.4377 
-7.97693 0.0767255 0.578346 
0.0767255 -7.9611 3.59608 
0.578346 3.59608 -7.26671 
-7.61642 -0.160526 0.41583 
-0.160526 -7.51935 3.72689 
0.41583 3.72689 -8.06897 
-9.47369 -0.0251192 -0.525525 
-0.0251192 -9.43894 2.15014 
-0.525525 2.15014 -9.7491 
-9.38525 0.0566437 -0.668976 
0.0566437 -9.36888 2.02839 
-0.668976 2.02839 -9.9076 
-9.34929 0.0233384 -0.452841 
0.0233384 -9.42987 1.98518 
-0.452841 1.98518 -9.88257 
-9.55821 0.014999 -0.527229 
0.014999 -9.61686 2.11777 
-0.527229 2.11777 -9.48666 
-4.55805 0.317379 -0.746643 
0.317379 -4.84995 0.708408 
-0.746643 0.708408 -4.28217 
-4.81561 -0.114836 -1.04289 
-0.114836 -4.37878 0.448886 
-1.04289 0.448886 -4.49576 
-4.45807 -0.211973 -0.961597 
-0.211973 -4.50489 0.379747 
-0.961597 0.379747 -4.7272 
-4.29196 0.20031 -0.818643 
0.20031 -4.70301 0.743127 
-0.818643 0.743127 -4.69518 
-4.48967 0.213023 0.230852 
0.213023 -4.58662 -0.262815 
0.230852 -0.262815 -5.61959 
-4.8338 -0.163874 0.741515 
-0.163874 -4.78477 -0.576384 
0.741515 -0.576384 -5.07732 
-4.88076 -0.0746102 0.787341 
-0.0746102 -4.73685 -0.382807 
0.787341 -0.382807 -5.07827 
-5.11962 0.0939993 0.538896 
0.0939993 -5.13304 -0.504579 
0.538896 -0.504579 -4.44323 
-2.43388 -0.22758 1.60399 
-0.22758 -2.09997 -0.0440463 
1.60399 -0.0440463 -2.52101 
-2.26627 0.0362065 1.76787 
0.0362065 -2.47178 -0.435366 
1.76787 -0.435366 -2.31682 
-2.14589 0.0917115 1.73916 
0.0917115 -2.15377 -0.303147 
1.73916 -0.303147 -2.75521 
-2.33316 -0.389643 1.36663 
-0.389643 -2.48682 -0.250146 
1.36663 -0.250146 -2.23489 
-7.70028 0.331419 4.43273 
0.331419 -7.71889 1.38488 
4.43273 1.38488 -8.35258 
-7.62114 0.112629 4.33013 
0.112629 -7.79086 1.65366 
4.33013 1.65366 -8.35976 
-8.18721 -0.361166 4.37558 
-0.361166 -7.92155 1.81872 
4.37558 1.81872 -7.66299 
-7.88815 0.0801708 4.21912 
0.0801708 -8.13516 1.47674 
4.21912 1.47674 -7.74844 
-0.384495 0.13089 1.02927 
0.13089 -0.408079 2.73573 
1.02927 2.73573 -0.487079 
-0.616412 0.0732875 1.01895 
0.0732875 -0.771985 2.74205 
1.01895 2.74205 0.108744 
-0.705662 0.0321053 1.05499 
0.0321053 -0.219304 2.69121 
1.05499 2.69121 -0.354686 
-0.319296 -0.00209951 1.06337 
-0.00209951 -0.309345 2.67492 
1.06337 2.67492 -0.651011 
-7.30264 0.0866773 2.29472 
0.0866773 -7.21263 3.86457 
2.29472 3.86457 -7.9876 
-7.34679 0.291202 1.48115 
0.291202 -7.64989 3.74735 
1.48115 3.74735 -7.5062 
-7.43767 0.0693011 1.13452 
0.0693011 -7.98393 4.41033 
1.13452 4.41033 -7.08128 
-7.23473 0.021215 1.72414 
0.021215 -7.66656 3.8659 
1.72414 3.8659 -7.60159 
-1.13915 0.142927 3.31514 
0.142927 -1.23137 -2.67702 
3.31514 -2.67702 -1.04067 
-1.65573 -0.273054 3.19546 
-0.273054 -1.27088 -2.366 
3.19546 -2.366 -0.484569 
-1.24788 0.0690827 3.31367 
0.0690827 -1.18711 -2.75125 
3.31367 -2.75125 -0.976193 
-1.1868 -0.237229 3.4461 
-0.237229 -0.835131 -2.69785 
3.4461 -2.69785 -1.38925 
-5.70541 -0.00190222 2.99453 
-0.00190222 -5.93434 2.77138 
2.99453 2.77138 -5.38012 
-5.63639 -0.0583029 2.86112 
-0.0583029 -5.52642 3.13541 
2.86112 3.13541 -5.85706 
-5.96646 0.0653983 3.25167 
0.0653983 -5.40614 2.89921 
3.25167 2.89921 -5.64727 
-5.96859 -0.156418 3.15709 
-0.156418 -5.23701 3.30536 
3.15709 3.30536 -5.81427 
-9.32369 0.0698063 -2.95079 
0.0698063 -9.25714 -1.20496 
-2.95079 -1.20496 -10.2956 
-9.79069 0.0322898 -2.88336 
0.0322898 -9.42325 -1.35485 
-2.88336 -1.35485 -9.66252 
-9.74812 -0.0980379 -2.95506 
-0.0980379 -9.59069 -1.38923 
-2.95506 -1.38923 -9.53765 
-9.74235 0.00971596 -2.83857 
0.00971596 -9.75431 -1.36933 
-2.83857 -1.36933 -9.3798 
-9.61889 -0.12956 3.27007 
-0.12956 -9.73809 -2.05674 
3.27007 -2.05674 -9.61783 
-9.5523 -0.0200253 3.28729 
-0.0200253 -9.8004 -2.12392 
3.28729 -2.12392 -9.62211 
-9.24555 0.0736537 3.09007 
0.0736537 -9.45415 -2.00133 
3.09007 -2.00133 -10.2751 
-9.72364 0.0272654 3.37005 
0.0272654 -9.87966 -2.22769 
3.37005 -2.22769 -9.37151 
-1.73692 0.0118282 -0.0924609 
0.0118282 -2.00525 4.14583 
-0.0924609 4.14583 -1.51093 
-1.79772 0.0797979 -0.143708 
0.0797979 -1.76206 4.28183 
-0.143708 4.28183 -1.69332 
-1.58623 -0.000522114 -0.275965 
-0.000522114 -1.47782 4.32674 
-0.275965 4.32674 -2.18906 
-1.85034 0.111238 -0.0313934 
0.111238 -1.51725 4.33229 
-0.0313934 4.33229 -1.88552 
-3.86695 0.245241 -2.28272 
0.245241 -4.66518 3.73627 
-2.28272 3.73627 -2.58162 
-3.77042 -0.068438 -2.68832 
-0.068438 -3.55345 3.80662 
-2.68832 3.80662 -3.78987 
-3.48273 -0.0515774 -2.54517 
-0.0515774 -3.20424 4.1669 
-2.54517 4.1669 -4.42676 
-3.78057 -0.040331 -2.77268 
-0.040331 -3.39893 3.50688 
-2.77268 3.50688 -3.93424 
-9.70604 0.0500684 -1.1421 
0.0500684 -9.777 0.37165 
-1.1421 0.37165 -9.53932 
-9.31106 0.0518611 -1.23164 
0.0518611 -9.84011 0.276352 
-1.23164 0.276352 -9.87119 
-9.36688 0.116127 -1.3439 
0.116127 -9.50858 0.491631 
-1.3439 0.491631 -10.1469 
-9.87116 -0.0114824 -1.13285 
-0.0114824 -9.77475 0.308791 
-1.13285 0.308791 -9.37645 
-7.33013 -0.022076 -0.466281 
-0.022076 -7.81754 3.40973 
-0.466281 3.40973 -7.36554 
-7.36762 0.0271543 -0.195115 
0.0271543 -7.62625 3.21373 
-0.195115 3.21373 -7.51934 
-8.01131 0.0765052 -0.314943 
0.0765052 -7.53439 3.07062 
-0.314943 3.07062 -6.96751 
-7.09008 -0.126177 -0.000689281 
-0.126177 -7.56148 3.48062 
-0.000689281 3.48062 -7.86165 
-8.94415 -0.0451803 0.857429 
-0.0451803 -9.03836 4.388 
0.857429 4.388 -9.15379 
-8.62787 -0.0524739 0.522314 
-0.0524739 -8.87708 4.08956 
0.522314 4.08956 -9.63135 
-8.88515 0.144823 0.619216 
0.144823 -9.05451 4.13663 
0.619216 4.13663 -9.19664 
-8.95502 -0.0304292 1.0316 
-0.0304292 -9.28702 4.29724 
1.0316 4.29724 -8.89425 
-0.874523 -0.00523293 -0.541402 
-0.00523293 -0.847218 -2.64208 
-0.541402 -2.64208 0.262414 
-0.51973 -0.101446 -0.662448 
-0.101446 -0.605705 -2.60818 
-0.662448 -2.60818 -0.333893 
-0.614018 -0.1282 -0.582339 
-0.1282 -0.455326 -2.56187 
-0.582339 -2.56187 -0.389984 
-0.45498 -0.00459562 -0.626267 
-0.00459562 -0.359349 -2.54293 
-0.626267 -2.54293 -0.644999 
-8.8016 -0.146741 -3.95642 
-0.146741 -8.6397 1.59221 
-3.95642 1.59221 -8.29981 
-8.57362 -0.105003 -4.17527 
-0.105003 -8.47865 1.8045 
-4.17527 1.8045 -8.68886 
-8.47064 0.0951766 -3.8435 
0.0951766 -8.37076 1.58838 
-3.8435 1.58838 -8.89972 
-9.0643 -0.255001 -4.15525 
-0.255001 -8.50504 1.92545 
-4.15525 1.92545 -8.17178 
-9.37639 0.106199 -2.47018 
0.106199 -9.21467 3.17805 
-2.47018 3.17805 -10.1832 
-9.59827 0.00550859 -2.29914 
0.00550859 -9.66187 3.15882 
-2.29914 3.15882 -9.51416 
-9.41777 0.100664 -2.26428 
0.100664 -9.51513 3.06762 
-2.26428 3.06762 -9.84139 
-9.64637 -0.0782566 -2.27838 
-0.0782566 -9.73793 3.07695 
-2.27838 3.07695 -9.39 
-3.22941 0.0852819 0.591923 
0.0852819 -2.97401 -3.33187 
0.591923 -3.33187 -3.07044 
-3.0154 -0.0761624 0.464148 
-0.0761624 -2.92545 -3.45307 
0.464148 -3.45307 -3.33301 
-3.29587 0.117176 0.566249 
0.117176 -2.9146 -3.3056 
0.566249 -3.3056 -3.0634 
-3.22552 -0.129803 0.978129 
-0.129803 -3.49125 -3.18653 
0.978129 -3.18653 -2.55709 
-9.06077 -0.00756231 1.39307 
-0.00756231 -8.74186 1.91439 
1.39307 1.91439 -9.12684 
-8.90684 0.155587 1.72029 
0.155587 -9.55991 2.22443 
1.72029 2.22443 -8.46272 
-8.13364 0.114782 1.27501 
0.114782 -8.90433 1.38454 
1.27501 1.38454 -9.8915 
-9.06738 0.0517695 1.27959 
0.0517695 -8.73694 1.95739 
1.27959 1.95739 -9.12515 
-8.912 -0.0905606 -3.19052 
-0.0905606 -8.80545 -1.57562 
-3.19052 -1.57562 -9.15618 
-9.30475 -0.230152 -3.03725 
-0.230152 -8.87364 -1.41345 
-3.03725 -1.41345 -8.69523 
-8.92775 -0.00901261 -3.15742 
-0.00901261 -8.89302 -1.41882 
-3.15742 -1.41882 -9.05285 
-8.94436 0.0538402 -3.12837 
0.0538402 -8.96852 -1.51173 
-3.12837 -1.51173 -8.96075 
-4.49649 -0.0847686 -1.44264 
-0.0847686 -4.5669 1.39004 
-1.44264 1.39004 -4.14109 
-4.58464 -0.036651 -1.54583 
-0.036651 -4.21151 1.37867 
-1.54583 1.37867 -4.40833 
-3.94007 -0.131788 -1.59264 
-0.131788 -4.36642 1.59375 
-1.59264 1.59375 -4.89799 
-4.55937 0.0282983 -1.48862 
0.0282983 -4.28309 1.38322 
-1.48862 1.38322 -4.36202 
-2.26251 -0.0616366 4.42515 
-0.0616366 -1.88598 0.988623 
4.42515 0.988623 -1.95637 
-0.76813 -0.0530575 4.63664 
-0.0530575 -2.28192 0.768589 
4.63664 0.768589 -3.05481 
-3.06933 0.0742042 4.59441 
0.0742042 -2.0464 1.05478 
4.59441 1.05478 -0.989119 
-2.19501 -0.134175 3.47446 
-0.134175 -1.70615 1.48255 
3.47446 1.48255 -2.2037 
-3.84121 0.0120417 3.5058 
0.0120417 -4.14849 -0.845023 
3.5058 -0.845023 -4.02654 
-3.94851 0.0655402 3.40591 
0.0655402 -4.13544 -0.915585 
3.40591 -0.915585 -3.93229 
-3.9752 -0.284738 3.47271 
-0.284738 -3.43759 -0.832616 
3.47271 -0.832616 -4.60345 
-3.82224 0.184213 3.34759 
0.184213 -4.08789 -0.750168 
3.34759 -0.750168 -4.1061 
-0.937709 -0.0244873 1.90263 
-0.0244873 -0.570371 3.10559 
1.90263 3.10559 -0.143488 
-0.571289 -0.0840491 1.8741 
-0.0840491 -0.595486 3.17391 
1.8741 3.17391 -0.484792 
-0.824655 -0.0182246 1.84422 
-0.0182246 -0.718976 3.29097 
1.84422 3.29097 -0.107935 
-0.573894 -0.0163622 1.92397 
-0.0163622 -0.475131 3.17989 
1.92397 3.17989 -0.602542 
-4.26012 0.052249 -0.130627 
0.052249 -4.73803 -1.0376 
-0.130627 -1.0376 -3.81477 
-4.40169 -0.148221 0.127599 
-0.148221 -4.21173 -0.806087 
0.127599 -0.806087 -4.1995 
-4.35463 -0.0820704 0.0263611 
-0.0820704 -4.1132 -1.04009 
0.0263611 -1.04009 -4.34509 
-4.1357 0.0237191 0.262979 
0.0237191 -3.78621 -1.24421 
0.262979 -1.24421 -4.891 
-8.52564 -0.0258278 -3.6525 
-0.0258278 -8.68872 1.79074 
-3.6525 1.79074 -8.53697 
-8.4573 -0.0310994 -3.87041 
-0.0310994 -8.45469 1.95454 
-3.87041 1.95454 -8.83935 
-8.46894 -0.066251 -3.90783 
-0.066251 -8.64185 1.8805 
-3.90783 1.8805 -8.64054 
-8.48915 -0.0224543 -3.87864 
-0.0224543 -8.46985 1.98719 
-3.87864 1.98719 -8.79234 
-5.27216 0.220202 3.25041 
0.220202 -5.40064 3.13465 
3.25041 3.13465 -5.18377 
-5.3882 0.283206 3.30894 
0.283206 -5.28463 2.90486 
3.30894 2.90486 -5.18375 
-5.48295 -0.0376699 2.91877 
-0.0376699 -5.56067 3.21183 
2.91877 3.21183 -4.81295 
-5.03876 -0.177978 3.14257 
-0.177978 -5.11624 2.84367 
3.14257 2.84367 -5.70156 
-1.64579 -0.0672562 -0.709091 
-0.0672562 -1.85362 -0.0324214 
-0.709091 -0.0324214 -1.36215 
-1.79994 -0.0539163 -0.453363 
-0.0539163 -1.4972 -0.06764 
-0.453363 -0.06764 -1.56442 
-1.74819 0.0492149 -0.53582 
0.0492149 -1.33162 -0.0771804 
-0.53582 -0.0771804 -1.78176 
-1.4679 0.186197 -0.17201 
0.186197 -1.25813 -0.202336 
-0.17201 -0.202336 -2.13554 
-9.43563 -0.137742 -1.66372 
-0.137742 -9.41446 2.92016 
-1.66372 2.92016 -9.79111 
-9.59367 -0.0650339 -1.59281 
-0.0650339 -9.62263 3.09506 
-1.59281 3.09506 -9.42491 
-9.36551 -0.0906425 -1.33709 
-0.0906425 -9.14903 3.01938 
-1.33709 3.01938 -10.1267 
-9.66942 0.0215999 -1.67104 
0.0215999 -9.7034 3.0498 
-1.67104 3.0498 -9.26838 
-0.476697 0.0795907 1.97139 
0.0795907 -0.390352 0.67391 
1.97139 0.67391 -0.406382 
-0.610814 0.139734 1.91235 
0.139734 -0.529182 0.580093 
1.91235 0.580093 -0.133436 
-0.675238 0.100085 2.11259 
0.100085 -0.742929 0.699706 
2.11259 0.699706 0.144736 
-0.383126 0.0514677 1.93419 
0.0514677 -0.386798 0.639386 
1.93419 0.639386 -0.503508 
-0.240251 0.0321922 0.561711 
0.0321922 -0.549682 2.32852 
0.561711 2.32852 -0.254838 
-0.647252 0.0487993 0.431379 
0.0487993 -0.685557 2.34315 
0.431379 2.34315 0.288037 
-0.308218 0.0725473 0.518211 
0.0725473 -0.463546 2.39011 
0.518211 2.39011 -0.273007 
-0.219859 -0.0139913 0.57148 
-0.0139913 -0.301496 2.39715 
0.57148 2.39715 -0.523416 
-7.60295 0.0283219 -1.11715 
0.0283219 -7.13473 4.72117 
-1.11715 4.72117 -8.68734 
-7.36783 0.0881482 -0.83606 
0.0881482 -9.05978 4.47288 
-0.83606 4.47288 -6.9974 
-7.98415 -0.130774 -1.07418 
-0.130774 -7.45461 4.49911 
-1.07418 4.49911 -7.98626 
-8.05791 -0.123024 -1.2483 
-0.123024 -7.37092 3.68319 
-1.2483 3.68319 -7.99618 
-1.05942 -0.0728552 1.10062 
-0.0728552 -0.884635 -1.20062 
1.10062 -1.20062 -0.78677 
-0.912711 0.00939206 1.20513 
0.00939206 -1.14806 -1.2933 
1.20513 -1.2933 -0.670049 
-1.07026 -0.00164895 1.17672 
-0.00164895 -0.779087 -1.23655 
1.17672 -1.23655 -0.88148 
-0.744 0.0872189 1.43176 
0.0872189 -1.03303 -1.33737 
1.43176 -1.33737 -0.953791 
-9.3795 0.111875 -3.13782 
0.111875 -9.75813 1.07911 
-3.13782 1.07911 -9.66372 
-9.5976 0.15916 -3.09133 
0.15916 -9.68008 1.00027 
-3.09133 1.00027 -9.52367 
-9.17852 -0.00696143 -3.30472 
-0.00696143 -9.39152 0.865309 
-3.30472 0.865309 -10.2313 
-9.7197 0.0292357 -3.06076 
0.0292357 -9.73432 1.10969 
-3.06076 1.10969 -9.34733 
-1.80011 -0.691155 -0.661021 
-0.691155 -1.08862 0.323938 
-0.661021 0.323938 -0.354894 
-1.01161 0.10238 -0.237667 
0.10238 -1.14131 -0.035672 
-0.237667 -0.035672 -1.0907 
-1.03074 0.101101 -0.289332 
0.101101 -1.12355 -0.0699957 
-0.289332 -0.0699957 -1.08934 
-0.868616 -0.468632 0.31343 
-0.468632 -0.488923 -0.0940041 
0.31343 -0.0940041 -1.88608 
-8.57352 -0.556983 1.63297 
-0.556983 -8.33289 2.20617 
1.63297 2.20617 -10.0477 
-9.31444 -0.432838 1.57238 
-0.432838 -9.3488 1.2768 
1.57238 1.2768 -8.29083 
-9.0049 0.188336 1.30058 
0.188336 -8.886 1.70717 
1.30058 1.70717 -9.06318 
-8.99381 0.130131 1.24916 
0.130131 -8.9048 1.66166 
1.24916 1.66166 -9.05546 
-2.87578 -0.0894906 -0.239488 
-0.0894906 -2.99252 3.63697 
-0.239488 3.63697 -2.90031 
-2.82154 -0.0230073 -0.254445 
-0.0230073 -2.99651 3.52818 
-0.254445 3.52818 -2.95057 
-2.83587 -0.0288122 -0.402626 
-0.0288122 -2.8026 3.61943 
-0.402626 3.61943 -3.13015 
-3.32236 -0.111122 -0.122234 
-0.111122 -3.09328 3.66645 
-0.122234 3.66645 -2.35297 
-1.72704 -0.0158139 0.290539 
-0.0158139 -1.75203 1.00944 
0.290539 1.00944 -1.62687 
-1.59627 -0.00954661 0.329772 
-0.00954661 -1.62641 1.12076 
0.329772 1.12076 -1.88326 
-1.63907 0.0223023 0.303735 
0.0223023 -1.50571 0.928815 
0.303735 0.928815 -1.96115 
-1.61161 -0.0391897 0.122755 
-0.0391897 -1.61316 1.01694 
0.122755 1.01694 -1.88117 
-7.7706 -0.247374 0.240258 
-0.247374 -8.504 2.90952 
0.240258 2.90952 -6.97319 
-7.34027 -0.21909 0.807467 
-0.21909 -7.47894 3.29014 
0.807467 3.29014 -8.42858 
-7.95376 -0.182893 0.781736 
-0.182893 -7.84651 3.28589 
0.781736 3.28589 -7.44752 
-8.08798 -0.0711287 0.802604 
-0.0711287 -7.72938 3.24231 
0.802604 3.24231 -7.43042 
-1.22692 -0.498536 3.51145 
-0.498536 -1.44573 -0.32335 
3.51145 -0.32335 -0.601899 
-1.27099 0.0634925 3.54081 
0.0634925 -1.05446 -0.419821 
3.54081 -0.419821 -0.949098 
-1.07879 -0.0913379 3.44237 
-0.0913379 -1.08781 -0.298748 
3.44237 -0.298748 -1.10795 
-1.02789 -0.0265379 3.60546 
-0.0265379 -1.08649 -0.50689 
3.60546 -0.50689 -1.16017 
-4.29085 0.0272829 -4.43748 
0.0272829 -4.94631 1.44112 
-4.43748 1.44112 -4.46337 
-4.35188 0.0383203 -4.43153 
0.0383203 -4.21838 1.30016 
-4.43153 1.30016 -5.13026 
-4.68865 -0.0394112 -4.44386 
-0.0394112 -4.62997 1.64716 
-4.44386 1.64716 -4.38191 
-4.71054 0.0365288 -4.2769 
0.0365288 -4.6731 1.53368 
-4.2769 1.53368 -4.31688 
-9.74343 -0.0552383 2.93225 
-0.0552383 -9.56903 -0.234771 
2.93225 -0.234771 -9.4473 
-9.31075 0.0195272 3.03754 
0.0195272 -9.227 -0.494921 
3.03754 -0.494921 -10.222 
-9.82292 0.0335488 2.83713 
0.0335488 -9.21839 -0.316087 
2.83713 -0.316087 -9.71845 
-9.71663 -0.0277345 2.85903 
-0.0277345 -9.75167 -0.231023 
2.85903 -0.231023 -9.29146 
-9.06247 0.165358 1.12171 
0.165358 -8.92604 0.519442 
1.12171 0.519442 -9.31835 
-9.05492 -0.110531 0.525883 
-0.110531 -9.19886 0.664594 
0.525883 0.664594 -9.05308 
-9.07886 0.130608 0.583787 
0.130608 -8.91166 0.812738 
0.583787 0.812738 -9.31635 
-9.04022 0.0105775 1.19065 
0.0105775 -9.31579 0.530045 
1.19065 0.530045 -8.95085 
-7.76493 0.0693189 -4.91311 
0.0693189 -7.51171 -0.294207 
-4.91311 -0.294207 -6.98212 
-7.13832 -0.0351045 -4.56613 
-0.0351045 -7.52413 -0.295595 
-4.56613 -0.295595 -7.59632 
-6.74036 -0.191807 -4.48073 
-0.191807 -7.30828 -0.20245 
-4.48073 -0.20245 -8.21013 
-7.53075 -0.0244145 -4.57424 
-0.0244145 -7.38249 -0.596724 
-4.57424 -0.596724 -7.34552 
-1.03537 0.0247396 2.48774 
0.0247396 -1.06418 2.5762 
2.48774 2.5762 0.794573 
-0.222673 -0.0465706 2.31396 
-0.0465706 -0.631841 2.87916 
2.31396 2.87916 -0.450465 
-0.393922 -0.201504 2.35589 
-0.201504 -0.499732 2.96556 
2.35589 2.96556 -0.411325 
-0.276443 0.0188071 2.54283 
0.0188071 -0.390065 2.91463 
2.54283 2.91463 -0.63847 
-0.404326 -0.0346211 -0.724884 
-0.0346211 -0.246481 0.610839 
-0.724884 0.610839 -0.292823 
-0.634912 0.0915215 -0.722239 
0.0915215 -0.345366 0.7476 
-0.722239 0.7476 0.0366475 
-0.660292 0.245325 -0.881615 
0.245325 -0.582084 0.627289 
-0.881615 0.627289 0.298746 
-0.231033 -0.0519067 -0.740061 
-0.0519067 -0.277572 0.653889 
-0.740061 0.653889 -0.435025 
-9.59169 -0.00022386 2.09809 
-0.00022386 -9.5584 0.269154 
2.09809 0.269154 -9.61027 
-9.20531 -0.00820681 2.01955 
-0.00820681 -9.4991 0.411298 
2.01955 0.411298 -10.0559 
-9.37623 0.0771611 2.0815 
0.0771611 -9.44269 0.159089 
2.0815 0.159089 -9.94144 
-9.71856 -0.0475118 2.13029 
-0.0475118 -9.58608 0.238295 
2.13029 0.238295 -9.45571 
-9.12447 0.0092305 -0.0135846 
0.0092305 -8.91874 -4.42196 
-0.0135846 -4.42196 -9.03561 
-9.00545 0.0498944 -0.104373 
0.0498944 -8.8908 -4.31516 
-0.104373 -4.31516 -9.18256 
-8.93538 -0.0361987 0.00558973 
-0.0361987 -8.9148 -4.24112 
0.00558973 -4.24112 -9.22864 
-8.8873 0.0771315 -0.0295239 
0.0771315 -9.43731 -4.54639 
-0.0295239 -4.54639 -8.7542 
-9.58478 -0.063278 -2.25612 
-0.063278 -9.47065 -3.92832 
-2.25612 -3.92832 -10.0217 
-9.78139 -0.0635633 -2.4487 
-0.0635633 -9.71105 -3.79828 
-2.4487 -3.79828 -9.58469 
-9.76675 -0.0148239 -2.56165 
-0.0148239 -9.88075 -3.82539 
-2.56165 -3.82539 -9.42963 
-9.70019 -0.186979 -2.45612 
-0.186979 -9.53404 -3.97524 
-2.45612 -3.97524 -9.84289 
-2.21591 0.0891205 1.06388 
0.0891205 -2.53896 -0.92857 
1.06388 -0.92857 -2.40694 
-2.33614 -0.131629 0.875181 
-0.131629 -2.71447 -0.801941 
0.875181 -0.801941 -2.11121 
-2.19324 0.0352481 1.4413 
0.0352481 -2.42235 -1.09244 
1.4413 -1.09244 -2.54622 
-2.24762 -0.00616796 1.28775 
-0.00616796 -2.60841 -0.991919 
1.28775 -0.991919 -2.30578 
-9.19931 -0.0396543 -2.07201 
-0.0396543 -9.24586 1.50134 
-2.07201 1.50134 -10.27 
-9.6599 -0.00686119 -1.9959 
-0.00686119 -9.48256 1.55755 
-1.9959 1.55755 -9.57266 
-9.56382 -0.0613369 -1.96363 
-0.0613369 -9.48889 1.6232 
-1.96363 1.6232 -9.6624 
-9.65343 0.0199818 -1.87496 
0.0199818 -9.6683 1.59152 
-1.87496 1.59152 -9.39339 
-1.54839 0.0404751 -4.09352 
0.0404751 -1.31566 -1.79591 
-4.09352 -1.79591 -1.51507 
-1.6841 0.0904148 -3.85834 
0.0904148 -1.52662 -1.9585 
-3.85834 -1.9585 -1.1684 
-1.45937 0.0319938 -4.02998 
0.0319938 -1.40965 -1.6772 
-4.02998 -1.6772 -1.5101 
-1.08271 -0.0129211 -4.17602 
-0.0129211 -1.17214 -1.46217 
-4.17602 -1.46217 -2.12427 
-0.911803 -0.409203 0.0468221 
-0.409203 -1.68729 3.44079 
0.0468221 3.44079 -0.707002 
-0.827309 -0.0365837 -0.343539 
-0.0365837 -1.06442 3.96862 
-0.343539 3.96862 -1.41437 
-1.24006 -0.0571197 -0.319451 
-0.0571197 -0.994144 3.80632 
-0.319451 3.80632 -1.07189 
-0.913506 -0.0963371 -0.116079 
-0.0963371 -1.24422 3.51824 
-0.116079 3.51824 -1.14837 
-5.10647 -0.0668962 -3.15558 
-0.0668962 -5.04622 1.70002 
-3.15558 1.70002 -5.76611 
-5.03924 0.0311122 -2.89657 
0.0311122 -5.39206 1.91817 
-2.89657 1.91817 -5.4875 
-4.95137 -0.00728002 -2.7934 
-0.00728002 -5.26663 2.02218 
-2.7934 2.02218 -5.7008 
-5.1914 -0.0392691 -2.6431 
-0.0392691 -5.58944 1.92604 
-2.6431 1.92604 -5.13796 
-1.22582 0.0816625 -2.78332 
0.0816625 -1.15824 3.25939 
-2.78332 3.25939 -1.04236 
-1.30002 -0.0672826 -2.60785 
-0.0672826 -1.3635 3.29137 
-2.60785 3.29137 -0.7629 
-1.14642 0.100187 -2.82723 
0.100187 -1.07543 3.38578 
-2.82723 3.38578 -1.20457 
-1.00783 -0.153644 -2.81597 
-0.153644 -1.02799 3.20716 
-2.81597 3.20716 -1.3906 
-8.42639 0.0505095 0.605835 
0.0505095 -8.18392 0.417023 
0.605835 0.417023 -8.65863 
-8.54579 -0.113458 0.738224 
-0.113458 -8.62226 0.507663 
0.738224 0.507663 -8.10089 
-8.36379 -0.0598865 0.565172 
-0.0598865 -8.61529 0.606982 
0.565172 0.606982 -8.28985 
-8.35002 -0.045889 0.701144 
-0.045889 -8.39296 0.540033 
0.701144 0.540033 -8.52595 
-1.11735 -0.0217257 -1.14483 
-0.0217257 -1.05175 -0.957833 
-1.14483 -0.957833 -0.76842 
-0.94787 -0.0133403 -1.25638 
-0.0133403 -1.15662 -0.901604 
-1.25638 -0.901604 -0.833032 
-1.15586 0.226509 -1.18458 
0.226509 -0.404116 -1.02206 
-1.18458 -1.02206 -1.37755 
-0.861354 -0.07159 -1.15359 
-0.07159 -1.01008 -0.754933 
-1.15359 -0.754933 -1.06608 
-1.42402 -0.0553571 0.251756 
-0.0553571 -1.30868 -4.25038 
0.251756 -4.25038 -1.43328 
-1.1751 -0.0346101 0.29013 
-0.0346101 -1.42521 -4.32223 
0.29013 -4.32223 -1.56567 
-1.29495 -0.153289 0.475453 
-0.153289 -1.58198 -4.40841 
0.475453 -4.40841 -1.28905 
-1.16357 -0.0808854 0.0576693 
-0.0808854 -1.25598 -4.50198 
0.0576693 -4.50198 -1.74644 
-0.487259 0.00492309 2.26353 
0.00492309 -0.505645 0.499352 
2.26353 0.499352 -0.0773408 
-0.454697 -0.0026306 2.09295 
-0.0026306 -0.470116 0.365611 
2.09295 0.365611 -0.145433 
-0.412885 -0.00443422 2.05779 
-0.00443422 -0.520998 0.565193 
2.05779 0.565193 -0.136363 
-0.287054 0.00288153 2.14307 
0.00288153 -0.301227 0.480543 
2.14307 0.480543 -0.481965 
-9.27666 -0.0542116 1.21864 
-0.0542116 -9.60503 -3.71287 
1.21864 -3.71287 -10.0444 
-9.70534 -0.046434 1.15474 
-0.046434 -9.70933 -3.57738 
1.15474 -3.57738 -9.51143 
-9.37954 -0.147048 1.26394 
-0.147048 -9.56133 -3.4889 
1.26394 -3.4889 -9.98524 
-9.82265 0.038433 1.20288 
0.038433 -9.72618 -3.56775 
1.20288 -3.56775 -9.37727 
-4.77947 -0.312036 -3.13227 
-0.312036 -3.88164 3.65932 
-3.13227 3.65932 -3.73105 
-4.18541 -0.164337 -3.14233 
-0.164337 -4.04595 3.36205 
-3.14233 3.36205 -4.1608 
-4.20659 -0.271622 -3.58598 
-0.271622 -3.60723 2.49383 
-3.58598 2.49383 -4.57833 
-4.2333 0.121772 -3.33972 
0.121772 -3.92741 2.75063 
-3.33972 2.75063 -4.23144 
-2.99362 -0.325625 1.02824 
-0.325625 -3.33479 1.06506 
1.02824 1.06506 -3.59527 
-3.58189 -0.0888312 1.05087 
-0.0888312 -3.21448 1.0398 
1.05087 1.0398 -3.12731 
-3.20496 -0.213663 0.794751 
-0.213663 -3.21995 0.80341 
0.794751 0.80341 -3.49877 
-3.40967 -0.0374234 0.890446 
-0.0374234 -3.45113 1.05144 
0.890446 1.05144 -3.06287 
-5.49132 0.0196203 4.68313 
0.0196203 -5.45712 0.614383 
4.68313 0.614383 -6.14598 
-5.75237 0.0991354 4.51156 
0.0991354 -5.57571 0.36206 
4.51156 0.36206 -5.76635 
-6.26283 -0.0279374 4.5626 
-0.0279374 -5.77376 0.667898 
4.5626 0.667898 -5.05784 
-5.47861 0.0246143 4.34564 
0.0246143 -5.63626 0.359068 
4.34564 0.359068 -5.97955 
-5.13845 0.0763523 -0.401286 
0.0763523 -5.06975 1.15165 
-0.401286 1.15165 -4.88722 
-5.01819 0.0447958 -0.308299 
0.0447958 -5.07892 1.13304 
-0.308299 1.13304 -4.99831 
-5.02354 -0.0488428 -0.429286 
-0.0488428 -5.14616 1.28674 
-0.429286 1.28674 -4.92572 
-5.12776 -0.0899996 -0.581022 
-0.0899996 -5.21095 1.22051 
-0.581022 1.22051 -4.75671 
-9.43122 -0.0464934 2.87599 
-0.0464934 -9.51542 2.57667 
2.87599 2.57667 -9.76265 
-9.44204 -0.0324511 2.89297 
-0.0324511 -9.33147 2.72943 
2.89297 2.72943 -9.93578 
-9.47276 0.00244596 2.75936 
0.00244596 -9.44976 2.63642 
2.75936 2.63642 -9.78678 
-9.62169 -0.000594411 2.83101 
-0.000594411 -9.59867 2.64696 
2.83101 2.64696 -9.48894 
-3.54577 -0.0415333 -1.82881 
-0.0415333 -3.68236 4.17421 
-1.82881 4.17421 -4.00291 
-3.65792 -0.0106098 -1.79563 
-0.0106098 -3.68795 4.09016 
-1.79563 4.09016 -3.88517 
-4.40138 0.16166 -2.20756 
0.16166 -4.11887 4.12948 
-2.20756 4.12948 -2.71079 
-3.29165 0.46873 -1.24598 
0.46873 -3.18332 3.29849 
-1.24598 3.29849 -4.75607 
-6.31459 0.348825 0.404067 
0.348825 -6.1136 1.32611 
0.404067 1.32611 -5.63622 
-5.87488 0.244069 0.409259 
0.244069 -5.81048 1.651 
0.409259 1.651 -6.37906 
-6.01296 -0.0947725 0.472084 
-0.0947725 -6.03059 1.48049 
0.472084 1.48049 -6.02087 
-6.01525 -0.0839324 0.487219 
-0.0839324 -5.99698 1.47778 
0.487219 1.47778 -6.05219 
-0.612034 -0.0315201 3.72499 
-0.0315201 -0.460942 0.471526 
3.72499 0.471526 -0.383209 
-0.768782 -0.0576561 3.6468 
-0.0576561 -0.836894 0.59788 
3.6468 0.59788 0.14949 
-0.60076 -0.0596409 3.81737 
-0.0596409 -0.581136 0.454385 
3.81737 0.454385 -0.274288 
-0.435434 -0.00637333 3.80569 
-0.00637333 -0.485122 0.405293 
3.80569 0.405293 -0.535629 
-8.72502 -0.0227747 -0.294173 
-0.0227747 -8.95753 2.20752 
-0.294173 2.20752 -9.09135 
-8.90189 -0.117457 -0.487922 
-0.117457 -9.07005 2.50414 
-0.487922 2.50414 -8.80196 
-8.79164 -0.0439384 -0.355623 
-0.0439384 -9.00641 2.48904 
-0.355623 2.48904 -8.97585 
-8.93044 -0.061675 -0.367483 
-0.061675 -8.98858 2.22681 
-0.367483 2.22681 -8.85488 
-1.54082 0.159955 2.951 
0.159955 -1.90798 2.56265 
2.951 2.56265 -0.562119 
-1.21824 -0.0667774 3.26754 
-0.0667774 -1.43882 3.17979 
3.26754 3.17979 -1.35385 
-1.23695 -0.105563 3.2542 
-0.105563 -1.39366 3.1996 
3.2542 3.1996 -1.3803 
-0.574848 0.025564 3.18979 
0.025564 -1.00821 3.25714 
3.18979 3.25714 -2.42785 
-4.34736 0.115272 -1.00696 
0.115272 -4.69783 4.69139 
-1.00696 4.69139 -3.88757 
-4.23134 0.0428272 -1.15255 
0.0428272 -4.36643 4.32054 
-1.15255 4.32054 -4.33498 
-4.26708 -0.280324 -0.814444 
-0.280324 -3.38183 4.51745 
-0.814444 4.51745 -5.28384 
-4.21121 0.098069 -0.9963 
0.098069 -4.58088 3.98868 
-0.9963 3.98868 -4.14066 
-5.38808 -0.0721857 1.27084 
-0.0721857 -5.32873 0.767795 
1.27084 0.767795 -5.61047 
-5.35209 0.000206108 1.17206 
0.000206108 -5.46975 0.66152 
1.17206 0.66152 -5.50544 
-5.45982 -0.0550349 1.26577 
-0.0550349 -5.20263 0.889884 
1.26577 0.889884 -5.66483 
-5.43799 0.0787813 1.31933 
0.0787813 -5.59442 0.666338 
1.31933 0.666338 -5.29487 
-8.84516 -0.126262 -2.23591 
-0.126262 -8.95921 0.43054 
-2.23591 0.43054 -9.0216 
-9.1669 0.0109993 -2.02315 
0.0109993 -8.85366 0.610586 
-2.02315 0.610586 -8.80541 
-9.14186 -0.0479007 -2.03325 
-0.0479007 -8.5091 0.591545 
-2.03325 0.591545 -9.17502 
-9.05271 0.0324732 -2.33925 
0.0324732 -8.98212 0.399909 
-2.33925 0.399909 -8.79114 
-0.531963 0.190281 2.06518 
0.190281 -0.221858 -1.41698 
2.06518 -1.41698 -0.367814 
-0.757763 0.0163384 1.80453 
0.0163384 -0.725539 -1.40201 
1.80453 -1.40201 0.361667 
-0.492513 0.0290586 2.08296 
0.0290586 -0.242542 -1.40711 
2.08296 -1.40711 -0.38658 
-0.289972 0.0492051 2.24907 
0.0492051 -0.224867 -1.30891 
2.24907 -1.30891 -0.606796 
-6.64846 0.103876 0.405537 
0.103876 -6.65461 -2.59769 
0.405537 -2.59769 -6.84899 
-6.61772 0.0859121 0.206298 
0.0859121 -6.48437 -2.75164 
0.206298 -2.75164 -7.04998 
-6.62901 0.0401467 0.323703 
0.0401467 -6.69336 -2.5926 
0.323703 -2.5926 -6.82969 
-6.74097 -0.0873418 0.246416 
-0.0873418 -7.00883 -2.70273 
0.246416 -2.70273 -6.40226 
-8.40199 -0.198041 -4.29613 
-0.198041 -8.23248 -0.210437 
-4.29613 -0.210437 -8.21768 
-8.05518 -0.0493658 -4.25545 
-0.0493658 -8.25615 -0.391443 
-4.25545 -0.391443 -8.54083 
-8.38266 -0.0163283 -4.40391 
-0.0163283 -8.18224 -0.235322 
-4.40391 -0.235322 -8.28726 
-8.55815 -0.0297437 -4.39381 
-0.0297437 -8.58153 -0.0580432 
-4.39381 -0.0580432 -7.71248 
-3.11918 0.110953 3.32493 
0.110953 -2.76964 -0.486885 
3.32493 -0.486885 -3.26892 
-3.4477 0.312618 3.3248 
0.312618 -3.35986 -0.82928 
3.3248 -0.82928 -2.35019 
-2.97455 0.0468092 3.16898 
0.0468092 -2.8813 -0.496164 
3.16898 -0.496164 -3.30189 
-2.45698 0.300299 3.27579 
0.300299 -2.95621 -0.0955855 
3.27579 -0.0955855 -3.74456 
-6.76789 -0.184609 4.37854 
-0.184609 -7.33468 -1.38363 
4.37854 -1.38363 -7.81238 
-7.36708 -0.00261456 4.44913 
-0.00261456 -7.377 -1.26323 
4.44913 -1.26323 -7.17087 
-7.24398 -0.00574607 4.36549 
-0.00574607 -7.31249 -1.28934 
4.36549 -1.28934 -7.35849 
-7.40454 0.0881214 4.29591 
0.0881214 -7.23211 -1.14867 
4.29591 -1.14867 -7.2783 
-7.93455 0.0317832 -4.77952 
0.0317832 -7.94447 -0.0629938 
-4.77952 -0.0629938 -6.77364 
-6.85204 -0.136452 -4.48951 
-0.136452 -6.70621 -0.237968 
-4.48951 -0.237968 -9.09442 
-7.71219 0.0298946 -4.25933 
0.0298946 -7.49508 -0.16027 
-4.25933 -0.16027 -7.4454 
-7.75916 0.236756 -4.25711 
0.236756 -7.39907 -0.269027 
-4.25711 -0.269027 -7.49444 
-8.31356 -0.141667 -3.14382 
-0.141667 -8.29998 2.74209 
-3.14382 2.74209 -8.62941 
-8.4142 0.153778 -3.31105 
0.153778 -8.39231 2.79544 
-3.31105 2.79544 -8.43644 
-8.51345 -0.0134601 -3.17088 
-0.0134601 -8.26022 2.8196 
-3.17088 2.8196 -8.46928 
-8.4865 0.0436594 -3.1351 
0.0436594 -8.5684 2.92999 
-3.1351 2.92999 -8.18806 
-4.81349 -0.0872149 3.2025 
-0.0872149 -4.83612 -3.20632 
3.2025 -3.20632 -4.95225 
-5.36014 0.522835 3.51739 
0.522835 -5.21056 -3.09232 
3.51739 -3.09232 -4.03117 
-4.51102 -0.124954 3.54452 
-0.124954 -4.62591 -3.18125 
3.54452 -3.18125 -5.46494 
-4.68328 -0.104622 2.87258 
-0.104622 -4.91482 -2.99639 
2.87258 -2.99639 -5.00377 
-7.16299 0.0219107 -2.30794 
0.0219107 -7.2465 -2.84035 
-2.30794 -2.84035 -7.21482 
-7.27502 -0.082618 -2.39528 
-0.082618 -7.12233 -2.64337 
-2.39528 -2.64337 -7.22697 
-7.10936 0.0353456 -2.26018 
0.0353456 -7.13706 -2.74309 
-2.26018 -2.74309 -7.37789 
-7.0364 0.0342678 -2.43694 
0.0342678 -7.16648 -2.86105 
-2.43694 -2.86105 -7.42143 
-9.43828 -0.0731813 1.92235 
-0.0731813 -9.57524 1.26036 
1.92235 1.26036 -9.65637 
-9.40416 0.0365358 1.84533 
0.0365358 -9.61159 1.28864 
1.84533 1.28864 -9.65413 
-9.19731 0.0266947 1.90156 
0.0266947 -9.19903 1.15349 
1.90156 1.15349 -10.2736 
-9.63436 0.0415011 1.86255 
0.0415011 -9.63174 1.34694 
1.86255 1.34694 -9.4038 
-6.61151 0.130304 1.14872 
0.130304 -6.35364 4.47787 
1.14872 4.47787 -6.47544 
-6.67225 -0.0267273 1.04956 
-0.0267273 -6.57279 4.7522 
1.04956 4.7522 -6.19556 
-6.45343 0.0369681 0.973156 
0.0369681 -5.93905 4.41782 
0.973156 4.41782 -7.04811 
-6.6263 -0.0534303 1.19291 
-0.0534303 -6.49461 4.55162 
1.19291 4.55162 -6.31967 
-9.24441 0.0926022 2.36178 
0.0926022 -9.13663 1.69986 
2.36178 1.69986 -10.318 
-9.66624 0.0264112 2.25499 
0.0264112 -9.37395 1.77985 
2.25499 1.77985 -9.65888 
-9.6322 -0.0619426 2.28456 
-0.0619426 -9.4592 1.72581 
2.28456 1.72581 -9.60765 
-9.67843 0.00601259 2.19982 
0.00601259 -9.65664 1.77363 
2.19982 1.77363 -9.364 
-7.31415 -0.046905 0.215851 
-0.046905 -7.26469 -4.55891 
0.215851 -4.55891 -7.384 
-7.32807 -0.0665998 0.175634 
-0.0665998 -6.83208 -4.61578 
0.175634 -4.61578 -7.80268 
-7.41478 -0.0297508 0.2096 
-0.0297508 -7.33791 -4.61735 
0.2096 -4.61735 -7.21015 
-7.25075 -0.0443618 0.295633 
-0.0443618 -7.41494 -4.45186 
0.295633 -4.45186 -7.29715 
-3.40586 -0.108188 3.27351 
-0.108188 -3.29786 2.99794 
3.27351 2.99794 -3.4644 
-2.88511 0.191745 3.42797 
0.191745 -3.08706 2.46906 
3.42797 2.46906 -4.19595 
-3.59443 0.103542 3.19511 
0.103542 -3.22782 3.24036 
3.19511 3.24036 -3.34588 
-3.69019 -0.0825913 2.65204 
-0.0825913 -3.52579 3.26818 
2.65204 3.26818 -2.95215 
-7.65036 -0.270178 0.68257 
-0.270178 -6.98246 -4.67726 
0.68257 -4.67726 -8.96778 
-7.98043 -0.0816087 0.281855 
-0.0816087 -7.57371 -4.56361 
0.281855 -4.56361 -8.04645 
-7.91137 0.435894 0.472156 
0.435894 -8.79005 -4.67372 
0.472156 -4.67372 -6.89917 
-7.91011 -0.0621111 -0.32424 
-0.0621111 -7.69112 -3.96283 
-0.32424 -3.96283 -7.99937 
-1.03172 0.0100075 -1.51533 
0.0100075 -1.3831 -1.43248 
-1.51533 -1.43248 -0.895604 
-0.922685 0.0524179 -1.74892 
0.0524179 -1.10227 -1.25349 
-1.74892 -1.25349 -1.28548 
-1.09911 -0.00771107 -1.75942 
-0.00771107 -1.13833 -1.29059 
-1.75942 -1.29059 -1.07299 
-1.02989 0.0662692 -1.58323 
0.0662692 -1.12027 -1.40152 
-1.58323 -1.40152 -1.16027 
-9.36187 -0.0895848 0.192891 
-0.0895848 -9.44825 -1.02107 
0.192891 -1.02107 -10.1077 
-9.63364 -0.0458 0.304815 
-0.0458 -9.69348 -0.890836 
0.304815 -0.890836 -9.59073 
-9.57685 -0.188396 0.367642 
-0.188396 -9.44766 -0.823074 
0.367642 -0.823074 -9.89334 
-9.71764 0.0228738 0.343588 
0.0228738 -9.75444 -0.866264 
0.343588 -0.866264 -9.44577 
-5.00401 -0.0213526 -0.646687 
-0.0213526 -5.30366 0.16082 
-0.646687 0.16082 -4.70619 
-5.05476 -0.00278002 -0.722977 
-0.00278002 -4.82213 -0.0934953 
-0.722977 -0.0934953 -5.13696 
-5.19181 0.0383557 -0.547842 
0.0383557 -5.06578 -0.0917552 
-0.547842 -0.0917552 -4.75627 
-5.04013 -0.128577 -0.438501 
-0.128577 -4.76087 -0.0128471 
-0.438501 -0.0128471 -5.21286 
-7.30782 -0.143942 -2.77874 
-0.143942 -7.17885 3.68181 
-2.77874 3.68181 -6.74409 
-7.00171 -0.232169 -2.81217 
-0.232169 -6.80369 3.66192 
-2.81217 3.66192 -7.42536 
-7.11465 0.046769 -2.62026 
0.046769 -7.11333 3.7136 
-2.62026 3.7136 -7.00277 
-7.12356 0.100566 -2.54619 
0.100566 -7.17747 3.60074 
-2.54619 3.60074 -6.92973 
-8.62728 -0.155607 3.29412 
-0.155607 -8.67213 -3.20123 
3.29412 -3.20123 -8.79589 
-8.66448 -0.173573 3.24708 
-0.173573 -8.73374 -3.1294 
3.24708 -3.1294 -8.69707 
-8.5981 0.113146 2.82246 
0.113146 -8.20851 -2.85203 
2.82246 -2.85203 -9.28868 
-8.87169 -0.0929386 3.52548 
-0.0929386 -9.07456 -3.15535 
3.52548 -3.15535 -8.14904 
-8.51229 -0.0967302 -3.62752 
-0.0967302 -7.89286 3.0685 
-3.62752 3.0685 -6.81841 
-7.08579 0.0256291 -3.40802 
0.0256291 -6.97013 3.03464 
-3.40802 3.03464 -9.16764 
-7.71692 0.245521 -2.88015 
0.245521 -7.6914 2.65907 
-2.88015 2.65907 -7.81524 
-7.69494 0.0566845 -3.25739 
0.0566845 -7.75543 2.76792 
-3.25739 2.76792 -7.77319 
-0.532204 0.0715711 -0.67284 
0.0715711 -0.417475 -3.74213 
-0.67284 -3.74213 -0.267899 
-0.852909 0.0608108 -0.694577 
0.0608108 -0.617156 -3.58353 
-0.694577 -3.58353 0.252486 
-0.703258 0.165618 -0.67445 
0.165618 -0.443837 -3.81459 
-0.67445 -3.81459 -0.0704826 
-0.409069 0.0461389 -0.632652 
0.0461389 -0.343118 -3.87176 
-0.632652 -3.87176 -0.465391 
-2.74835 0.0589365 -4.10039 
0.0589365 -2.78286 -2.29723 
-4.10039 -2.29723 -2.925 
-3.22965 -0.268095 -3.88768 
-0.268095 -2.71884 -2.29309 
-3.88768 -2.29309 -2.50771 
-2.82718 0.149756 -4.04715 
0.149756 -2.83953 -2.23845 
-4.04715 -2.23845 -2.7895 
-2.5639 -0.0851684 -4.00938 
-0.0851684 -2.88352 -2.20154 
-4.00938 -2.20154 -3.00879 
-9.52191 0.0134926 -1.23605 
0.0134926 -9.3918 -1.59973 
-1.23605 -1.59973 -9.92696 
-9.61044 -0.0142459 -1.13239 
-0.0142459 -9.59842 -1.71684 
-1.13239 -1.71684 -9.63182 
-9.44199 0.0879979 -0.984145 
0.0879979 -9.37933 -1.67311 
-0.984145 -1.67311 -10.0194 
-9.63799 -0.0139187 -1.15731 
-0.0139187 -9.74333 -1.72333 
-1.15731 -1.72333 -9.45936 
-6.76104 0.0751817 0.646558 
0.0751817 -6.78446 1.40673 
0.646558 1.40673 -6.40935 
-6.74565 0.232781 0.67973 
0.232781 -6.56327 1.3331 
0.67973 1.3331 -6.64593 
-6.32603 0.0455829 0.441717 
0.0455829 -6.26337 1.49312 
0.441717 1.49312 -7.36546 
-6.79423 -0.101137 0.923213 
-0.101137 -6.94444 1.00943 
0.923213 1.00943 -6.21619 
-0.536499 -0.00405463 -1.83584 
-0.00405463 -0.686501 1.28334 
-1.83584 1.28334 0.0959062 
-0.391148 0.153208 -1.94223 
0.153208 -0.486324 1.14601 
-1.94223 1.14601 -0.249622 
-0.427175 0.0270624 -2.02306 
0.0270624 -0.464684 1.24795 
-2.02306 1.24795 -0.235235 
-0.295654 0.0241914 -1.96368 
0.0241914 -0.317867 1.1823 
-1.96368 1.1823 -0.513573 
-8.98889 0.117845 1.40286 
0.117845 -8.92488 1.44901 
1.40286 1.44901 -9.04593 
-9.53048 0.23236 1.31909 
0.23236 -8.85373 1.80775 
1.31909 1.80775 -8.57549 
-8.88751 0.289686 1.76859 
0.289686 -8.53724 0.898359 
1.76859 0.898359 -9.53496 
-9.01112 -0.0909269 1.48513 
-0.0909269 -8.95822 1.14935 
1.48513 1.14935 -8.99037 
-4.74215 0.113692 0.56667 
0.113692 -5.09462 2.26549 
0.56667 2.26549 -4.46312 
-4.47007 0.0882435 0.122603 
0.0882435 -4.83723 1.98171 
0.122603 1.98171 -4.99259 
-4.63243 0.187258 0.0370051 
0.187258 -4.83619 2.2335 
0.0370051 2.2335 -4.83127 
-5.29124 -0.313474 -0.0568548 
-0.313474 -4.85432 2.30313 
-0.0568548 2.30313 -4.15434 
-1.15477 0.100809 3.44251 
0.100809 -1.37826 1.7546 
3.44251 1.7546 -0.0329787 
-1.01237 -0.151411 3.77667 
-0.151411 -0.872095 1.89792 
3.77667 1.89792 -0.681555 
-1.1731 -0.0123053 3.72572 
-0.0123053 -0.768105 2.06524 
3.72572 2.06524 -0.624814 
-0.578686 0.142305 3.91159 
0.142305 -0.810342 1.86624 
3.91159 1.86624 -1.17699 
-0.923175 0.0477551 -1.64148 
0.0477551 -1.36539 0.00311303 
-1.64148 0.00311303 -0.954797 
-0.831202 0.0155524 -1.60553 
0.0155524 -1.10993 -0.0520808 
-1.60553 -0.0520808 -1.30223 
-1.13357 0.0351049 -1.72049 
0.0351049 -1.06142 -0.114099 
-1.72049 -0.114099 -1.04837 
-0.997828 -0.0548741 -1.69588 
-0.0548741 -1.04691 -0.119806 
-1.69588 -0.119806 -1.19862 
-1.65658 0.135835 3.20706 
0.135835 -1.2445 -3.18908 
3.20706 -3.18908 -1.64499 
-1.53084 -0.0280003 3.11781 
-0.0280003 -1.43162 -3.07959 
3.11781 -3.07959 -1.58361 
-1.73659 -0.000589408 3.09236 
-0.000589408 -1.36867 -3.3331 
3.09236 -3.3331 -1.4408 
-1.03084 0.121877 3.25615 
0.121877 -1.35931 -2.98283 
3.25615 -2.98283 -2.15591 
-8.67323 -0.514125 -0.645876 
-0.514125 -8.9004 -3.51531 
-0.645876 -3.51531 -9.21667 
-9.03502 -0.124191 -0.0663276 
-0.124191 -8.87982 -3.29531 
-0.0663276 -3.29531 -8.87546 
-9.07475 -0.353915 0.189712 
-0.353915 -9.19528 -3.31094 
0.189712 -3.31094 -8.52027 
-8.91076 -0.109654 -0.407475 
-0.109654 -8.99201 -3.36208 
-0.407475 -3.36208 -8.88753 
-7.41817 0.0460634 -2.31326 
0.0460634 -7.45265 -2.85299 
-2.31326 -2.85299 -8.11036 
-7.5817 0.0646864 -2.15254 
0.0646864 -7.67362 -3.03387 
-2.15254 -3.03387 -7.72586 
-7.73013 0.00552677 -2.15309 
0.00552677 -7.73286 -3.09024 
-2.15309 -3.09024 -7.51819 
-7.43662 0.0667186 -2.27265 
0.0667186 -7.74076 -3.09139 
-2.27265 -3.09139 -7.80379 
-4.70739 -0.0674549 -0.475157 
-0.0674549 -4.76197 -0.0290864 
-0.475157 -0.0290864 -4.32819 
-4.58927 -0.0995506 -0.529431 
-0.0995506 -4.7105 -0.0501739 
-0.529431 -0.0501739 -4.49779 
-4.5716 0.067319 -0.709993 
0.067319 -4.50325 -0.198645 
-0.709993 -0.198645 -4.7227 
-4.6731 -0.014869 -0.69784 
-0.014869 -4.68287 0.00840961 
-0.69784 0.00840961 -4.44159 
-9.64536 0.000118936 2.98467 
0.000118936 -9.26826 -3.5044 
2.98467 -3.5044 -10.2569 
-9.83505 0.028135 3.38567 
0.028135 -9.91233 -3.24158 
3.38567 -3.24158 -9.42317 
-9.84273 0.0973524 3.16803 
0.0973524 -9.71711 -3.22864 
3.16803 -3.22864 -9.61071 
-9.87645 0.0635261 3.18878 
0.0635261 -9.61999 -3.28102 
3.18878 -3.28102 -9.67411 
-1.05011 0.0266474 0.428658 
0.0266474 -0.966185 0.897997 
0.428658 0.897997 -0.842544 
-0.917862 0.00697335 0.483257 
0.00697335 -0.910441 0.893454 
0.483257 0.893454 -1.03054 
-1.04839 0.113539 0.438725 
0.113539 -1.02105 0.722834 
0.438725 0.722834 -0.789409 
-0.844423 0.135012 0.364496 
0.135012 -0.940748 0.66312 
0.364496 0.66312 -1.07367 
-0.990826 0.0688179 -2.50255 
0.0688179 -1.07969 -1.24192 
-2.50255 -1.24192 -0.926773 
-1.04031 -0.24748 -2.82031 
-0.24748 -1.12008 -1.24915 
-2.82031 -1.24915 -0.836896 
-0.891642 -0.344648 -2.89084 
-0.344648 -0.883129 -1.19608 
-2.89084 -1.19608 -1.22252 
-1.05022 0.12458 -2.566 
0.12458 -0.883674 -1.19696 
-2.566 -1.19696 -1.0634 
-8.87538 -0.0385017 -4.35874 
-0.0385017 -8.9751 -0.0677613 
-4.35874 -0.0677613 -9.07547 
-8.8101 -0.00346163 -4.31268 
-0.00346163 -9.03568 0.00332805 
-4.31268 0.00332805 -9.08018 
-8.90217 0.0232369 -4.06973 
0.0232369 -8.5651 -0.0502451 
-4.06973 -0.0502451 -9.45868 
-9.49139 -0.0563942 -4.44639 
-0.0563942 -8.75776 0.100242 
-4.44639 0.100242 -8.67681 
-5.27718 -0.336165 -2.3692 
-0.336165 -5.17673 -2.20847 
-2.3692 -2.20847 -5.80315 
-5.43174 -0.0410159 -2.30799 
-0.0410159 -5.47133 -2.31748 
-2.30799 -2.31748 -5.35399 
-5.36483 0.150206 -2.32078 
0.150206 -5.25744 -2.46182 
-2.32078 -2.46182 -5.6348 
-5.34106 0.102944 -2.5144 
0.102944 -5.59909 -2.49626 
-2.5144 -2.49626 -5.31691 
-1.05961 -0.00125375 -3.39276 
-0.00125375 -1.11387 1.55274 
-3.39276 1.55274 0.612886 
-0.735652 0.197828 -3.35367 
0.197828 -0.41503 1.79689 
-3.35367 1.79689 -0.40991 
-0.474824 0.120259 -3.32526 
0.120259 -0.599259 1.75538 
-3.32526 1.75538 -0.486509 
-0.394919 0.028356 -3.45879 
0.028356 -0.487232 1.70218 
-3.45879 1.70218 -0.678442 
-7.49764 -0.542226 -4.3098 
-0.542226 -7.6882 1.7711 
-4.3098 1.7711 -8.83966 
-8.88796 0.790829 -4.37466 
0.790829 -8.12965 2.1632 
-4.37466 2.1632 -7.00789 
-7.59029 -0.313946 -4.18692 
-0.313946 -8.24108 1.80028 
-4.18692 1.80028 -8.19413 
-8.31927 -0.134981 -3.43899 
-0.134981 -8.18825 0.850008 
-3.43899 0.850008 -7.51798 
-0.934055 0.0755395 -0.66037 
0.0755395 -0.947882 0.577144 
-0.66037 0.577144 -0.979647 
-0.924263 0.0113486 -0.65232 
0.0113486 -1.02219 0.489689 
-0.65232 0.489689 -0.915129 
-1.4202 -0.641489 -0.445439 
-0.641489 -1.25188 -0.0238557 
-0.445439 -0.0238557 -0.189503 
-0.801294 -0.500453 -0.350796 
-0.500453 -0.36945 1.03419 
-0.350796 1.03419 -1.69084 
-7.59211 -0.0496661 1.16171 
-0.0496661 -7.06935 1.32234 
1.16171 1.32234 -7.26599 
-7.50069 -0.136311 1.59419 
-0.136311 -6.94853 1.53542 
1.59419 1.53542 -7.47823 
-7.42647 -0.0511046 1.11982 
-0.0511046 -7.27324 1.58141 
1.11982 1.58141 -7.22773 
-6.71234 0.16141 1.2335 
0.16141 -7.36211 1.50151 
1.2335 1.50151 -7.853 
-0.891107 -0.165184 -3.17907 
-0.165184 -1.67118 -1.16478 
-3.17907 -1.16478 -0.835616 
-1.20844 -0.0984794 -3.47072 
-0.0984794 -1.12729 -0.912415 
-3.47072 -0.912415 -1.06219 
-0.884976 -0.0417726 -3.25758 
-0.0417726 -1.29535 -1.13907 
-3.25758 -1.13907 -1.21758 
-0.971783 0.02875 -3.50801 
0.02875 -1.07289 -0.825264 
-3.50801 -0.825264 -1.35323 
-8.25182 -0.0897388 -4.21389 
-0.0897388 -7.89417 0.724487 
-4.21389 0.724487 -8.24119 
-8.19245 -0.130184 -4.30795 
-0.130184 -7.93558 1.02317 
-4.30795 1.02317 -8.25915 
-8.12288 -0.0814123 -4.02243 
-0.0814123 -7.87737 0.947822 
-4.02243 0.947822 -8.38693 
-8.09039 -0.173132 -4.19216 
-0.173132 -7.95649 0.76371 
-4.19216 0.76371 -8.3403 
-6.68175 0.0144456 -2.5082 
0.0144456 -6.50463 -3.74472 
-2.5082 -3.74472 -6.61944 
-6.59403 -0.0468922 -2.5646 
-0.0468922 -6.50943 -3.86092 
-2.5646 -3.86092 -6.70236 
-7.64738 0.0328062 -2.36412 
0.0328062 -6.72793 -3.55765 
-2.36412 -3.55765 -5.4305 
-6.29315 -0.102849 -2.22074 
-0.102849 -5.9428 -3.39855 
-2.22074 -3.39855 -7.56986 
-1.39474 -0.465513 -3.43445 
-0.465513 -1.61954 1.72039 
-3.43445 1.72039 -0.186613 
-1.22639 0.0503816 -3.70886 
0.0503816 -1.06124 1.97195 
-3.70886 1.97195 -0.913266 
-1.23354 0.198024 -3.74734 
0.198024 -1.04251 1.98696 
-3.74734 1.98696 -0.924839 
-0.734743 -0.312062 -4.00116 
-0.312062 -0.94467 1.85975 
-4.00116 1.85975 -1.52148 
-0.826122 0.268378 -0.112676 
0.268378 -1.52644 1.13479 
-0.112676 1.13479 -0.70037 
-0.895842 0.0287971 -0.333999 
0.0287971 -1.04599 0.915798 
-0.333999 0.915798 -1.1111 
-1.00166 0.106115 -0.535709 
0.106115 -1.01806 0.684549 
-0.535709 0.684549 -1.03322 
-0.443216 0.150252 -0.703133 
0.150252 -1.30403 0.355698 
-0.703133 0.355698 -1.3057 
-4.80781 -0.114053 2.98 
-0.114053 -4.91479 3.19751 
2.98 3.19751 -4.52863 
-4.5806 -0.0857194 3.31512 
-0.0857194 -5.11143 2.8532 
3.31512 2.8532 -4.5592 
-4.71301 0.169481 3.48965 
0.169481 -4.77568 2.66824 
3.48965 2.66824 -4.76254 
-4.56718 0.116488 3.00387 
0.116488 -5.05941 3.05694 
3.00387 3.05694 -4.62463 
-1.28121 -0.0193652 3.61652 
-0.0193652 -1.15818 0.672361 
3.61652 0.672361 -1.16116 
-1.17119 -0.0112311 3.68305 
-0.0112311 -1.05306 0.717494 
3.68305 0.717494 -1.37629 
-1.33412 -0.0162155 3.73446 
-0.0162155 -1.13021 0.691347 
3.73446 0.691347 -1.13622 
-1.21877 -0.0214379 3.69776 
-0.0214379 -1.02526 0.570655 
3.69776 0.570655 -1.35652 
-0.999007 -0.0222 -0.628396 
-0.0222 -0.940172 0.231693 
-0.628396 0.231693 -0.916175 
-0.94733 0.35519 -0.403047 
0.35519 -0.447445 -0.239632 
-0.403047 -0.239632 -1.46058 
-1.58422 0.289202 -0.728622 
0.289202 -0.917049 0.915699 
-0.728622 0.915699 -0.354084 
-0.837917 -0.0118136 -0.777155 
-0.0118136 -1.10645 0.427466 
-0.777155 0.427466 -0.910986 
-4.94309 0.346678 3.57528 
0.346678 -4.73825 3.05846 
3.57528 3.05846 -5.85128 
-5.36542 0.00992036 3.56584 
0.00992036 -5.31997 3.11758 
3.56584 3.11758 -4.84723 
-5.18964 -0.0165721 3.27514 
-0.0165721 -5.14959 3.07513 
3.27514 3.07513 -5.1934 
-5.2174 -0.0737299 3.17361 
-0.0737299 -5.18913 2.95307 
3.17361 2.95307 -5.1261 
-3.03871 -0.178579 4.02939 
-0.178579 -2.36894 2.61617 
4.02939 2.61617 -0.696511 
-2.15682 -0.159017 3.78103 
-0.159017 -1.94352 2.61637 
3.78103 2.61637 -2.00382 
-0.882984 0.391383 4.17584 
0.391383 -1.97187 2.28479 
4.17584 2.28479 -3.24931 
-2.03225 -0.255767 2.87687 
-0.255767 -1.92981 2.68372 
2.87687 2.68372 -2.1421 
-5.7186 -0.0282568 2.53128 
-0.0282568 -5.92533 2.51848 
2.53128 2.51848 -5.31576 
-5.88966 -0.0328504 2.62869 
-0.0328504 -5.80224 2.89883 
2.62869 2.89883 -5.26779 
-5.62662 0.070854 2.58799 
0.070854 -5.89095 2.58412 
2.58799 2.58412 -5.44213 
-5.47121 0.157694 2.60343 
0.157694 -5.48761 2.48621 
2.60343 2.48621 -6.00088 
-0.807541 0.0668928 0.137426 
0.0668928 -1.8711 -0.275223 
0.137426 -0.275223 -0.139824 
-0.17956 0.0274275 -0.90502 
0.0274275 -0.998963 0.540023 
-0.90502 0.540023 -1.63995 
-1.05601 -0.0334484 -0.567933 
-0.0334484 -0.86151 0.0521668 
-0.567933 0.0521668 -0.900947 
-1.133 0.0745191 -0.47109 
0.0745191 -0.850156 -0.103553 
-0.47109 -0.103553 -0.835315 
-5.6723 0.267848 -4.20711 
0.267848 -5.51165 1.75734 
-4.20711 1.75734 -4.88639 
-5.19656 0.319409 -3.96398 
0.319409 -5.60102 1.11081 
-3.96398 1.11081 -5.27276 
-5.02642 -0.12396 -4.36651 
-0.12396 -5.26893 0.558324 
-4.36651 0.558324 -5.77499 
-5.33074 0.251073 -4.17935 
0.251073 -5.42403 1.09671 
-4.17935 1.09671 -5.31558 
-2.55362 0.0453811 4.50599 
0.0453811 -2.65458 1.28181 
4.50599 1.28181 -3.04231 
-2.76302 0.0182455 4.36396 
0.0182455 -2.73844 1.22913 
4.36396 1.22913 -2.74906 
-3.42334 -0.188503 4.41212 
-0.188503 -2.67975 1.4524 
4.41212 1.4524 -2.14743 
-2.58346 0.085646 4.20943 
0.085646 -2.81829 1.09321 
4.20943 1.09321 -2.84877 
-1.04607 0.0450076 2.86671 
0.0450076 -1.76308 -2.34562 
2.86671 -2.34562 -1.01302 
-1.30674 -0.0209674 2.80544 
-0.0209674 -1.25537 -2.24475 
2.80544 -2.24475 -1.26005 
-1.02698 0.00899723 2.89896 
0.00899723 -1.35184 -2.22629 
2.89896 -2.22629 -1.44335 
-1.16988 0.0226687 2.74882 
0.0226687 -1.26931 -2.222 
2.74882 -2.222 -1.38297 
-9.62396 0.056966 0.0728405 
0.056966 -9.64376 0.584097 
0.0728405 0.584097 -9.6278 
-9.62989 0.101694 0.153845 
0.101694 -9.5069 0.611839 
0.153845 0.611839 -9.75873 
-9.43689 0.0176723 -0.0775996 
0.0176723 -9.21937 0.655799 
-0.0775996 0.655799 -10.2393 
-9.68877 -0.0161748 0.163897 
-0.0161748 -9.74115 0.548824 
0.163897 0.548824 -9.4656 
-1.36369 0.0141505 2.50771 
0.0141505 -1.251 -2.66264 
2.50771 -2.66264 -1.19536 
-1.27566 -0.0487616 2.36346 
-0.0487616 -1.19101 -2.79379 
2.36346 -2.79379 -1.34338 
-1.5281 -0.0043435 2.37037 
-0.0043435 -1.19471 -2.8522 
2.37037 -2.8522 -1.08724 
-1.35905 -0.0669158 2.48377 
-0.0669158 -0.943523 -2.57595 
2.48377 -2.57595 -1.50747 
-1.07484 0.119499 1.40123 
0.119499 -1.06713 -3.23041 
1.40123 -3.23041 -1.04964 
-1.21638 -0.283754 1.80574 
-0.283754 -1.49745 -3.35436 
1.80574 -3.35436 -0.47777 
-1.20796 0.127644 1.49389 
0.127644 -0.982975 -3.11154 
1.49389 -3.11154 -1.00067 
-0.672116 -0.351989 1.10602 
-0.351989 -0.881814 -3.2425 
1.10602 -3.2425 -1.63767 
-1.73854 0.0587931 -4.04563 
0.0587931 -1.84404 -1.57002 
-4.04563 -1.57002 -1.70018 
-2.03448 -0.0540049 -3.89401 
-0.0540049 -1.77112 -1.59795 
-3.89401 -1.59795 -1.47716 
-1.4683 0.0203643 -4.13078 
0.0203643 -1.70487 -1.4308 
-4.13078 -1.4308 -2.10958 
-1.53793 0.108913 -4.03636 
0.108913 -1.72284 -1.71595 
-4.03636 -1.71595 -2.02198 
-0.117681 0.100797 2.89017 
0.100797 -0.639504 -1.04222 
2.89017 -1.04222 -0.286001 
-0.145521 0.0160506 2.93732 
0.0160506 -0.430896 -1.10855 
2.93732 -1.10855 -0.466768 
-0.389311 0.317672 3.10079 
0.317672 -1.07996 -0.700094 
3.10079 -0.700094 0.42609 
-0.234076 0.0506556 2.85599 
0.0506556 -0.17016 -1.07195 
2.85599 -1.07195 -0.63895 
-8.52161 -0.0205844 -1.93603 
-0.0205844 -8.61946 -4.25003 
-1.93603 -4.25003 -8.77512 
-8.30044 -0.146376 -1.91316 
-0.146376 -8.47401 -3.68597 
-1.91316 -3.68597 -9.14174 
-8.73348 0.0785572 -1.84425 
0.0785572 -8.62117 -4.10235 
-1.84425 -4.10235 -8.56154 
-8.95062 0.179108 -1.83438 
0.179108 -9.01976 -4.23501 
-1.83438 -4.23501 -7.94581 
-5.82064 -0.0660993 -4.30452 
-0.0660993 -5.9197 1.11196 
-4.30452 1.11196 -5.76835 
-6.76105 0.258746 -4.62199 
0.258746 -5.77031 0.897256 
-4.62199 0.897256 -4.97733 
-5.17054 -0.18078 -4.63525 
-0.18078 -5.91938 1.08826 
-4.63525 1.08826 -6.41877 
-5.72243 -0.0936246 -3.77993 
-0.0936246 -5.98912 1.10579 
-3.77993 1.10579 -5.79714 
-0.724202 -0.195041 0.095734 
-0.195041 -0.369092 3.68387 
0.095734 3.68387 -0.125899 
-0.426923 0.00361739 0.110878 
0.00361739 -0.299853 3.55322 
0.110878 3.55322 -0.492416 
-0.70368 -0.0798577 0.277356 
-0.0798577 -0.693887 3.52545 
0.277356 3.52545 0.178375 
-0.266457 0.0703052 0.163308 
0.0703052 -0.327544 3.59687 
0.163308 3.59687 -0.625191 
-7.31591 -0.0328636 -2.65079 
-0.0328636 -7.34437 -3.76348 
-2.65079 -3.76348 -7.31511 
-6.66909 0.55741 -2.72183 
0.55741 -6.99649 -3.56141 
-2.72183 -3.56141 -8.30981 
-7.70643 -0.175754 -2.87911 
-0.175754 -7.59221 -3.96807 
-2.87911 -3.96807 -6.67674 
-7.39903 -0.175895 -2.27675 
-0.175895 -7.3882 -3.85197 
-2.27675 -3.85197 -7.18816 
-3.35352 -0.0258148 -0.725765 
-0.0258148 -3.21404 1.71639 
-0.725765 1.71639 -3.09511 
-2.99675 -0.0721987 -0.513926 
-0.0721987 -3.22067 1.67548 
-0.513926 1.67548 -3.44526 
-3.03806 -0.137419 -0.564557 
-0.137419 -3.28162 1.53995 
-0.564557 1.53995 -3.34299 
-2.85254 0.00437533 -0.336448 
0.00437533 -3.18026 1.38877 
-0.336448 1.38877 -3.62987 
-7.20822 0.255078 -4.6557 
0.255078 -7.57575 0.293299 
-4.6557 0.293299 -8.5885 
-8.01258 0.018566 -4.51855 
0.018566 -8.35765 1.64007 
-4.51855 1.64007 -7.00224 
-7.93035 0.0150743 -4.11266 
0.0150743 -7.97496 0.852784 
-4.11266 0.852784 -7.46716 
-8.01247 0.139787 -4.14853 
0.139787 -7.7166 0.703231 
-4.14853 0.703231 -7.6434 
-1.80506 0.0324125 0.332054 
0.0324125 -1.71879 -0.07243 
0.332054 -0.07243 -1.47422 
-1.58962 -0.152759 0.326299 
-0.152759 -1.59539 0.0386402 
0.326299 0.0386402 -1.81307 
-1.41196 -0.0567173 0.527487 
-0.0567173 -1.23098 0.0884116 
0.527487 0.0884116 -2.35514 
-1.56764 -0.0391564 0.448612 
-0.0391564 -1.70712 0.0728042 
0.448612 0.0728042 -1.72332 
-9.08544 -0.192081 -0.0911246 
-0.192081 -8.68687 0.808874 
-0.0911246 0.808874 -9.38292 
-9.16176 -0.0601129 0.597456 
-0.0601129 -8.88248 0.835464 
0.597456 0.835464 -9.11099 
-9.1474 -0.191529 0.694603 
-0.191529 -9.18795 0.641689 
0.694603 0.641689 -8.81988 
-8.996 -0.101312 0.0820638 
-0.101312 -9.16389 0.879282 
0.0820638 0.879282 -8.99534 
-6.02878 0.090905 1.79383 
0.090905 -5.83407 3.23706 
1.79383 3.23706 -6.31923 
-6.10488 0.02663 2.08388 
0.02663 -6.25112 3.00269 
2.08388 3.00269 -5.82609 
-6.01215 0.0321732 2.02909 
0.0321732 -5.99237 3.04772 
2.02909 3.04772 -6.17756 
-6.11963 0.0200484 1.85403 
0.0200484 -6.06005 3.06243 
1.85403 3.06243 -6.0024 
-5.6287 -0.0223331 -0.575846 
-0.0223331 -5.46853 4.73715 
-0.575846 4.73715 -5.94881 
-5.67858 0.00499055 -0.526004 
0.00499055 -5.67616 4.57432 
-0.526004 4.57432 -5.69131 
-5.58444 0.181866 -0.587675 
0.181866 -6.38811 4.48923 
-0.587675 4.48923 -5.07349 
-5.69745 -0.0819675 -0.376369 
-0.0819675 -5.46247 4.4227 
-0.376369 4.4227 -5.88612 
-9.52899 0.0276215 -2.51187 
0.0276215 -9.23997 0.191387 
-2.51187 0.191387 -10.0089 
-9.62925 0.06345 -2.63426 
0.06345 -9.61241 0.209026 
-2.63426 0.209026 -9.53623 
-9.44355 0.0764103 -2.80603 
0.0764103 -9.34976 0.285038 
-2.80603 0.285038 -9.98458 
-9.64267 -0.00546186 -2.6366 
-0.00546186 -9.74273 0.252741 
-2.6366 0.252741 -9.39248 
-1.09904 0.0508438 0.470198 
0.0508438 -0.928415 0.252219 
0.470198 0.252219 -0.911334 
-1.03384 -0.158746 0.653134 
-0.158746 -1.29436 0.0757109 
0.653134 0.0757109 -0.61058 
-0.617557 -0.151807 0.32558 
-0.151807 -1.08786 0.377192 
0.32558 0.377192 -1.23337 
-1.08874 0.107804 0.447831 
0.107804 -0.960979 0.168984 
0.447831 0.168984 -0.889067 
-1.04332 -0.233731 2.44152 
-0.233731 -0.839948 2.74244 
2.44152 2.74244 0.834514 
-0.0748659 -0.13349 2.18078 
-0.13349 -0.63298 2.35158 
2.18078 2.35158 -0.340904 
-0.251485 -0.248678 2.24412 
-0.248678 -0.425971 2.31156 
2.24412 2.31156 -0.371294 
-0.201513 -0.124486 2.43975 
-0.124486 -0.198068 2.02981 
2.43975 2.02981 -0.649169 
-5.19964 0.0461976 -2.84877 
0.0461976 -5.02499 1.93504 
-2.84877 1.93504 -4.64572 
-5.0881 -0.00604252 -2.95714 
-0.00604252 -4.90498 2.00138 
-2.95714 2.00138 -4.87726 
-5.22967 -0.141036 -2.58381 
-0.141036 -5.04777 1.88313 
-2.58381 1.88313 -4.5929 
-5.22948 0.0560935 -2.75087 
0.0560935 -4.88999 1.99091 
-2.75087 1.99091 -4.75088 
-8.73881 -0.191882 0.143475 
-0.191882 -8.60225 -4.39047 
0.143475 -4.39047 -8.46196 
-8.25757 -0.0745076 0.174769 
-0.0745076 -8.50537 -4.09807 
0.174769 -4.09807 -9.04009 
-8.57444 -0.0888627 0.288458 
-0.0888627 -8.5369 -4.55844 
0.288458 -4.55844 -8.69169 
-8.86214 -0.252729 0.29191 
-0.252729 -8.92512 -4.57206 
0.29191 -4.57206 -8.01576 
-9.46722 -0.108023 -0.424018 
-0.108023 -9.54495 -3.86047 
-0.424018 -3.86047 -9.85682 
-9.25856 -0.0512079 -0.457951 
-0.0512079 -9.45239 -4.01097 
-0.457951 -4.01097 -10.158 
-9.69962 -0.0742896 -0.470466 
-0.0742896 -9.60325 -3.93374 
-0.470466 -3.93374 -9.56612 
-9.78823 0.0182869 -0.410659 
0.0182869 -9.62983 -3.91478 
-0.410659 -3.91478 -9.45094 
-2.85021 0.174359 3.25463 
0.174359 -3.06933 -0.447949 
3.25463 -0.447949 -3.16095 
-3.11672 0.0566831 3.24714 
0.0566831 -3.07769 -0.386362 
3.24714 -0.386362 -2.88608 
-3.18904 0.0238473 2.76194 
0.0238473 -3.19287 -0.453908 
2.76194 -0.453908 -2.69858 
-3.28295 -0.181456 3.42739 
-0.181456 -2.45457 -0.310603 
3.42739 -0.310603 -3.34297 
-5.86144 -0.0709115 4.42771 
-0.0709115 -5.8635 1.10071 
4.42771 1.10071 -5.83316 
-5.66722 0.00418415 4.68455 
0.00418415 -5.5807 1.0112 
4.68455 1.0112 -6.31019 
-6.4255 -0.100237 4.57132 
-0.100237 -5.82221 0.857873 
4.57132 0.857873 -5.31039 
-5.6913 0.126371 4.29918 
0.126371 -5.81158 1.09511 
4.29918 1.09511 -6.05522 
-5.87939 0.0879519 2.50357 
0.0879519 -5.68915 2.611 
2.50357 2.611 -6.41967 
-6.10483 -0.013092 2.40345 
-0.013092 -6.06189 2.68882 
2.40345 2.68882 -5.82149 
-5.75997 0.157833 2.95667 
0.157833 -5.69947 2.45668 
2.95667 2.45668 -6.52877 
-5.85623 -0.160206 2.54191 
-0.160206 -5.95958 2.56935 
2.54191 2.56935 -6.17241 
-2.54889 0.0636582 1.48398 
0.0636582 -3.47029 -4.40627 
1.48398 -4.40627 -1.98192 
-2.49125 0.0135272 1.35876 
0.0135272 -2.71883 -4.48156 
1.35876 -4.48156 -2.79103 
-2.81027 0.0374492 1.28147 
0.0374492 -2.59578 -4.39608 
1.28147 -4.39608 -2.59506 
-2.83685 -0.0533712 1.27837 
-0.0533712 -2.60525 -4.34411 
1.27837 -4.34411 -2.559 
-1.05855 0.0754009 3.92783 
0.0754009 -1.5781 -0.578826 
3.92783 -0.578826 -0.183929 
-1.16666 0.00211966 4.31422 
0.00211966 -0.787106 -0.457056 
4.31422 -0.457056 -0.866803 
-1.04101 0.0493348 4.38505 
0.0493348 -0.962911 -0.429046 
4.38505 -0.429046 -0.81665 
-0.638128 0.0672718 4.34554 
0.0672718 -0.989181 -0.589351 
4.34554 -0.589351 -1.19326 
-8.74931 -0.414291 -2.89075 
-0.414291 -8.70377 2.19572 
-2.89075 2.19572 -9.29405 
-8.7702 0.100142 -2.81185 
0.100142 -9.03735 2.3646 
-2.81185 2.3646 -8.93958 
-8.91263 -0.00607257 -2.89734 
-0.00607257 -8.95537 2.24622 
-2.89734 2.24622 -8.87913 
-9.04749 -0.0766113 -2.7989 
-0.0766113 -8.97174 2.54964 
-2.7989 2.54964 -8.7279 
-4.30179 -0.177566 -0.123638 
-0.177566 -4.38607 0.978295 
-0.123638 0.978295 -4.42588 
-4.37563 0.0556239 0.155633 
0.0556239 -4.15518 1.03491 
0.155633 1.03491 -4.58292 
-4.21805 -0.0877195 -0.134709 
-0.0877195 -4.60787 0.887868 
-0.134709 0.887868 -4.28781 
-4.48204 0.0764194 0.147944 
0.0764194 -4.41612 0.929545 
0.147944 0.929545 -4.21558 
-6.60588 -0.00579844 -0.355575 
-0.00579844 -6.4039 -4.51371 
-0.355575 -4.51371 -6.48082 
-6.95635 0.211792 0.0641344 
0.211792 -7.03523 -4.28382 
0.0641344 -4.28382 -5.49903 
-6.65562 -0.0434066 -0.316407 
-0.0434066 -6.34911 -4.55524 
-0.316407 -4.55524 -6.48588 
-6.08589 0.247622 -0.609342 
0.247622 -6.08991 -4.07522 
-0.609342 -4.07522 -7.31479 
-7.15292 -0.00617864 -1.58597 
-0.00617864 -7.35152 -3.02568 
-1.58597 -3.02568 -7.21832 
-7.10197 0.0700856 -1.83363 
0.0700856 -6.86491 -2.82862 
-1.83363 -2.82862 -7.75587 
-7.49371 0.0341953 -1.6518 
0.0341953 -7.23471 -3.07858 
-1.6518 -3.07858 -6.99434 
-6.98675 -0.0753616 -1.70486 
-0.0753616 -7.38081 -3.07738 
-1.70486 -3.07738 -7.3552 
-6.64391 0.149636 3.67343 
0.149636 -6.32083 2.73186 
3.67343 2.73186 -6.31265 
-6.43947 0.247983 3.70088 
0.247983 -6.20831 2.30643 
3.70088 2.30643 -6.62961 
-6.50496 0.0962137 3.4775 
0.0962137 -6.47585 2.67463 
3.4775 2.67463 -6.29658 
-6.69985 -0.0687226 3.11206 
-0.0687226 -6.87234 2.85504 
3.11206 2.85504 -5.7052 
-4.87272 -0.0190613 -0.451299 
-0.0190613 -5.05252 -0.107077 
-0.451299 -0.107077 -5.7218 
-5.20327 0.0387563 -0.618991 
0.0387563 -5.27049 -0.0252817 
-0.618991 -0.0252817 -5.17328 
-5.19129 0.0169965 -0.811662 
0.0169965 -5.31056 -0.148255 
-0.811662 -0.148255 -5.1452 
-5.69175 -0.265778 -0.0370728 
-0.265778 -5.43256 -0.355668 
-0.0370728 -0.355668 -4.52273 
-7.44145 -0.00546069 -1.70897 
-0.00546069 -7.54243 2.43155 
-1.70897 2.43155 -6.95313 
-7.39179 -0.145614 -2.01335 
-0.145614 -7.38334 2.2218 
-2.01335 2.2218 -7.16187 
-7.557 -0.0819519 -2.03078 
-0.0819519 -7.20903 2.25854 
-2.03078 2.25854 -7.17097 
-6.87338 -0.0390755 -2.03285 
-0.0390755 -6.9608 2.30438 
-2.03285 2.30438 -8.10283 
-2.87084 -0.126151 -0.607075 
-0.126151 -2.60391 1.67703 
-0.607075 1.67703 -2.81442 
-2.80744 -0.197504 -0.687962 
-0.197504 -2.62914 1.65772 
-0.687962 1.65772 -2.8526 
-2.87981 -0.0296832 -0.507284 
-0.0296832 -2.83103 1.70248 
-0.507284 1.70248 -2.57833 
-2.43727 0.228142 -0.57651 
0.228142 -2.67468 1.87417 
-0.57651 1.87417 -3.17723 
-3.82639 -0.0151044 -0.120612 
-0.0151044 -3.8284 0.64293 
-0.120612 0.64293 -3.80372 
-3.79565 0.02569 -0.364499 
0.02569 -3.88954 0.591473 
-0.364499 0.591473 -3.77331 
-3.72062 -0.0292731 -0.177577 
-0.0292731 -3.70911 0.553754 
-0.177577 0.553754 -4.02877 
-3.7201 -0.0138482 -0.182698 
-0.0138482 -3.79964 0.562492 
-0.182698 0.562492 -3.93876 
-7.77222 -0.171184 -4.29251 
-0.171184 -7.97018 0.951823 
-4.29251 0.951823 -7.89346 
-8.71035 0.428321 -4.6747 
0.428321 -7.73462 0.803601 
-4.6747 0.803601 -7.19089 
-7.05377 -0.282953 -4.65524 
-0.282953 -7.82209 0.914468 
-4.65524 0.914468 -8.76 
-7.8663 -0.164537 -3.62793 
-0.164537 -7.96002 0.691181 
-3.62793 0.691181 -7.80954 
-8.69214 0.0218587 3.67408 
0.0218587 -8.1965 -1.50474 
3.67408 -1.50474 -9.16734 
-8.5868 -0.107667 4.24467 
-0.107667 -8.76018 -1.64565 
4.24467 -1.64565 -8.709 
-8.63222 -0.0696825 4.17225 
-0.0696825 -8.777 -1.65765 
4.17225 -1.65765 -8.64677 
-8.8265 0.00293748 4.44622 
0.00293748 -9.07929 -1.62113 
4.44622 -1.62113 -8.1502 
-3.12942 -0.362883 -4.28964 
-0.362883 -2.68409 -1.57812 
-4.28964 -1.57812 -2.14362 
-2.67861 -0.027612 -4.22021 
-0.027612 -2.64642 -1.48352 
-4.22021 -1.48352 -2.6321 
-2.44917 0.186632 -4.32984 
0.186632 -2.62416 -1.63392 
-4.32984 -1.63392 -2.8838 
-2.63221 -0.00393695 -3.95141 
-0.00393695 -2.50766 -1.56098 
-3.95141 -1.56098 -2.81726 
-7.50591 -0.326413 3.29442 
-0.326413 -7.22333 -3.36448 
3.29442 -3.36448 -9.50436 
-8.32427 0.439662 3.09624 
0.439662 -8.82255 -3.64718 
3.09624 -3.64718 -7.08678 
-8.09631 0.017305 3.31608 
0.017305 -8.12947 -3.09175 
3.31608 -3.09175 -8.00782 
-7.9051 -0.157755 3.06357 
-0.157755 -8.36599 -2.33611 
3.06357 -2.33611 -7.96252 
-7.38419 -0.0146223 4.22322 
-0.0146223 -7.35141 -1.72193 
4.22322 -1.72193 -7.33281 
-7.41059 -0.0628025 4.36311 
-0.0628025 -7.55847 -1.61871 
4.36311 -1.61871 -7.09935 
-6.84433 -0.237533 4.28975 
-0.237533 -7.35518 -1.67761 
4.28975 -1.67761 -7.8689 
-7.46423 0.0334779 4.12525 
0.0334779 -7.35467 -1.74183 
4.12525 -1.74183 -7.24951 
-8.97636 0.159422 -0.192282 
0.159422 -8.92867 3.51416 
-0.192282 3.51416 -9.29264 
-9.05861 0.0499429 0.285781 
0.0499429 -9.21149 3.35332 
0.285781 3.35332 -8.92757 
-9.00714 0.179712 0.220618 
0.179712 -8.98664 3.29065 
0.220618 3.29065 -9.20389 
-9.03864 0.0132067 -0.205796 
0.0132067 -9.20023 3.5429 
-0.205796 3.5429 -8.9588 
-0.702636 -0.105524 -3.11575 
-0.105524 -0.177991 -1.27429 
-3.11575 -1.27429 -0.405037 
-0.704338 0.0518617 -3.07981 
0.0518617 -0.285737 -1.22668 
-3.07981 -1.22668 -0.295589 
-1.06897 -0.14535 -2.86188 
-0.14535 -0.921439 -1.24961 
-2.86188 -1.24961 0.704745 
-0.390607 -0.139208 -3.27696 
-0.139208 -0.209896 -1.00561 
-3.27696 -1.00561 -0.685161 
-1.47335 0.188375 -4.25434 
0.188375 -1.52065 1.78948 
-4.25434 1.78948 -1.49041 
-1.72352 0.0774473 -3.98341 
0.0774473 -1.80002 1.39216 
-3.98341 1.39216 -0.960874 
-1.48687 0.104191 -4.1623 
0.104191 -1.47148 1.76376 
-4.1623 1.76376 -1.52606 
-1.05691 -0.00592545 -3.99502 
-0.00592545 -0.909277 1.97667 
-3.99502 1.97667 -2.51823 
-9.11971 -0.0252254 -1.66135 
-0.0252254 -8.84923 -3.93765 
-1.66135 -3.93765 -9.19094 
-8.75292 -0.0247415 -1.57293 
-0.0247415 -8.94014 -3.77719 
-1.57293 -3.77719 -9.46682 
-9.15751 -0.00847548 -1.54863 
-0.00847548 -8.85036 -4.02675 
-1.54863 -4.02675 -9.152 
-8.88054 0.113395 -1.65865 
0.113395 -9.54526 -4.1442 
-1.65865 -4.1442 -8.73407 
-8.56561 -0.0548553 -4.53753 
-0.0548553 -8.58719 -0.465958 
-4.53753 -0.465958 -8.59472 
-8.6048 -0.0705536 -4.52201 
-0.0705536 -8.49448 -0.472982 
-4.52201 -0.472982 -8.64824 
-8.40233 -0.0545268 -4.31494 
-0.0545268 -8.39771 -0.638386 
-4.31494 -0.638386 -8.94749 
-8.88157 0.0926078 -4.45931 
0.0926078 -8.97739 -0.0617507 
-4.45931 -0.0617507 -7.88856 
-2.68199 0.022763 2.80926 
0.022763 -2.58084 -2.38735 
2.80926 -2.38735 -2.9991 
-2.64418 -0.0256379 2.73376 
-0.0256379 -2.8155 -2.55712 
2.73376 -2.55712 -2.80226 
-2.79972 0.0213561 2.94147 
0.0213561 -2.84998 -2.57506 
2.94147 -2.57506 -2.61223 
-2.70526 -0.0298397 2.84179 
-0.0298397 -2.69283 -2.40932 
2.84179 -2.40932 -2.86385 
-3.0335 -0.00826825 -0.214669 
-0.00826825 -2.79882 0.907435 
-0.214669 0.907435 -3.11935 
-3.04044 -0.0508143 0.175943 
-0.0508143 -3.19966 0.950032 
0.175943 0.950032 -2.71157 
-3.09535 0.0910037 -0.0993441 
0.0910037 -2.96189 0.88819 
-0.0993441 0.88819 -2.89443 
-3.05536 -0.0307985 0.0885185 
-0.0307985 -2.90676 0.974165 
0.0885185 0.974165 -2.98956 
-3.20274 -0.39595 3.71117 
-0.39595 -2.88706 2.85858 
3.71117 2.85858 -2.04635 
-2.51692 -0.0218137 3.79992 
-0.0218137 -2.44623 2.87194 
3.79992 2.87194 -3.173 
-2.72471 0.0532389 3.7554 
0.0532389 -2.6483 2.60163 
3.7554 2.60163 -2.76315 
-2.62107 0.13735 3.62944 
0.13735 -2.63574 2.48207 
3.62944 2.48207 -2.87934 
-9.81158 -0.0244517 -4.30867 
-0.0244517 -9.75518 -1.76321 
-4.30867 -1.76321 -9.49934 
-9.728 -0.0759629 -4.31796 
-0.0759629 -9.69781 -1.66582 
-4.31796 -1.66582 -9.64029 
-9.46398 -0.102509 -4.36162 
-0.102509 -9.5634 -1.50991 
-4.36162 -1.50991 -10.0387 
-9.62772 -0.138983 -4.39908 
-0.138983 -9.6258 -1.69276 
-4.39908 -1.69276 -9.81258 
-1.77609 -0.0350095 0.786695 
-0.0350095 -1.59948 0.546778 
0.786695 0.546778 -1.4313 
-1.24855 0.00364631 0.452505 
0.00364631 -1.46626 0.728721 
0.452505 0.728721 -2.09206 
-1.68886 0.0804879 0.611613 
0.0804879 -1.62923 0.626208 
0.611613 0.626208 -1.48878 
-1.45444 0.0927471 0.569403 
0.0927471 -1.62571 0.512248 
0.569403 0.512248 -1.72673 
-0.510941 0.0852685 -1.19111 
0.0852685 -0.684103 -3.25458 
-1.19111 -3.25458 -0.0260792 
-0.419001 0.0283413 -1.24938 
0.0283413 -0.398406 -3.33547 
-1.24938 -3.33547 -0.403716 
-0.626664 0.18288 -1.43675 
0.18288 -0.656444 -3.38675 
-1.43675 -3.38675 0.0619846 
-0.327495 -0.0647015 -1.20681 
-0.0647015 -0.295171 -3.31386 
-1.20681 -3.31386 -0.598458 
-8.6121 0.658258 4.32588 
0.658258 -8.41696 -2.11758 
4.32588 -2.11758 -6.85674 
-7.75926 -0.131868 4.23982 
-0.131868 -7.98864 -1.70163 
4.23982 -1.70163 -8.1379 
-7.05616 -0.461548 4.24495 
-0.461548 -7.25899 -2.12616 
4.24495 -2.12616 -9.57065 
-7.67134 -0.000821262 3.73558 
-0.000821262 -8.22035 -0.852747 
3.73558 -0.852747 -7.99411 
-3.88862 0.102373 1.01581 
0.102373 -3.7846 0.248935 
1.01581 0.248935 -3.71908 
-3.6078 -0.0339683 1.10427 
-0.0339683 -3.74568 0.000446233 
1.10427 0.000446233 -4.03883 
-3.72222 0.00740881 1.03171 
0.00740881 -3.71169 0.180013 
1.03171 0.180013 -3.95839 
-3.77385 -0.00528575 0.959695 
-0.00528575 -3.84105 0.00327971 
0.959695 0.00327971 -3.77741 
-2.26878 0.0539356 0.236121 
0.0539356 -2.31664 0.95106 
0.236121 0.95106 -2.58215 
-2.2804 0.107637 0.322435 
0.107637 -2.48584 0.904601 
0.322435 0.904601 -2.40134 
-2.45894 0.0638543 0.537998 
0.0638543 -2.57669 0.972133 
0.537998 0.972133 -2.13195 
-2.41518 0.232986 0.3039 
0.232986 -2.51785 0.836796 
0.3039 0.836796 -2.23455 
-7.41445 0.108086 0.390184 
0.108086 -7.32061 4.48339 
0.390184 4.48339 -7.38593 
-7.54334 0.0194531 0.234457 
0.0194531 -7.59284 4.76923 
0.234457 4.76923 -6.98481 
-7.3848 0.0667896 0.0798454 
0.0667896 -6.57396 4.55904 
0.0798454 4.55904 -8.16223 
-7.38887 -0.00979928 0.400959 
-0.00979928 -7.55261 4.37773 
0.400959 4.37773 -7.17951 
-5.775 -0.00781283 -1.71503 
-0.00781283 -5.68187 1.83412 
-1.71503 1.83412 -5.98007 
-5.78038 0.0470488 -1.66751 
0.0470488 -5.95569 1.892 
-1.66751 1.892 -5.70087 
-5.79403 0.0100297 -1.59192 
0.0100297 -5.82595 1.84545 
-1.59192 1.84545 -5.81695 
-6.0648 -0.008245 -1.47038 
-0.008245 -6.02404 1.83285 
-1.47038 1.83285 -5.34809 
-2.50183 -0.0466869 3.48678 
-0.0466869 -2.80085 -0.196343 
3.48678 -0.196343 -2.75111 
-2.45453 -0.195725 3.34816 
-0.195725 -3.27692 -0.619703 
3.34816 -0.619703 -2.32233 
-2.61715 -0.292801 3.31959 
-0.292801 -2.95295 -0.540231 
3.31959 -0.540231 -2.48367 
-2.75815 -0.0957813 3.5428 
-0.0957813 -3.12481 -0.654554 
3.5428 -0.654554 -2.17082 
-8.96328 0.0078477 -3.75445 
0.0078477 -8.65295 1.50817 
-3.75445 1.50817 -9.48979 
-8.78296 -0.0622747 -4.04807 
-0.0622747 -9.2258 1.54332 
-4.04807 1.54332 -9.09725 
-8.79918 -0.0281821 -4.19391 
-0.0281821 -9.13947 1.62751 
-4.19391 1.62751 -9.16736 
-9.50061 0.148328 -4.38343 
0.148328 -8.87489 1.52591 
-4.38343 1.52591 -8.73051 
-5.44198 -0.0438225 0.246424 
-0.0438225 -5.44912 -4.73848 
0.246424 -4.73848 -4.76644 
-5.29043 -0.111882 0.443149 
-0.111882 -5.22544 -4.53011 
0.443149 -4.53011 -5.14166 
-5.04011 -0.0944813 0.187276 
-0.0944813 -4.67471 -4.74736 
0.187276 -4.74736 -5.94271 
-5.19565 -0.0769084 0.385575 
-0.0769084 -5.416 -4.30285 
0.385575 -4.30285 -5.04589 
-4.8332 -0.072347 1.44513 
-0.072347 -4.97991 0.90385 
1.44513 0.90385 -5.23006 
-5.1955 -0.0124948 1.28616 
-0.0124948 -5.10823 0.453758 
1.28616 0.453758 -4.73944 
-4.91271 -0.0649956 1.26855 
-0.0649956 -5.16141 0.622077 
1.26855 0.622077 -4.96905 
-5.03562 -0.0844666 1.26681 
-0.0844666 -5.16816 0.688227 
1.26681 0.688227 -4.83939 
-9.4691 -0.25379 -2.09135 
-0.25379 -9.63285 -2.08641 
-2.09135 -2.08641 -9.87429 
-9.65902 -0.0617257 -2.0689 
-0.0617257 -9.72686 -1.96915 
-2.0689 -1.96915 -9.59036 
-9.49097 -0.135665 -1.90788 
-0.135665 -9.32836 -1.98364 
-1.90788 -1.98364 -10.1569 
-9.78981 0.0193871 -2.14642 
0.0193871 -9.79334 -2.02808 
-2.14642 -2.02808 -9.39309 
-1.94127 0.119129 0.990735 
0.119129 -1.71938 -3.31904 
0.990735 -3.31904 -1.44002 
-1.24375 -0.0423206 1.08829 
-0.0423206 -1.72868 -3.24662 
1.08829 -3.24662 -2.12823 
-1.41584 -0.145173 1.02616 
-0.145173 -1.59142 -3.55575 
1.02616 -3.55575 -2.09341 
-1.66875 -0.0016114 1.11262 
-0.0016114 -1.80409 -3.40575 
1.11262 -3.40575 -1.62783 
-5.18097 -0.00241247 4.43136 
-0.00241247 -5.15508 1.27675 
4.43136 1.27675 -5.1237 
-5.70481 -0.277048 4.57369 
-0.277048 -5.36557 1.39506 
4.57369 1.39506 -4.38936 
-4.68775 0.301903 4.56839 
0.301903 -4.98163 1.32328 
4.56839 1.32328 -5.79036 
-5.2525 0.0269215 4.30772 
0.0269215 -5.08866 0.819854 
4.30772 0.819854 -5.11859 
-8.53131 0.0822048 -2.39865 
0.0822048 -8.67585 -3.76837 
-2.39865 -3.76837 -8.8557 
-8.71043 0.153522 -2.40465 
0.153522 -8.87033 -3.56777 
-2.40465 -3.56777 -8.4821 
-8.56572 0.0392083 -2.52428 
0.0392083 -8.8277 -3.61099 
-2.52428 -3.61099 -8.66944 
-8.67187 0.0366541 -2.73219 
0.0366541 -9.01909 -3.59454 
-2.73219 -3.59454 -8.3719 
-5.77812 0.0968656 3.24512 
0.0968656 -5.95563 2.71665 
3.24512 2.71665 -6.68045 
-6.38955 -0.216262 2.8825 
-0.216262 -6.41027 3.0521 
2.8825 3.0521 -5.61438 
-6.04125 -0.169071 3.29714 
-0.169071 -5.97898 3.1783 
3.29714 3.1783 -6.39398 
-6.33273 -0.248494 3.14024 
-0.248494 -5.93819 3.00923 
3.14024 3.00923 -6.14329 
-9.3109 0.0596421 1.75096 
0.0596421 -8.96458 4.22255 
1.75096 4.22255 -9.18748 
-9.05894 -0.017244 1.97644 
-0.017244 -9.29123 4.34508 
1.97644 4.34508 -9.11279 
-9.38041 0.0877403 1.69205 
0.0877403 -8.52609 4.22934 
1.69205 4.22934 -9.55646 
-9.05445 -0.0653906 1.95282 
-0.0653906 -9.20736 4.22759 
1.95282 4.22759 -9.20114 
-1.47093 0.045068 0.525553 
0.045068 -1.64336 4.21748 
0.525553 4.21748 -1.10121 
-1.40152 0.0354748 0.33051 
0.0354748 -1.31676 4.41944 
0.33051 4.41944 -1.49723 
-1.19934 0.0367751 0.150588 
0.0367751 -1.51508 4.51859 
0.150588 4.51859 -1.50109 
-1.07135 0.117885 -0.24379 
0.117885 -0.944337 4.40551 
-0.24379 4.40551 -2.19981 
-0.742583 -0.135502 1.35633 
-0.135502 -0.7775 1.20631 
1.35633 1.20631 0.405838 
-0.199269 -0.031455 1.39375 
-0.031455 -0.486693 1.32626 
1.39375 1.32626 -0.428283 
-0.346413 -0.0728228 1.32466 
-0.0728228 -0.410835 1.34067 
1.32466 1.34067 -0.356998 
-0.220454 0.00407312 1.24399 
0.00407312 -0.25042 1.36995 
1.24399 1.36995 -0.643371 
-8.33386 -0.0932551 -3.97968 
-0.0932551 -8.45487 -1.7197 
-3.97968 -1.7197 -8.92149 
-8.55766 0.0960142 -4.19761 
0.0960142 -8.51103 -1.83955 
-4.19761 -1.83955 -8.64153 
-8.57845 0.193964 -4.07744 
0.193964 -8.73749 -1.79836 
-4.07744 -1.79836 -8.39428 
-8.84425 0.112519 -4.21166 
0.112519 -8.77375 -2.03543 
-4.21166 -2.03543 -8.09222 
-5.46559 -0.0206016 -4.64554 
-0.0206016 -5.60335 0.76423 
-4.64554 0.76423 -6.42584 
-6.44132 0.113672 -4.65563 
0.113672 -5.70642 0.608335 
-4.65563 0.608335 -5.34704 
-5.68358 -0.00571976 -4.49943 
-0.00571976 -5.84584 0.50318 
-4.49943 0.50318 -5.96535 
-5.71641 -0.0378156 -4.20103 
-0.0378156 -5.79502 0.377097 
-4.20103 0.377097 -5.98334 
-3.10743 0.019939 -0.542944 
0.019939 -2.85407 -3.01612 
-0.542944 -3.01612 -3.33064 
-3.12401 -0.0296882 -0.680237 
-0.0296882 -3.10057 -2.826 
-0.680237 -2.826 -3.06756 
-3.13778 0.0559972 -0.717917 
0.0559972 -3.04436 -3.08366 
-0.717917 -3.08366 -3.11001 
-2.5469 -0.0943352 -0.746425 
-0.0943352 -3.14059 -2.95717 
-0.746425 -2.95717 -3.60465 
-5.80274 0.0331658 -1.92437 
0.0331658 -5.81084 -4.08937 
-1.92437 -4.08937 -5.94343 
-5.5307 -0.143171 -2.19269 
-0.143171 -5.90337 -4.02277 
-2.19269 -4.02277 -6.12295 
-6.0351 0.0372776 -2.2002 
0.0372776 -5.96803 -4.0958 
-2.2002 -4.0958 -5.55389 
-5.8243 0.0645433 -1.97897 
0.0645433 -5.7692 -3.98547 
-1.97897 -3.98547 -5.96351 
-9.46086 0.089407 2.18097 
0.089407 -9.54982 1.45046 
2.18097 1.45046 -9.7096 
-9.59612 0.114065 2.1317 
0.114065 -9.47631 1.35587 
2.1317 1.35587 -9.64786 
-9.22419 0.00890979 2.2428 
0.00890979 -9.26157 1.28446 
2.2428 1.28446 -10.2345 
-9.6738 -0.00627462 2.10833 
-0.00627462 -9.64129 1.42709 
2.10833 1.42709 -9.4052 
-2.63927 -0.181969 0.624876 
-0.181969 -2.61223 -4.3958 
0.624876 -4.3958 -1.63332 
-2.05177 -0.0875735 1.48227 
-0.0875735 -2.1369 -4.29649 
1.48227 -4.29649 -2.69614 
-2.43778 -0.290667 0.965651 
-0.290667 -2.27317 -4.21835 
0.965651 -4.21835 -2.17387 
-2.28702 -0.164162 1.0943 
-0.164162 -2.32159 -4.21954 
1.0943 -4.21954 -2.27621 
-4.94232 0.00847193 -3.75004 
0.00847193 -4.91448 -2.68669 
-3.75004 -2.68669 -4.9722 
-4.43684 0.162397 -3.94585 
0.162397 -4.7882 -2.76607 
-3.94585 -2.76607 -5.60396 
-5.61616 -0.244526 -3.83812 
-0.244526 -5.04017 -2.63482 
-3.83812 -2.63482 -4.17267 
-4.82727 0.0605985 -3.25578 
0.0605985 -4.92663 -2.82169 
-3.25578 -2.82169 -5.07509 
-2.22434 -0.0801306 0.414805 
-0.0801306 -2.32522 0.0799073 
0.414805 0.0799073 -2.46963 
-2.31192 -0.20754 0.355 
-0.20754 -2.51162 0.209112 
0.355 0.209112 -2.19566 
-2.32978 0.094641 0.468002 
0.094641 -2.03962 0.248327 
0.468002 0.248327 -2.6498 
-2.39196 -0.0303988 0.622791 
-0.0303988 -2.55996 0.147464 
0.622791 0.147464 -2.06727 
-3.3293 -0.0530442 0.977483 
-0.0530442 -3.4426 0.203471 
0.977483 0.203471 -3.32499 
-3.40522 -0.0598885 1.04078 
-0.0598885 -3.34408 0.112144 
1.04078 0.112144 -3.34759 
-3.31074 0.0224902 1.02698 
0.0224902 -3.57385 0.280063 
1.02698 0.280063 -3.2123 
-3.28958 0.0116835 0.926946 
0.0116835 -3.24573 0.0927178 
0.926946 0.0927178 -3.56157 
-9.15725 -0.0654819 0.0727191 
-0.0654819 -8.974 4.45256 
0.0727191 4.45256 -9.04979 
-8.96484 0.0909164 0.143359 
0.0909164 -8.91741 4.26989 
0.143359 4.26989 -9.29879 
-9.00066 0.00175841 -0.0635428 
0.00175841 -8.99962 4.4216 
-0.0635428 4.4216 -9.18077 
-8.91705 0.0597238 -0.156721 
0.0597238 -9.47634 4.61033 
-0.156721 4.61033 -8.78765 
-9.81744 0.142708 -1.58256 
0.142708 -9.3264 -3.34706 
-1.58256 -3.34706 -9.64856 
-9.71018 -0.0508194 -1.56745 
-0.0508194 -9.51426 -3.3413 
-1.56745 -3.3413 -9.56795 
-9.32057 -0.0624945 -1.54765 
-0.0624945 -9.25824 -3.47339 
-1.54765 -3.47339 -10.2136 
-9.72178 -0.0150242 -1.62413 
-0.0150242 -9.67058 -3.31181 
-1.62413 -3.31181 -9.40003 
-3.0101 -0.303814 3.53148 
-0.303814 -2.87162 3.06971 
3.53148 3.06971 -2.15218 
-2.66029 -0.0159792 3.38582 
-0.0159792 -2.67929 3.10677 
3.38582 3.10677 -2.69432 
-2.55158 0.00908784 3.51652 
0.00908784 -2.49916 3.15435 
3.51652 3.15435 -2.98316 
-2.64111 0.0943383 3.24293 
0.0943383 -2.58744 3.10371 
3.24293 3.10371 -2.80535 
-2.6802 0.047629 -1.07377 
0.047629 -0.810471 -4.57932 
-1.07377 -4.57932 -2.9039 
-1.98606 -0.148012 -1.04201 
-0.148012 -2.588 -4.54661 
-1.04201 -4.54661 -1.82051 
-2.02142 0.0494729 -1.19915 
0.0494729 -2.86454 -4.62249 
-1.19915 -4.62249 -1.50861 
-1.8046 -0.0584663 -1.38577 
-0.0584663 -2.47724 -3.60466 
-1.38577 -3.60466 -2.11273 
-0.198742 -0.0810646 0.949492 
-0.0810646 -0.604392 -0.662126 
0.949492 -0.662126 -0.24824 
-0.49803 -0.121987 0.734244 
-0.121987 -0.587019 -0.587596 
0.734244 -0.587596 0.0336748 
-0.691708 -0.352769 0.78266 
-0.352769 -0.488543 -0.796465 
0.78266 -0.796465 0.128878 
-0.306137 -0.0992909 0.976384 
-0.0992909 -0.353338 -0.528191 
0.976384 -0.528191 -0.391899 
-6.34895 0.0310961 3.17273 
0.0310961 -6.5437 2.89345 
3.17273 2.89345 -6.53775 
-6.11173 -0.0396335 2.79182 
-0.0396335 -6.73858 3.26821 
2.79182 3.26821 -6.58009 
-6.26657 -0.119926 3.12349 
-0.119926 -6.63667 3.20007 
3.12349 3.20007 -6.52717 
-6.60917 -0.208398 3.28308 
-0.208398 -6.57393 2.61259 
3.28308 2.61259 -6.24731 
-9.61732 0.0282185 -1.17011 
0.0282185 -9.57956 -1.96295 
-1.17011 -1.96295 -9.62341 
-9.53761 0.107324 -1.28113 
0.107324 -9.41221 -1.98803 
-1.28113 -1.98803 -9.87047 
-9.44412 0.0255637 -1.03732 
0.0255637 -9.30609 -2.05674 
-1.03732 -2.05674 -10.0701 
-9.66846 -0.00604877 -1.21484 
-0.00604877 -9.69736 -1.9534 
-1.21484 -1.9534 -9.45447 
-7.49778 0.0207433 -0.185704 
0.0207433 -7.44682 4.74508 
-0.185704 4.74508 -7.0516 
-7.39251 -0.0626548 -0.30226 
-0.0626548 -7.23628 4.54715 
-0.30226 4.54715 -7.3674 
-7.32144 0.00533565 -0.0769564 
0.00533565 -6.72023 4.60285 
-0.0769564 4.60285 -7.95453 
-7.35072 0.0415251 -0.331138 
0.0415251 -7.44196 4.49664 
-0.331138 4.49664 -7.20352 
-7.47728 -0.0372453 -3.40437 
-0.0372453 -7.48646 0.61855 
-3.40437 0.61855 -7.39719 
-7.35002 -0.0183279 -3.29787 
-0.0183279 -7.28066 0.795588 
-3.29787 0.795588 -7.73025 
-7.63665 0.033589 -3.47197 
0.033589 -7.46845 0.598034 
-3.47197 0.598034 -7.25583 
-7.27622 -0.158556 -3.3839 
-0.158556 -7.44481 0.549545 
-3.3839 0.549545 -7.63989 
-9.50418 0.088287 -2.18678 
0.088287 -9.37861 3.9964 
-2.18678 3.9964 -10.133 
-9.68026 0.198264 -2.38903 
0.198264 -9.62649 3.93624 
-2.38903 3.93624 -9.70907 
-9.78172 0.0950705 -2.49224 
0.0950705 -9.71582 3.87413 
-2.49224 3.87413 -9.51829 
-9.62252 0.123628 -2.34087 
0.123628 -9.70945 3.95029 
-2.34087 3.95029 -9.68385 
-9.56553 -0.172428 -1.85636 
-0.172428 -9.67403 0.491068 
-1.85636 0.491068 -9.76355 
-9.65177 -0.0944852 -1.81816 
-0.0944852 -9.83634 0.625097 
-1.81816 0.625097 -9.51499 
-9.46317 -0.195148 -1.57834 
-0.195148 -9.35254 0.58974 
-1.57834 0.58974 -10.1874 
-9.79707 -0.00243925 -1.8928 
-0.00243925 -9.84907 0.547034 
-1.8928 0.547034 -9.35697 
-4.77425 0.0386474 2.66317 
0.0386474 -4.61058 3.58623 
2.66317 3.58623 -4.7842 
-4.92366 -0.0406266 2.47525 
-0.0406266 -5.02348 3.85357 
2.47525 3.85357 -4.22189 
-4.65836 -0.132057 2.87511 
-0.132057 -4.56678 3.61905 
2.87511 3.61905 -4.94389 
-4.4329 -0.00619431 2.7886 
-0.00619431 -4.55551 3.15275 
2.7886 3.15275 -5.18062 
-7.37013 0.170539 -3.7435 
0.170539 -7.76821 -3.09059 
-3.7435 -3.09059 -8.95141 
-7.85178 0.0611981 -3.71449 
0.0611981 -8.29464 -2.56585 
-3.71449 -2.56585 -7.94333 
-8.4806 -0.321601 -3.9112 
-0.321601 -8.16686 -2.92926 
-3.9112 -2.92926 -7.44228 
-8.08062 -0.127628 -3.35011 
-0.127628 -8.16998 -2.50252 
-3.35011 -2.50252 -7.83915 
-9.74726 -0.00316579 0.167232 
-0.00316579 -9.59385 -3.81885 
0.167232 -3.81885 -9.58684 
-9.34541 0.0869759 0.19786 
0.0869759 -9.3701 -3.89621 
0.19786 -3.89621 -10.2125 
-9.64832 0.110163 0.120383 
0.110163 -9.50828 -3.76395 
0.120383 -3.76395 -9.77136 
-9.76362 -0.0370457 0.0379805 
-0.0370457 -9.74106 -3.7775 
0.0379805 -3.7775 -9.42327 
-9.48464 -0.170266 -0.364912 
-0.170266 -9.58112 -0.750264 
-0.364912 -0.750264 -9.85494 
-9.68873 -0.0547555 -0.475374 
-0.0547555 -9.63479 -0.777067 
-0.475374 -0.777067 -9.59718 
-9.46349 -0.119385 -0.579675 
-0.119385 -9.35257 -0.953315 
-0.579675 -0.953315 -10.1046 
-9.77462 0.00970403 -0.432992 
0.00970403 -9.71809 -0.736153 
-0.432992 -0.736153 -9.42799 
-9.40522 0.0929096 -1.8818 
0.0929096 -9.79777 4.1876 
-1.8818 4.1876 -9.72386 
-9.25555 -0.0158432 -2.02338 
-0.0158432 -9.42258 4.07395 
-2.02338 4.07395 -10.2487 
-9.71171 0.0272122 -1.80411 
0.0272122 -9.77536 4.25608 
-1.80411 4.25608 -9.43978 
-9.59672 0.0993032 -1.85349 
0.0993032 -9.71189 4.15243 
-1.85349 4.15243 -9.61823 
-3.49216 -0.181214 0.0139934 
-0.181214 -3.2097 0.261104 
0.0139934 0.261104 -3.63142 
-3.41754 -0.0773661 -0.269927 
-0.0773661 -2.94744 0.148896 
-0.269927 0.148896 -3.9683 
-3.6068 0.0595563 0.020569 
0.0595563 -3.56146 0.456229 
0.020569 0.456229 -3.16502 
-3.52315 -0.0597984 -0.172823 
-0.0597984 -3.51215 0.315318 
-0.172823 0.315318 -3.29798 
-7.34723 -0.24722 -1.34188 
-0.24722 -6.5116 4.55542 
-1.34188 4.55542 -7.75099 
-7.03352 0.0699057 -1.30286 
0.0699057 -7.48821 4.38036 
-1.30286 4.38036 -7.08809 
-7.30197 0.115914 -1.19665 
0.115914 -7.40081 4.45533 
-1.19665 4.45533 -6.90705 
-7.07264 0.213604 -1.01037 
0.213604 -7.10872 4.03965 
-1.01037 4.03965 -7.42846 
-5.92385 0.0814705 -4.04345 
0.0814705 -6.14029 -2.05917 
-4.04345 -2.05917 -6.01922 
-5.63396 0.0848972 -4.22301 
0.0848972 -6.05959 -1.99658 
-4.22301 -1.99658 -6.38981 
-6.73862 -0.321701 -4.3246 
-0.321701 -6.22069 -1.64333 
-4.3246 -1.64333 -5.12404 
-5.68237 0.00222339 -3.39095 
0.00222339 -6.35205 -1.8 
-3.39095 -1.8 -6.04893 
-0.301323 0.0691872 -2.3381 
0.0691872 -0.816493 -1.9951 
-2.3381 -1.9951 0.217734 
-0.144359 0.0837799 -2.14498 
0.0837799 -0.349494 -2.14675 
-2.14498 -2.14675 -0.406228 
-0.228237 0.243988 -2.04461 
0.243988 -0.765559 -1.999 
-2.04461 -1.999 0.0937152 
-0.268413 -0.0504621 -2.34348 
-0.0504621 0.0071435 -2.08404 
-2.34348 -2.08404 -0.638812 
-4.22362 -0.0434555 0.733076 
-0.0434555 -4.79604 -4.77196 
0.733076 -4.77196 -3.67479 
-4.25015 -0.0629756 0.645575 
-0.0629756 -3.60764 -4.67152 
0.645575 -4.67152 -4.83667 
-4.26497 0.0367365 0.46809 
0.0367365 -4.17268 -4.44743 
0.46809 -4.44743 -4.25681 
-4.33337 -0.125091 0.438809 
-0.125091 -4.28917 -4.15661 
0.438809 -4.15661 -4.07192 
-2.05264 0.161782 4.47328 
0.161782 -2.12895 -1.41408 
4.47328 -1.41408 -3.33385 
-3.03193 0.021035 4.23113 
0.021035 -3.0449 -1.76897 
4.23113 -1.76897 -1.43861 
-2.46837 0.0713876 4.02688 
0.0713876 -2.5172 -1.49626 
4.02688 -1.49626 -2.52987 
-2.34724 0.0520077 3.80305 
0.0520077 -2.69049 -1.57542 
3.80305 -1.57542 -2.47771 
-6.96238 0.038692 4.58139 
0.038692 -8.01448 -1.06945 
4.58139 -1.06945 -9.14604 
-7.90962 -0.0452789 4.42386 
-0.0452789 -8.14564 -1.05145 
4.42386 -1.05145 -8.06764 
-9.0782 -0.0188289 4.7056 
-0.0188289 -7.91379 -0.796939 
4.7056 -0.796939 -7.13091 
-7.99805 -0.219369 3.60959 
-0.219369 -8.28984 -1.42476 
3.60959 -1.42476 -7.83502 
-1.0512 -0.04736 -4.39839 
-0.04736 -0.880437 -0.406677 
-4.39839 -0.406677 -0.784294 
-1.167 -0.0300245 -4.3018 
-0.0300245 -0.731703 -0.421172 
-4.3018 -0.421172 -0.817219 
-1.00328 -0.112672 -3.97076 
-0.112672 -1.59 -0.524316 
-3.97076 -0.524316 -0.122651 
-0.627991 -0.0896611 -4.32746 
-0.0896611 -0.957697 -0.542379 
-4.32746 -0.542379 -1.13024 
-2.19428 -0.459029 3.40431 
-0.459029 -2.83433 3.40315 
3.40431 3.40315 -0.851396 
-1.7578 0.658036 3.18502 
0.658036 -0.98407 3.59824 
3.18502 3.59824 -3.13814 
-1.94592 -0.182374 3.25361 
-0.182374 -1.98702 3.23371 
3.25361 3.23371 -1.94706 
-1.94101 -0.275623 3.15988 
-0.275623 -1.81181 2.19944 
3.15988 2.19944 -2.12718 
-0.333451 -0.0629252 -0.712696 
-0.0629252 -0.232929 1.93758 
-0.712696 1.93758 -0.393874 
-0.503776 -0.142623 -0.570417 
-0.142623 -0.629404 1.95717 
-0.570417 1.95717 0.172927 
-0.543604 -0.168456 -0.758448 
-0.168456 -0.394686 2.08857 
-0.758448 2.08857 -0.0219632 
-0.248689 0.0132829 -0.711642 
0.0132829 -0.193639 1.99844 
-0.711642 1.99844 -0.517925 
-1.58418 -0.0473382 3.57445 
-0.0473382 -1.99272 1.4109 
3.57445 1.4109 -0.445907 
-1.34717 -0.117153 4.175 
-0.117153 -1.30841 1.71759 
4.175 1.71759 -1.36723 
-1.37507 -0.091362 4.18702 
-0.091362 -1.29819 1.74651 
4.18702 1.74651 -1.34955 
-0.628602 -0.133326 4.18546 
-0.133326 -0.875768 1.69687 
4.18546 1.69687 -2.51844 
-9.47204 -0.238187 1.2469 
-0.238187 -9.59271 -0.201793 
1.2469 -0.201793 -9.95149 
-9.71533 -0.0740823 1.18486 
-0.0740823 -9.76641 -0.376242 
1.18486 -0.376242 -9.5345 
-9.55846 -0.137511 1.04665 
-0.137511 -9.4179 -0.395304 
1.04665 -0.395304 -10.0399 
-9.83061 0.0284736 1.19288 
0.0284736 -9.79926 -0.311693 
1.19288 -0.311693 -9.38637 
-8.48983 0.198403 0.214588 
0.198403 -8.97005 -3.68638 
0.214588 -3.68638 -9.30076 
-8.82079 0.177326 -0.149654 
0.177326 -9.48275 -3.25904 
-0.149654 -3.25904 -8.45711 
-8.96336 0.0457534 0.0076494 
0.0457534 -8.89526 -3.37137 
0.0076494 -3.37137 -8.90203 
-8.948 -0.0247166 0.141435 
-0.0247166 -8.90985 -3.35421 
0.141435 -3.35421 -8.90279 
-6.87502 0.0541211 -0.134995 
0.0541211 -6.80791 0.649463 
-0.134995 0.649463 -6.90721 
-6.97727 -0.01558 -0.231999 
-0.01558 -6.97165 0.609442 
-0.231999 0.609442 -6.64121 
-6.81327 0.0171279 -0.334059 
0.0171279 -6.67079 0.667439 
-0.334059 0.667439 -7.10607 
-6.92486 0.0666566 -0.335929 
0.0666566 -6.93186 0.831181 
-0.335929 0.831181 -6.7334 
-8.52824 -0.210723 4.2328 
-0.210723 -8.41479 0.848987 
4.2328 0.848987 -8.87612 
-8.61482 -0.141941 4.54128 
-0.141941 -8.55883 0.509951 
4.54128 0.509951 -8.64549 
-8.66783 -0.0825442 4.31962 
-0.0825442 -8.63133 0.414873 
4.31962 0.414873 -8.51999 
-9.03522 -0.0778837 4.45621 
-0.0778837 -8.87559 0.00299096 
4.45621 0.00299096 -7.90833 
-5.75007 0.00797907 0.218454 
0.00797907 -5.7431 0.906421 
0.218454 0.906421 -4.8874 
-5.58826 -0.0188922 0.239311 
-0.0188922 -5.31082 0.953806 
0.239311 0.953806 -5.48149 
-5.35636 0.0591224 0.193117 
0.0591224 -5.33694 1.17076 
0.193117 1.17076 -5.68727 
-5.49247 -0.0996664 0.180474 
-0.0996664 -5.4328 0.962592 
0.180474 0.962592 -5.45529 
-9.64799 0.014952 -0.00375921 
0.014952 -9.63344 0.304853 
-0.00375921 0.304853 -9.68426 
-9.40662 0.0107534 -0.197063 
0.0107534 -9.38602 0.25266 
-0.197063 0.25266 -10.173 
-9.76807 0.0109918 0.0224057 
0.0109918 -9.41539 0.204781 
0.0224057 0.204781 -9.78222 
-9.70179 0.00617701 0.071815 
0.00617701 -9.76528 0.274197 
0.071815 0.274197 -9.49861 
-4.62365 0.138759 -3.4065 
0.138759 -4.53496 -3.18954 
-3.4065 -3.18954 -3.89511 
-4.43652 -0.0909369 -3.10682 
-0.0909369 -4.36506 -3.31388 
-3.10682 -3.31388 -4.25213 
-4.15785 0.25893 -3.39268 
0.25893 -4.06061 -3.19883 
-3.39268 -3.19883 -4.83526 
-4.49194 -0.11412 -3.04437 
-0.11412 -4.35943 -3.11509 
-3.04437 -3.11509 -4.20235 
-8.09628 0.0109997 -3.20708 
0.0109997 -8.07323 0.595167 
-3.20708 0.595167 -8.32803 
-8.19513 -0.0101515 -3.22058 
-0.0101515 -8.29024 0.639305 
-3.22058 0.639305 -8.01217 
-8.38822 -0.0381636 -3.47694 
-0.0381636 -8.36398 0.556285 
-3.47694 0.556285 -7.74533 
-8.18817 0.00064688 -3.27952 
0.00064688 -8.22627 0.49532 
-3.27952 0.49532 -8.0831 
-8.51688 -0.0521331 4.34498 
-0.0521331 -8.78254 -1.09334 
4.34498 -1.09334 -8.57774 
-8.54237 -0.0221104 4.35768 
-0.0221104 -8.65489 -1.13169 
4.35768 -1.13169 -8.6799 
-8.49299 0.204784 3.89617 
0.204784 -8.2869 -0.983631 
3.89617 -0.983631 -9.09727 
-8.83892 -0.0535197 4.57236 
-0.0535197 -8.91054 -1.23067 
4.57236 -1.23067 -8.12771 
-8.40356 -0.119759 -4.18702 
-0.119759 -8.83863 0.951572 
-4.18702 0.951572 -8.53094 
-8.41744 -0.0962378 -4.28886 
-0.0962378 -8.57866 0.938447 
-4.28886 0.938447 -8.77703 
-8.3816 0.174903 -3.90523 
0.174903 -8.28379 0.977694 
-3.90523 0.977694 -9.10774 
-8.75292 -0.0761778 -4.47216 
-0.0761778 -8.91621 1.06553 
-4.47216 1.06553 -8.10401 
-3.37475 0.135417 -4.50576 
0.135417 -3.71129 -1.02601 
-4.50576 -1.02601 -3.3553 
-3.12971 0.179706 -4.17452 
0.179706 -3.11486 -1.31773 
-4.17452 -1.31773 -4.19677 
-3.52911 0.00132641 -4.36328 
0.00132641 -3.42202 -1.17711 
-4.36328 -1.17711 -3.49022 
-3.87505 0.113472 -4.19557 
0.113472 -3.88499 -0.685896 
-4.19557 -0.685896 -2.68131 
-0.231817 -0.0936711 0.594869 
-0.0936711 -0.363395 1.25649 
0.594869 1.25649 -0.397723 
-0.48626 0.0738452 0.589044 
0.0738452 -0.550192 1.20827 
0.589044 1.20827 0.0435174 
-0.29336 0.0147544 0.677606 
0.0147544 -0.41763 1.2869 
0.677606 1.2869 -0.281944 
-0.240453 -0.0203059 0.628895 
-0.0203059 -0.207807 1.2676 
0.628895 1.2676 -0.544675 
-2.93343 -0.000400664 -1.40706 
-0.000400664 -2.66805 -2.86477 
-1.40706 -2.86477 -3.18664 
-2.99091 -0.00927555 -1.33779 
-0.00927555 -2.99686 -3.08881 
-1.33779 -3.08881 -2.80035 
-3.04473 0.0770501 -1.30755 
0.0770501 -2.77014 -2.81783 
-1.30755 -2.81783 -2.97325 
-2.54778 -0.0968491 -1.12943 
-0.0968491 -2.89365 -2.81853 
-1.12943 -2.81853 -3.34669 
-2.42251 -0.153631 -3.98317 
-0.153631 -2.63422 -2.03461 
-3.98317 -2.03461 -1.80417 
-2.22419 -0.0769775 -4.00193 
-0.0769775 -2.51426 -1.62613 
-4.00193 -1.62613 -2.12244 
-2.14497 0.0235746 -4.18323 
0.0235746 -2.12506 -1.14086 
-4.18323 -1.14086 -2.59086 
-2.23852 -0.103756 -3.85538 
-0.103756 -2.43801 -1.41877 
-3.85538 -1.41877 -2.18436 
-4.7039 -0.288771 -1.60304 
-0.288771 -4.68 4.16849 
-1.60304 4.16849 -5.12417 
-4.66334 -0.186379 -1.16377 
-0.186379 -5.05354 4.11961 
-1.16377 4.11961 -4.79119 
-4.93586 0.0307136 -0.740926 
0.0307136 -5.03163 4.32832 
-0.740926 4.32832 -4.54058 
-4.74157 -0.209937 -1.09415 
-0.209937 -4.91021 4.30188 
-1.09415 4.30188 -4.85629 
-0.535654 -0.266279 -3.34447 
-0.266279 -0.51229 1.42735 
-3.34447 1.42735 -0.242112 
-0.943889 -0.154816 -3.30076 
-0.154816 -0.722073 1.19824 
-3.30076 1.19824 0.375905 
-0.296267 -0.0726484 -3.2709 
-0.0726484 -0.468363 1.3415 
-3.2709 1.3415 -0.525426 
-0.2163 0.0697341 -3.42804 
0.0697341 -0.340784 1.32989 
-3.42804 1.32989 -0.732973 
-2.24501 -0.279699 -1.59362 
-0.279699 -2.46956 -4.30332 
-1.59362 -4.30332 -1.9546 
-2.37984 0.0122607 -1.72782 
0.0122607 -2.4684 -4.24934 
-1.72782 -4.24934 -1.82093 
-2.30019 0.364497 -1.7383 
0.364497 -1.81344 -4.38818 
-1.7383 -4.38818 -2.55554 
-2.00691 -0.0797104 -1.50642 
-0.0797104 -2.35456 -3.98742 
-1.50642 -3.98742 -2.3077 
-3.45803 0.00326292 -0.151199 
0.00326292 -3.36544 0.64533 
-0.151199 0.64533 -3.29937 
-3.48704 -0.0249775 -0.0297763 
-0.0249775 -3.55892 0.525881 
-0.0297763 0.525881 -3.07688 
-3.33902 -0.0558544 -0.428025 
-0.0558544 -3.19071 0.644608 
-0.428025 0.644608 -3.59311 
-3.50577 0.000122509 -0.245051 
0.000122509 -3.41949 0.572186 
-0.245051 0.572186 -3.19757 
-7.34559 -0.0224024 -3.21297 
-0.0224024 -6.99365 -1.16297 
-3.21297 -1.16297 -6.97618 
-6.82214 0.0686949 -3.01817 
0.0686949 -7.03479 -1.27246 
-3.01817 -1.27246 -7.45849 
-7.26444 -0.0778082 -3.22955 
-0.0778082 -6.96541 -1.23139 
-3.22955 -1.23139 -7.08557 
-7.2602 0.0476494 -3.3101 
0.0476494 -7.33658 -1.2826 
-3.3101 -1.2826 -6.71864 
-9.54912 -0.00709627 1.45548 
-0.00709627 -9.48024 -2.06487 
1.45548 -2.06487 -9.9633 
-9.59307 0.00935328 1.38359 
0.00935328 -9.61538 -1.8803 
1.38359 -1.8803 -9.7842 
-9.57974 0.00044199 1.25569 
0.00044199 -9.56925 -1.98737 
1.25569 -1.98737 -9.84366 
-9.72804 -0.0266863 1.33274 
-0.0266863 -9.73975 -1.9304 
1.33274 -1.9304 -9.52486 
-8.22923 -0.0709967 0.589173 
-0.0709967 -8.17797 4.52679 
0.589173 4.52679 -6.83973 
-7.94196 -0.0814192 0.306146 
-0.0814192 -7.54787 4.01491 
0.306146 4.01491 -7.75709 
-7.01791 0.283412 0.531504 
0.283412 -7.44434 4.64492 
0.531504 4.64492 -8.78467 
-7.73086 -0.12001 0.476675 
-0.12001 -7.64156 4.28292 
0.476675 4.28292 -7.8745 
-2.72495 -0.00770041 1.04701 
-0.00770041 -2.86867 0.700433 
1.04701 0.700433 -2.89664 
-2.74877 0.0394893 0.968979 
0.0394893 -3.1309 0.780423 
0.968979 0.780423 -2.61059 
-2.75281 -0.0286225 0.901495 
-0.0286225 -2.82546 0.604226 
0.901495 0.604226 -2.912 
-2.91688 -0.0066194 0.903583 
-0.0066194 -2.78118 0.641881 
0.903583 0.641881 -2.7922 
-7.32862 -0.0113571 -3.16236 
-0.0113571 -7.30677 3.5324 
-3.16236 3.5324 -6.62635 
-7.01381 -0.0779278 -3.14298 
-0.0779278 -7.13549 3.27223 
-3.14298 3.27223 -7.11244 
-6.91361 -0.247755 -3.04466 
-0.247755 -6.78751 3.47634 
-3.04466 3.47634 -7.56061 
-7.23954 0.101733 -3.10687 
0.101733 -7.11904 3.11582 
-3.10687 3.11582 -6.90316 
-3.12333 -0.212357 2.82865 
-0.212357 -2.94448 -3.77198 
2.82865 -3.77198 -2.97519 
-3.16468 -0.0742605 2.88265 
-0.0742605 -2.74786 -3.85237 
2.88265 -3.85237 -3.13046 
-2.91712 0.555628 2.58762 
0.555628 -3.93228 -3.63104 
2.58762 -3.63104 -2.1936 
-3.41334 -0.0494004 2.67462 
-0.0494004 -2.56679 -3.38695 
2.67462 -3.38695 -3.06287 
-0.467031 -0.181791 0.573722 
-0.181791 -0.372537 2.60348 
0.573722 2.60348 -0.364504 
-0.838418 -0.0198125 0.51576 
-0.0198125 -0.906411 2.61513 
0.51576 2.61513 0.540756 
-0.340087 -0.114544 0.621374 
-0.114544 -0.520504 2.61461 
0.621374 2.61461 -0.343481 
-0.282486 -0.0151043 0.704453 
-0.0151043 -0.296389 2.52811 
0.704453 2.52811 -0.625197 
-5.03985 0.0818724 -3.17131 
0.0818724 -5.09755 3.30367 
-3.17131 3.30367 -4.97196 
-4.82525 -0.376209 -3.10565 
-0.376209 -4.5144 3.55797 
-3.10565 3.55797 -5.7697 
-5.21196 0.140967 -3.13493 
0.140967 -5.46424 3.55255 
-3.13493 3.55255 -4.43315 
-4.94376 0.00667397 -3.12783 
0.00667397 -5.1498 2.99166 
-3.12783 2.99166 -5.0158 
-0.776194 0.0802528 1.1568 
0.0802528 -1.01795 0.748022 
1.1568 0.748022 -1.01619 
-0.847264 0.023151 1.03602 
0.023151 -0.761563 0.76489 
1.03602 0.76489 -1.2015 
-1.30682 -0.271099 1.35478 
-0.271099 -0.820514 0.648159 
1.35478 0.648159 -0.682995 
-0.858822 -0.00473991 1.19869 
-0.00473991 -0.849699 0.633055 
1.19869 0.633055 -1.10181 
-4.49623 0.0755672 -0.0663984 
0.0755672 -4.18128 2.42318 
-0.0663984 2.42318 -4.03074 
-3.72959 -0.105164 0.166188 
-0.105164 -4.3835 2.35998 
0.166188 2.35998 -4.59515 
-4.4724 0.160387 0.218718 
0.160387 -4.01687 2.44163 
0.218718 2.44163 -4.21897 
-4.47096 -0.0504481 0.0187161 
-0.0504481 -4.2116 2.63388 
0.0187161 2.63388 -4.0257 
-1.27453 0.115733 -1.08914 
0.115733 -1.5416 -4.15738 
-1.08914 -4.15738 -1.60919 
-1.413 0.122136 -1.03303 
0.122136 -1.54536 -4.35639 
-1.03303 -4.35639 -1.46696 
-1.74888 0.118598 -1.05045 
0.118598 -1.64201 -3.90457 
-1.05045 -3.90457 -1.03443 
-1.19934 0.236163 -0.956522 
0.236163 -1.35735 -4.40795 
-0.956522 -4.40795 -1.86863 
-5.08256 -0.0297368 0.176455 
-0.0297368 -4.78362 0.946103 
0.176455 0.946103 -4.78932 
-4.93339 0.0163627 0.268381 
0.0163627 -5.14372 0.923953 
0.268381 0.923953 -4.5784 
-5.01839 -0.155232 0.384601 
-0.155232 -4.5623 0.865247 
0.384601 0.865247 -5.07482 
-4.74908 -0.231673 0.113982 
-0.231673 -4.69091 0.710003 
0.113982 0.710003 -5.21551 
-1.01253 -0.0327307 -1.15088 
-0.0327307 -1.2806 -3.96591 
-1.15088 -3.96591 -0.686458 
-1.1374 -0.0605731 -1.32828 
-0.0605731 -1.11518 -3.95345 
-1.32828 -3.95345 -0.726999 
-0.947185 -0.129136 -1.29242 
-0.129136 -1.04241 -4.1754 
-1.29242 -4.1754 -0.989985 
-1.02683 0.206936 -1.37185 
0.206936 -0.636456 -4.15664 
-1.37185 -4.15664 -1.3163 
-1.61872 -0.0977725 4.41551 
-0.0977725 -2.62268 -1.49134 
4.41551 -1.49134 -2.96406 
-2.63976 0.106026 4.30227 
0.106026 -2.36787 -1.71423 
4.30227 -1.71423 -2.19783 
-3.04444 -0.0190178 4.34756 
-0.0190178 -2.47579 -1.98413 
4.34756 -1.98413 -1.68522 
-2.5305 0.202059 3.9779 
0.202059 -2.16776 -1.91289 
3.9779 -1.91289 -2.50719 
-6.70372 0.207141 3.69218 
0.207141 -6.85946 2.84658 
3.69218 2.84658 -7.22695 
-7.09005 -0.101835 3.69195 
-0.101835 -6.85977 2.74305 
3.69195 2.74305 -6.84031 
-6.98214 0.188463 3.62739 
0.188463 -7.12078 2.83044 
3.62739 2.83044 -6.68721 
-6.93892 -0.144596 3.58683 
-0.144596 -6.94545 2.66598 
3.58683 2.66598 -6.90577 
-9.47657 -0.029278 -0.022678 
-0.029278 -9.67974 -4.56362 
-0.022678 -4.56362 -9.61991 
-9.17407 -0.0194402 -0.0147115 
-0.0194402 -9.21216 -4.54603 
-0.0147115 -4.54603 -10.39 
-9.65886 -0.00812902 -0.00707719 
-0.00812902 -9.69472 -4.66022 
-0.00707719 -4.66022 -9.42264 
-9.46182 0.0628061 -0.00367833 
0.0628061 -9.67163 -4.56514 
-0.00367833 -4.56514 -9.64277 
-1.21051 0.0351918 1.25628 
0.0351918 -0.949621 -3.23648 
1.25628 -3.23648 -1.028 
-1.07234 -0.124894 0.953485 
-0.124894 -1.09569 -3.57218 
0.953485 -3.57218 -1.0201 
-1.72909 -0.127536 0.907844 
-0.127536 -0.85767 -3.8895 
0.907844 -3.8895 -0.601368 
-1.1341 -0.120055 1.46531 
-0.120055 -0.528927 -2.94606 
1.46531 -2.94606 -1.52511 
-0.460861 0.00295097 -2.18342 
0.00295097 -0.361593 1.42033 
-2.18342 1.42033 -0.422263 
-0.655268 0.123018 -2.26401 
0.123018 -0.397972 1.35089 
-2.26401 1.35089 -0.191477 
-0.764892 0.101238 -2.12078 
0.101238 -0.786626 1.52453 
-2.12078 1.52453 0.306802 
-0.301165 -0.0339011 -2.19407 
-0.0339011 -0.333138 1.33601 
-2.19407 1.33601 -0.610414 
-2.30232 0.098072 -0.5135 
0.098072 -2.46781 0.956634 
-0.5135 0.956634 -2.33502 
-2.28182 0.0672068 -0.390241 
0.0672068 -2.29296 1.0673 
-0.390241 1.0673 -2.53038 
-2.45987 0.122354 -0.281951 
0.122354 -2.49733 1.08381 
-0.281951 1.08381 -2.14796 
-2.28657 0.0259149 -0.517871 
0.0259149 -2.23539 1.099 
-0.517871 1.099 -2.58319 
-7.05071 0.0201383 -4.11403 
0.0201383 -7.26934 -1.9309 
-4.11403 -1.9309 -7.33497 
-7.36956 -0.0540332 -4.29882 
-0.0540332 -7.41002 -2.08983 
-4.29882 -2.08983 -6.87543 
-6.75667 0.372366 -4.03581 
0.372366 -7.03342 -2.19881 
-4.03581 -2.19881 -7.86493 
-7.28187 -0.104645 -4.11745 
-0.104645 -7.19307 -1.83824 
-4.11745 -1.83824 -7.18007 
-2.21307 0.0178338 -2.87809 
0.0178338 -2.21395 -1.40109 
-2.87809 -1.40109 -2.5851 
-2.37912 -0.195419 -2.97708 
-0.195419 -2.0951 -1.45764 
-2.97708 -1.45764 -2.53792 
-2.06214 0.16272 -2.80458 
0.16272 -2.31604 -1.20743 
-2.80458 -1.20743 -2.63395 
-2.29471 0.0370269 -2.88512 
0.0370269 -2.29597 -1.58267 
-2.88512 -1.58267 -2.42145 
-8.73244 0.115529 -0.203323 
0.115529 -8.55122 -4.38138 
-0.203323 -4.38138 -8.44338 
-8.55074 0.0656564 -0.358271 
0.0656564 -8.5631 -4.49569 
-0.358271 -4.49569 -8.6132 
-8.40119 0.0331754 -0.304596 
0.0331754 -8.45417 -4.23714 
-0.304596 -4.23714 -8.87168 
-8.80593 0.180648 -0.334281 
0.180648 -8.74718 -4.60726 
-0.334281 -4.60726 -8.17394 
-4.13552 0.139695 -3.21679 
0.139695 -4.33955 3.17515 
-3.21679 3.17515 -4.3843 
-4.31829 -0.0389986 -3.23553 
-0.0389986 -4.36119 3.27384 
-3.23553 3.27384 -4.1799 
-3.35626 0.0901272 -3.09263 
0.0901272 -4.093 3.05126 
-3.09263 3.05126 -5.41013 
-4.49312 -0.143346 -2.84511 
-0.143346 -4.98686 2.81958 
-2.84511 2.81958 -3.3794 
-9.37704 0.033127 3.986 
0.033127 -9.1948 2.07541 
3.986 2.07541 -10.4046 
-9.83522 -0.0121256 4.23345 
-0.0121256 -9.75134 1.8027 
4.23345 1.8027 -9.38985 
-9.86713 -0.111794 4.05852 
-0.111794 -9.47337 1.86023 
4.05852 1.86023 -9.63591 
-9.73115 -0.14686 4.05483 
-0.14686 -9.63633 1.83376 
4.05483 1.83376 -9.60893 
-7.02896 -0.310015 -3.34266 
-0.310015 -7.50929 3.41271 
-3.34266 3.41271 -8.69724 
-7.70233 -0.239085 -3.22936 
-0.239085 -7.67675 3.26996 
-3.22936 3.26996 -7.8564 
-8.4592 0.63531 -3.67185 
0.63531 -8.01235 3.09141 
-3.67185 3.09141 -6.76394 
-7.78623 -0.139562 -2.44894 
-0.139562 -7.87254 3.07021 
-2.44894 3.07021 -7.57672 
-4.91108 0.398788 -2.72839 
0.398788 -4.906 -3.72098 
-2.72839 -3.72098 -5.92646 
-5.4642 -0.186471 -2.78318 
-0.186471 -5.45925 -3.90292 
-2.78318 -3.90292 -4.82009 
-5.23426 0.0350227 -2.65408 
0.0350227 -5.23579 -3.72146 
-2.65408 -3.72146 -5.27349 
-5.31068 -0.0717155 -2.27797 
-0.0717155 -5.29131 -3.67701 
-2.27797 -3.67701 -5.14156 
-2.68421 -0.0446755 1.49366 
-0.0446755 -3.12865 -0.070047 
1.49366 -0.070047 -2.86033 
-3.0161 0.00359688 1.49057 
0.00359688 -3.12796 0.324405 
1.49057 0.324405 -2.52914 
-2.71091 -0.044156 1.50768 
-0.044156 -3.08541 -0.0307345 
1.50768 -0.0307345 -2.87688 
-2.8958 -0.0089282 1.31543 
-0.0089282 -2.52257 -0.0479076 
1.31543 -0.0479076 -3.25482 
-5.28557 -0.0532444 -1.64495 
-0.0532444 -5.16982 -0.479438 
-1.64495 -0.479438 -5.74901 
-5.51642 -0.111201 -1.2682 
-0.111201 -5.69937 -0.48214 
-1.2682 -0.48214 -4.9886 
-5.38686 -0.048399 -1.51494 
-0.048399 -5.50808 -0.399376 
-1.51494 -0.399376 -5.30945 
-5.29564 -0.0023122 -1.3494 
-0.0023122 -5.48638 -0.435682 
-1.3494 -0.435682 -5.42236 
-2.15765 -0.00677111 0.414456 
-0.00677111 -2.02778 0.583933 
0.414456 0.583933 -2.37624 
-2.2651 -0.0385517 0.734307 
-0.0385517 -2.31852 0.624229 
0.734307 0.624229 -1.97805 
-2.16935 -0.0107041 0.471419 
-0.0107041 -2.27178 0.672979 
0.471419 0.672979 -2.12054 
-2.14633 -0.00975047 0.533852 
-0.00975047 -2.15368 0.583186 
0.533852 0.583186 -2.26166 
-8.77461 0.0384441 -3.74286 
0.0384441 -9.01645 -1.11565 
-3.74286 -1.11565 -9.08844 
-8.89817 0.141324 -3.75569 
0.141324 -9.2015 -1.06799 
-3.75569 -1.06799 -8.77985 
-8.83285 -0.0162176 -3.80949 
-0.0162176 -8.97085 -1.31735 
-3.80949 -1.31735 -9.07581 
-8.97165 0.0393725 -3.8416 
0.0393725 -9.01037 -1.30639 
-3.8416 -1.30639 -8.89749 
-3.1058 0.144417 -0.224822 
0.144417 -3.24008 0.190137 
-0.224822 0.190137 -2.70763 
-2.93254 0.0112883 0.289566 
0.0112883 -3.10978 0.0737138 
0.289566 0.0737138 -3.01119 
-3.09057 0.071162 -0.110474 
0.071162 -2.91443 0.0928122 
-0.110474 0.0928122 -3.04851 
-2.87299 0.150839 0.275525 
0.150839 -2.89654 -0.0578899 
0.275525 -0.0578899 -3.28398 
-9.17091 0.0684075 -1.69965 
0.0684075 -9.19923 4.47553 
-1.69965 4.47553 -9.01908 
-9.03277 -0.40831 -1.80025 
-0.40831 -8.92286 4.22006 
-1.80025 4.22006 -9.43358 
-9.2032 -0.202412 -1.7582 
-0.202412 -9.09703 4.21333 
-1.7582 4.21333 -9.08899 
-9.01451 0.0616139 -1.64992 
0.0616139 -9.22625 4.41228 
-1.64992 4.41228 -9.14845 
-9.00985 0.0211771 -1.5914 
0.0211771 -8.85188 -2.13896 
-1.5914 -2.13896 -9.00952 
-9.12134 -0.0604174 -1.64383 
-0.0604174 -9.01227 -2.11361 
-1.64383 -2.11361 -8.73765 
-9.02344 -0.072881 -1.29572 
-0.072881 -8.70199 -2.21757 
-1.29572 -2.21757 -9.14582 
-8.99016 -0.00196347 -1.41366 
-0.00196347 -8.99598 -2.24069 
-1.41366 -2.24069 -8.88512 
-9.3326 0.261681 -2.62254 
0.261681 -8.69635 -3.81012 
-2.62254 -3.81012 -9.60269 
-9.1234 -0.202614 -2.66159 
-0.202614 -9.23152 -3.76413 
-2.66159 -3.76413 -9.27673 
-9.34327 0.136219 -2.49968 
0.136219 -9.09681 -3.81262 
-2.49968 -3.81262 -9.19157 
-9.12103 -0.0523421 -2.72661 
-0.0523421 -9.34219 -3.86789 
-2.72661 -3.86789 -9.16844 
-7.98355 -0.220742 0.481155 
-0.220742 -8.40802 4.68238 
0.481155 4.68238 -7.47276 
-7.96828 0.0245638 0.398908 
0.0245638 -7.79685 4.53849 
0.398908 4.53849 -8.09921 
-7.65561 0.107844 0.661788 
0.107844 -7.35168 4.56084 
0.661788 4.56084 -8.85704 
-8.00412 -0.064962 0.0528991 
-0.064962 -7.86116 4.24129 
0.0528991 4.24129 -7.99905 
-2.22388 0.028729 4.50776 
0.028729 -2.15929 -0.418053 
4.50776 -0.418053 -2.00821 
-1.9864 0.00530301 4.62327 
0.00530301 -2.10373 -0.589176 
4.62327 -0.589176 -2.30125 
-2.29487 0.00712261 4.59952 
0.00712261 -2.42842 -0.636595 
4.59952 -0.636595 -1.66809 
-2.25638 -0.024401 4.31106 
-0.024401 -2.18101 -0.470948 
4.31106 -0.470948 -1.95399 
-3.53099 -0.248923 -4.14263 
-0.248923 -4.16882 1.68389 
-4.14263 1.68389 -5.02539 
-4.21952 -0.0324621 -4.09901 
-0.0324621 -4.07469 1.97014 
-4.09901 1.97014 -4.43099 
-4.42186 0.081489 -4.28672 
0.081489 -4.15121 1.99829 
-4.28672 1.99829 -4.15212 
-4.62727 0.138157 -3.85838 
0.138157 -3.96566 1.86489 
-3.85838 1.86489 -4.13227 
-3.62928 0.317123 3.38225 
0.317123 -2.9369 -2.93405 
3.38225 -2.93405 -2.09644 
-2.47811 -0.0501359 3.5952 
-0.0501359 -2.62514 -3.22748 
3.5952 -3.22748 -3.55937 
-2.7229 -0.280349 3.4123 
-0.280349 -2.89096 -3.26577 
3.4123 -3.26577 -3.04877 
-2.73286 -0.132904 3.08187 
-0.132904 -2.97801 -3.30124 
3.08187 -3.30124 -2.95175 
-7.77931 0.0700498 1.12759 
0.0700498 -7.59991 -4.52086 
1.12759 -4.52086 -7.20331 
-7.76374 -0.00881008 1.33086 
-0.00881008 -6.84929 -4.51057 
1.33086 -4.51057 -7.9695 
-7.39881 0.0653328 1.13154 
0.0653328 -7.64833 -4.41121 
1.13154 -4.41121 -7.53539 
-7.36532 0.0884839 1.12797 
0.0884839 -7.69078 -4.14563 
1.12797 -4.14563 -7.52642 
-9.03639 -0.179132 1.37716 
-0.179132 -8.77731 3.29684 
1.37716 3.29684 -9.20567 
-9.11285 0.00827003 1.3703 
0.00827003 -9.07038 3.2105 
1.3703 3.2105 -8.83614 
-9.02728 0.134753 1.47024 
0.134753 -8.98722 3.17784 
1.47024 3.17784 -9.00486 
-9.06211 0.0480065 1.48741 
0.0480065 -9.06255 3.24987 
1.48741 3.24987 -8.89471 
-8.34284 0.0313756 -4.1325 
0.0313756 -8.3906 -1.37636 
-4.1325 -1.37636 -8.60304 
-8.44895 0.0263783 -4.00098 
0.0263783 -8.51317 -1.31771 
-4.00098 -1.31771 -8.37437 
-8.43198 0.031988 -4.26024 
0.031988 -8.55965 -1.30172 
-4.26024 -1.30172 -8.34486 
-8.41653 0.0116083 -4.18678 
0.0116083 -8.45885 -1.41534 
-4.18678 -1.41534 -8.46111 
-1.45543 0.034062 3.62152 
0.034062 -1.24135 2.59101 
3.62152 2.59101 -1.37454 
-1.63384 0.235342 3.19077 
0.235342 -1.60733 2.41378 
3.19077 2.41378 -0.830156 
-1.49216 -0.0341056 3.80841 
-0.0341056 -1.28529 2.58613 
3.80841 2.58613 -1.29387 
-1.25344 0.117077 3.89838 
0.117077 -0.947907 2.56047 
3.89838 2.56047 -1.86998 
-6.8132 0.255123 2.15294 
0.255123 -6.64241 2.89898 
2.15294 2.89898 -6.73714 
-6.67662 0.144452 2.11531 
0.144452 -6.7059 2.95312 
2.11531 2.95312 -6.81023 
-6.6278 0.0886815 2.24014 
0.0886815 -6.71829 2.74574 
2.24014 2.74574 -6.84665 
-6.79295 -0.122729 2.21874 
-0.122729 -6.85478 2.61687 
2.21874 2.61687 -6.54501 
-7.20738 0.0754103 -2.95689 
0.0754103 -7.01856 -1.5369 
-2.95689 -1.5369 -7.16468 
-7.11058 0.00245091 -2.95042 
0.00245091 -7.2001 -1.69881 
-2.95042 -1.69881 -7.07994 
-6.84151 0.0585636 -2.93181 
0.0585636 -6.904 -1.42779 
-2.93181 -1.42779 -7.6451 
-7.23318 0.105621 -3.16263 
0.105621 -7.32165 -1.67949 
-3.16263 -1.67949 -6.83579 
-1.18689 -0.116468 2.09737 
-0.116468 -1.15273 -3.29205 
2.09737 -3.29205 -1.07561 
-0.996129 0.100555 2.08122 
0.100555 -1.16147 -3.36785 
2.08122 -3.36785 -1.25764 
-1.16674 0.390819 2.18143 
0.390819 -1.58865 -3.22842 
2.18143 -3.22842 -0.659852 
-1.11701 0.0243341 2.17977 
0.0243341 -1.17722 -3.26594 
2.17977 -3.26594 -1.12101 
-4.52435 0.105853 -0.0726021 
0.105853 -4.45408 -0.55767 
-0.0726021 -0.55767 -5.52409 
-4.80737 -0.0502486 0.0770695 
-0.0502486 -4.76477 -0.965899 
0.0770695 -0.965899 -4.93037 
-5.20589 -0.159992 0.235365 
-0.159992 -5.26013 -0.854638 
0.235365 -0.854638 -4.03649 
-4.88179 -0.0866422 0.0617014 
-0.0866422 -4.68379 -1.10203 
0.0617014 -1.10203 -4.93693 
-2.12157 0.0261539 -4.50413 
0.0261539 -1.85171 0.945074 
-4.50413 0.945074 -1.80121 
-2.57279 -0.0839214 -4.64938 
-0.0839214 -1.97854 1.09498 
-4.64938 1.09498 -1.22316 
-1.01204 0.0498115 -4.57101 
0.0498115 -2.17648 0.787738 
-4.57101 0.787738 -2.58598 
-2.22537 0.129953 -3.94028 
0.129953 -1.61597 1.29398 
-3.94028 1.29398 -1.93315 
-6.10409 0.524172 -3.36705 
0.524172 -5.98081 3.17885 
-3.36705 3.17885 -5.0559 
-5.43301 -0.0721417 -3.49238 
-0.0721417 -5.50782 3.27988 
-3.49238 3.27988 -6.19996 
-5.67062 -0.0963053 -3.23143 
-0.0963053 -5.68729 3.26568 
-3.23143 3.26568 -5.78288 
-5.55861 -0.132046 -2.94509 
-0.132046 -5.69808 3.10449 
-2.94509 3.10449 -5.88411 
-2.69764 -0.0245986 0.382567 
-0.0245986 -2.53194 4.78229 
0.382567 4.78229 -2.88286 
-2.61768 -0.0014704 0.199491 
-0.0014704 -2.9521 4.61447 
0.199491 4.61447 -2.54267 
-2.80651 0.0345383 0.289498 
0.0345383 -3.08563 4.60613 
0.289498 4.60613 -2.2203 
-2.69525 0.0214543 0.516695 
0.0214543 -2.68439 4.53463 
0.516695 4.53463 -2.73281 
-1.22757 0.0172799 1.05634 
0.0172799 -1.06093 -3.66579 
1.05634 -3.66579 -1.04604 
-1.18065 0.55456 1.40926 
0.55456 -1.71612 -3.21995 
1.40926 -3.21995 -0.437781 
-1.12197 0.0580708 1.12769 
0.0580708 -1.20044 -3.50096 
1.12769 -3.50096 -1.01214 
-0.744063 0.427754 1.04934 
0.427754 -0.90544 -4.12931 
1.04934 -4.12931 -1.68504 
-1.56865 0.0598232 4.41816 
0.0598232 -1.28661 1.02681 
4.41816 1.02681 -1.36342 
-1.38195 0.141708 4.13538 
0.141708 -1.39221 1.12551 
4.13538 1.12551 -1.44452 
-1.5092 0.165263 3.85508 
0.165263 -1.77415 1.13061 
3.85508 1.13061 -0.935333 
-1.25878 0.339627 4.44961 
0.339627 -1.17342 0.948697 
4.44961 0.948697 -1.78649 
-4.62418 0.109492 -3.67488 
0.109492 -4.57344 -2.93409 
-3.67488 -2.93409 -4.02111 
-4.21653 -0.0291105 -3.57368 
-0.0291105 -4.1243 -2.99959 
-3.57368 -2.99959 -4.8779 
-4.3193 0.0401601 -3.71253 
0.0401601 -4.45666 -2.67988 
-3.71253 -2.67988 -4.44277 
-4.53137 -0.0578429 -3.61088 
-0.0578429 -4.38765 -2.67202 
-3.61088 -2.67202 -4.29972 
-9.68766 0.0800941 -4.51237 
0.0800941 -9.45808 -0.0192307 
-4.51237 -0.0192307 -9.64662 
-9.17728 -0.00463366 -4.50663 
-0.00463366 -9.18001 -0.0225721 
-4.50663 -0.0225721 -10.4351 
-9.70122 0.00605079 -4.65041 
0.00605079 -9.7078 -0.00812483 
-4.65041 -0.00812483 -9.38335 
-9.65865 -0.0248033 -4.53264 
-0.0248033 -9.48586 -0.0320363 
-4.53264 -0.0320363 -9.64786 
-4.07269 0.0350045 -0.00819007 
0.0350045 -4.04448 0.396444 
-0.00819007 0.396444 -3.83404 
-3.84288 0.044371 -0.317692 
0.044371 -3.81675 0.257314 
-0.317692 0.257314 -4.29158 
-3.8893 0.0155131 -0.277027 
0.0155131 -4.06921 0.293148 
-0.277027 0.293148 -3.99269 
-3.8177 0.076799 -0.128386 
0.076799 -3.9708 0.246337 
-0.128386 0.246337 -4.16271 
-0.264752 0.212491 -1.11299 
0.212491 -0.395036 -0.736904 
-1.11299 -0.736904 -0.32517 
-0.592337 0.101331 -1.40961 
0.101331 -0.87726 -0.55285 
-1.40961 -0.55285 0.48464 
-0.287305 0.124652 -1.11535 
0.124652 -0.331302 -0.751062 
-1.11535 -0.751062 -0.36635 
-0.105253 0.0903621 -0.831078 
0.0903621 -0.225065 -0.70464 
-0.831078 -0.70464 -0.654639 
-2.6078 -0.0391756 4.1928 
-0.0391756 -2.65302 1.76638 
4.1928 1.76638 -2.751 
-2.35188 0.0735576 4.50551 
0.0735576 -2.44658 1.66339 
4.50551 1.66339 -3.21337 
-3.40856 -0.30488 4.34192 
-0.30488 -2.60442 1.6997 
4.34192 1.6997 -1.99885 
-2.47983 0.0768269 3.94976 
0.0768269 -2.5844 1.78495 
3.94976 1.78495 -2.94759 
-0.34786 0.187951 -3.17388 
0.187951 -0.713841 -2.22965 
-3.17388 -2.22965 -0.142855 
-0.40037 0.0393684 -3.13124 
0.0393684 -0.498695 -2.21815 
-3.13124 -2.21815 -0.305491 
-0.749137 0.0210057 -3.08908 
0.0210057 -0.740099 -2.10495 
-3.08908 -2.10495 0.284679 
-0.36916 0.0533537 -3.16895 
0.0533537 -0.357235 -2.2781 
-3.16895 -2.2781 -0.47816 
-9.8221 0.0661228 4.39004 
0.0661228 -9.38419 0.0732708 
4.39004 0.0732708 -9.58831 
-9.14016 -0.158467 4.43059 
-0.158467 -9.15429 0.0558357 
4.43059 0.0558357 -10.5001 
-9.74562 0.0862909 4.59133 
0.0862909 -9.69354 0.0592544 
4.59133 0.0592544 -9.35543 
-9.68998 -0.064779 4.4408 
-0.064779 -9.4532 0.0619675 
4.4408 0.0619675 -9.65142 
-7.30671 0.0185587 -0.21894 
0.0185587 -7.17319 -4.57288 
-0.21894 -4.57288 -7.29797 
-7.39882 -0.0230559 -0.165319 
-0.0230559 -7.38759 -4.72801 
-0.165319 -4.72801 -6.99146 
-7.3122 -0.0265605 -0.112765 
-0.0265605 -6.69468 -4.63244 
-0.112765 -4.63244 -7.771 
-7.26099 -0.0331516 -0.309334 
-0.0331516 -7.33908 -4.47878 
-0.309334 -4.47878 -7.1778 
-2.63608 0.0323022 0.380174 
0.0323022 -2.84335 -4.53759 
0.380174 -4.53759 -2.63314 
-2.54473 0.0351808 0.211862 
0.0351808 -2.21769 -4.89602 
0.211862 -4.89602 -3.35014 
-2.7366 -0.201694 0.0709761 
-0.201694 -3.60192 -4.54784 
0.0709761 -4.54784 -1.77404 
-2.74975 -0.0423503 0.587009 
-0.0423503 -2.47825 -4.40044 
0.587009 -4.40044 -2.88457 
-2.82951 -0.367755 4.30502 
-0.367755 -2.63706 2.10671 
4.30502 2.10671 -0.777695 
-1.33926 0.763683 4.34239 
0.763683 -1.72009 2.06343 
4.34239 2.06343 -3.18492 
-2.35676 -0.19195 4.22636 
-0.19195 -1.98878 1.76757 
4.22636 1.76757 -1.89872 
-2.28972 -0.0714157 3.70483 
-0.0714157 -1.90802 0.936343 
3.70483 0.936343 -2.04652 
-9.5832 -0.154125 -0.685981 
-0.154125 -9.49704 -0.423397 
-0.685981 -0.423397 -9.90284 
-9.46316 -0.0795402 -0.872239 
-0.0795402 -9.54967 -0.608165 
-0.872239 -0.608165 -9.97025 
-9.59887 -0.0424414 -0.674984 
-0.0424414 -9.68324 -0.588397 
-0.674984 -0.588397 -9.70097 
-9.72226 -0.00244818 -0.697245 
-0.00244818 -9.77852 -0.538326 
-0.697245 -0.538326 -9.4823 
-0.457587 -0.123142 3.14048 
-0.123142 -0.749347 -2.25567 
3.14048 -2.25567 -0.198094 
-0.805234 -0.0802886 3.05185 
-0.0802886 -0.85235 -2.13209 
3.05185 -2.13209 0.252557 
-0.449273 0.0073373 3.0975 
0.0073373 -0.638243 -2.19681 
3.0975 -2.19681 -0.317513 
-0.426074 -0.0384773 3.13529 
-0.0384773 -0.467006 -2.26857 
3.13529 -2.26857 -0.511948 
-2.98303 0.0301871 2.30452 
0.0301871 -2.94416 -2.61107 
2.30452 -2.61107 -3.3208 
-3.28544 -0.16062 2.66763 
-0.16062 -3.22292 -2.7745 
2.66763 -2.7745 -2.73964 
-3.21369 -0.0262073 2.43891 
-0.0262073 -2.91337 -2.74593 
2.43891 -2.74593 -3.12093 
-3.17632 0.00601327 2.39835 
0.00601327 -3.15866 -2.53163 
2.39835 -2.53163 -2.91302 
-9.21154 0.032898 -4.29159 
0.032898 -9.05369 1.89393 
-4.29159 1.89393 -9.19426 
-9.21012 0.057184 -4.24765 
0.057184 -9.02322 1.88726 
-4.24765 1.88726 -9.22615 
-8.70179 -0.0798699 -4.25545 
-0.0798699 -9.27513 1.80826 
-4.25545 1.80826 -9.48257 
-8.98565 -0.055791 -4.28715 
-0.055791 -9.31325 1.67527 
-4.28715 1.67527 -9.16059 
-7.45199 0.107255 -1.63589 
0.107255 -6.28402 -4.18647 
-1.63589 -4.18647 -8.4192 
-7.37536 -0.0312156 -1.96061 
-0.0312156 -7.50854 -4.233 
-1.96061 -4.233 -7.27131 
-7.71909 -0.0487587 -1.68136 
-0.0487587 -7.85694 -4.67425 
-1.68136 -4.67425 -6.57918 
-7.41586 -0.0442016 -2.05969 
-0.0442016 -7.59174 -4.01198 
-2.05969 -4.01198 -7.14761 
-8.93316 0.0331742 -3.87878 
0.0331742 -8.85893 -0.260267 
-3.87878 -0.260267 -8.879 
-8.90495 0.0138207 -3.83608 
0.0138207 -8.94777 -0.344342 
-3.83608 -0.344342 -8.81837 
-8.39321 0.123472 -3.7204 
0.123472 -9.0791 -0.491175 
-3.7204 -0.491175 -9.19879 
-8.7737 0.0293688 -4.02897 
0.0293688 -9.29049 -0.148783 
-4.02897 -0.148783 -8.6069 
-6.99866 -0.476693 2.18495 
-0.476693 -6.75488 -4.08389 
2.18495 -4.08389 -7.88295 
-7.16993 0.0789257 2.09943 
0.0789257 -7.23761 -4.2159 
2.09943 -4.2159 -7.22895 
-7.34579 0.111175 2.1183 
0.111175 -7.30288 -4.34492 
2.1183 -4.34492 -6.98782 
-7.21533 0.169533 1.92507 
0.169533 -7.20844 -4.18561 
1.92507 -4.18561 -7.21271 
-0.871777 0.0438644 0.699456 
0.0438644 -0.732969 3.57453 
0.699456 3.57453 0.466285 
-0.500033 -0.0207343 0.88132 
-0.0207343 -0.338626 3.68966 
0.88132 3.68966 -0.299801 
-0.810961 -0.0104561 0.847044 
-0.0104561 -0.225768 3.73608 
0.847044 3.73608 -0.101731 
-0.355507 0.0206418 0.915003 
0.0206418 -0.299455 3.76771 
0.915003 3.76771 -0.483499 
-0.552136 -0.143542 1.54459 
-0.143542 -0.263985 -1.27672 
1.54459 -1.27672 -0.237758 
-0.475182 -0.0571409 1.53398 
-0.0571409 -0.226906 -1.36184 
1.53398 -1.36184 -0.351791 
-0.66602 -0.177785 1.82902 
-0.177785 -0.704457 -1.26029 
1.82902 -1.26029 0.316598 
-0.314988 -0.0760091 1.38265 
-0.0760091 -0.247023 -1.24684 
1.38265 -1.24684 -0.491868 
-8.36214 -0.0226954 0.958959 
-0.0226954 -8.23847 4.23102 
0.958959 4.23102 -8.82363 
-8.60055 0.0873593 1.06088 
0.0873593 -8.44607 4.35378 
1.06088 4.35378 -8.37763 
-8.52733 0.0610939 1.09155 
0.0610939 -8.45612 4.38666 
1.09155 4.38666 -8.4408 
-8.87238 0.0153353 1.22086 
0.0153353 -8.80456 4.15385 
1.22086 4.15385 -7.7473 
-4.65461 0.0830182 -2.1314 
0.0830182 -4.6398 4.31731 
-2.1314 4.31731 -4.24981 
-4.30447 -0.422723 -2.01522 
-0.422723 -4.02464 3.98571 
-2.01522 3.98571 -5.21511 
-4.53203 0.048221 -1.9795 
0.048221 -4.49425 4.19505 
-1.9795 4.19505 -4.51793 
-4.5933 0.133633 -1.86219 
0.133633 -4.54689 4.17444 
-1.86219 4.17444 -4.40402 
-9.35171 -0.0721007 1.72008 
-0.0721007 -9.34887 3.60583 
1.72008 3.60583 -10.1062 
-9.36199 -0.0576005 1.63499 
-0.0576005 -9.59609 3.37341 
1.63499 3.37341 -9.84875 
-9.59894 0.0135743 1.72482 
0.0135743 -9.57128 3.3945 
1.72482 3.3945 -9.63661 
-9.73459 0.0629061 1.69761 
0.0629061 -9.61341 3.32887 
1.69761 3.32887 -9.45883 
-4.75458 -0.00298808 -0.342166 
-0.00298808 -4.68198 -0.484532 
-0.342166 -0.484532 -5.65406 
-5.42936 -0.0370046 -0.0495658 
-0.0370046 -5.48872 -0.765969 
-0.0495658 -0.765969 -4.17254 
-5.12363 -0.0465308 -0.427024 
-0.0465308 -4.96212 -0.786639 
-0.427024 -0.786639 -5.00487 
-5.17502 0.0608981 -0.444219 
0.0608981 -4.95413 -0.900603 
-0.444219 -0.900603 -4.96147 
-9.17287 -0.0288751 4.52491 
-0.0288751 -9.23459 1.64503 
4.52491 1.64503 -8.97916 
-8.8621 0.432764 4.17568 
0.432764 -9.06016 1.83089 
4.17568 1.83089 -9.46435 
-9.07179 0.0995608 4.28662 
0.0995608 -9.17386 1.67214 
4.28662 1.67214 -9.14096 
-9.1798 -0.0670992 4.40752 
-0.0670992 -9.06319 1.61461 
4.40752 1.61461 -9.14362 
-5.70504 0.0647878 1.99545 
0.0647878 -5.65282 4.10036 
1.99545 4.10036 -5.37672 
-5.63926 -0.119079 1.81764 
-0.119079 -5.89235 4.30994 
1.81764 4.30994 -5.20297 
-5.5415 0.180123 2.08104 
0.180123 -5.21363 4.2369 
2.08104 4.2369 -5.97944 
-5.57072 0.197293 1.80782 
0.197293 -5.72058 3.79012 
1.80782 3.79012 -5.44327 
-2.44232 -0.0496686 -1.1893 
-0.0496686 -2.67533 -4.42842 
-1.1893 -4.42842 -2.68934 
-2.62706 -0.0656066 -1.3997 
-0.0656066 -2.98585 -4.44711 
-1.3997 -4.44711 -2.19409 
-2.79037 0.0422075 -1.22788 
0.0422075 -2.39614 -4.45036 
-1.22788 -4.45036 -2.62048 
-2.69195 0.172971 -1.15551 
0.172971 -2.67418 -4.26753 
-1.15551 -4.26753 -2.44087 
-8.37851 -0.0699268 0.512165 
-0.0699268 -8.04013 0.920986 
0.512165 0.920986 -7.36868 
-7.89108 0.0747626 0.60653 
0.0747626 -8.07074 0.691544 
0.60653 0.691544 -7.82549 
-7.85313 0.0354921 0.520098 
0.0354921 -8.21947 0.451777 
0.520098 0.451777 -7.71472 
-7.71317 0.249803 0.874467 
0.249803 -7.91016 0.442312 
0.874467 0.442312 -8.16399 
-2.85592 0.12002 -3.27003 
0.12002 -3.20475 -0.964391 
-3.27003 -0.964391 -3.05509 
-2.83924 -0.187197 -3.59985 
-0.187197 -2.77821 -1.16034 
-3.59985 -1.16034 -3.49831 
-3.41954 -0.118077 -3.35052 
-0.118077 -3.23772 -0.508264 
-3.35052 -0.508264 -2.45851 
-2.97482 0.082249 -3.40679 
0.082249 -3.11358 -0.988239 
-3.40679 -0.988239 -3.02737 
-4.9183 -0.0125973 0.136155 
-0.0125973 -4.8897 -1.71565 
0.136155 -1.71565 -5.29406 
-5.22027 -0.198778 0.0811796 
-0.198778 -5.2615 -1.49802 
0.0811796 -1.49802 -4.62029 
-5.01781 -0.0996027 0.142622 
-0.0996027 -4.91469 -1.59963 
0.142622 -1.59963 -5.16957 
-5.16811 -0.167128 0.264252 
-0.167128 -5.04026 -1.7064 
0.264252 -1.7064 -4.8937 
-2.1993 0.164337 -0.377396 
0.164337 -1.94289 -0.201265 
-0.377396 -0.201265 -2.5062 
-2.10099 0.174619 -0.577192 
0.174619 -2.33533 -0.0799439 
-0.577192 -0.0799439 -2.21207 
-1.98592 -0.190649 -0.636407 
-0.190649 -1.94751 -0.0705044 
-0.636407 -0.0705044 -2.71496 
-2.36513 0.182933 -0.379227 
0.182933 -2.28913 0.127228 
-0.379227 0.127228 -1.99413 
-4.77175 -0.0935094 4.32539 
-0.0935094 -4.92583 -1.7706 
4.32539 -1.7706 -5.38559 
-5.03052 -0.0433981 4.26022 
-0.0433981 -5.03802 -1.71074 
4.26022 -1.71074 -5.01463 
-5.11615 -0.0202163 4.2704 
-0.0202163 -5.15372 -1.76852 
4.2704 -1.76852 -4.81329 
-5.11561 0.0219267 4.12363 
0.0219267 -5.04446 -1.83097 
4.12363 -1.83097 -4.92309 
-3.01844 -0.0626718 -0.16566 
-0.0626718 -2.84398 0.108995 
-0.16566 0.108995 -2.95369 
-2.93685 0.0296514 -0.289656 
0.0296514 -2.89787 0.039304 
-0.289656 0.039304 -2.98139 
-3.07981 -0.0929144 -0.00550027 
-0.0929144 -3.28868 0.27065 
-0.00550027 0.27065 -2.44762 
-2.57783 -0.0881006 -0.171133 
-0.0881006 -2.92439 -0.160279 
-0.171133 -0.160279 -3.31389 
-8.62654 0.0852717 0.159331 
0.0852717 -8.6624 4.41073 
0.159331 4.41073 -8.51758 
-8.52632 0.060115 0.329724 
0.060115 -8.6482 4.48514 
0.329724 4.48514 -8.632 
-8.37875 0.0273086 0.228182 
0.0273086 -8.55471 4.35303 
0.228182 4.35303 -8.87306 
-8.6133 0.178373 0.340303 
0.178373 -8.74258 4.64723 
0.340303 4.64723 -8.45064 
-9.65261 0.0605736 2.42875 
0.0605736 -9.54822 0.388754 
2.42875 0.388754 -9.56099 
-9.25033 0.0123627 2.51371 
0.0123627 -9.49136 0.293276 
2.51371 0.293276 -10.0201 
-9.39687 0.0501552 2.43471 
0.0501552 -9.38739 0.575924 
2.43471 0.575924 -9.97756 
-9.75116 -0.0133514 2.3525 
-0.0133514 -9.57239 0.364938 
2.3525 0.364938 -9.43827 
-5.02545 0.049224 -0.545954 
0.049224 -5.16316 1.97003 
-0.545954 1.97003 -4.9825 
-4.97796 0.147527 -0.472132 
0.147527 -5.04656 1.75906 
-0.472132 1.75906 -5.1466 
-5.23042 0.00621703 -0.498634 
0.00621703 -5.23242 1.8406 
-0.498634 1.8406 -4.70826 
-5.24331 -0.0552763 -0.376718 
-0.0552763 -5.1606 2.00852 
-0.376718 2.00852 -4.76719 
-0.302897 0.0289859 1.43735 
0.0289859 -0.379202 -0.589593 
1.43735 -0.589593 -0.290186 
-0.613635 0.18605 1.49818 
0.18605 -0.494155 -0.73934 
1.49818 -0.73934 0.135505 
-0.425297 0.13326 1.6049 
0.13326 -0.628583 -0.599672 
1.6049 -0.599672 0.0815955 
-0.282035 -0.0266827 1.42969 
-0.0266827 -0.285333 -0.596608 
1.42969 -0.596608 -0.404917 
-9.05196 0.074867 -2.74017 
0.074867 -8.94928 3.90468 
-2.74017 3.90468 -9.20576 
-9.03407 0.0178054 -2.71032 
0.0178054 -9.0905 3.90959 
-2.71032 3.90959 -9.08241 
-9.18334 -0.162898 -2.56264 
-0.162898 -8.68268 3.8824 
-2.56264 3.8824 -9.34097 
-9.29498 -0.200888 -2.5005 
-0.200888 -8.87326 3.82104 
-2.5005 3.82104 -9.03875 
-9.9438 -0.013739 4.24284 
-0.013739 -9.4471 -1.97792 
4.24284 -1.97792 -9.92495 
-9.74317 -0.00848931 4.09086 
-0.00848931 -9.58419 -1.99404 
4.09086 -1.99404 -9.98849 
-9.89147 -0.0209942 4.18059 
-0.0209942 -9.74546 -1.85904 
4.18059 -1.85904 -9.67892 
-9.8938 0.0444837 4.21276 
0.0444837 -9.8704 -1.82283 
4.21276 -1.82283 -9.55165 
-8.3307 0.096072 -2.62601 
0.096072 -8.28457 -3.27375 
-2.62601 -3.27375 -8.67275 
-8.51645 -0.0410467 -2.61737 
-0.0410467 -8.27631 -3.40175 
-2.61737 -3.40175 -8.49526 
-8.4182 -0.168828 -2.72348 
-0.168828 -8.37332 -3.42055 
-2.72348 -3.42055 -8.4965 
-8.61901 -0.00613062 -2.53019 
-0.00613062 -8.58661 -3.56813 
-2.53019 -3.56813 -8.0824 
-4.02007 0.497372 -4.45652 
0.497372 -5.29539 -1.38977 
-4.45652 -1.38977 -5.02009 
-5.84745 -0.905472 -4.32802 
-0.905472 -4.84635 -1.63046 
-4.32802 -1.63046 -3.64175 
-4.42553 0.358028 -4.52494 
0.358028 -4.52634 -1.19006 
-4.52494 -1.19006 -5.38369 
-4.76804 0.425974 -3.50944 
0.425974 -5.10211 -0.510086 
-3.50944 -0.510086 -4.4654 
-2.91919 0.186088 -3.59261 
0.186088 -2.50452 3.60446 
-3.59261 3.60446 -1.69086 
-1.40449 -0.675916 -3.28813 
-0.675916 -2.28926 2.92973 
-3.28813 2.92973 -3.42081 
-2.38994 0.00180807 -3.28867 
0.00180807 -2.30576 3.24396 
-3.28867 3.24396 -2.41887 
-2.64472 0.354535 -2.80729 
0.354535 -2.3495 3.39526 
-2.80729 3.39526 -2.12035 
-8.61113 0.0376666 -3.53523 
0.0376666 -8.95128 0.37253 
-3.53523 0.37253 -9.33699 
-8.81348 -0.056265 -3.89406 
-0.056265 -9.55043 0.670895 
-3.89406 0.670895 -8.53549 
-8.9562 0.0412434 -3.72122 
0.0412434 -8.98227 0.666763 
-3.72122 0.666763 -8.96093 
-9.02409 -0.0548103 -3.58639 
-0.0548103 -8.93966 0.56943 
-3.58639 0.56943 -8.93565 
-9.43977 0.125672 -0.0307901 
0.125672 -9.64923 4.59246 
-0.0307901 4.59246 -9.70743 
-9.64444 -0.00996077 -0.0169592 
-0.00996077 -9.68994 4.66118 
-0.0169592 4.66118 -9.46205 
-9.23252 0.013501 -0.012294 
0.013501 -9.27002 4.56509 
-0.012294 4.56509 -10.2939 
-9.46605 0.00380285 -0.00810298 
0.00380285 -9.70666 4.57434 
-0.00810298 4.57434 -9.62372 
-6.1711 0.246452 -4.63591 
0.246452 -4.93899 -0.118677 
-4.63591 -0.118677 -3.71483 
-4.76818 0.00294996 -4.61504 
0.00294996 -5.01457 -0.436998 
-4.61504 -0.436998 -5.04217 
-4.17865 -0.14478 -4.9417 
-0.14478 -4.64462 -0.246917 
-4.9417 -0.246917 -6.00165 
-4.70909 -0.0455116 -4.16914 
-0.0455116 -5.0106 -0.833695 
-4.16914 -0.833695 -5.10523 
-9.07595 0.0414486 -1.78576 
0.0414486 -8.86479 -2.92243 
-1.78576 -2.92243 -9.01626 
-8.556 0.279673 -1.58799 
0.279673 -9.08223 -3.14914 
-1.58799 -3.14914 -9.31877 
-9.03079 0.0704547 -1.87174 
0.0704547 -9.20523 -2.91882 
-1.87174 -2.91882 -8.72099 
-8.92083 0.0656686 -1.61327 
0.0656686 -9.07079 -3.09474 
-1.61327 -3.09474 -8.96538 
-8.67776 -0.331557 -3.25582 
-0.331557 -9.18505 3.31285 
-3.25582 3.31285 -9.45566 
-9.19608 0.0587001 -3.30755 
0.0587001 -9.03824 3.46453 
-3.30755 3.46453 -9.08416 
-8.97214 0.118746 -3.25768 
0.118746 -9.10534 3.45326 
-3.25768 3.45326 -9.24099 
-8.97794 -0.272364 -3.25355 
-0.272364 -9.29989 3.21594 
-3.25355 3.21594 -9.04064 
-3.76789 0.036737 -0.887594 
0.036737 -3.75178 1.6508 
-0.887594 1.6508 -4.12617 
-4.22366 -0.0346359 -0.746537 
-0.0346359 -4.17782 1.51911 
-0.746537 1.51911 -3.24436 
-3.86993 -0.0117978 -0.684381 
-0.0117978 -3.89821 1.60904 
-0.684381 1.60904 -3.87771 
-3.83222 -0.00306894 -0.671736 
-0.00306894 -3.93575 1.55971 
-0.671736 1.55971 -3.87788 
-2.58046 -0.0412938 -1.56938 
-0.0412938 -2.90215 1.35176 
-1.56938 1.35176 -2.80129 
-3.0725 0.0460344 -1.75229 
0.0460344 -2.8376 1.23822 
-1.75229 1.23822 -2.3738 
-2.64431 -0.123426 -1.59092 
-0.123426 -2.90298 1.3135 
-1.59092 1.3135 -2.7366 
-2.69165 0.0480148 -1.30591 
0.0480148 -2.48751 1.17949 
-1.30591 1.17949 -3.10474 
-2.80467 0.0295446 -3.38853 
0.0295446 -2.81252 -0.534054 
-3.38853 -0.534054 -2.9587 
-3.51578 0.0366633 -3.29403 
0.0366633 -2.97021 -0.653486 
-3.29403 -0.653486 -2.08991 
-2.71742 -0.0346859 -3.58382 
-0.0346859 -2.66711 -0.648941 
-3.58382 -0.648941 -3.19137 
-2.71784 0.0890417 -3.3942 
0.0890417 -2.94187 -0.550628 
-3.3942 -0.550628 -2.91618 
-9.6901 0.0667315 0.848374 
0.0667315 -9.30173 0.322733 
0.848374 0.322733 -10.0733 
-9.77822 0.130057 0.97391 
0.130057 -9.72957 0.348979 
0.97391 0.348979 -9.55729 
-9.69911 0.156491 1.12521 
0.156491 -9.4714 0.27513 
1.12521 0.27513 -9.89457 
-9.80147 0.02573 1.01373 
0.02573 -9.84655 0.297325 
1.01373 0.297325 -9.41706 
-9.44621 -0.0582763 2.87887 
-0.0582763 -9.24294 3.52382 
2.87887 3.52382 -10.3147 
-9.83905 -0.0703272 3.30283 
-0.0703272 -9.75451 3.28025 
3.30283 3.28025 -9.41024 
-9.79436 -0.182173 3.09809 
-0.182173 -9.61871 3.29113 
3.09809 3.29113 -9.59074 
-9.64231 -0.177976 3.07674 
-0.177976 -9.73819 3.30827 
3.07674 3.30827 -9.62331 
-9.23138 -0.166324 3.33754 
-0.166324 -9.00982 -3.22068 
3.33754 -3.22068 -9.49539 
-9.17447 0.0919911 3.41247 
0.0919911 -9.31975 -3.27546 
3.41247 -3.27546 -9.24238 
-9.29366 -0.303093 3.14415 
-0.303093 -9.13714 -3.16781 
3.14415 -3.16781 -9.30581 
-9.27708 0.146877 3.42082 
0.146877 -9.0957 -3.19043 
3.42082 -3.19043 -9.36381 
-4.43858 0.00444136 -0.680345 
0.00444136 -4.4253 4.65064 
-0.680345 4.65064 -3.92508 
-4.38686 -0.199999 -0.633141 
-0.199999 -3.41586 4.56421 
-0.633141 4.56421 -4.98624 
-4.09385 0.00469436 -0.461186 
0.00469436 -4.54214 4.59884 
-0.461186 4.59884 -4.15296 
-4.17742 0.199431 -0.420366 
0.199431 -4.42921 4.35032 
-0.420366 4.35032 -4.18232 
-1.09237 0.00256808 -2.108 
0.00256808 -1.11915 1.74766 
-2.108 1.74766 -1.06439 
-1.23496 -0.0332191 -2.25892 
-0.0332191 -1.04205 1.73168 
-2.25892 1.73168 -0.99891 
-0.93063 -0.0402162 -2.19834 
-0.0402162 -1.19648 1.70661 
-2.19834 1.70661 -1.14881 
-1.25044 -0.0117104 -2.24455 
-0.0117104 -0.629963 1.45735 
-2.24455 1.45735 -1.39551 
-5.71195 0.13827 4.13972 
0.13827 -5.94122 1.86707 
4.13972 1.86707 -5.77617 
-6.13592 -0.0413178 4.13068 
-0.0413178 -5.82712 2.29353 
4.13068 2.29353 -5.46631 
-5.86445 -0.167406 4.15687 
-0.167406 -5.2603 2.09182 
4.15687 2.09182 -6.30459 
-5.71388 0.104146 3.9468 
0.104146 -5.84518 1.99156 
3.9468 1.99156 -5.87028 
-2.68293 -0.0173989 2.73577 
-0.0173989 -2.43259 -3.76811 
2.73577 -3.76811 -1.33538 
-2.29589 -0.0163718 2.26165 
-0.0163718 -2.14042 -3.51606 
2.26165 -3.51606 -2.01458 
-1.82385 0.102865 2.03083 
0.102865 -1.66332 -4.05729 
2.03083 -4.05729 -2.96372 
-2.18026 0.137099 2.03364 
0.137099 -2.09009 -3.60378 
2.03364 -3.60378 -2.18054 
-0.27741 0.171015 -2.12086 
0.171015 -0.672579 2.83715 
-2.12086 2.83715 -0.348376 
-0.535821 -0.124646 -2.3477 
-0.124646 -0.656278 2.87636 
-2.3477 2.87636 -0.106266 
-0.224692 -0.237573 -2.1287 
-0.237573 -1.16626 2.67845 
-2.1287 2.67845 0.0925877 
-0.227585 -0.0463224 -2.21273 
-0.0463224 -0.583443 2.96929 
-2.21273 2.96929 -0.487336 
-9.51363 0.000458669 -2.66623 
0.000458669 -9.51101 0.600069 
-2.66623 0.600069 -9.84421 
-9.5705 -0.0509802 -2.59805 
-0.0509802 -9.53733 0.442309 
-2.59805 0.442309 -9.76102 
-9.43069 0.0361354 -2.42804 
0.0361354 -9.45511 0.53563 
-2.42804 0.53563 -9.98305 
-9.63317 -0.00709505 -2.60914 
-0.00709505 -9.7249 0.495564 
-2.60914 0.495564 -9.51077 
-8.29255 -0.0332927 -4.08481 
-0.0332927 -8.27792 0.411432 
-4.08481 0.411432 -9.02762 
-8.44859 0.00783244 -4.47879 
0.00783244 -8.6295 0.338693 
-4.47879 0.338693 -8.52 
-8.47415 0.0157882 -4.49778 
0.0157882 -8.57387 0.387044 
-4.49778 0.387044 -8.55007 
-8.91595 -0.082339 -4.51739 
-0.082339 -9.00592 0.196648 
-4.51739 0.196648 -7.67621 
-9.25827 -0.00883486 2.08343 
-0.00883486 -9.56267 3.38318 
2.08343 3.38318 -10.0061 
-9.57693 -0.0466225 1.98431 
-0.0466225 -9.62069 3.26974 
1.98431 3.26974 -9.62945 
-9.41016 -0.0201174 1.99314 
-0.0201174 -9.48957 3.13957 
1.99314 3.13957 -9.92735 
-9.69222 0.0188242 1.95995 
0.0188242 -9.6669 3.26095 
1.95995 3.26095 -9.46795 
-0.324523 -0.0756578 1.22313 
-0.0756578 -0.381189 0.534371 
1.22313 0.534371 -0.348029 
-0.357053 -0.0875237 1.11234 
-0.0875237 -0.717349 0.529452 
1.11234 0.529452 0.0206613 
-0.515227 -0.139974 1.35955 
-0.139974 -0.690016 0.447469 
1.35955 0.447469 0.151501 
-0.270258 0.0085451 1.14155 
0.0085451 -0.270012 0.557922 
1.14155 0.557922 -0.513471 
-0.30242 -0.031755 -2.93221 
-0.031755 -0.466017 -1.10813 
-2.93221 -1.10813 -0.513208 
-0.464807 -0.0471788 -2.77449 
-0.0471788 -0.94099 -1.13876 
-2.77449 -1.13876 0.124152 
-0.415266 -0.238631 -3.07627 
-0.238631 -0.937679 -1.03378 
-3.07627 -1.03378 0.0713006 
-0.374129 -0.00949232 -2.97421 
-0.00949232 -0.216483 -0.986721 
-2.97421 -0.986721 -0.691033 
-3.64472 0.0206043 -0.235624 
0.0206043 -3.60399 1.52696 
-0.235624 1.52696 -3.8515 
-3.71522 -0.00114579 -0.341004 
-0.00114579 -3.71566 1.54136 
-0.341004 1.54136 -3.66933 
-3.83828 -0.0631076 -0.236488 
-0.0631076 -3.73857 1.53822 
-0.236488 1.53822 -3.52336 
-3.74759 0.0235289 -0.253783 
0.0235289 -3.64536 1.45377 
-0.253783 1.45377 -3.70726 
-9.21888 0.206719 2.5807 
0.206719 -9.22072 3.75877 
2.5807 3.75877 -9.22625 
-8.97522 0.410163 2.5823 
0.410163 -9.09896 3.80641 
2.5823 3.80641 -9.59167 
-9.26219 -0.137371 2.55729 
-0.137371 -9.2048 3.99876 
2.55729 3.99876 -9.19887 
-9.13802 -0.147359 2.46264 
-0.147359 -9.25673 3.92414 
2.46264 3.92414 -9.2711 
-5.34727 0.0104013 -4.52797 
0.0104013 -5.1853 1.33607 
-4.52797 1.33607 -4.48257 
-5.32341 -0.0691226 -4.42746 
-0.0691226 -4.46672 1.37593 
-4.42746 1.37593 -5.22501 
-4.38582 -0.130204 -4.56677 
-0.130204 -5.00767 1.68679 
-4.56677 1.68679 -5.62165 
-4.87504 -0.0698416 -3.91461 
-0.0698416 -4.64693 1.44952 
-3.91461 1.44952 -5.49318 
-1.98578 0.0128609 -3.80981 
0.0128609 -1.93924 -2.57758 
-3.80981 -2.57758 -1.98276 
-2.01788 -0.3822 -4.00676 
-0.3822 -2.14911 -2.54008 
-4.00676 -2.54008 -1.7408 
-1.67129 0.662378 -3.82417 
0.662378 -1.73422 -2.69496 
-3.82417 -2.69496 -2.50229 
-2.11271 -0.295243 -3.50826 
-0.295243 -1.76203 -2.0501 
-3.50826 -2.0501 -2.03305 
-9.72211 -0.0539556 1.75976 
-0.0539556 -9.7271 4.29125 
1.75976 4.29125 -9.34501 
-9.5187 -0.181108 1.58974 
-0.181108 -9.70392 4.19547 
1.58974 4.19547 -9.57161 
-9.21375 -0.0781846 1.37226 
-0.0781846 -9.15246 4.29823 
1.37226 4.29823 -10.428 
-9.43553 -0.048757 1.58332 
-0.048757 -9.76147 4.20133 
1.58332 4.20133 -9.59722 
-7.64774 0.118272 -3.86928 
0.118272 -7.81413 2.74746 
-3.86928 2.74746 -7.69292 
-7.75541 0.0318489 -3.72027 
0.0318489 -7.70259 2.87613 
-3.72027 2.87613 -7.69679 
-7.53373 -0.277346 -3.7224 
-0.277346 -7.51341 2.76893 
-3.7224 2.76893 -8.10765 
-7.6106 0.0788105 -3.76921 
0.0788105 -7.73855 2.57385 
-3.76921 2.57385 -7.80565 
-9.39003 0.0300034 -2.72181 
0.0300034 -9.2553 2.59257 
-2.72181 2.59257 -10.1705 
-9.55893 -0.0776603 -2.41646 
-0.0776603 -9.41622 2.60797 
-2.41646 2.60797 -9.84073 
-9.62662 -0.0533488 -2.55354 
-0.0533488 -9.64733 2.57837 
-2.55354 2.57837 -9.54192 
-9.64822 0.0312074 -2.48551 
0.0312074 -9.75821 2.6521 
-2.48551 2.6521 -9.40944 
-0.372991 -0.203745 0.311978 
-0.203745 -0.482126 0.355958 
0.311978 0.355958 -0.377108 
-0.71428 0.0131186 0.36662 
0.0131186 -0.749019 0.370282 
0.36662 0.370282 0.231075 
-0.340456 -0.0240974 0.285542 
-0.0240974 -0.426796 0.300153 
0.285542 0.300153 -0.464972 
-0.278956 0.000619789 0.1999 
0.000619789 -0.292923 0.298879 
0.1999 0.298879 -0.660346 
-1.02539 -0.053077 3.01091 
-0.053077 -0.715364 0.169119 
3.01091 0.169119 0.630389 
-0.71279 0.115151 3.32518 
0.115151 -0.0730871 0.0592895 
3.32518 0.0592895 -0.324486 
-0.558699 0.0983754 3.29273 
0.0983754 -0.277882 -0.00126647 
3.29273 -0.00126647 -0.273781 
-0.40205 -0.0405599 3.43433 
-0.0405599 -0.0593383 -0.328436 
3.43433 -0.328436 -0.648975 
-1.06508 -0.112072 1.02143 
-0.112072 -1.12932 -3.71533 
1.02143 -3.71533 -0.967355 
-0.946292 -0.0299076 1.14876 
-0.0299076 -1.1277 -4.09957 
1.14876 -4.09957 -1.08776 
-1.01797 -0.407141 1.34235 
-0.407141 -1.38255 -4.36145 
1.34235 -4.36145 -0.761232 
-0.638965 -0.295453 0.896785 
-0.295453 -1.28812 -3.35363 
0.896785 -3.35363 -1.23467 
-1.29033 0.675376 3.25174 
0.675376 -1.3076 -3.1891 
3.25174 -3.1891 -0.376314 
-0.942472 -0.186677 3.13683 
-0.186677 -1.06844 -3.17026 
3.13683 -3.17026 -0.963335 
-0.952082 -0.0972947 3.24023 
-0.0972947 -1.03196 -3.34218 
3.24023 -3.34218 -0.990205 
-1.01883 -0.0225024 3.36524 
-0.0225024 -0.908083 -3.23737 
3.36524 -3.23737 -1.04733 
-5.25104 -0.0145168 -0.368457 
-0.0145168 -4.85819 -3.12663 
-0.368457 -3.12663 -4.69106 
-4.76751 -0.139705 -0.393053 
-0.139705 -5.00867 -3.16237 
-0.393053 -3.16237 -5.02411 
-4.83182 -0.0638054 -0.427715 
-0.0638054 -5.01513 -3.18002 
-0.427715 -3.18002 -4.95334 
-4.84661 -0.0273402 -0.281446 
-0.0273402 -4.61016 -3.21123 
-0.281446 -3.21123 -5.34352 
-1.11945 0.176773 -0.101017 
0.176773 -1.10649 -0.0654436 
-0.101017 -0.0654436 -1.12113 
-1.22203 0.117909 0.33002 
0.117909 -0.895842 0.139841 
0.33002 0.139841 -1.2292 
-1.47063 0.347194 0.437528 
0.347194 -0.982188 0.273981 
0.437528 0.273981 -0.894251 
-1.18481 0.196271 -0.329831 
0.196271 -0.733384 -0.136825 
-0.329831 -0.136825 -1.42888 
-9.58163 -0.270959 0.424236 
-0.270959 -9.79489 1.63728 
0.424236 1.63728 -9.88587 
-9.78058 -0.113425 0.419386 
-0.113425 -9.92476 1.79944 
0.419386 1.79944 -9.55705 
-9.62382 -0.262023 0.641415 
-0.262023 -9.48396 1.74716 
0.641415 1.74716 -10.1546 
-9.90446 0.0201989 0.386726 
0.0201989 -9.97248 1.71721 
0.386726 1.71721 -9.38544 
-1.41799 -0.0687075 3.07511 
-0.0687075 -1.71331 1.8376 
3.07511 1.8376 -2.18924 
-1.5564 -0.137058 2.90943 
-0.137058 -1.69166 1.54714 
2.90943 1.54714 -2.07247 
-1.85906 0.106452 2.80451 
0.106452 -1.85036 1.79767 
2.80451 1.79767 -1.61111 
-1.81827 -0.0189406 2.91652 
-0.0189406 -1.82438 1.70568 
2.91652 1.70568 -1.67788 
-9.29887 0.0273229 -4.70749 
0.0273229 -9.10486 -0.396215 
-4.70749 -0.396215 -9.13031 
-8.59638 -0.164217 -4.5495 
-0.164217 -9.26166 -0.144699 
-4.5495 -0.144699 -9.67598 
-9.27896 -0.0369998 -4.81999 
-0.0369998 -9.42907 -0.24364 
-4.81999 -0.24364 -8.826 
-9.27297 0.0245272 -4.67466 
0.0245272 -9.13296 -0.392677 
-4.67466 -0.392677 -9.1281 
-7.42105 0.266834 3.48628 
0.266834 -7.02717 3.38487 
3.48628 3.38487 -8.47948 
-7.65821 0.0270627 3.26207 
0.0270627 -7.63755 3.23237 
3.26207 3.23237 -7.63194 
-7.88731 -0.543751 3.05022 
-0.543751 -8.31521 3.60409 
3.05022 3.60409 -6.72518 
-7.65094 0.204594 3.15735 
0.204594 -7.64826 2.58661 
3.15735 2.58661 -7.6285 
-4.37263 -0.0258283 -0.68235 
-0.0258283 -4.51041 1.58845 
-0.68235 1.58845 -4.50052 
-4.55291 0.0202858 -0.433805 
0.0202858 -4.37638 1.54209 
-0.433805 1.54209 -4.45428 
-4.53204 -0.0307537 -0.530943 
-0.0307537 -4.57796 1.67514 
-0.530943 1.67514 -4.27356 
-4.579 0.0384009 -0.585277 
0.0384009 -4.46581 1.53025 
-0.585277 1.53025 -4.33876 
-9.1765 0.340404 3.31381 
0.340404 -8.68467 3.26692 
3.31381 3.26692 -9.44943 
-9.07955 -0.0370743 3.48553 
-0.0370743 -9.17325 3.29165 
3.48553 3.29165 -9.05781 
-9.11166 -0.120204 3.4403 
-0.120204 -8.98748 3.26053 
3.4403 3.26053 -9.21145 
-9.27136 0.209724 3.24495 
0.209724 -9.01304 3.2749 
3.24495 3.2749 -9.0262 
-2.80952 -0.0368035 -1.21326 
-0.0368035 -2.63143 4.49439 
-1.21326 4.49439 -2.78015 
-2.79924 0.506556 -1.40065 
0.506556 -3.54761 4.38639 
-1.40065 4.38639 -1.87426 
-2.61453 -0.187241 -1.19975 
-0.187241 -2.53284 4.67458 
-1.19975 4.67458 -3.07374 
-2.72415 -0.155322 -0.942751 
-0.155322 -2.76333 4.35986 
-0.942751 4.35986 -2.73363 
-0.967982 0.07275 -3.20719 
0.07275 -0.97765 -3.21499 
-3.20719 -3.21499 -0.819789 
-1.21119 -0.60957 -3.22325 
-0.60957 -1.21857 -3.15132 
-3.22325 -3.15132 -0.335661 
-1.02379 0.18504 -3.0796 
0.18504 -0.898152 -3.17863 
-3.0796 -3.17863 -0.843481 
-0.820384 0.0440127 -3.16043 
0.0440127 -0.987335 -3.40136 
-3.16043 -3.40136 -0.957702 
-6.3936 -0.0379251 0.181558 
-0.0379251 -6.31084 -3.38115 
0.181558 -3.38115 -6.42808 
-6.0457 0.049937 0.0523452 
0.049937 -6.26474 -3.56797 
0.0523452 -3.56797 -6.82208 
-6.61101 0.0445573 0.0159251 
0.0445573 -6.77198 -3.50593 
0.0159251 -3.50593 -5.74953 
-6.48934 0.00239974 0.162249 
0.00239974 -6.28713 -3.41968 
0.162249 -3.41968 -6.35605 
-7.61096 0.0442907 0.720722 
0.0442907 -7.26056 2.70165 
0.720722 2.70165 -7.49128 
-7.03291 -0.00385174 0.859777 
-0.00385174 -7.41761 3.0226 
0.859777 3.0226 -7.91228 
-7.61079 0.112298 0.443412 
0.112298 -7.51369 2.48562 
0.443412 2.48562 -7.23832 
-7.62212 -0.0314075 0.645357 
-0.0314075 -7.24628 2.63452 
0.645357 2.63452 -7.4944 
-9.54111 0.0248054 -2.11204 
0.0248054 -9.73368 -2.82356 
-2.11204 -2.82356 -9.58001 
-9.52507 0.0684187 -2.15941 
0.0684187 -9.59471 -2.7219 
-2.15941 -2.7219 -9.73501 
-9.35204 0.143199 -1.95057 
0.143199 -9.34522 -2.83085 
-1.95057 -2.83085 -10.1575 
-9.70708 0.0177317 -2.20142 
0.0177317 -9.72753 -2.77068 
-2.20142 -2.77068 -9.4202 
-0.374606 -0.0439991 -0.0453013 
-0.0439991 -0.562473 -0.210851 
-0.0453013 -0.210851 -0.32044 
-0.414631 -0.119617 -0.134146 
-0.119617 -0.432477 -0.27082 
-0.134146 -0.27082 -0.410412 
-0.680072 0.0807052 -0.281861 
0.0807052 -0.803984 -0.282389 
-0.281861 -0.282389 0.226537 
-0.372394 0.00104367 -0.0091561 
0.00104367 -0.271362 -0.258901 
-0.0091561 -0.258901 -0.613763 
-1.98096 -0.01376 -4.64906 
-0.01376 -2.24822 -0.526913 
-4.64906 -0.526913 -2.34807 
-2.31871 -0.00795075 -4.534 
-0.00795075 -2.22028 -0.440437 
-4.534 -0.440437 -2.03827 
-2.36883 -0.0137392 -4.6392 
-0.0137392 -2.52902 -0.657306 
-4.6392 -0.657306 -1.67941 
-2.27961 0.00440856 -4.32688 
0.00440856 -2.26494 -0.431452 
-4.32688 -0.431452 -2.0327 
-8.85296 0.139263 3.03686 
0.139263 -9.01815 -0.654824 
3.03686 -0.654824 -9.15205 
-8.92423 0.162233 3.08013 
0.162233 -9.02578 -1.11249 
3.08013 -1.11249 -9.07316 
-9.24885 0.17032 3.09626 
0.17032 -9.07896 -1.18015 
3.09626 -1.18015 -8.69537 
-9.11115 -0.0785557 3.0965 
-0.0785557 -9.05374 -0.76681 
3.0965 -0.76681 -8.85827 
-9.7125 -0.0348451 1.65891 
-0.0348451 -9.67579 -3.95449 
1.65891 -3.95449 -9.59548 
-9.64989 -0.056146 1.55501 
-0.056146 -9.37866 -3.98148 
1.55501 -3.98148 -9.95522 
-9.53605 -0.118876 1.78381 
-0.118876 -9.4208 -3.89483 
1.78381 -3.89483 -10.0269 
-9.73299 0.0134559 1.63676 
0.0134559 -9.7958 -3.96115 
1.63676 -3.96115 -9.45499 
-9.2307 0.0475459 -3.50167 
0.0475459 -9.38851 2.85488 
-3.50167 2.85488 -10.3263 
-9.74031 0.0610586 -3.26708 
0.0610586 -9.82188 3.30456 
-3.26708 3.30456 -9.38335 
-9.60563 0.203087 -3.25818 
0.203087 -9.76526 3.05283 
-3.25818 3.05283 -9.57466 
-9.75209 0.185582 -3.2731 
0.185582 -9.56455 3.04648 
-3.2731 3.04648 -9.6289 
-9.67273 0.0273967 -4.27388 
0.0273967 -9.50829 1.59897 
-4.27388 1.59897 -9.59099 
-9.27002 0.0378035 -4.33687 
0.0378035 -9.3002 1.43659 
-4.33687 1.43659 -10.2018 
-9.59447 0.136966 -4.3537 
0.136966 -9.43734 1.61984 
-4.3537 1.61984 -9.7402 
-9.69104 -0.00686507 -4.32083 
-0.00686507 -9.65311 1.6805 
-4.32083 1.6805 -9.42785 
-9.82306 -0.00483105 -3.74267 
-0.00483105 -9.54316 -0.723697 
-3.74267 -0.723697 -9.53089 
-9.29904 -0.00430454 -3.66826 
-0.00430454 -9.21026 -0.854942 
-3.66826 -0.854942 -10.3878 
-9.80951 0.160555 -3.79015 
0.160555 -9.45107 -0.689827 
-3.79015 -0.689827 -9.63654 
-9.777 0.0154923 -3.91003 
0.0154923 -9.76645 -0.69862 
-3.91003 -0.69862 -9.35366 
-0.845273 0.0223776 -4.28263 
0.0223776 -0.948702 1.90533 
-4.28263 1.90533 -0.959216 
-0.907275 -0.0969133 -4.29979 
-0.0969133 -0.999488 1.75156 
-4.29979 1.75156 -0.846428 
-1.70278 0.469435 -4.2104 
0.469435 -0.754368 1.76864 
-4.2104 1.76864 -0.296042 
-0.853531 -0.181416 -4.10646 
-0.181416 -1.03136 1.72609 
-4.10646 1.72609 -0.868299 
-9.49665 -0.0601666 0.52878 
-0.0601666 -9.46414 -1.28545 
0.52878 -1.28545 -10.0488 
-9.53154 -0.04372 0.701213 
-0.04372 -9.63321 -1.07956 
0.701213 -1.07956 -9.84487 
-9.6188 0.00577751 0.539386 
0.00577751 -9.71065 -1.07817 
0.539386 -1.07817 -9.68017 
-9.74174 0.0465499 0.566918 
0.0465499 -9.76769 -1.05636 
0.566918 -1.05636 -9.50019 
-5.6478 -0.031441 4.40093 
-0.031441 -5.95176 -1.22756 
4.40093 -1.22756 -5.896 
-6.91908 0.0516391 4.5124 
0.0516391 -5.82398 -0.76988 
4.5124 -0.76988 -4.7525 
-5.36515 0.0396071 4.68662 
0.0396071 -5.62961 -0.943397 
4.68662 -0.943397 -6.5008 
-5.61691 0.109739 4.04458 
0.109739 -5.94689 -1.22683 
4.04458 -1.22683 -5.93175 
-7.0125 0.0913365 0.00660304 
0.0913365 -7.05799 -3.2442 
0.00660304 -3.2442 -7.06169 
-6.99632 0.12867 -0.128029 
0.12867 -6.58019 -3.21193 
-0.128029 -3.21193 -7.55567 
-7.02501 -0.0690974 0.14658 
-0.0690974 -7.15061 -3.27607 
0.14658 -3.27607 -6.95656 
-7.25917 0.0418829 0.103837 
0.0418829 -7.20304 -3.02857 
0.103837 -3.02857 -6.66998 
-8.74358 -0.0791922 -0.328795 
-0.0791922 -8.46099 4.60306 
-0.328795 4.60306 -8.53534 
-8.58268 -0.0900727 -0.266984 
-0.0900727 -8.58935 4.52139 
-0.266984 4.52139 -8.56789 
-8.14944 -0.119211 -0.122335 
-0.119211 -8.46008 4.06857 
-0.122335 4.06857 -9.13039 
-9.00588 -0.31424 -0.336366 
-0.31424 -9.12107 4.65203 
-0.336366 4.65203 -7.61296 
-9.8005 0.0821129 -0.957567 
0.0821129 -9.96513 -4.48701 
-0.957567 -4.48701 -9.29372 
-9.65059 -0.0964715 -0.813537 
-0.0964715 -9.6815 -4.42719 
-0.813537 -4.42719 -9.72726 
-9.40619 -0.085382 -0.600904 
-0.085382 -9.35035 -4.39401 
-0.600904 -4.39401 -10.3028 
-9.68502 -0.087098 -0.827815 
-0.087098 -9.87111 -4.20034 
-0.827815 -4.20034 -9.50322 
-9.63486 -0.0631874 3.51491 
-0.0631874 -9.34472 -1.52454 
3.51491 -1.52454 -10.0516 
-9.63434 -0.142425 3.7246 
-0.142425 -9.48853 -1.45651 
3.7246 -1.45651 -9.90837 
-9.76917 -0.0546477 3.65905 
-0.0546477 -9.68928 -1.5558 
3.65905 -1.5558 -9.57278 
-9.80248 0.00301712 3.69281 
0.00301712 -9.78317 -1.53444 
3.69281 -1.53444 -9.44558 
-1.98411 -0.000987395 -0.703662 
-0.000987395 -1.9159 0.279397 
-0.703662 0.279397 -2.35243 
-2.04848 0.0910014 -0.80059 
0.0910014 -2.02144 0.344653 
-0.80059 0.344653 -2.18253 
-1.82023 -0.00649937 -0.751121 
-0.00649937 -2.1182 0.33385 
-0.751121 0.33385 -2.31402 
-2.14748 0.0421321 -0.634126 
0.0421321 -2.07082 0.470018 
-0.634126 0.470018 -2.03414 
-1.73183 0.00662619 2.39505 
0.00662619 -1.70103 -3.76224 
2.39505 -3.76224 -1.32793 
-1.53793 -0.00610014 2.2312 
-0.00610014 -1.46489 -3.81824 
2.2312 -3.81824 -1.75798 
-1.5268 -0.037116 2.27326 
-0.037116 -1.63454 -3.57878 
2.27326 -3.57878 -1.59946 
-1.5827 0.109726 2.44588 
0.109726 -1.63224 -3.75818 
2.44588 -3.75818 -1.54586 
-1.24595 -0.0215419 -0.473435 
-0.0215419 -1.04646 4.01936 
-0.473435 4.01936 -0.304503 
-0.810416 0.0315776 -0.40349 
0.0315776 -0.980589 4.46313 
-0.40349 4.46313 -0.805911 
-0.768296 0.017219 -0.491539 
0.017219 -1.05367 4.31111 
-0.491539 4.31111 -0.774944 
-1.04033 0.0435163 -0.516552 
0.0435163 -0.374824 4.3088 
-0.516552 4.3088 -1.18176 
-9.44857 -0.0344476 -3.7425 
-0.0344476 -9.60901 -1.62601 
-3.7425 -1.62601 -9.91213 
-9.61524 -0.0392732 -3.64312 
-0.0392732 -9.62021 -1.57062 
-3.64312 -1.57062 -9.73425 
-9.47211 -0.0645442 -3.65589 
-0.0645442 -9.52598 -1.42953 
-3.65589 -1.42953 -9.97161 
-9.70291 -0.00839832 -3.68488 
-0.00839832 -9.714 -1.55869 
-3.68488 -1.55869 -9.55279 
-0.975061 0.0669034 1.76188 
0.0669034 -0.849318 4.22439 
1.76188 4.22439 -0.756386 
-0.994747 0.174315 1.75477 
0.174315 -0.788396 4.06969 
1.75477 4.06969 -0.797623 
-0.729501 -0.449988 1.72275 
-0.449988 -1.59903 4.19169 
1.72275 4.19169 -0.252236 
-0.882843 -0.0478565 1.94122 
-0.0478565 -0.797569 4.22049 
1.94122 4.22049 -0.900353 
-5.7054 0.241356 1.7475 
0.241356 -6.68483 -4.13564 
1.7475 -4.13564 -4.96632 
-5.89149 0.0915904 2.00487 
0.0915904 -5.8634 -4.15005 
2.00487 -4.15005 -5.60167 
-5.92107 -0.0267458 2.13732 
-0.0267458 -5.43908 -4.40861 
2.13732 -4.40861 -5.99641 
-6.07798 0.0368093 2.02317 
0.0368093 -5.37821 -3.8499 
2.02317 -3.8499 -5.90036 
-8.00408 -0.0278001 -0.38604 
-0.0278001 -7.79187 4.56525 
-0.38604 4.56525 -7.98183 
-7.97063 0.350329 -0.456856 
0.350329 -8.63737 4.80358 
-0.456856 4.80358 -7.16977 
-7.83935 -0.272178 -0.547111 
-0.272178 -7.03346 4.66166 
-0.547111 4.66166 -8.90497 
-8.12771 0.121216 0.191886 
0.121216 -7.78369 4.04548 
0.191886 4.04548 -7.86638 
-1.75219 -0.21188 0.940311 
-0.21188 -2.13393 4.51638 
0.940311 4.51638 -1.86847 
-2.31551 0.128906 0.894269 
0.128906 -1.92828 4.55426 
0.894269 4.55426 -1.51081 
-1.94824 0.124068 0.810113 
0.124068 -1.62443 4.65104 
0.810113 4.65104 -2.18192 
-1.72442 -0.0563524 0.80291 
-0.0563524 -2.09521 4.35965 
0.80291 4.35965 -1.93496 
-8.61666 0.0672665 -4.29453 
0.0672665 -9.3416 -1.7618 
-4.29453 -1.7618 -9.51107 
-9.1287 -0.137375 -4.32202 
-0.137375 -9.05533 -1.97108 
-4.32202 -1.97108 -9.2853 
-9.22737 0.0130645 -4.38245 
0.0130645 -9.13703 -2.02995 
-4.38245 -2.02995 -9.10494 
-8.93994 0.0953392 -4.20875 
0.0953392 -9.32963 -1.73925 
-4.20875 -1.73925 -9.19977 
-9.03272 -0.0353587 -4.3383 
-0.0353587 -9.22802 -0.785429 
-4.3383 -0.785429 -9.31973 
-9.09945 0.0334328 -4.28453 
0.0334328 -8.99628 -0.912641 
-4.28453 -0.912641 -9.48475 
-9.08593 0.00345722 -4.44225 
0.00345722 -9.30669 -0.853022 
-4.44225 -0.853022 -9.18785 
-9.56316 0.0267827 -4.33303 
0.0267827 -9.0777 -0.866611 
-4.33303 -0.866611 -8.93962 
-9.53138 0.0904367 -3.91219 
0.0904367 -9.57352 0.0201235 
-3.91219 0.0201235 -9.68823 
-9.31879 0.0562965 -3.78336 
0.0562965 -9.3061 -0.0610092 
-3.78336 -0.0610092 -10.1682 
-9.51053 0.0573689 -3.84307 
0.0573689 -9.59315 0.0484248 
-3.84307 0.0484248 -9.68944 
-9.66436 0.0463192 -3.94111 
0.0463192 -9.65072 0.0430482 
-3.94111 0.0430482 -9.47804 
-9.68798 0.0387372 3.82874 
0.0387372 -9.7037 -0.868637 
3.82874 -0.868637 -9.52039 
-9.41392 0.157882 3.85646 
0.157882 -9.60828 -1.00325 
3.85646 -1.00325 -9.88988 
-9.43159 0.102585 3.63782 
0.102585 -9.3598 -0.822083 
3.63782 -0.822083 -10.1207 
-9.7638 -0.0401293 3.82401 
-0.0401293 -9.75319 -0.91906 
3.82401 -0.91906 -9.39509 
-0.277038 0.0738318 0.149079 
0.0738318 -0.37805 0.666806 
0.149079 0.666806 -0.292644 
-0.640999 0.0134853 0.246605 
0.0134853 -0.601836 0.725227 
0.246605 0.725227 0.295103 
-0.417823 0.119192 0.168345 
0.119192 -0.350401 0.592356 
0.168345 0.592356 -0.179508 
-0.198321 -0.0244491 0.0999498 
-0.0244491 -0.254619 0.609083 
0.0999498 0.609083 -0.494792 
-3.80133 0.0523474 -1.07796 
0.0523474 -3.74259 1.3848 
-1.07796 1.3848 -4.07034 
-3.97356 -0.048174 -1.14362 
-0.048174 -3.87533 1.33012 
-1.14362 1.33012 -3.76536 
-4.09083 0.0238773 -1.01487 
0.0238773 -4.04801 1.27931 
-1.01487 1.27931 -3.47541 
-3.8674 -0.0214892 -1.03736 
-0.0214892 -3.84286 1.24441 
-1.03736 1.24441 -3.90399 
-9.40126 0.0398303 -3.87799 
0.0398303 -9.68433 -0.838942 
-3.87799 -0.838942 -9.82696 
-9.64375 0.0156666 -3.9431 
0.0156666 -9.65059 -0.898825 
-3.9431 -0.898825 -9.61822 
-9.3344 -0.0026427 -3.85203 
-0.0026427 -9.36363 -1.0332 
-3.85203 -1.0332 -10.2145 
-9.76929 0.0279534 -3.99893 
0.0279534 -9.65623 -0.849613 
-3.99893 -0.849613 -9.48703 
-0.502198 0.0563396 -0.235262 
0.0563396 -0.33456 0.707247 
-0.235262 0.707247 -0.230438 
-0.638715 0.0858798 -0.158174 
0.0858798 -0.585861 0.838326 
-0.158174 0.838326 0.15738 
-0.469337 -0.0434524 -0.141418 
-0.0434524 -0.290528 0.753078 
-0.141418 0.753078 -0.307331 
-0.284181 0.00238278 -0.164176 
0.00238278 -0.279911 0.710035 
-0.164176 0.710035 -0.503105 
-9.53703 -0.113232 2.62764 
-0.113232 -9.83595 3.66223 
2.62764 3.66223 -9.62499 
-9.752 -0.0279597 2.58081 
-0.0279597 -9.84685 3.88179 
2.58081 3.88179 -9.39913 
-9.19774 0.0129679 2.87787 
0.0129679 -9.43445 3.51161 
2.87787 3.51161 -10.3658 
-9.65298 -0.166334 2.62681 
-0.166334 -9.71133 3.64459 
2.62681 3.64459 -9.63366 
-3.56308 -0.152327 -3.22675 
-0.152327 -3.74745 3.36957 
-3.22675 3.36957 -3.75682 
-4.36249 0.352177 -3.30007 
0.352177 -3.99168 3.04823 
-3.30007 3.04823 -2.71317 
-3.34529 -0.0600391 -3.57462 
-0.0600391 -3.47525 3.26759 
-3.57462 3.26759 -4.2468 
-3.44818 -0.125988 -3.02938 
-0.125988 -3.78688 3.30902 
-3.02938 3.30902 -3.83228 
-0.71405 0.0197039 0.44056 
0.0197039 -0.977295 -4.46829 
0.44056 -4.46829 -0.865305 
-0.781109 0.0728507 0.520372 
0.0728507 -1.0678 -4.28398 
0.520372 -4.28398 -0.707746 
-1.09897 -0.0328486 0.395889 
-0.0328486 -1.01346 -4.12601 
0.395889 -4.12601 -0.444217 
-1.03744 0.0067673 0.46515 
0.0067673 -0.32044 -4.30807 
0.46515 -4.30807 -1.19877 
-2.56604 0.223285 -3.28953 
0.223285 -2.4522 -1.1393 
-3.28953 -1.1393 -2.47571 
-2.31579 -0.0996391 -3.18776 
-0.0996391 -2.25248 -0.890738 
-3.18776 -0.890738 -2.92567 
-2.29407 0.187279 -3.50376 
0.187279 -2.49538 -1.28536 
-3.50376 -1.28536 -2.7045 
-3.01721 0.134979 -3.31916 
0.134979 -2.4091 -1.52016 
-3.31916 -1.52016 -2.06764 
-6.68555 -0.154742 -0.0373684 
-0.154742 -7.05996 -3.48475 
-0.0373684 -3.48475 -5.62857 
-6.20769 -0.0559949 -0.384138 
-0.0559949 -6.28528 -3.59127 
-0.384138 -3.59127 -6.88111 
-6.56242 -0.0855052 -0.284023 
-0.0855052 -6.48123 -3.30339 
-0.284023 -3.30339 -6.33042 
-6.4908 0.0441792 -0.370955 
0.0441792 -6.47324 -3.31093 
-0.370955 -3.31093 -6.41004 
-0.707945 -0.14401 -0.711279 
-0.14401 -0.381241 -0.0702636 
-0.711279 -0.0702636 0.118054 
-0.342181 -0.0407248 -0.65236 
-0.0407248 -0.273346 0.102147 
-0.65236 0.102147 -0.355604 
-0.608124 -0.290381 -0.833719 
-0.290381 -0.54244 0.143402 
-0.833719 0.143402 0.179433 
-0.0928129 0.131663 -0.656434 
0.131663 -0.297329 -0.0346443 
-0.656434 -0.0346443 -0.580989 
-5.41332 -0.149128 -0.686766 
-0.149128 -5.41263 -3.004 
-0.686766 -3.004 -6.08803 
-5.72028 0.0803284 -0.550218 
0.0803284 -5.92088 -3.24692 
-0.550218 -3.24692 -5.27282 
-5.62229 -0.0762683 -0.460777 
-0.0762683 -5.61961 -3.18125 
-0.460777 -3.18125 -5.67208 
-5.58692 -0.0660403 -0.657246 
-0.0660403 -5.6308 -3.25471 
-0.657246 -3.25471 -5.69626 
-0.907332 0.193711 -1.24067 
0.193711 -1.11485 4.05231 
-1.24067 4.05231 -0.923027 
-0.979101 0.103615 -1.29343 
0.103615 -1.04945 4.14464 
-1.29343 4.14464 -0.916658 
-1.38179 -0.264853 -1.14684 
-0.264853 -1.15037 3.88961 
-1.14684 3.88961 -0.413039 
-0.901179 -0.347898 -1.20441 
-0.347898 -0.69109 4.23197 
-1.20441 4.23197 -1.35294 
-6.42913 0.0626074 -4.62417 
0.0626074 -7.38713 0.255392 
-4.62417 0.255392 -7.96083 
-7.12602 -0.0342177 -4.56285 
-0.0342177 -7.30643 0.249897 
-4.56285 0.249897 -7.34464 
-7.61013 -0.0257585 -4.80668 
-0.0257585 -7.22342 0.349901 
-4.80668 0.349901 -6.94354 
-7.41301 0.0115703 -4.36947 
0.0115703 -7.21393 0.527064 
-4.36947 0.527064 -7.15015 
-8.89939 0.141614 -2.56328 
0.141614 -8.97638 -2.68524 
-2.56328 -2.68524 -9.08199 
-9.21578 0.117766 -2.19367 
0.117766 -8.49533 -2.93359 
-2.19367 -2.93359 -9.24665 
-9.23442 0.000287853 -2.23837 
0.000287853 -8.83226 -2.92488 
-2.23837 -2.92488 -8.89108 
-9.1337 -0.0315717 -2.64302 
-0.0315717 -9.0119 -2.57321 
-2.64302 -2.57321 -8.81216 
-1.14153 0.0664386 3.79549 
0.0664386 -0.998894 -2.09307 
3.79549 -2.09307 -0.962958 
-1.10999 0.05842 3.96102 
0.05842 -0.904483 -2.0548 
3.96102 -2.0548 -1.08891 
-1.16189 -0.0667715 3.71326 
-0.0667715 -1.19188 -1.95391 
3.71326 -1.95391 -0.749605 
-0.484845 -0.185102 3.78316 
-0.185102 -1.17161 -2.07874 
3.78316 -2.07874 -1.44692 
-7.2022 0.0356661 -0.425803 
0.0356661 -7.20154 -3.27092 
-0.425803 -3.27092 -6.94498 
-6.9977 -0.0734027 -0.232616 
-0.0734027 -6.72262 -3.24933 
-0.232616 -3.24933 -7.6284 
-7.13141 -0.124468 -0.355367 
-0.124468 -7.15501 -3.29782 
-0.355367 -3.29782 -7.06229 
-7.42634 -0.0347107 -0.279058 
-0.0347107 -7.26498 -3.06571 
-0.279058 -3.06571 -6.6574 
-6.15136 -0.104055 3.27986 
-0.104055 -6.13089 3.43627 
3.27986 3.43627 -5.49991 
-5.60096 0.084467 3.22548 
0.084467 -5.68609 3.51075 
3.22548 3.51075 -6.49511 
-5.88265 0.0561745 3.23394 
0.0561745 -6.01696 3.14141 
3.23394 3.14141 -5.88255 
-5.92954 -0.0405574 3.07071 
-0.0405574 -6.00511 3.06093 
3.07071 3.06093 -5.8475 
-1.13382 -0.0355805 3.96827 
-0.0355805 -1.21594 -1.23165 
3.96827 -1.23165 -0.574674 
-1.07954 0.0785998 4.14169 
0.0785998 -0.951068 -1.30649 
4.14169 -1.30649 -0.893825 
-1.17924 0.103925 4.09187 
0.103925 -0.957126 -1.19646 
4.09187 -1.19646 -0.788068 
-0.701047 -0.310278 4.10393 
-0.310278 -0.995334 -1.26904 
4.10393 -1.26904 -1.22805 
-0.428812 -0.196531 2.15385 
-0.196531 -0.528419 1.33414 
2.15385 1.33414 -0.137 
-0.663237 -0.0785567 2.0639 
-0.0785567 -0.538938 1.55363 
2.0639 1.55363 0.107945 
-0.335863 -0.0473215 2.05496 
-0.0473215 -0.330602 1.3868 
2.05496 1.3868 -0.427765 
-0.238254 -0.0132349 2.07255 
-0.0132349 -0.274305 1.33369 
2.07255 1.33369 -0.581671 
-9.31874 0.168176 1.04242 
0.168176 -9.5566 1.60049 
1.04242 1.60049 -10.125 
-9.65807 -0.0158396 1.25819 
-0.0158396 -9.76475 1.53409 
1.25819 1.53409 -9.57753 
-9.32954 0.0187279 1.16509 
0.0187279 -9.76302 1.40273 
1.16509 1.40273 -9.90779 
-9.8684 -0.0497474 1.26469 
-0.0497474 -9.72669 1.47553 
1.26469 1.47553 -9.40525 
-2.79446 -0.20668 3.73903 
-0.20668 -2.89706 -2.72817 
3.73903 -2.72817 -3.01256 
-2.73996 -0.16127 3.83555 
-0.16127 -2.60991 -2.78789 
3.83555 -2.78789 -3.35421 
-3.14175 0.51013 3.66208 
0.51013 -3.36131 -2.73841 
3.66208 -2.73841 -2.20102 
-2.96236 -0.182449 3.71292 
-0.182449 -2.81754 -2.30932 
3.71292 -2.30932 -2.92418 
-5.14396 0.191442 2.46309 
0.191442 -4.71508 3.80405 
2.46309 3.80405 -6.09695 
-5.25202 0.0539697 2.75296 
0.0539697 -5.3362 3.76798 
2.75296 3.76798 -5.36778 
-5.52323 0.0216303 2.74786 
0.0216303 -5.47201 4.04626 
2.74786 4.04626 -4.96074 
-5.2729 -0.0476371 2.77552 
-0.0476371 -5.42556 3.74669 
2.77552 3.74669 -5.25752 
-1.4744 -0.0642585 -4.40112 
-0.0642585 -1.30057 0.945342 
-4.40112 0.945342 -1.37901 
-1.55772 -0.166058 -4.01135 
-0.166058 -1.68003 1.14423 
-4.01135 1.14423 -0.916241 
-1.40247 -0.0971362 -4.27102 
-0.0971362 -1.39396 1.05589 
-4.27102 1.05589 -1.35755 
-1.21443 -0.207875 -4.45254 
-0.207875 -1.22506 0.867745 
-4.45254 0.867745 -1.71449 
-1.7798 -0.0104947 0.935002 
-0.0104947 -1.83964 -4.12666 
0.935002 -4.12666 -1.3472 
-1.7745 -0.00306838 1.08353 
-0.00306838 -1.56592 -4.22381 
1.08353 -4.22381 -1.62621 
-1.44355 -0.0608087 1.18941 
-0.0608087 -1.36043 -4.33762 
1.18941 -4.33762 -2.16266 
-1.74439 -0.0552222 0.988434 
-0.0552222 -1.48117 -4.32311 
0.988434 -4.32311 -1.74108 
-0.232428 0.0934054 2.45589 
0.0934054 -0.273057 2.38917 
2.45589 2.38917 -0.459573 
-0.987724 -0.00489756 2.51841 
-0.00489756 -0.279786 2.25211 
2.51841 2.25211 0.302453 
-0.632486 0.136583 2.50281 
0.136583 -0.261219 2.53109 
2.50281 2.53109 -0.0713521 
-0.0650363 -0.068828 2.60386 
-0.068828 -0.280002 2.38646 
2.60386 2.38646 -0.620019 
-5.30942 -0.0784892 1.32898 
-0.0784892 -5.47033 4.56554 
1.32898 4.56554 -4.74224 
-4.909 -0.0257469 1.23841 
-0.0257469 -5.13231 4.40966 
1.23841 4.40966 -5.48068 
-5.05441 0.127761 1.77074 
0.127761 -4.71891 4.38472 
1.77074 4.38472 -5.74867 
-4.89657 0.0698251 1.23389 
0.0698251 -5.24417 3.95705 
1.23389 3.95705 -5.38125 
-1.14524 0.32541 -4.27794 
0.32541 -2.08708 -2.22241 
-4.27794 -2.22241 -2.91743 
-2.2796 -0.0560442 -4.23252 
-0.0560442 -1.73216 -1.66496 
-4.23252 -1.66496 -2.13799 
-2.38749 -0.123349 -4.3774 
-0.123349 -2.22235 -1.86312 
-4.3774 -1.86312 -1.53992 
-2.13062 -0.107219 -3.57931 
-0.107219 -1.80623 -1.58539 
-3.57931 -1.58539 -2.21289 
-1.59669 -0.411272 -4.23542 
-0.411272 -0.818625 -1.67321 
-4.23542 -1.67321 -0.321293 
-0.903953 0.0599902 -4.26871 
0.0599902 -0.945907 -1.77558 
-4.26871 -1.77558 -0.886753 
-0.831984 0.00812434 -4.25175 
0.00812434 -0.963614 -1.88377 
-4.25175 -1.88377 -0.941015 
-0.779141 0.0900024 -4.10415 
0.0900024 -1.10077 -1.77517 
-4.10415 -1.77517 -0.856706 
-1.161 -0.0736159 -4.19774 
-0.0736159 -0.98338 -1.37462 
-4.19774 -1.37462 -0.9787 
-1.17865 0.0611786 -3.93121 
0.0611786 -1.30152 -1.22642 
-3.93121 -1.22642 -0.642908 
-1.20529 -0.0753575 -4.10961 
-0.0753575 -0.995373 -1.23204 
-4.10961 -1.23204 -0.922419 
-0.673975 0.418964 -4.22709 
0.418964 -1.0313 -1.26555 
-4.22709 -1.26555 -1.4178 
-1.76398 0.0804472 2.74072 
0.0804472 -2.27716 -3.86606 
2.74072 -3.86606 -1.90884 
-1.95123 0.139698 2.6191 
0.139698 -2.06745 -3.92192 
2.6191 -3.92192 -1.9313 
-2.21552 -0.519566 2.5456 
-0.519566 -1.13153 -3.87703 
2.5456 -3.87703 -2.60293 
-1.70952 0.122193 2.50893 
0.122193 -2.22102 -3.38918 
2.50893 -3.38918 -2.01945 
-0.896975 -0.139265 -3.29515 
-0.139265 -0.825042 3.23304 
-3.29515 3.23304 -0.807901 
-0.931746 -0.243092 -3.08652 
-0.243092 -0.75375 3.0912 
-3.08652 3.0912 -0.844421 
-1.1534 0.661364 -3.22486 
0.661364 -1.13054 3.19061 
-3.22486 3.19061 -0.245978 
-0.763592 -0.0587374 -3.20842 
-0.0587374 -0.865185 3.35705 
-3.20842 3.35705 -0.90114 
-1.04959 0.0705757 2.10925 
0.0705757 -0.992639 -0.483874 
2.10925 -0.483874 -0.839723 
-0.81192 0.194033 2.22722 
0.194033 -0.897742 -0.417094 
2.22722 -0.417094 -1.17228 
-1.08197 -0.00317041 2.15597 
-0.00317041 -0.931159 -0.62152 
2.15597 -0.62152 -0.868822 
-1.02438 -0.0874328 2.11559 
-0.0874328 -0.859892 -0.563097 
2.11559 -0.563097 -0.997677 
-9.24351 0.0415855 -1.80346 
0.0415855 -9.08655 -4.21023 
-1.80346 -4.21023 -9.22284 
-9.11727 0.00363889 -1.96106 
0.00363889 -9.29685 -4.29338 
-1.96106 -4.29338 -9.13878 
-9.37803 0.0972364 -1.69759 
0.0972364 -8.61934 -4.20892 
-1.69759 -4.20892 -9.55553 
-9.07753 -0.0319195 -1.93134 
-0.0319195 -9.25096 -4.20534 
-1.93134 -4.20534 -9.22441 
-9.51277 -0.00869957 -3.40543 
-0.00869957 -9.59406 -1.6045 
-3.40543 -1.6045 -9.87786 
-9.59131 0.00270209 -3.51135 
0.00270209 -9.66307 -1.64499 
-3.51135 -1.64499 -9.73031 
-9.46354 -0.0820218 -3.49215 
-0.0820218 -9.51489 -1.81147 
-3.49215 -1.81147 -10.0063 
-9.71758 0.0186392 -3.4762 
0.0186392 -9.72463 -1.64009 
-3.4762 -1.64009 -9.54248 
-8.55864 -0.0523123 4.8059 
-0.0523123 -7.8991 0.52602 
4.8059 0.52602 -7.43871 
-7.19156 -0.0578612 4.73362 
-0.0578612 -7.87045 0.720138 
4.73362 0.720138 -8.83444 
-7.83723 -0.102679 4.50715 
-0.102679 -8.12905 0.348597 
4.50715 0.348597 -7.93017 
-8.10014 -0.109854 4.07661 
-0.109854 -7.99 0.390772 
4.07661 0.390772 -7.8063 
-7.02368 -0.00554983 0.600565 
-0.00554983 -6.82462 1.44998 
0.600565 1.44998 -7.13422 
-6.81981 -0.141201 0.665205 
-0.141201 -6.83433 1.3939 
0.665205 1.3939 -7.32837 
-6.82383 0.0883591 0.707722 
0.0883591 -6.83462 1.31192 
0.707722 1.31192 -7.32407 
-6.83404 0.0761423 0.800882 
0.0761423 -6.77392 1.23337 
0.800882 1.23337 -7.37456 
-9.42562 0.0940779 -3.4729 
0.0940779 -9.33485 0.825065 
-3.4729 0.825065 -10.2821 
-9.64849 0.0808743 -3.64838 
0.0808743 -9.77679 0.845635 
-3.64838 0.845635 -9.61727 
-9.61359 0.245893 -3.67865 
0.245893 -9.74305 0.858542 
-3.67865 0.858542 -9.6859 
-9.8425 0.0523273 -3.76549 
0.0523273 -9.7876 0.895348 
-3.76549 0.895348 -9.41245 
-1.1563 0.0634856 3.03862 
0.0634856 -0.903817 1.32888 
3.03862 1.32888 -1.10602 
-0.732676 -0.0869416 3.09385 
-0.0869416 -1.01424 1.51046 
3.09385 1.51046 -1.41922 
-0.917653 0.171077 2.71901 
0.171077 -1.34135 0.932257 
2.71901 0.932257 -0.907129 
-0.908236 -0.024998 2.80236 
-0.024998 -0.962085 1.1236 
2.80236 1.1236 -1.29582 
-9.50213 -0.11053 -0.080802 
-0.11053 -9.38163 -2.44262 
-0.080802 -2.44262 -10.0873 
-9.43718 -0.199017 -0.28961 
-0.199017 -9.57282 -2.63011 
-0.28961 -2.63011 -9.96103 
-9.6861 -0.0408992 -0.199202 
-0.0408992 -9.73988 -2.5027 
-0.199202 -2.5027 -9.54505 
-9.78579 0.0443869 -0.186916 
0.0443869 -9.76946 -2.56258 
-0.186916 -2.56258 -9.41577 
-1.40266 -0.0432222 0.787998 
-0.0432222 -1.32416 4.41319 
0.787998 4.41319 -1.34825 
-1.70593 -0.0122736 0.545032 
-0.0122736 -1.4796 4.15713 
0.545032 4.15713 -0.889548 
-1.39391 -0.0681561 0.880573 
-0.0681561 -1.33972 4.4034 
0.880573 4.4034 -1.34145 
-1.1939 -0.0316504 1.05105 
-0.0316504 -1.034 4.42707 
1.05105 4.42707 -1.84718 
-6.63231 0.321024 3.46918 
0.321024 -6.77718 3.13398 
3.46918 3.13398 -7.55757 
-7.24465 -0.0138624 3.49484 
-0.0138624 -7.21304 3.18954 
3.49484 3.18954 -6.50938 
-7.02614 -0.0602168 3.27514 
-0.0602168 -6.97221 3.19675 
3.27514 3.19675 -6.96872 
-7.0596 -0.116189 3.04483 
-0.116189 -7.00264 3.11956 
3.04483 3.11956 -6.90483 
-9.64595 0.0409952 -2.54407 
0.0409952 -9.60033 2.78948 
-2.54407 2.78948 -9.70686 
-9.61127 0.0151616 -2.4432 
0.0151616 -9.52095 2.88796 
-2.4432 2.88796 -9.82091 
-9.45147 0.0118042 -2.70975 
0.0118042 -9.44562 2.8691 
-2.70975 2.8691 -10.056 
-9.6987 -0.00871791 -2.49283 
-0.00871791 -9.7363 2.78297 
-2.49283 2.78297 -9.51814 
-0.97699 0.0316197 0.37845 
0.0316197 -0.682034 4.58689 
0.37845 4.58689 -0.863707 
-0.660443 -0.0325366 0.100569 
-0.0325366 -1.58049 4.56954 
0.100569 4.56954 -0.281793 
-0.60144 -0.00666295 0.147536 
-0.00666295 -0.769018 4.73219 
0.147536 4.73219 -1.15227 
-0.905382 -0.00271005 0.284561 
-0.00271005 -0.72344 4.50933 
0.284561 4.50933 -0.893909 
-0.632237 -0.0298231 4.54766 
-0.0298231 -1.00535 -0.472849 
4.54766 -0.472849 -0.828873 
-1.60942 0.028821 4.54631 
0.028821 -0.664296 -0.0730898 
4.54631 -0.0730898 -0.192741 
-0.801206 0.0105986 4.75677 
0.0105986 -0.353871 -0.140665 
4.75677 -0.140665 -1.31138 
-0.657412 -0.00395255 4.45656 
-0.00395255 -0.897622 -0.318159 
4.45656 -0.318159 -0.911424 
-9.51962 0.0997534 -0.176463 
0.0997534 -9.4232 3.80308 
-0.176463 3.80308 -10.0235 
-9.61258 0.0487169 0.041555 
0.0487169 -9.44952 3.68385 
0.041555 3.68385 -9.90427 
-9.70781 0.00196279 -0.0410926 
0.00196279 -9.61163 3.81097 
-0.0410926 3.81097 -9.64692 
-9.72918 -0.00671123 -0.0163892 
-0.00671123 -9.75151 3.79354 
-0.0163892 3.79354 -9.48567 
-0.663876 0.0143964 4.54111 
0.0143964 -0.943479 0.37767 
4.54111 0.37767 -0.785199 
-0.759992 -0.0142599 4.69035 
-0.0142599 -0.520309 0.154143 
4.69035 0.154143 -1.11225 
-1.46783 -0.0348447 4.53578 
-0.0348447 -0.646667 0.123492 
4.53578 0.123492 -0.278058 
-0.690446 -0.000680726 4.4827 
-0.000680726 -0.872599 0.289479 
4.4827 0.289479 -0.82951 
-9.11687 -0.014044 1.82005 
-0.014044 -8.76899 -4.14439 
1.82005 -4.14439 -9.21476 
-9.06737 -0.0807484 2.1187 
-0.0807484 -8.89848 -4.04443 
2.1187 -4.04443 -9.13478 
-9.15805 0.0657317 1.83782 
0.0657317 -9.00604 -4.18844 
1.83782 -4.18844 -8.93654 
-9.15566 -0.00283448 2.19468 
-0.00283448 -9.06558 -4.07209 
2.19468 -4.07209 -8.87939 
-0.654255 -0.0215941 -4.54023 
-0.0215941 -0.929502 0.33801 
-4.54023 0.33801 -0.775012 
-1.49076 0.0311645 -4.53137 
0.0311645 -0.62024 0.0987573 
-4.53137 0.0987573 -0.247765 
-0.719309 0.00521975 -4.67546 
0.00521975 -0.603325 0.133332 
-4.67546 0.133332 -1.03614 
-0.688678 -0.00093695 -4.4847 
-0.00093695 -0.866206 0.254176 
-4.4847 0.254176 -0.803886 
-5.60244 0.0406702 -0.676631 
0.0406702 -5.5434 -4.67263 
-0.676631 -4.67263 -6.42162 
-5.84548 -0.263011 -0.657683 
-0.263011 -6.65223 -4.60774 
-0.657683 -4.60774 -5.06975 
-5.96359 0.0376909 -0.337834 
0.0376909 -5.56598 -4.58967 
-0.337834 -4.58967 -6.03789 
-5.8193 0.147262 -0.266256 
0.147262 -5.77711 -4.3247 
-0.266256 -4.3247 -5.97104 
-9.65808 0.0192285 -3.7423 
0.0192285 -9.44402 0.166955 
-3.7423 0.166955 -9.74366 
-9.36891 0.0572944 -3.56116 
0.0572944 -9.35067 0.174133 
-3.56116 0.174133 -10.1262 
-9.61502 0.0353368 -3.69873 
0.0353368 -9.50214 0.266975 
-3.69873 0.266975 -9.72859 
-9.7135 -0.00718181 -3.7204 
-0.00718181 -9.64875 0.23378 
-3.7204 0.23378 -9.4835 
-0.692377 0.0305751 -0.0900745 
0.0305751 -1.58152 4.56602 
-0.0900745 4.56602 -0.237776 
-0.488971 0.00983621 -0.146126 
0.00983621 -0.792278 4.75408 
-0.146126 4.75408 -1.23042 
-0.922541 -0.00271546 -0.310151 
-0.00271546 -0.689589 4.48733 
-0.310151 4.48733 -0.899538 
-1.01356 -0.0284195 -0.431542 
-0.0284195 -0.661631 4.57436 
-0.431542 4.57436 -0.836476 
-0.649303 -0.021799 -0.124859 
-0.021799 -0.821938 -4.61717 
-0.124859 -4.61717 -0.930006 
-0.610532 -0.0501889 -0.162562 
-0.0501889 -1.5587 -4.5162 
-0.162562 -4.5162 -0.232011 
-1.00995 -0.0591903 -0.18659 
-0.0591903 -0.712282 -4.48354 
-0.18659 -4.48354 -0.679015 
-1.04589 0.0744909 -0.272612 
0.0744909 -0.615436 -4.58809 
-0.272612 -4.58809 -0.739925 
-0.848521 0.00677606 2.504 
0.00677606 -0.459285 -0.616148 
2.504 -0.616148 0.236802 
-0.64739 0.136171 2.46895 
0.136171 -0.289475 -0.342021 
2.46895 -0.342021 -0.134139 
-0.425774 0.0958394 2.39122 
0.0958394 -0.249065 -0.453481 
2.39122 -0.453481 -0.396166 
-0.317296 0.0150569 2.40227 
0.0150569 -0.195174 -0.355516 
2.40227 -0.355516 -0.558533 
-2.27107 -0.0503065 2.87353 
-0.0503065 -2.2317 1.68027 
2.87353 1.68027 -2.57878 
-2.33919 0.017571 2.91689 
0.017571 -2.35691 1.62189 
2.91689 1.62189 -2.38544 
-2.37454 -0.083054 3.03006 
-0.083054 -2.49978 1.80681 
3.03006 1.80681 -2.20722 
-2.28934 -0.038751 2.85783 
-0.038751 -2.32292 1.76624 
2.85783 1.76624 -2.46929 
-0.6396 0.0231236 -4.54265 
0.0231236 -0.999111 -0.450211 
-4.54265 -0.450211 -0.851741 
-0.775763 -0.0113032 -4.75246 
-0.0113032 -0.418449 -0.121883 
-4.75246 -0.121883 -1.29624 
-1.64553 -0.034225 -4.54154 
-0.034225 -0.634822 -0.0563452 
-4.54154 -0.0563452 -0.210101 
-0.664198 0.00393629 -4.44872 
0.00393629 -0.888534 -0.301987 
-4.44872 -0.301987 -0.937719 
-1.03813 -0.0866918 0.423824 
-0.0866918 -0.62105 -4.60558 
0.423824 -4.60558 -0.869438 
-0.378777 0.00491042 0.103321 
0.00491042 -0.9598 -4.66616 
0.103321 -4.66616 -1.19005 
-0.742819 0.010054 0.0586298 
0.010054 -1.47046 -4.55502 
0.0586298 -4.55502 -0.315342 
-0.941398 0.0455728 0.226617 
0.0455728 -0.749214 -4.51186 
0.226617 -4.51186 -0.838011 
-3.97793 0.220183 2.97625 
0.220183 -3.76469 3.69683 
2.97625 3.69683 -4.84735 
-4.49161 -0.195407 3.04567 
-0.195407 -4.55843 3.70136 
3.04567 3.70136 -3.53993 
-4.32862 0.0334413 2.55364 
0.0334413 -4.11348 3.69289 
2.55364 3.69289 -4.14787 
-4.29671 0.00360926 2.44959 
0.00360926 -4.22878 3.39082 
2.44959 3.39082 -4.06448 
-2.96052 0.0067765 2.90326 
0.0067765 -3.24838 -1.86327 
2.90326 -1.86327 -3.22573 
-3.22223 -0.0906936 3.05247 
-0.0906936 -3.37753 -2.08842 
3.05247 -2.08842 -2.83487 
-3.05372 -0.0220909 2.85965 
-0.0220909 -2.95158 -1.84202 
2.85965 -1.84202 -3.42933 
-3.13239 0.0359254 2.75151 
0.0359254 -3.30778 -2.00614 
2.75151 -2.00614 -2.99446 
-9.52024 -0.170031 -1.51133 
-0.170031 -9.80179 -4.1036 
-1.51133 -4.1036 -9.5636 
-9.22907 -0.0448455 -1.31701 
-0.0448455 -9.17673 -4.26308 
-1.31701 -4.26308 -10.4798 
-9.79642 -0.0792213 -1.74596 
-0.0792213 -9.73832 -4.289 
-1.74596 -4.289 -9.35089 
-9.46418 -0.00608565 -1.54428 
-0.00608565 -9.78866 -4.14095 
-1.54428 -4.14095 -9.63279 
-0.512587 0.279406 2.79969 
0.279406 -0.440293 1.12734 
2.79969 1.12734 -0.21259 
-0.326394 0.0758735 2.85639 
0.0758735 -0.323758 1.19755 
2.85639 1.19755 -0.515318 
-0.791282 0.113524 2.90722 
0.113524 -0.610249 1.41978 
2.90722 1.41978 0.236062 
-0.201191 -0.122053 2.74675 
-0.122053 -0.265208 1.28403 
2.74675 1.28403 -0.69907 
-0.776081 -0.0400121 4.28772 
-0.0400121 -1.07345 -1.89235 
4.28772 -1.89235 -1.07267 
-1.83106 0.519204 4.20046 
0.519204 -0.767296 -1.68289 
4.20046 -1.68289 -0.323839 
-0.849298 -0.199346 4.03476 
-0.199346 -1.11078 -1.73167 
4.03476 -1.73167 -0.962124 
-0.916462 -0.0949227 4.27477 
-0.0949227 -1.00608 -1.75663 
4.27477 -1.75663 -0.999652 
-4.11165 0.0898701 1.09956 
0.0898701 -4.32463 1.11997 
1.09956 1.11997 -4.63606 
-4.44095 -0.0200566 1.18381 
-0.0200566 -4.34676 1.03757 
1.18381 1.03757 -4.28462 
-4.50624 0.000513396 1.38796 
0.000513396 -4.46684 0.946261 
1.38796 0.946261 -4.09926 
-4.45307 -0.00601377 1.2777 
-0.00601377 -4.26272 0.988736 
1.2777 0.988736 -4.35654 
-1.51573 0.0152424 0.899714 
0.0152424 -1.44092 -4.47438 
0.899714 -4.47438 -1.39375 
-1.36357 0.0317141 0.984987 
0.0317141 -1.47507 -4.3113 
0.984987 -4.3113 -1.51176 
-1.72046 0.0123645 0.665157 
0.0123645 -1.56466 -4.19346 
0.665157 -4.19346 -1.06527 
-1.15684 -0.0371707 1.11517 
-0.0371707 -1.18409 -4.41236 
1.11517 -4.41236 -2.00946 
-7.25354 -0.235179 0.369687 
-0.235179 -7.43188 0.861686 
0.369687 0.861686 -7.49739 
-7.40905 -0.0964692 0.622241 
-0.0964692 -7.43615 0.947535 
0.622241 0.947535 -7.33761 
-7.43225 -0.210497 0.397554 
-0.210497 -7.40449 1.08633 
0.397554 1.08633 -7.34608 
-7.3179 0.12395 0.529684 
0.12395 -7.06629 0.784722 
0.529684 0.784722 -7.79863 
-0.312013 -0.000218229 -0.866842 
-0.000218229 -0.517974 1.11171 
-0.866842 1.11171 -0.179568 
-0.26619 0.0436184 -0.96162 
0.0436184 -0.343366 1.05084 
-0.96162 1.05084 -0.399999 
-0.355935 0.0465777 -1.06871 
0.0465777 -0.465447 1.09713 
-1.06871 1.09713 -0.188173 
-0.207898 0.0304429 -0.961628 
0.0304429 -0.232778 1.08338 
-0.961628 1.08338 -0.568879 
-7.93076 -0.265784 -0.560088 
-0.265784 -8.64232 -4.70877 
-0.560088 -4.70877 -7.16163 
-8.15146 0.0495151 -0.304626 
0.0495151 -7.49725 -4.56713 
-0.304626 -4.56713 -8.08601 
-7.60326 0.0986849 -0.72741 
0.0986849 -7.29269 -4.65243 
-0.72741 -4.65243 -8.83876 
-7.98906 0.0583837 -0.0627455 
0.0583837 -7.84649 -4.15004 
-0.0627455 -4.15004 -7.89916 
-1.22819 0.025727 2.59804 
0.025727 -1.52195 -3.68718 
2.59804 -3.68718 -1.48949 
-1.42609 -0.0731434 2.64396 
-0.0731434 -1.62651 -3.60339 
2.64396 -3.60339 -1.18702 
-1.37685 -0.0953866 2.49416 
-0.0953866 -1.44857 -3.67588 
2.49416 -3.67588 -1.41421 
-1.22579 0.0368833 2.49412 
0.0368833 -1.20104 -3.75507 
2.49412 -3.75507 -1.81279 
-9.11591 -0.126138 1.36067 
-0.126138 -8.98711 -4.3166 
1.36067 -4.3166 -9.20242 
-9.05918 -0.169806 1.7268 
-0.169806 -8.9738 -4.16549 
1.7268 -4.16549 -9.27247 
-9.11004 -0.0249573 1.70804 
-0.0249573 -9.18271 -4.22544 
1.70804 -4.22544 -9.01269 
-9.22908 0.00270323 1.34142 
0.00270323 -9.14001 -4.37533 
1.34142 -4.37533 -8.93635 
-8.79479 0.104047 -4.27675 
0.104047 -8.86226 -0.942656 
-4.27675 -0.942656 -8.52084 
-8.66858 0.088214 -4.45149 
0.088214 -8.67621 -0.933374 
-4.45149 -0.933374 -8.83311 
-8.79779 0.0987179 -4.3592 
0.0987179 -8.71454 -1.05912 
-4.3592 -1.05912 -8.66556 
-8.97251 0.209892 -4.39803 
0.209892 -8.78138 -1.17397 
-4.39803 -1.17397 -8.42401 
-0.501892 0.0185486 2.45265 
0.0185486 -0.427684 -2.96665 
2.45265 -2.96665 -0.457565 
-0.74102 0.104064 2.38698 
0.104064 -0.630643 -3.0738 
2.38698 -3.0738 -0.0154783 
-0.711249 0.165589 2.52652 
0.165589 -0.746059 -2.89288 
2.52652 -2.89288 0.0701668 
-0.369261 -0.0190556 2.50696 
-0.0190556 -0.449246 -2.98719 
2.50696 -2.98719 -0.568634 
-3.47743 -0.0148519 -1.07072 
-0.0148519 -3.27758 1.24178 
-1.07072 1.24178 -3.19567 
-3.25882 -0.105231 -1.18509 
-0.105231 -3.19257 1.10879 
-1.18509 1.10879 -3.49929 
-3.35026 0.0422889 -1.00422 
0.0422889 -3.5734 1.14656 
-1.00422 1.14656 -3.02702 
-3.35024 -0.0325034 -0.958527 
-0.0325034 -3.18164 1.21143 
-0.958527 1.21143 -3.4188 
-1.10101 -0.202831 4.02381 
-0.202831 -0.902964 1.27484 
4.02381 1.27484 -0.88596 
-1.28462 0.0941626 3.81814 
0.0941626 -1.19891 1.00745 
3.81814 1.00745 -0.406412 
-1.0678 -0.215467 4.28912 
-0.215467 -0.891658 1.27089 
4.28912 1.27089 -0.930476 
-0.352667 0.33736 4.20375 
0.33736 -1.04614 1.53771 
4.20375 1.53771 -1.49113 
-0.949715 -0.142536 3.20088 
-0.142536 -1.07958 2.71846 
3.20088 2.71846 -0.861707 
-1.22007 -0.0676923 3.25064 
-0.0676923 -0.993154 2.52289 
3.25064 2.52289 -0.677777 
-0.913599 -0.213249 3.47873 
-0.213249 -0.968398 2.87748 
3.47873 2.87748 -1.00901 
-0.695379 0.497149 3.38519 
0.497149 -0.698211 3.00289 
3.38519 3.00289 -1.49741 
-9.63811 -0.219618 0.227136 
-0.219618 -9.55003 2.43777 
0.227136 2.43777 -9.99817 
-9.50852 -0.169528 0.417485 
-0.169528 -9.67419 2.64464 
0.417485 2.64464 -10.0036 
-9.81349 -0.0785026 0.413968 
-0.0785026 -9.83518 2.46346 
0.413968 2.46346 -9.53764 
-9.86891 0.0448038 0.377411 
0.0448038 -9.8939 2.51864 
0.377411 2.51864 -9.42349 
-9.86699 -0.0228093 0.211234 
-0.0228093 -9.71516 3.15029 
0.211234 3.15029 -9.59479 
-9.69443 0.132444 0.29933 
0.132444 -9.40339 2.99836 
0.29933 2.99836 -10.0791 
-9.79314 -0.0131827 0.0776722 
-0.0131827 -9.45264 3.08962 
0.0776722 3.08962 -9.93116 
-9.84905 -0.0232743 0.177232 
-0.0232743 -9.8582 3.1519 
0.177232 3.1519 -9.4697 
-0.845862 0.0152994 3.35053 
0.0152994 -0.773845 3.18068 
3.35053 3.18068 -0.80569 
-0.832854 0.0866229 3.22186 
0.0866229 -0.882071 3.25466 
3.22186 3.25466 -0.710472 
-1.06527 -0.544703 3.19102 
-0.544703 -1.0939 3.21945 
3.19102 3.21945 -0.266232 
-0.760919 0.185029 3.13944 
0.185029 -0.919058 3.1051 
3.13944 3.1051 -0.745419 
-9.10045 -0.046279 0.319962 
-0.046279 -9.26664 -4.63314 
0.319962 -4.63314 -9.22215 
-9.37025 0.0276008 0.222915 
0.0276008 -9.22353 -4.70969 
0.222915 -4.70969 -8.99546 
-9.23944 0.0928313 0.186667 
0.0928313 -8.7426 -4.57735 
0.186667 -4.57735 -9.6072 
-9.11747 -0.0136303 0.29832 
-0.0136303 -9.26537 -4.6529 
0.29832 -4.6529 -9.2064 
-7.34801 0.0404825 4.41515 
0.0404825 -7.53115 1.21343 
4.41515 1.21343 -7.53804 
-7.63194 -0.0689241 4.64612 
-0.0689241 -7.607 1.22882 
4.64612 1.22882 -7.17826 
-6.88189 0.374467 4.36763 
0.374467 -7.47878 1.5179 
4.36763 1.5179 -8.05653 
-7.54478 -0.0267571 4.43882 
-0.0267571 -7.41549 1.11741 
4.43882 1.11741 -7.45693 
-5.26694 0.163493 1.7662 
0.163493 -4.91036 -4.34086 
1.7662 -4.34086 -3.69802 
-4.09128 0.152422 1.49821 
0.152422 -4.13635 -4.36065 
1.49821 -4.36065 -5.64769 
-4.39735 0.120228 1.345 
0.120228 -4.7739 -3.84925 
1.345 -3.84925 -4.70408 
-4.76984 -0.00261685 1.56563 
-0.00261685 -4.65028 -4.01001 
1.56563 -4.01001 -4.4552 
-7.29522 -0.197883 -4.03989 
-0.197883 -7.7765 2.28748 
-4.03989 2.28748 -8.16867 
-7.7326 -0.00979807 -4.04384 
-0.00979807 -7.76274 2.28887 
-4.04384 2.28887 -7.74504 
-8.00617 0.0821194 -4.05178 
0.0821194 -7.60567 2.47794 
-4.05178 2.47794 -7.62854 
-7.82914 0.149461 -3.73543 
0.149461 -7.5903 2.42277 
-3.73543 2.42277 -7.82095 
-9.42988 0.0225621 2.31815 
0.0225621 -9.74962 -0.597501 
2.31815 -0.597501 -9.95212 
-9.3728 0.171238 2.39755 
0.171238 -9.65788 -0.904889 
2.39755 -0.904889 -10.1009 
-9.75292 0.0404177 2.33501 
0.0404177 -9.84418 -0.727983 
2.33501 -0.727983 -9.53452 
-9.89478 -0.00624423 2.40119 
-0.00624423 -9.8148 -0.69079 
2.40119 -0.69079 -9.42205 
-2.68821 -0.00428409 -0.61693 
-0.00428409 -2.76173 0.801077 
-0.61693 0.801077 -2.83215 
-3.00361 0.114922 -0.427108 
0.114922 -2.73013 0.75125 
-0.427108 0.75125 -2.54835 
-2.71208 -0.0580402 -0.623162 
-0.0580402 -2.82057 0.756358 
-0.623162 0.756358 -2.74943 
-2.7272 0.0123404 -0.671072 
0.0123404 -2.63441 0.680157 
-0.671072 0.680157 -2.92048 
-0.612199 0.131973 2.52445 
0.131973 -0.492148 -2.28922 
2.52445 -2.28922 -0.220479 
-0.725187 0.0648571 2.28135 
0.0648571 -0.734574 -2.51383 
2.28135 -2.51383 0.134935 
-0.495765 0.0615799 2.38966 
0.0615799 -0.472022 -2.31869 
2.38966 -2.31869 -0.357038 
-0.348368 0.0442052 2.47719 
0.0442052 -0.395127 -2.30566 
2.47719 -2.30566 -0.581332 
-4.32029 0.0218531 -4.65069 
0.0218531 -4.52004 -0.736577 
-4.65069 -0.736577 -3.9085 
-3.82432 0.0597725 -4.68637 
0.0597725 -4.26784 -0.600666 
-4.68637 -0.600666 -4.65666 
-4.33772 -0.0266992 -4.58158 
-0.0266992 -4.21051 -0.490298 
-4.58158 -0.490298 -4.20059 
-4.33451 -0.0298292 -4.50649 
-0.0298292 -4.23205 -0.477944 
-4.50649 -0.477944 -4.18226 
-9.32191 -0.0180106 4.61535 
-0.0180106 -9.15111 0.403612 
4.61535 0.403612 -9.07626 
-9.27328 -0.064832 4.77902 
-0.064832 -9.53669 0.237288 
4.77902 0.237288 -8.73931 
-8.67019 -0.119013 4.53476 
-0.119013 -9.24685 0.127191 
4.53476 0.127191 -9.63223 
-9.26271 0.0165777 4.61951 
0.0165777 -9.15156 0.386436 
4.61951 0.386436 -9.135 
-9.4275 0.282176 3.04452 
0.282176 -9.49127 -2.38231 
3.04452 -2.38231 -10.1667 
-9.63793 0.0810997 2.89708 
0.0810997 -9.51155 -2.1626 
2.89708 -2.1626 -9.93602 
-9.91379 -0.00363609 3.04425 
-0.00363609 -9.661 -2.20918 
3.04425 -2.20918 -9.51071 
-9.84001 -0.0729996 2.94584 
-0.0729996 -9.831 -2.26586 
2.94584 -2.26586 -9.4145 
-0.431844 -0.020834 -1.58478 
-0.020834 -0.246102 2.1873 
-1.58478 2.1873 -0.336929 
-0.769212 -0.139803 -1.63266 
-0.139803 -0.300106 2.29627 
-1.63266 2.29627 0.0544431 
-0.809254 0.0261621 -1.62957 
0.0261621 -0.354085 2.0165 
-1.62957 2.0165 0.148463 
-0.187571 -0.0110507 -1.59323 
-0.0110507 -0.266972 2.2667 
-1.59323 2.2667 -0.560332 
-4.19063 -0.061906 -4.41813 
-0.061906 -4.07065 -1.19482 
-4.41813 -1.19482 -4.15798 
-3.71541 0.0809459 -4.60087 
0.0809459 -4.07283 -0.966674 
-4.60087 -0.966674 -4.63101 
-4.18077 0.0369334 -4.52752 
0.0369334 -4.39011 -1.07771 
-4.52752 -1.07771 -3.84838 
-4.25814 -0.0249706 -4.31294 
-0.0249706 -4.00017 -1.14913 
-4.31294 -1.14913 -4.16094 
-9.79621 0.106345 -0.316757 
0.106345 -9.84344 2.70025 
-0.316757 2.70025 -9.563 
-9.32162 0.0666952 -0.232971 
0.0666952 -9.82958 2.83602 
-0.232971 2.83602 -10.0515 
-9.51556 0.143249 -0.195549 
0.143249 -9.70476 2.57325 
-0.195549 2.57325 -9.98232 
-9.93773 0.00843969 -0.26343 
0.00843969 -9.82773 2.70455 
-0.26343 2.70455 -9.43718 
-9.23201 -0.0300927 -4.63819 
-0.0300927 -9.11601 0.355806 
-4.63819 0.355806 -9.1726 
-9.19238 0.0342853 -4.74191 
0.0342853 -9.44455 0.228095 
-4.74191 0.228095 -8.88368 
-8.71164 0.0726444 -4.58719 
0.0726444 -9.2316 0.166448 
-4.58719 0.166448 -9.57738 
-9.23586 -0.00871904 -4.65506 
-0.00871904 -9.12559 0.34272 
-4.65506 0.34272 -9.15916 
-0.929919 -0.094371 -3.98022 
-0.094371 -0.740256 -2.0592 
-3.98022 -2.0592 -0.918151 
-0.970361 -0.091604 -3.7595 
-0.091604 -0.930602 -2.0768 
-3.7595 -2.0768 -0.687363 
-1.01663 0.0140257 -3.78239 
0.0140257 -0.935085 -1.92182 
-3.78239 -1.92182 -0.636611 
-0.402605 0.236753 -3.8137 
0.236753 -0.946732 -1.97038 
-3.8137 -1.97038 -1.23899 
-1.32092 -0.0359594 -3.75886 
-0.0359594 -1.41689 -2.50561 
-3.75886 -2.50561 -1.40412 
-1.48895 0.0286133 -3.66168 
0.0286133 -1.65584 -2.20594 
-3.66168 -2.20594 -0.997145 
-1.28749 -0.0626326 -3.78475 
-0.0626326 -1.41464 -2.40686 
-3.78475 -2.40686 -1.4398 
-1.05635 0.0161078 -3.71632 
0.0161078 -1.15086 -2.5928 
-3.71632 -2.5928 -1.93473 
-5.75282 0.114672 -2.49733 
0.114672 -5.57969 -3.98613 
-2.49733 -3.98613 -6.32403 
-5.92981 0.0100047 -2.52062 
0.0100047 -5.85488 -3.78671 
-2.52062 -3.78671 -5.87184 
-5.978 -0.248957 -2.42298 
-0.248957 -6.42039 -4.00617 
-2.42298 -4.00617 -5.25814 
-5.93008 0.097077 -2.49045 
0.097077 -5.76822 -3.53079 
-2.49045 -3.53079 -5.95824 
-5.08678 -0.0714945 -0.159603 
-0.0714945 -5.45334 4.69664 
-0.159603 4.69664 -4.27703 
-4.88012 0.0229561 -0.398233 
0.0229561 -5.06585 4.57516 
-0.398233 4.57516 -4.87118 
-4.81598 0.0377777 -0.180169 
0.0377777 -4.3792 4.79093 
-0.180169 4.79093 -5.62197 
-4.93677 -0.0728434 -0.5489 
-0.0728434 -4.88621 4.31715 
-0.5489 4.31715 -4.99416 
-5.22444 0.108859 4.5157 
0.108859 -5.00324 -1.35086 
4.5157 -1.35086 -4.75224 
-4.90445 0.00788559 4.35958 
0.00788559 -5.0105 -1.42096 
4.35958 -1.42096 -5.06498 
-4.48816 -0.200637 4.46763 
-0.200637 -4.92765 -1.43821 
4.46763 -1.43821 -5.56411 
-5.03846 0.103545 4.32292 
0.103545 -4.97087 -1.18855 
4.32292 -1.18855 -4.97059 
-0.397092 0.0286194 2.34651 
0.0286194 -0.519021 -2.25953 
2.34651 -2.25953 -0.325972 
-0.576022 0.0308071 2.1172 
0.0308071 -0.622483 -2.29495 
2.1172 -2.29495 -0.0435792 
-0.399459 0.0569641 2.33175 
0.0569641 -0.499473 -2.09719 
2.33175 -2.09719 -0.343153 
-0.299244 0.022598 2.30568 
0.022598 -0.312031 -2.17113 
2.30568 -2.17113 -0.630809 
-2.59254 -0.0390515 1.82651 
-0.0390515 -2.53049 -4.37474 
1.82651 -4.37474 -2.73967 
-2.49771 0.0346539 1.71592 
0.0346539 -2.60923 -4.38889 
1.71592 -4.38889 -2.75577 
-2.56067 0.0844505 1.70183 
0.0844505 -2.99935 -4.32933 
1.70183 -4.32933 -2.30269 
-2.59417 0.0519675 1.77104 
0.0519675 -2.65497 -4.38825 
1.77104 -4.38825 -2.61356 
-1.61853 0.0463978 3.72432 
0.0463978 -1.62987 -2.5112 
3.72432 -2.5112 -1.73656 
-1.57767 0.120838 3.81625 
0.120838 -1.64132 -2.42021 
3.81625 -2.42021 -1.76598 
-1.75146 0.022907 3.76158 
0.022907 -1.80656 -2.35365 
3.76158 -2.35365 -1.42695 
-1.39852 0.0100437 3.78115 
0.0100437 -1.34221 -2.60051 
3.78115 -2.60051 -2.24424 
-0.187244 0.0899746 1.12423 
0.0899746 -0.777444 -3.15907 
1.12423 -3.15907 -0.234652 
-0.336533 0.0816866 1.16229 
0.0816866 -0.459257 -3.14957 
1.16229 -3.14957 -0.403549 
-0.66131 0.120141 1.32098 
0.120141 -0.797567 -2.97381 
1.32098 -2.97381 0.259538 
-0.248936 0.0528278 1.11032 
0.0528278 -0.32557 -3.23382 
1.11032 -3.23382 -0.624833 
-0.814535 -0.00556993 -1.66393 
-0.00556993 -0.93985 -4.31858 
-1.66393 -4.31858 -1.09405 
-1.03643 0.143746 -1.6796 
0.143746 -0.84563 -4.12525 
-1.6796 -4.12525 -0.966383 
-0.779871 -0.397636 -1.81073 
-0.397636 -1.61049 -4.16846 
-1.81073 -4.16846 -0.458073 
-1.01967 0.0526199 -1.74973 
0.0526199 -0.856 -4.26893 
-1.74973 -4.26893 -0.97277 
-9.58849 0.0317244 -0.159228 
0.0317244 -9.60062 -3.96324 
-0.159228 -3.96324 -9.76278 
-9.47259 -0.0370114 -0.0863918 
-0.0370114 -9.43739 -4.0669 
-0.0863918 -4.0669 -10.0419 
-9.55796 -0.0242343 -0.0575335 
-0.0242343 -9.59943 -3.94367 
-0.0575335 -3.94367 -9.7945 
-9.74564 -0.0097839 -0.125245 
-0.0097839 -9.65228 -3.91058 
-0.125245 -3.91058 -9.55396 
-2.19491 -0.0837458 2.38069 
-0.0837458 -2.02238 -4.08302 
2.38069 -4.08302 -2.64869 
-2.47753 0.402191 2.1971 
0.402191 -2.57837 -4.16332 
2.1971 -4.16332 -1.81007 
-2.3432 -0.139177 2.24219 
-0.139177 -2.32012 -3.95189 
2.24219 -3.95189 -2.20266 
-2.33451 -0.156439 2.06164 
-0.156439 -2.35677 -3.71191 
2.06164 -3.71191 -2.1747 
-7.11716 0.144532 1.68209 
0.144532 -6.84681 4.32854 
1.68209 4.32854 -7.65129 
-7.19931 0.0550157 1.69013 
0.0550157 -7.12631 4.15077 
1.69013 4.15077 -7.28963 
-7.25202 -0.159812 1.66388 
-0.159812 -7.35106 4.38221 
1.66388 4.38221 -7.01218 
-7.31244 0.0312459 1.6814 
0.0312459 -7.08896 4.04946 
1.6814 4.04946 -7.21386 
-9.31734 -0.0689004 0.554014 
-0.0689004 -8.866 2.39321 
0.554014 2.39321 -9.3139 
-9.13043 0.0831053 0.748912 
0.0831053 -9.36201 2.61456 
0.748912 2.61456 -9.00481 
-9.02361 0.00526927 0.747717 
0.00526927 -9.35177 2.58551 
0.747717 2.58551 -9.12186 
-9.34978 0.0270699 0.583805 
0.0270699 -9.17278 2.46093 
0.583805 2.46093 -8.97468 
-0.916381 -0.0966168 0.544624 
-0.0966168 -1.10826 4.18372 
0.544624 4.18372 -0.496032 
-0.661856 0.0286448 0.454669 
0.0286448 -0.987092 4.42713 
0.454669 4.42713 -0.871728 
-0.856048 0.0311011 0.352982 
0.0311011 -1.03646 4.24268 
0.352982 4.24268 -0.628172 
-1.04613 0.0595874 0.251788 
0.0595874 -0.247582 4.32977 
0.251788 4.32977 -1.22696 
-4.89587 0.192942 2.54655 
0.192942 -4.89819 -3.93058 
2.54655 -3.93058 -5.48125 
-5.25109 -0.0471146 2.61046 
-0.0471146 -5.15612 -3.94003 
2.61046 -3.94003 -4.8681 
-5.11604 0.00683881 2.7049 
0.00683881 -5.0093 -3.6923 
2.7049 -3.6923 -5.14998 
-5.08648 -0.0104289 2.6269 
-0.0104289 -5.02016 -3.73359 
2.6269 -3.73359 -5.16867 
-0.63973 0.0466231 0.921466 
0.0466231 -0.458623 -3.76529 
0.921466 -3.76529 -0.18796 
-0.462162 0.125833 0.881249 
0.125833 -0.485335 -3.67738 
0.881249 -3.67738 -0.338815 
-0.827405 -0.0940963 0.832548 
-0.0940963 -0.647105 -3.61857 
0.832548 -3.61857 0.188198 
-0.320792 0.0320741 0.920239 
0.0320741 -0.434085 -3.7372 
0.920239 -3.7372 -0.531436 
-9.58728 0.0307314 0.798155 
0.0307314 -9.91127 -4.26519 
0.798155 -4.26519 -9.66766 
-9.6276 0.144231 0.752772 
0.144231 -9.81343 -4.33622 
0.752772 -4.33622 -9.72518 
-9.43959 0.166464 0.585642 
0.166464 -9.31733 -4.43183 
0.585642 -4.43183 -10.4093 
-9.86065 -0.0458516 0.943283 
-0.0458516 -9.93675 -4.50163 
0.943283 -4.50163 -9.36881 
-0.768982 0.152745 1.3243 
0.152745 -1.04758 -4.19076 
1.3243 -4.19076 -0.90022 
-1.6599 -0.101511 1.309 
-0.101511 -0.931285 -3.90435 
1.309 -3.90435 -0.125597 
-0.808731 0.0594604 1.38091 
0.0594604 -0.980658 -4.26973 
1.38091 -4.26973 -0.927392 
-1.05527 -0.324337 1.68926 
-0.324337 0.0289108 -4.06531 
1.68926 -4.06531 -1.69042 
-3.47016 -0.0332029 -0.870306 
-0.0332029 -3.39857 0.799691 
-0.870306 0.799691 -3.3514 
-3.44767 -0.00666187 -0.989587 
-0.00666187 -3.56313 0.816247 
-0.989587 0.816247 -3.20934 
-3.34962 -0.0258161 -0.989924 
-0.0258161 -3.35602 0.719105 
-0.989924 0.719105 -3.51451 
-3.35904 -0.0563317 -0.782887 
-0.0563317 -3.31065 0.78439 
-0.782887 0.78439 -3.55045 
-3.51088 -0.385626 -4.39569 
-0.385626 -2.88177 -1.43754 
-4.39569 -1.43754 -2.05859 
-2.57855 0.123989 -4.61232 
0.123989 -2.72326 -1.25442 
-4.61232 -1.25442 -3.14942 
-2.81075 0.00333388 -4.42374 
0.00333388 -2.8559 -1.21861 
-4.42374 -1.21861 -2.78459 
-2.7521 0.123943 -4.30962 
0.123943 -2.86617 -0.999767 
-4.30962 -0.999767 -2.83297 
-0.690361 -0.139109 0.110885 
-0.139109 -0.551525 -1.3401 
0.110885 -1.3401 0.133649 
-0.485942 -0.101523 0.0771774 
-0.101523 -0.383329 -1.47327 
0.0771774 -1.47327 -0.238967 
-0.601014 -0.318781 0.213017 
-0.318781 -0.622579 -1.47732 
0.213017 -1.47732 0.115355 
-0.347205 -0.00244194 0.0103504 
-0.00244194 -0.366602 -1.41596 
0.0103504 -1.41596 -0.394431 
-0.472239 0.0821967 -1.48531 
0.0821967 -0.32162 0.0529218 
-1.48531 0.0529218 -0.237461 
-0.326034 0.128636 -1.55204 
0.128636 -0.327106 -0.0310629 
-1.55204 -0.0310629 -0.37818 
-0.833099 0.225664 -1.56013 
0.225664 -0.468814 -0.26622 
-1.56013 -0.26622 0.270593 
-0.298565 0.0303385 -1.42121 
0.0303385 -0.204081 0.143468 
-1.42121 0.143468 -0.528673 
-9.85172 -0.0827851 2.65925 
-0.0827851 -9.79658 -2.82843 
2.65925 -2.82843 -9.52501 
-9.61137 0.032729 2.48784 
0.032729 -9.34503 -2.72385 
2.48784 -2.72385 -10.2169 
-9.7952 -0.12136 2.78753 
-0.12136 -9.52569 -2.74535 
2.78753 -2.74535 -9.85242 
-9.84268 0.00854184 2.76578 
0.00854184 -9.92784 -2.73239 
2.76578 -2.73239 -9.40279 
-9.91749 0.0524235 0.635054 
0.0524235 -9.77401 0.950012 
0.635054 0.950012 -9.57684 
-9.79611 0.191261 0.530168 
0.191261 -9.49378 1.05021 
0.530168 1.05021 -9.97844 
-9.80634 0.0529817 0.793299 
0.0529817 -9.45335 0.978529 
0.793299 0.978529 -10.0086 
-9.86773 -0.00834639 0.637048 
-0.00834639 -9.93704 1.02675 
0.637048 1.02675 -9.46357 
-7.37029 -0.00929592 -3.24165 
-0.00929592 -7.42894 -3.40685 
-3.24165 -3.40685 -7.42788 
-7.57488 0.0434534 -3.28431 
0.0434534 -7.55346 -3.57282 
-3.28431 -3.57282 -7.09876 
-7.23095 0.318507 -3.06089 
0.318507 -6.89333 -3.47275 
-3.06089 -3.47275 -8.10281 
-7.34909 -0.0541753 -3.28331 
-0.0541753 -7.4714 -3.36092 
-3.28331 -3.36092 -7.40661 
-9.22833 0.0164645 -1.15517 
0.0164645 -9.37841 -4.5614 
-1.15517 -4.5614 -8.8698 
-9.54932 0.0134032 -0.904264 
0.0134032 -8.24802 -4.39517 
-0.904264 -4.39517 -9.6792 
-9.10163 -0.0757322 -0.913101 
-0.0757322 -9.27959 -4.47681 
-0.913101 -4.47681 -9.09533 
-8.92158 -0.157065 -1.00054 
-0.157065 -9.4455 -4.23646 
-1.00054 -4.23646 -9.10945 
-8.19339 0.0649106 -4.47767 
0.0649106 -8.05806 -1.28016 
-4.47767 -1.28016 -7.06492 
-7.91653 -0.0239912 -3.94195 
-0.0239912 -7.54502 -1.35242 
-3.94195 -1.35242 -7.85481 
-7.23331 -0.0142207 -4.24868 
-0.0142207 -7.26545 -1.65391 
-4.24868 -1.65391 -8.8176 
-7.81078 0.0152447 -4.07072 
0.0152447 -7.70559 -1.26741 
-4.07072 -1.26741 -7.8 
-5.01229 0.010631 -2.93628 
0.010631 -5.21293 -1.82086 
-2.93628 -1.82086 -4.45365 
-5.18674 -0.000819016 -2.77855 
-0.000819016 -4.73485 -1.95662 
-2.77855 -1.95662 -4.75727 
-4.78257 0.0157493 -2.64313 
0.0157493 -4.69318 -1.74397 
-2.64313 -1.74397 -5.20311 
-5.0621 0.134818 -2.88481 
0.134818 -4.68317 -1.79689 
-2.88481 -1.79689 -4.93359 
-9.12354 0.00126587 -0.322774 
0.00126587 -9.26457 4.65759 
-0.322774 4.65759 -9.1626 
-9.28398 0.134375 -0.16672 
0.134375 -8.6076 4.56056 
-0.16672 4.56056 -9.65914 
-9.4258 0.0445079 -0.244937 
0.0445079 -9.23825 4.75794 
-0.244937 4.75794 -8.88667 
-9.11436 -0.0133208 -0.355454 
-0.0133208 -9.2686 4.63333 
-0.355454 4.63333 -9.16775 
-4.31657 -0.0336624 1.12452 
-0.0336624 -4.32268 -4.5682 
1.12452 -4.5682 -3.6528 
-4.02133 0.0429084 1.26957 
0.0429084 -4.25295 -4.43235 
1.26957 -4.43235 -4.01776 
-4.06388 -0.0998485 0.931668 
-0.0998485 -3.57351 -4.64117 
0.931668 -4.64117 -4.65465 
-3.97714 -0.0559529 1.21878 
-0.0559529 -4.26374 -4.29996 
1.21878 -4.29996 -4.05116 
-0.912877 0.0961243 2.89266 
0.0961243 -0.818447 -3.43239 
2.89266 -3.43239 -1.00506 
-0.980713 -0.118706 2.89375 
-0.118706 -0.997714 -3.27591 
2.89375 -3.27591 -0.757956 
-0.934601 0.0901679 2.78157 
0.0901679 -0.991066 -3.36256 
2.78157 -3.36256 -0.810717 
-0.74641 -0.307454 2.7457 
-0.307454 -0.772919 -3.20775 
2.7457 -3.20775 -1.21705 
-9.25454 0.0222988 4.36328 
0.0222988 -9.20947 -1.72618 
4.36328 -1.72618 -9.23307 
-9.14897 -0.129005 4.32183 
-0.129005 -9.13966 -1.71983 
4.32183 -1.71983 -9.40845 
-9.30273 -0.00537742 4.39929 
-0.00537742 -9.04142 -1.71973 
4.39929 -1.71973 -9.35293 
-9.12915 -0.262915 4.14285 
-0.262915 -9.33869 -1.74016 
4.14285 -1.74016 -9.22925 
-9.66417 0.00943866 3.29972 
0.00943866 -9.78776 -1.06622 
3.29972 -1.06622 -9.51737 
-9.40158 -0.0497397 3.36758 
-0.0497397 -9.6114 -0.916051 
3.36758 -0.916051 -9.95632 
-9.23854 0.0938917 3.36429 
0.0938917 -9.70761 -1.25675 
3.36429 -1.25675 -10.0231 
-9.81762 -0.00529257 3.31588 
-0.00529257 -9.77748 -1.03721 
3.31588 -1.03721 -9.3742 
-0.410698 0.168478 3.29375 
0.168478 -0.433675 1.38295 
3.29375 1.38295 -0.314304 
-0.258783 0.0182276 3.29359 
0.0182276 -0.407107 1.26219 
3.29359 1.26219 -0.492787 
-0.634507 0.0237585 3.20128 
0.0237585 -0.627815 1.18304 
3.20128 1.18304 0.103645 
-0.245837 -0.0244564 3.36339 
-0.0244564 -0.272024 1.33715 
3.36339 1.33715 -0.640817 
-0.846349 -0.00200121 4.25508 
-0.00200121 -0.763298 1.67493 
4.25508 1.67493 -0.770272 
-1.37316 -0.336153 4.17777 
-0.336153 -0.705749 1.73699 
4.17777 1.73699 -0.301004 
-0.685372 0.096424 4.05539 
0.096424 -0.953389 1.74699 
4.05539 1.74699 -0.741157 
-0.731149 0.0625041 4.22066 
0.0625041 -0.909303 1.82064 
4.22066 1.82064 -0.739467 
-9.39751 0.0407244 -2.47905 
0.0407244 -9.51998 -0.80584 
-2.47905 -0.80584 -10.1702 
-9.62457 -0.0772744 -2.50838 
-0.0772744 -9.81287 -0.960774 
-2.50838 -0.960774 -9.65026 
-9.5115 0.00866429 -2.41486 
0.00866429 -9.77659 -1.0485 
-2.41486 -1.0485 -9.79961 
-9.79927 -0.00367459 -2.50112 
-0.00367459 -9.80664 -1.05392 
-2.50112 -1.05392 -9.48179 
-9.26619 0.0201092 -2.83771 
0.0201092 -9.57032 -0.928862 
-2.83771 -0.928862 -10.2467 
-9.62142 0.0613896 -2.7848 
0.0613896 -9.71902 -1.15529 
-2.7848 -1.15529 -9.7428 
-9.73558 0.131412 -2.76186 
0.131412 -9.68703 -1.05458 
-2.76186 -1.05458 -9.66064 
-9.80555 -0.00780085 -2.72395 
-0.00780085 -9.80701 -1.17146 
-2.72395 -1.17146 -9.47069 
-9.67822 0.0172603 -2.08191 
0.0172603 -9.63764 -3.45163 
-2.08191 -3.45163 -9.65298 
-9.43667 -0.0386735 -2.0752 
-0.0386735 -9.5084 -3.35622 
-2.0752 -3.35622 -10.0238 
-9.40275 0.0168699 -2.10677 
0.0168699 -9.59126 -3.51212 
-2.10677 -3.51212 -9.97483 
-9.76871 0.0626841 -2.02746 
0.0626841 -9.64729 -3.44698 
-2.02746 -3.44698 -9.55284 
-5.12157 -0.116732 -2.67604 
-0.116732 -5.36042 -1.89337 
-2.67604 -1.89337 -5.75289 
-5.18225 0.136539 -2.75959 
0.136539 -5.47795 -1.88341 
-2.75959 -1.88341 -5.57468 
-5.30355 0.0739594 -2.74208 
0.0739594 -5.46123 -1.78946 
-2.74208 -1.78946 -5.47011 
-5.40064 0.0716932 -2.88257 
0.0716932 -5.50954 -2.06096 
-2.88257 -2.06096 -5.3247 
-5.24137 0.0470414 -1.16194 
0.0470414 -5.15962 4.40712 
-1.16194 4.40712 -5.00248 
-5.68272 -0.0823423 -1.49849 
-0.0823423 -5.08588 4.43944 
-1.49849 4.43944 -4.63488 
-4.95275 0.0773102 -1.43557 
0.0773102 -5.119 4.48174 
-1.43557 4.48174 -5.33173 
-5.23058 0.0337774 -1.21126 
0.0337774 -5.18858 4.40986 
-1.21126 4.40986 -4.98433 
-9.82172 -0.000486116 -4.5779 
-0.000486116 -9.7804 -0.952012 
-4.5779 -0.952012 -9.35359 
-9.79601 0.00692606 -4.39589 
0.00692606 -9.54884 -0.852298 
-4.39589 -0.852298 -9.61086 
-9.31764 -0.0263042 -4.4719 
-0.0263042 -9.29879 -0.624181 
-4.4719 -0.624181 -10.3393 
-9.83706 -0.167949 -4.41036 
-0.167949 -9.44005 -0.768808 
-4.41036 -0.768808 -9.6786 
-8.99958 -0.122791 -3.64539 
-0.122791 -9.00845 1.64548 
-3.64539 1.64548 -9.17368 
-9.06463 -0.00448265 -3.66333 
-0.00448265 -9.2135 1.69641 
-3.66333 1.69641 -8.90359 
-8.93535 -0.151853 -3.30814 
-0.151853 -9.03521 1.86611 
-3.30814 1.86611 -9.21115 
-9.08429 0.00372915 -3.32176 
0.00372915 -9.18145 1.83964 
-3.32176 1.83964 -8.91598 
-8.53836 -0.131676 1.88129 
-0.131676 -8.27732 -4.49669 
1.88129 -4.49669 -8.73279 
-8.56629 0.0402474 1.96329 
0.0402474 -8.76693 -4.24293 
1.96329 -4.24293 -8.21524 
-8.63897 0.227773 1.69667 
0.227773 -8.7584 -4.37902 
1.69667 -4.37902 -8.15109 
-8.45643 -0.0189444 1.75379 
-0.0189444 -8.33939 -4.32027 
1.75379 -4.32027 -8.75264 
-0.167648 -0.038672 2.91768 
-0.038672 -0.202875 -0.061672 
2.91768 -0.061672 -0.593668 
-0.247505 -0.157187 2.79733 
-0.157187 -0.528516 -0.0493834 
2.79733 -0.0493834 -0.18817 
-0.4827 -0.0323148 3.02488 
-0.0323148 -0.505679 -0.264597 
3.02488 -0.264597 0.024188 
-0.188032 0.0771476 2.90297 
0.0771476 -0.115078 -0.182098 
2.90297 -0.182098 -0.66108 
-0.574231 0.184189 0.726086 
0.184189 -0.367244 -2.54572 
0.726086 -2.54572 -0.0437527 
-0.322801 0.0206757 0.68892 
0.0206757 -0.181996 -2.66487 
0.68892 -2.66487 -0.480431 
-0.635885 0.0583687 0.626267 
0.0583687 -0.412826 -2.84667 
0.626267 -2.84667 0.0634843 
-0.185285 -0.00156998 0.756147 
-0.00156998 -0.220589 -2.68711 
0.756147 -2.68711 -0.579353 
-9.45467 0.0504398 -3.73024 
0.0504398 -9.07681 2.53632 
-3.73024 2.53632 -9.08007 
-9.21185 -0.0845603 -3.72932 
-0.0845603 -9.0613 2.4632 
-3.72932 2.4632 -9.3384 
-9.15888 -0.0954067 -4.05628 
-0.0954067 -9.12628 2.15662 
-4.05628 2.15662 -9.32639 
-9.21172 0.088945 -3.97528 
0.088945 -9.28225 2.14433 
-3.97528 2.14433 -9.11758 
-0.928034 -0.108761 1.62969 
-0.108761 -0.950562 -4.26805 
1.62969 -4.26805 -1.03356 
-1.13304 0.304148 2.13699 
0.304148 -1.15133 -4.14712 
2.13699 -4.14712 -0.627787 
-0.928277 0.0198243 1.52822 
0.0198243 -0.961361 -4.24144 
1.52822 -4.24144 -1.02252 
-0.920625 0.546535 1.03992 
0.546535 -0.552973 -4.17579 
1.03992 -4.17579 -1.43856 
-4.7569 0.287711 1.58848 
0.287711 -5.22674 -4.3748 
1.58848 -4.3748 -4.04048 
-4.49258 -0.172778 1.22519 
-0.172778 -4.4371 -4.63554 
1.22519 -4.63554 -5.09445 
-4.80541 -0.0669745 1.24225 
-0.0669745 -4.76115 -4.42859 
1.24225 -4.42859 -4.45756 
-4.92711 -0.122395 0.971815 
-0.122395 -4.56702 -4.06403 
0.971815 -4.06403 -4.52999 
-9.62819 0.0291915 0.0133156 
0.0291915 -9.62413 3.99021 
0.0133156 3.99021 -9.73239 
-9.49128 0.101868 0.199262 
0.101868 -9.47624 3.98824 
0.199262 3.98824 -10.0172 
-9.60016 0.0336201 0.000799314 
0.0336201 -9.53504 4.0963 
0.000799314 4.0963 -9.84951 
-9.73288 0.00689258 0.0257184 
0.00689258 -9.7222 4.04968 
0.0257184 4.04968 -9.52962 
-4.6173 0.0468747 0.174489 
0.0468747 -4.65369 -1.57623 
0.174489 -1.57623 -4.32471 
-4.66676 0.0532749 0.173956 
0.0532749 -4.47217 -1.63999 
0.173956 -1.63999 -4.45678 
-4.52319 0.032653 0.146728 
0.032653 -4.56043 -1.48479 
0.146728 -1.48479 -4.51209 
-4.39053 0.109914 0.297058 
0.109914 -4.50116 -1.62885 
0.297058 -1.62885 -4.70401 
-0.627321 0.0101513 1.19998 
0.0101513 -0.420602 -2.62093 
1.19998 -2.62093 -0.0149804 
-0.600543 0.101937 1.10331 
0.101937 -0.445345 -2.90819 
1.10331 -2.90819 -0.0170155 
-0.284196 0.0174311 1.10564 
0.0174311 -0.298114 -2.76604 
1.10564 -2.76604 -0.480593 
-0.10378 -0.040611 0.976319 
-0.040611 -0.364449 -2.81468 
0.976319 -2.81468 -0.594674 
-5.19207 -0.0727256 -4.33555 
-0.0727256 -5.33196 2.12257 
-4.33555 2.12257 -5.7668 
-5.55487 0.0935317 -4.1031 
0.0935317 -5.55818 1.96734 
-4.1031 1.96734 -5.17778 
-5.79186 0.0436912 -4.36279 
0.0436912 -5.47886 1.68981 
-4.36279 1.68981 -5.02011 
-5.41781 -0.244292 -3.97935 
-0.244292 -5.43924 1.9661 
-3.97935 1.9661 -5.43378 
-9.68634 0.141915 -1.891 
0.141915 -9.4029 -0.0518082 
-1.891 -0.0518082 -10.0824 
-9.80389 0.0131879 -1.58581 
0.0131879 -9.40129 -0.149202 
-1.58581 -0.149202 -9.96644 
-9.88937 0.0286658 -1.73245 
0.0286658 -9.77251 -0.177214 
-1.73245 -0.177214 -9.50973 
-9.84407 -0.0455156 -1.69961 
-0.0455156 -9.91455 -0.0872283 
-1.69961 -0.0872283 -9.41299 
-0.401127 0.00647043 3.41131 
0.00647043 -0.222943 -3.11967 
3.41131 -3.11967 -0.614973 
-0.525178 -0.123675 3.51717 
-0.123675 -0.328641 -2.92237 
3.51717 -2.92237 -0.385224 
-0.913644 0.0573548 3.62551 
0.0573548 -0.608239 -2.75452 
3.62551 -2.75452 0.28284 
-0.506263 -0.0164474 3.45483 
-0.0164474 -0.328083 -3.00813 
3.45483 -3.00813 -0.404697 
-9.13858 -0.00139695 -0.364079 
-0.00139695 -9.2558 -4.65905 
-0.364079 -4.65905 -9.17556 
-9.23692 -0.141547 -0.167524 
-0.141547 -8.73043 -4.55351 
-0.167524 -4.55351 -9.60259 
-9.41472 -0.0614995 -0.251602 
-0.0614995 -9.2372 -4.79208 
-0.251602 -4.79208 -8.91802 
-9.1858 0.00167277 -0.307734 
0.00167277 -9.18551 -4.63129 
-0.307734 -4.63129 -9.19863 
-1.00946 -0.105669 -1.77102 
-0.105669 -0.668054 4.02988 
-1.77102 4.02988 -0.769834 
-0.714832 0.426611 -1.67789 
0.426611 -1.52723 4.1928 
-1.67789 4.1928 -0.205277 
-0.94981 -0.0638025 -1.87563 
-0.0638025 -0.679191 4.24199 
-1.87563 4.24199 -0.818342 
-0.83452 -0.0391031 -1.73695 
-0.0391031 -0.823359 4.23562 
-1.73695 4.23562 -0.789464 
-9.70576 -0.222809 -2.98335 
-0.222809 -9.36412 -2.70372 
-2.98335 -2.70372 -9.97822 
-9.86072 0.0635392 -2.89825 
0.0635392 -9.58334 -2.62077 
-2.89825 -2.62077 -9.60404 
-9.56928 0.0130264 -2.73136 
0.0130264 -9.52429 -2.58725 
-2.73136 -2.58725 -9.95454 
-9.8638 0.0381276 -2.90606 
0.0381276 -9.725 -2.58858 
-2.90606 -2.58858 -9.45931 
-2.1726 -0.00372456 -0.396835 
-0.00372456 -2.22144 4.54061 
-0.396835 4.54061 -2.03384 
-2.40889 -0.0176045 -0.631358 
-0.0176045 -2.45995 4.67335 
-0.631358 4.67335 -1.55903 
-2.17207 -0.0315855 -0.524611 
-0.0315855 -1.89342 4.67702 
-0.524611 4.67702 -2.36238 
-2.22769 -0.074719 -0.381277 
-0.074719 -2.19337 4.31146 
-0.381277 4.31146 -2.00682 
-2.76752 0.0576773 4.43716 
0.0576773 -2.58906 -1.26907 
4.43716 -1.26907 -2.56692 
-2.45025 -0.170934 4.65536 
-0.170934 -2.59594 -1.13359 
4.65536 -1.13359 -2.87732 
-3.15231 0.220074 4.47353 
0.220074 -2.68607 -1.38015 
4.47353 -1.38015 -2.08512 
-2.64009 -0.041446 4.34638 
-0.041446 -2.76109 -0.953885 
4.34638 -0.953885 -2.52233 
-0.245084 0.0468864 -0.524597 
0.0468864 -0.305091 2.26251 
-0.524597 2.26251 -0.308419 
-0.435056 -0.0173465 -0.33086 
-0.0173465 -0.487025 2.1904 
-0.33086 2.1904 0.0634865 
-0.170966 -0.0151614 -0.58504 
-0.0151614 -0.497879 2.1501 
-0.58504 2.1501 -0.189749 
-0.177203 -0.00239514 -0.530121 
-0.00239514 -0.189671 2.25497 
-0.530121 2.25497 -0.49172 
-0.272635 0.0383337 -3.00632 
0.0383337 -0.500773 -3.41558 
-3.00632 -3.41558 -0.416446 
-0.659069 -0.0464605 -2.7591 
-0.0464605 -0.955267 -3.62024 
-2.7591 -3.62024 0.424482 
-0.310955 0.0912989 -2.97055 
0.0912989 -0.50013 -3.47274 
-2.97055 -3.47274 -0.378769 
-0.201044 -0.00474356 -3.20109 
-0.00474356 -0.373715 -3.38551 
-3.20109 -3.38551 -0.615095 
-4.41955 -0.151383 3.24844 
-0.151383 -4.40104 3.5295 
3.24844 3.5295 -3.44417 
-3.73039 0.275271 3.15109 
0.275271 -3.58436 3.5967 
3.15109 3.5967 -4.95002 
-4.08746 -0.0151912 3.32683 
-0.0151912 -4.03521 3.0667 
3.32683 3.0667 -4.14211 
-4.11829 -0.0570496 3.06344 
-0.0570496 -4.0505 2.91837 
3.06344 2.91837 -4.09597 
-0.430033 0.0119112 -2.69379 
0.0119112 -0.472532 -0.62485 
-2.69379 -0.62485 -0.333307 
-0.394667 -0.030825 -2.74894 
-0.030825 -0.634776 -0.470688 
-2.74894 -0.470688 -0.206429 
-0.620674 -0.0181242 -2.50794 
-0.0181242 -0.62425 -0.542387 
-2.50794 -0.542387 0.00905251 
-0.364745 -0.0126687 -2.74594 
-0.0126687 -0.299219 -0.557596 
-2.74594 -0.557596 -0.571908 
-9.78467 -0.0322849 -1.53803 
-0.0322849 -9.6482 2.48184 
-1.53803 2.48184 -9.55872 
-9.58019 0.124794 -1.71017 
0.124794 -9.36396 2.48393 
-1.71017 2.48393 -10.0474 
-9.66403 0.0059941 -1.37654 
0.0059941 -9.42183 2.39252 
-1.37654 2.39252 -9.90573 
-9.76835 -0.0212828 -1.5044 
-0.0212828 -9.81023 2.51377 
-1.5044 2.51377 -9.41302 
-0.999383 0.163586 -4.25048 
0.163586 -0.863071 1.28537 
-4.25048 1.28537 -0.986331 
-1.27089 -0.00807258 -3.99388 
-0.00807258 -1.05264 1.1081 
-3.99388 1.1081 -0.525251 
-1.06336 0.0995488 -4.09409 
0.0995488 -0.933689 1.35086 
-4.09409 1.35086 -0.851736 
-0.452464 -0.265458 -4.08133 
-0.265458 -0.997582 1.4602 
-4.08133 1.4602 -1.39874 
-5.22984 -0.035018 -0.29029 
-0.035018 -5.46725 -4.75336 
-0.29029 -4.75336 -4.9165 
-5.05807 -0.0490995 -0.212972 
-0.0490995 -4.94969 -4.64388 
-0.212972 -4.64388 -5.60583 
-5.2956 0.0466479 -0.231831 
0.0466479 -5.0032 -4.58761 
-0.231831 -4.58761 -5.31479 
-5.23084 -0.108134 -0.43235 
-0.108134 -5.2568 -4.47119 
-0.43235 -4.47119 -5.12595 
-9.42507 -0.205001 1.49263 
-0.205001 -9.61465 2.42058 
1.49263 2.42058 -9.98876 
-9.77124 -0.0463296 1.50958 
-0.0463296 -9.74323 2.17823 
1.50958 2.17823 -9.51402 
-9.61015 -0.245368 1.26983 
-0.245368 -9.34654 2.2116 
1.26983 2.2116 -10.0718 
-9.84506 0.12611 1.53899 
0.12611 -9.85507 2.28691 
1.53899 2.28691 -9.32836 
-9.85615 -0.0439621 1.0031 
-0.0439621 -9.19674 3.03253 
1.0031 3.03253 -10.0301 
-9.89097 0.0566252 1.15596 
0.0566252 -9.75301 3.22452 
1.15596 3.22452 -9.43898 
-9.65955 0.0801563 1.33278 
0.0801563 -9.43957 3.0219 
1.33278 3.0219 -9.98384 
-9.75021 0.0153015 1.20582 
0.0153015 -9.99355 3.06016 
1.20582 3.06016 -9.33919 
-2.6138 0.00795193 -4.51021 
0.00795193 -2.40904 1.18289 
-4.51021 1.18289 -2.72323 
-2.90988 0.0251117 -4.48773 
0.0251117 -2.60519 1.3782 
-4.48773 1.3782 -2.231 
-2.48452 -0.0316491 -4.47272 
-0.0316491 -2.72355 1.25557 
-4.47272 1.25557 -2.53799 
-2.59797 -0.0995221 -4.28198 
-0.0995221 -2.72439 1.17618 
-4.28198 1.17618 -2.4237 
-0.461994 -0.0828082 3.86722 
-0.0828082 -0.562598 -0.63525 
3.86722 -0.63525 -0.192538 
-0.499667 -0.0554405 3.76571 
-0.0554405 -0.38128 -0.65734 
3.76571 -0.65734 -0.336183 
-0.612608 0.00802128 3.69397 
0.00802128 -0.715379 -0.62434 
3.69397 -0.62434 0.110857 
-0.376237 0.0260885 3.83832 
0.0260885 -0.309336 -0.661412 
3.83832 -0.661412 -0.531556 
-7.31698 -0.0780346 -4.67197 
-0.0780346 -7.61081 0.628543 
-4.67197 0.628543 -8.60872 
-8.43591 0.208892 -4.72212 
0.208892 -7.75357 0.479069 
-4.72212 0.479069 -7.34704 
-7.60827 -0.0200083 -4.56253 
-0.0200083 -7.90439 0.39682 
-4.56253 0.39682 -8.02386 
-7.71839 0.0304793 -4.22655 
0.0304793 -7.8542 0.140151 
-4.22655 0.140151 -7.96393 
-9.69742 0.0355564 0.00939033 
0.0355564 -9.66721 -3.15632 
0.00939033 -3.15632 -9.53746 
-9.62963 0.183427 -0.0582159 
0.183427 -9.48736 -3.0836 
-0.0582159 -3.0836 -9.78509 
-9.43626 0.00465185 0.174454 
0.00465185 -9.23777 -3.09292 
0.174454 -3.09292 -10.2281 
-9.75735 -0.0277335 -0.0599864 
-0.0277335 -9.75886 -3.08854 
-0.0599864 -3.08854 -9.38588 
-0.312688 -0.012059 -1.09785 
-0.012059 -0.58087 0.755668 
-1.09785 0.755668 -0.0450164 
-0.258714 0.0425889 -0.979306 
0.0425889 -0.406926 0.870596 
-0.979306 0.870596 -0.272934 
-0.340575 0.00938927 -0.882868 
0.00938927 -0.453808 0.779943 
-0.882868 0.779943 -0.144191 
-0.176133 0.0126622 -0.955234 
0.0126622 -0.295 0.809538 
-0.955234 0.809538 -0.467441 
-9.4731 -0.154228 0.631444 
-0.154228 -9.32709 4.50595 
0.631444 4.50595 -10.3222 
-9.63812 -0.203 0.803516 
-0.203 -9.69519 4.50759 
0.803516 4.50759 -9.78904 
-9.69251 -0.0974436 0.850295 
-0.0974436 -9.89917 4.30775 
0.850295 4.30775 -9.53066 
-9.79225 0.0980193 0.929333 
0.0980193 -9.98288 4.57167 
0.929333 4.57167 -9.34722 
-0.377659 -0.0117616 0.881321 
-0.0117616 -0.25149 -0.00458405 
0.881321 -0.00458405 -0.353324 
-0.529944 -0.146995 0.938812 
-0.146995 -0.535342 -0.121851 
0.938812 -0.121851 0.0828131 
-0.494746 -0.0690229 0.82147 
-0.0690229 -0.365367 0.0535336 
0.82147 0.0535336 -0.122359 
-0.201613 0.0597309 0.863653 
0.0597309 -0.266602 0.090539 
0.863653 0.090539 -0.514257 
-9.25437 -0.0157275 4.65797 
-0.0157275 -9.16162 -0.322882 
4.65797 -0.322882 -9.20978 
-9.2668 0.0240256 4.77237 
0.0240256 -9.38627 -0.276013 
4.77237 -0.276013 -8.97271 
-8.64253 0.159092 4.54028 
0.159092 -9.29396 -0.186217 
4.54028 -0.186217 -9.68929 
-9.29588 -0.0682773 4.62297 
-0.0682773 -9.1223 -0.374087 
4.62297 -0.374087 -9.2076 
-9.04177 0.117204 -2.91465 
0.117204 -9.09061 -3.52366 
-2.91465 -3.52366 -9.22329 
-9.05657 -0.045812 -3.22865 
-0.045812 -9.26888 -3.2152 
-3.22865 -3.2152 -9.03022 
-8.8291 0.143586 -3.23498 
0.143586 -9.18226 -3.11828 
-3.23498 -3.11828 -9.34431 
-9.09325 -0.0506595 -2.79828 
-0.0506595 -9.30494 -3.52425 
-2.79828 -3.52425 -8.95748 
-2.62736 -0.0654436 -4.11093 
-0.0654436 -2.51265 -2.22653 
-4.11093 -2.22653 -2.2062 
-2.45257 0.0914299 -4.01777 
0.0914299 -2.49708 -2.28267 
-4.01777 -2.28267 -2.39655 
-2.36837 -0.00347568 -4.01635 
-0.00347568 -2.33528 -2.35324 
-4.01635 -2.35324 -2.64256 
-2.46823 0.0774774 -3.87237 
0.0774774 -2.56307 -2.23967 
-3.87237 -2.23967 -2.3149 
-9.61931 0.0591593 -3.10345 
0.0591593 -9.76241 2.06261 
-3.10345 2.06261 -9.56593 
-9.19736 -0.101055 -3.22827 
-0.101055 -9.49256 1.91095 
-3.22827 1.91095 -10.2577 
-9.48943 0.0224702 -3.11363 
0.0224702 -9.72016 2.18178 
-3.11363 2.18178 -9.73806 
-9.80162 -0.00308319 -3.07765 
-0.00308319 -9.7954 2.23977 
-3.07765 2.23977 -9.35064 
-2.84907 -0.0869962 4.17701 
-0.0869962 -3.12863 -2.10718 
4.17701 -2.10718 -2.82978 
-3.05276 0.18573 4.26063 
0.18573 -2.64799 -1.91578 
4.26063 -1.91578 -3.10673 
-3.11533 0.0367583 4.16444 
0.0367583 -2.96535 -2.14019 
4.16444 -2.14019 -2.7268 
-2.96795 -0.0719589 4.09714 
-0.0719589 -3.02768 -2.11201 
4.09714 -2.11201 -2.81186 
-9.68468 0.032128 -1.77607 
0.032128 -9.69955 -3.53925 
-1.77607 -3.53925 -9.60907 
-9.43282 -0.0604974 -1.75407 
-0.0604974 -9.56353 -3.63534 
-1.75407 -3.63534 -9.99695 
-9.41173 0.00907224 -1.71703 
0.00907224 -9.54582 -3.45065 
-1.71703 -3.45065 -10.0358 
-9.78258 0.0556177 -1.8476 
0.0556177 -9.67547 -3.56169 
-1.8476 -3.56169 -9.53525 
-1.71332 -0.33909 -4.51509 
-0.33909 -2.184 1.74626 
-4.51509 1.74626 -2.66793 
-2.31703 0.203821 -4.25982 
0.203821 -2.09231 1.79427 
-4.25982 1.79427 -2.1559 
-2.46006 -0.0216601 -4.31982 
-0.0216601 -2.35235 1.85534 
-4.31982 1.85534 -1.75283 
-2.25206 0.0993034 -3.9262 
0.0993034 -2.00073 1.66138 
-3.9262 1.66138 -2.31245 
-9.60042 0.0886145 -2.99161 
0.0886145 -9.51273 -3.12269 
-2.99161 -3.12269 -9.94811 
-9.71474 0.0379234 -3.05718 
0.0379234 -9.68537 -3.05016 
-3.05718 -3.05016 -9.66115 
-9.50592 0.13277 -3.15989 
0.13277 -9.54603 -2.99125 
-3.15989 -2.99125 -10.0093 
-9.75255 -0.0231901 -3.0271 
-0.0231901 -9.76813 -3.0691 
-3.0271 -3.0691 -9.54058 
-0.183797 -0.0348417 -4.04582 
-0.0348417 -0.525758 2.14155 
-4.04582 2.14155 -0.260422 
-0.152361 0.0438 -4.24589 
0.0438 -0.300375 1.89334 
-4.24589 1.89334 -0.517241 
-0.6067 0.208732 -3.92635 
0.208732 -0.781858 2.34578 
-3.92635 2.34578 0.418582 
-0.222717 0.0295345 -4.05133 
0.0295345 -0.382019 2.01346 
-4.05133 2.01346 -0.365241 
-0.668454 0.0628357 1.08399 
0.0628357 -0.443888 0.916149 
1.08399 0.916149 0.224742 
-0.309734 -0.128983 1.04437 
-0.128983 -0.316924 0.985143 
1.04437 0.985143 -0.260942 
-0.456315 -0.0293707 1.10488 
-0.0293707 -0.244615 1.07366 
1.10488 1.07366 -0.18667 
-0.213915 0.00774906 1.02688 
0.00774906 -0.238204 1.05971 
1.02688 1.05971 -0.435481 
-6.02481 0.669866 -2.24701 
0.669866 -6.33615 4.00746 
-2.24701 4.00746 -4.88836 
-5.35728 -0.132286 -2.10514 
-0.132286 -5.41359 4.50597 
-2.10514 4.50597 -6.47845 
-5.76147 -0.0646073 -1.91062 
-0.0646073 -5.74676 4.21582 
-1.91062 4.21582 -5.7411 
-5.81889 -0.175544 -1.58511 
-0.175544 -5.51638 4.05054 
-1.58511 4.05054 -5.91405 
-8.58047 0.0361695 4.32184 
0.0361695 -8.68307 0.908154 
4.32184 0.908154 -8.95054 
-8.78415 0.0550304 4.31965 
0.0550304 -8.73518 1.09623 
4.31965 1.09623 -8.69476 
-8.69591 0.108042 4.36185 
0.108042 -8.91249 1.02138 
4.36185 1.02138 -8.6057 
-8.88333 0.0957211 4.50368 
0.0957211 -8.93732 1.19252 
4.50368 1.19252 -8.39344 
-9.39393 0.0787309 4.47979 
0.0787309 -9.38315 -0.626767 
4.47979 -0.626767 -10.4041 
-9.94812 -0.0337891 4.57096 
-0.0337891 -9.86331 -0.931695 
4.57096 -0.931695 -9.36976 
-9.86743 0.234953 4.44873 
0.234953 -9.58714 -0.781475 
4.44873 -0.781475 -9.72662 
-9.91314 0.0497659 4.36766 
0.0497659 -9.69383 -0.868433 
4.36766 -0.868433 -9.57422 
-0.764797 -0.185432 2.33624 
-0.185432 -0.631551 3.92247 
2.33624 3.92247 0.359339 
-0.398722 -0.044057 2.07025 
-0.044057 -0.252994 4.0681 
2.07025 4.0681 -0.385293 
-0.261965 -0.0392641 1.92624 
-0.0392641 -0.186963 4.21592 
1.92624 4.21592 -0.588081 
-0.501267 -0.0619047 2.04393 
-0.0619047 -0.214364 4.09445 
2.04393 4.09445 -0.321379 
-9.36952 -0.032882 1.23953 
-0.032882 -9.32116 -4.61249 
1.23953 -4.61249 -8.99638 
-9.38595 0.0294975 0.796326 
0.0294975 -8.75326 -4.44968 
0.796326 -4.44968 -9.54785 
-9.08621 0.0856452 1.13557 
0.0856452 -9.36648 -4.45899 
1.13557 -4.45899 -9.23438 
-9.19017 -0.0272927 1.03808 
-0.0272927 -9.17673 -4.41125 
1.03808 -4.41125 -9.32017 
-0.419242 0.104052 -3.84538 
0.104052 -0.607079 -0.523206 
-3.84538 -0.523206 -0.219265 
-0.66159 0.00285644 -3.6836 
0.00285644 -0.831382 -0.520858 
-3.6836 -0.520858 0.247386 
-0.538081 0.0779089 -3.75861 
0.0779089 -0.472511 -0.592213 
-3.75861 -0.592213 -0.234994 
-0.354051 -0.00687027 -3.84123 
-0.00687027 -0.410768 -0.535669 
-3.84123 -0.535669 -0.480767 
-5.1588 0.0272955 -4.1478 
0.0272955 -5.14358 2.19768 
-4.1478 2.19768 -4.4162 
-4.97719 0.0279799 -4.12589 
0.0279799 -4.90072 2.08006 
-4.12589 2.08006 -4.84066 
-4.68746 -0.18565 -4.14254 
-0.18565 -4.74923 2.22018 
-4.14254 2.22018 -5.28187 
-4.96204 0.00361488 -4.07725 
0.00361488 -4.86938 1.88395 
-4.07725 1.88395 -4.88715 
-4.45209 0.0173827 0.870659 
0.0173827 -4.40669 0.703953 
0.870659 0.703953 -4.52871 
-4.54928 -0.00570405 1.03946 
-0.00570405 -4.56517 0.517636 
1.03946 0.517636 -4.27305 
-4.44889 0.0750694 0.878304 
0.0750694 -4.60121 0.514833 
0.878304 0.514833 -4.33739 
-4.37348 0.00795356 0.854366 
0.00795356 -4.56418 0.503318 
0.854366 0.503318 -4.44984 
-9.77968 -0.05401 0.923558 
-0.05401 -9.68005 0.0144005 
0.923558 0.0144005 -9.7021 
-9.59097 0.00540141 0.731208 
0.00540141 -9.52303 -0.0972333 
0.731208 -0.0972333 -10.0478 
-9.80648 -0.0103929 0.973203 
-0.0103929 -9.60335 -0.125533 
0.973203 -0.125533 -9.75201 
-9.81536 -0.00537531 0.983523 
-0.00537531 -9.84026 -0.0280977 
0.983523 -0.0280977 -9.50621 
-9.29873 0.0255256 1.29849 
0.0255256 -9.22768 4.68139 
1.29849 4.68139 -8.79563 
-8.9881 -0.16986 1.1394 
-0.16986 -9.24647 4.48092 
1.1394 4.48092 -9.08747 
-9.37248 -0.0183799 0.868393 
-0.0183799 -8.48144 4.4973 
0.868393 4.4973 -9.46813 
-9.09822 -0.00645623 0.997823 
-0.00645623 -9.08085 4.46178 
0.997823 4.46178 -9.14298 
-7.37366 0.0193484 -4.34125 
0.0193484 -7.7888 -1.92559 
-4.34125 -1.92559 -8.62524 
-8.59723 -0.257397 -4.59249 
-0.257397 -7.93261 -1.57649 
-4.59249 -1.57649 -7.25786 
-7.75112 0.202192 -4.25985 
0.202192 -8.04335 -1.82174 
-4.25985 -1.82174 -7.99323 
-7.9147 0.0585579 -3.80749 
0.0585579 -8.13851 -1.80138 
-3.80749 -1.80138 -7.73448 
-9.71475 -0.0817099 0.0653564 
-0.0817099 -9.59512 -2.87736 
0.0653564 -2.87736 -9.74232 
-9.43625 -0.0512221 0.283899 
-0.0512221 -9.43273 -2.73107 
0.283899 -2.73107 -10.1832 
-9.80022 -0.00833618 0.0706646 
-0.00833618 -9.62807 -2.75132 
0.0706646 -2.75132 -9.6239 
-9.78366 0.0239439 -0.0131648 
0.0239439 -9.80036 -2.80388 
-0.0131648 -2.80388 -9.46817 
-9.23427 0.0621475 -0.581726 
0.0621475 -9.25674 4.46585 
-0.581726 4.46585 -10.5391 
-9.83446 0.0213644 -0.921255 
0.0213644 -9.88744 4.59284 
-0.921255 4.59284 -9.30819 
-9.55321 -0.0290053 -0.819729 
-0.0290053 -9.88572 4.35115 
-0.819729 4.35115 -9.59116 
-9.51887 0.150056 -0.730911 
0.150056 -9.91875 4.33764 
-0.730911 4.33764 -9.59247 
-0.669683 0.0566626 2.01432 
0.0566626 -0.794787 -3.96524 
2.01432 -3.96524 -0.767447 
-0.635134 -0.0181165 2.0689 
-0.0181165 -0.801675 -3.91529 
2.0689 -3.91529 -0.795109 
-1.07931 -0.127408 2.03069 
-0.127408 -0.930472 -3.78014 
2.03069 -3.78014 -0.222134 
-0.717586 -0.335818 1.74922 
-0.335818 -0.243292 -3.95845 
1.74922 -3.95845 -1.27104 
-4.5635 0.0112353 2.25037 
0.0112353 -4.98663 -4.37302 
2.25037 -4.37302 -4.16238 
-4.40631 0.0133264 2.02962 
0.0133264 -4.547 -4.14644 
2.02962 -4.14644 -4.7592 
-4.65366 -0.205018 1.61355 
-0.205018 -3.73024 -4.313 
1.61355 -4.313 -5.32861 
-4.31701 0.16869 2.03737 
0.16869 -4.78556 -3.82268 
2.03737 -3.82268 -4.60994 
-0.335118 0.00164505 -0.390307 
0.00164505 -0.573037 2.54263 
-0.390307 2.54263 -0.0548047 
-0.253823 0.0696148 -0.500582 
0.0696148 -0.218363 2.50655 
-0.500582 2.50655 -0.490774 
-0.332336 0.0539346 -0.651748 
0.0539346 -0.397718 2.50394 
-0.651748 2.50394 -0.232905 
-0.215514 0.00756855 -0.507775 
0.00756855 -0.153691 2.51916 
-0.507775 2.51916 -0.593754 
-9.03801 -0.0671412 4.16032 
-0.0671412 -9.21261 0.743106 
4.16032 0.743106 -9.45936 
-9.06444 0.0613387 4.26731 
0.0613387 -9.2908 0.888373 
4.26731 0.888373 -9.35474 
-9.07379 0.0150109 4.47837 
0.0150109 -9.44544 0.780451 
4.47837 0.780451 -9.19074 
-9.91741 0.146106 4.35819 
0.146106 -9.0357 0.851871 
4.35819 0.851871 -8.75687 
-1.51093 0.00962483 -4.48266 
0.00962483 -1.42628 -0.988811 
-4.48266 -0.988811 -1.44922 
-1.51127 0.016246 -4.36635 
0.016246 -1.35597 -1.04381 
-4.36635 -1.04381 -1.5192 
-1.66888 0.0346767 -4.15531 
0.0346767 -1.66188 -0.896656 
-4.15531 -0.896656 -1.05567 
-1.21328 0.128144 -4.43662 
0.128144 -0.994829 -1.05729 
-4.43662 -1.05729 -2.17833 
-9.40319 -0.0771118 -4.53472 
-0.0771118 -9.00596 -1.15031 
-4.53472 -1.15031 -9.21008 
-8.51368 -0.142431 -4.48431 
-0.142431 -9.50999 -0.880724 
-4.48431 -0.880724 -9.59556 
-9.06828 -0.0270558 -4.49401 
-0.0270558 -9.38066 -0.951858 
-4.49401 -0.951858 -9.1703 
-9.39155 0.0486603 -4.72788 
0.0486603 -9.22907 -1.20086 
-4.72788 -1.20086 -8.99862 
-2.85255 0.188116 -2.77631 
0.188116 -3.00128 3.74742 
-2.77631 3.74742 -3.17961 
-3.0931 -0.0658976 -2.74118 
-0.0658976 -2.90317 3.7716 
-2.74118 3.7716 -3.03717 
-3.1559 -0.127401 -2.76184 
-0.127401 -3.04798 3.77281 
-2.76184 3.77281 -2.82956 
-3.04041 -0.0227105 -2.65909 
-0.0227105 -3.01967 3.8172 
-2.65909 3.8172 -2.97336 
-9.70681 0.0113116 3.64464 
0.0113116 -9.84016 0.733648 
3.64464 0.733648 -9.54548 
-9.4234 0.110946 3.60728 
0.110946 -9.65652 0.88085 
3.60728 0.88085 -10.0125 
-9.52543 0.121068 3.78535 
0.121068 -9.55892 0.661633 
3.78535 0.661633 -10.0081 
-9.84821 -0.0359283 3.70222 
-0.0359283 -9.80922 0.749905 
3.70222 0.749905 -9.43502 
-9.63668 0.0449669 -1.53073 
0.0449669 -9.47005 2.86309 
-1.53073 2.86309 -9.90953 
-9.7106 0.0672458 -1.43138 
0.0672458 -9.68693 2.75405 
-1.43138 2.75405 -9.61873 
-9.58703 0.135287 -1.21138 
0.135287 -9.45027 2.78031 
-1.21138 2.78031 -9.97897 
-9.76437 0.0178567 -1.45441 
0.0178567 -9.7984 2.75974 
-1.45441 2.75974 -9.4535 
-2.42455 0.00197589 0.66478 
0.00197589 -2.47107 -4.69036 
0.66478 -4.69036 -1.41126 
-2.29847 -0.108682 0.479959 
-0.108682 -1.57508 -4.72853 
0.479959 -4.72853 -2.43332 
-2.05306 -0.0460316 0.417645 
-0.0460316 -2.36183 -4.56739 
0.417645 -4.56739 -1.89199 
-2.14324 0.0265174 0.294371 
0.0265174 -2.16645 -4.26964 
0.294371 -4.26964 -1.99718 
-0.418235 0.104323 -0.06545 
0.104323 -0.409428 -0.498987 
-0.06545 -0.498987 -0.308052 
-0.398441 0.0975863 0.0262247 
0.0975863 -0.479134 -0.539838 
0.0262247 -0.539838 -0.258141 
-0.679739 0.0601595 -0.21801 
0.0601595 -0.670472 -0.605414 
-0.21801 -0.605414 0.214495 
-0.319861 0.0205099 0.000807504 
0.0205099 -0.331737 -0.450826 
0.000807504 -0.450826 -0.484118 
-0.869015 -0.0166526 1.95648 
-0.0166526 -0.642106 -4.10816 
1.95648 -4.10816 -0.89259 
-0.763862 -0.0128504 1.94896 
-0.0128504 -0.76967 -4.03116 
1.94896 -4.03116 -0.870178 
-0.856719 -0.0911411 1.53556 
-0.0911411 -1.28241 -4.34306 
1.53556 -4.34306 -0.264585 
-0.0753088 -0.111549 2.02438 
-0.111549 -0.942551 -3.65035 
2.02438 -3.65035 -1.38585 
-9.19313 0.111816 -3.25093 
0.111816 -9.05327 -3.1612 
-3.25093 -3.1612 -9.39197 
-9.25521 0.00398286 -3.31578 
0.00398286 -9.20671 -3.13518 
-3.31578 -3.13518 -9.17646 
-9.17741 0.0900789 -3.44942 
0.0900789 -9.15306 -2.95632 
-3.44942 -2.95632 -9.30791 
-9.23179 0.0294811 -3.52597 
0.0294811 -9.3072 -2.96407 
-3.52597 -2.96407 -9.09938 
-0.396233 -0.170306 1.44175 
-0.170306 -0.472823 -4.2817 
1.44175 -4.2817 -0.395489 
-0.657959 -0.0428112 1.20081 
-0.0428112 -0.932466 -4.3417 
1.20081 -4.3417 0.325879 
-0.252464 -0.0137167 1.6403 
-0.0137167 -0.280478 -4.32622 
1.6403 -4.32622 -0.731604 
-0.426928 -0.0906885 1.40999 
-0.0906885 -0.394596 -4.2897 
1.40999 -4.2897 -0.443021 
-5.45811 -0.0381916 3.90488 
-0.0381916 -5.42124 2.85629 
3.90488 2.85629 -4.79856 
-4.93484 0.226884 3.73682 
0.226884 -4.86482 2.81126 
3.73682 2.81126 -5.87825 
-5.18822 0.0718035 3.80297 
0.0718035 -5.23471 2.63826 
3.80297 2.63826 -5.25498 
-5.25734 -0.0272315 3.79777 
-0.0272315 -5.2648 2.48398 
3.79777 2.48398 -5.15576 
-8.04593 0.0697322 -1.80384 
0.0697322 -7.82545 -4.22663 
-1.80384 -4.22663 -7.99561 
-7.60456 -0.00906366 -2.14644 
-0.00906366 -7.60396 -4.2555 
-2.14644 -4.2555 -8.65847 
-8.01793 -0.150166 -2.05628 
-0.150166 -8.24301 -4.32908 
-2.05628 -4.32908 -7.60605 
-7.9929 -0.0498858 -1.76781 
-0.0498858 -7.86158 -4.00167 
-1.76781 -4.00167 -8.01252 
-0.269481 0.149416 1.82306 
0.149416 -0.674011 -3.40594 
1.82306 -3.40594 -0.139578 
-0.68566 0.0159702 1.97442 
0.0159702 -0.899486 -3.44524 
1.97442 -3.44524 0.502075 
-0.319245 0.118465 1.88888 
0.118465 -0.422783 -3.36469 
1.88888 -3.36469 -0.341043 
-0.263717 0.0212576 1.7857 
0.0212576 -0.270442 -3.43378 
1.7857 -3.43378 -0.548912 
-9.46627 0.109887 2.76492 
0.109887 -9.66016 -0.489974 
2.76492 -0.489974 -10.0129 
-9.71128 -0.0192266 2.70087 
-0.0192266 -9.80134 -0.648266 
2.70087 -0.648266 -9.62676 
-9.56985 0.0253097 2.81322 
0.0253097 -9.68519 -0.768846 
2.81322 -0.768846 -9.88434 
-9.84437 0.0120322 2.69066 
0.0120322 -9.79437 -0.677182 
2.69066 -0.677182 -9.50063 
-1.44385 -0.0488476 4.43147 
-0.0488476 -1.46 -0.945744 
4.43147 -0.945744 -1.38449 
-1.62121 -0.0103768 4.11874 
-0.0103768 -1.69085 -0.899953 
4.11874 -0.899953 -0.976283 
-1.50387 -0.000667954 4.35518 
-0.000667954 -1.29028 -1.0034 
4.35518 -1.0034 -1.49418 
-1.15647 -0.0486239 4.42967 
-0.0486239 -1.09661 -0.954277 
4.42967 -0.954277 -2.03526 
-0.765482 0.0223502 3.19414 
0.0223502 -0.447854 -2.09886 
3.19414 -2.09886 -0.177902 
-0.725959 0.03049 3.22943 
0.03049 -0.608931 -1.89923 
3.22943 -1.89923 -0.0563494 
-0.546053 0.0242444 3.29624 
0.0242444 -0.408936 -2.00587 
3.29624 -2.00587 -0.436251 
-0.423952 0.0303886 3.31 
0.0303886 -0.366266 -2.05457 
3.31 -2.05457 -0.601021 
-0.361797 0.0201813 -4.3568 
0.0201813 -0.190183 -1.64837 
-4.3568 -1.64837 -0.672372 
-0.421001 0.0926012 -4.29542 
0.0926012 -0.321691 -1.4271 
-4.29542 -1.4271 -0.48166 
-0.890272 0.0274533 -4.38364 
0.0274533 -0.675008 -1.18448 
-4.38364 -1.18448 0.340928 
-0.399808 0.111591 -4.37156 
0.111591 -0.446961 -1.39068 
-4.37156 -1.39068 -0.377584 
-8.5754 0.0377019 -4.47081 
0.0377019 -9.35038 0.873773 
-4.47081 0.873773 -9.49912 
-9.2446 -0.0259497 -4.65479 
-0.0259497 -9.24124 1.24205 
-4.65479 1.24205 -8.93905 
-9.27557 0.119688 -4.46545 
0.119688 -8.98644 1.11765 
-4.46545 1.11765 -9.16288 
-9.05592 -0.00865218 -4.44039 
-0.00865218 -9.19307 0.983394 
-4.44039 0.983394 -9.17591 
-8.19617 -0.11903 -2.41191 
-0.11903 -8.30217 -4.17537 
-2.41191 -4.17537 -7.5032 
-7.56846 -0.0666251 -2.53648 
-0.0666251 -7.62972 -4.03532 
-2.53648 -4.03532 -8.80336 
-8.00905 0.154638 -2.65721 
0.154638 -7.99289 -3.73535 
-2.65721 -3.73535 -7.9996 
-7.92768 0.0728196 -2.42161 
0.0728196 -8.05045 -3.59537 
-2.42161 -3.59537 -8.02341 
-9.61063 -0.11079 -3.54996 
-0.11079 -9.52653 2.47071 
-3.54996 2.47071 -9.91967 
-9.49307 -0.139188 -3.72048 
-0.139188 -9.56576 2.30751 
-3.72048 2.30751 -9.998 
-9.71237 -0.0522029 -3.59488 
-0.0522029 -9.67962 2.36653 
-3.59488 2.36653 -9.66484 
-9.78483 0.0170369 -3.56613 
0.0170369 -9.74999 2.39658 
-3.56613 2.39658 -9.52201 
-0.913258 -0.0592947 -2.62758 
-0.0592947 -0.981131 -3.8197 
-2.62758 -3.8197 -0.964025 
-1.0056 -0.211499 -2.58474 
-0.211499 -1.17761 -3.85967 
-2.58474 -3.85967 -0.675208 
-1.01075 0.0802052 -2.57057 
0.0802052 -0.960297 -3.88638 
-2.57057 -3.88638 -0.887372 
-0.925143 -0.0636093 -2.49969 
-0.0636093 -0.949809 -3.89981 
-2.49969 -3.89981 -0.983462 
-1.02694 0.0507249 3.86249 
0.0507249 -0.958835 -2.64533 
3.86249 -2.64533 -1.01356 
-0.993035 0.0800908 3.95213 
0.0800908 -0.942994 -2.52279 
3.95213 -2.52279 -1.0633 
-1.24716 0.242875 3.88613 
0.242875 -1.0459 -2.63067 
3.88613 -2.63067 -0.706271 
-0.996289 -0.0831466 3.92739 
-0.0831466 -1.05397 -2.58856 
3.92739 -2.58856 -0.949071 
-8.74489 -0.0534053 -3.20714 
-0.0534053 -8.7626 -3.43194 
-3.20714 -3.43194 -8.50741 
-8.68144 -0.196111 -3.39377 
-0.196111 -8.90574 -3.26197 
-3.39377 -3.26197 -8.42772 
-8.55791 0.0900416 -3.39381 
0.0900416 -8.5914 -3.4141 
-3.39381 -3.4141 -8.86559 
-8.56746 0.0257338 -3.35931 
0.0257338 -8.56857 -3.27286 
-3.35931 -3.27286 -8.87887 
-2.16624 -0.023621 0.32578 
-0.023621 -2.27096 4.59929 
0.32578 4.59929 -1.9866 
-2.18707 0.121941 0.478125 
0.121941 -1.71085 4.74027 
0.478125 4.74027 -2.52589 
-2.36073 -0.0243316 0.59514 
-0.0243316 -2.54728 4.69755 
0.59514 4.69755 -1.5158 
-2.18692 0.0246083 0.229922 
0.0246083 -2.28929 4.32517 
0.229922 4.32517 -1.9476 
-1.91081 0.141603 1.03732 
0.141603 -2.15064 -4.41753 
1.03732 -4.41753 -2.22037 
-2.07968 -0.178815 0.780215 
-0.178815 -1.38583 -4.73917 
0.780215 -4.73917 -2.81631 
-2.23096 0.0752299 0.937874 
0.0752299 -2.64454 -4.71997 
0.937874 -4.71997 -1.40633 
-1.9319 0.117377 0.920451 
0.117377 -2.08652 -4.00529 
0.920451 -4.00529 -2.2634 
-8.84737 0.132198 -3.80847 
0.132198 -8.67135 2.7163 
-3.80847 2.7163 -8.33489 
-8.47967 -0.0935636 -4.03525 
-0.0935636 -8.57049 2.69018 
-4.03525 2.69018 -8.80344 
-8.74567 0.189427 -3.94808 
0.189427 -8.75103 2.5187 
-3.94808 2.5187 -8.3569 
-8.51619 0.02842 -3.89876 
0.02842 -8.56374 2.60645 
-3.89876 2.60645 -8.77367 
-9.89699 0.0438677 -4.25104 
0.0438677 -9.55135 0.766435 
-4.25104 0.766435 -9.60478 
-9.92309 0.0124325 -4.5207 
0.0124325 -9.87128 0.935273 
-4.5207 0.935273 -9.25875 
-9.28016 0.1182 -4.39174 
0.1182 -9.32831 0.540416 
-4.39174 0.540416 -10.4446 
-9.83228 0.166875 -4.2737 
0.166875 -9.61784 0.704119 
-4.2737 0.704119 -9.60301 
-1.33415 0.0147208 -0.999837 
0.0147208 -1.47675 4.40594 
-0.999837 4.40594 -1.47884 
-1.6845 -0.00971301 -0.787427 
-0.00971301 -1.61141 4.17123 
-0.787427 4.17123 -0.993825 
-1.43708 0.00835847 -0.948811 
0.00835847 -1.45348 4.50016 
-0.948811 4.50016 -1.39917 
-0.990401 -0.085831 -1.07147 
-0.085831 -1.12926 4.43735 
-1.07147 4.43735 -2.17007 
-0.56665 0.0165441 -0.936093 
0.0165441 -0.599863 -3.57651 
-0.936093 -3.57651 0.0472589 
-0.444409 -0.0168479 -1.14532 
-0.0168479 -0.466159 -3.66302 
-1.14532 -3.66302 -0.208686 
-0.391185 -0.060543 -1.10643 
-0.060543 -0.519869 -3.51764 
-1.10643 -3.51764 -0.2082 
-0.32055 -0.014374 -1.13974 
-0.014374 -0.305892 -3.60071 
-1.13974 -3.60071 -0.492812 
-9.60764 -0.0233332 1.65988 
-0.0233332 -9.5552 -3.59554 
1.65988 -3.59554 -9.91546 
-9.597 -0.00331149 1.44434 
-0.00331149 -9.571 -3.67266 
1.44434 -3.67266 -9.9103 
-9.65099 -0.0410244 1.59776 
-0.0410244 -9.64259 -3.74848 
1.59776 -3.74848 -9.78471 
-9.77044 -0.013851 1.58009 
-0.013851 -9.75465 -3.70886 
1.58009 -3.70886 -9.5532 
-0.234088 0.0307969 4.3456 
0.0307969 -0.220045 -1.88189 
4.3456 -1.88189 -0.829811 
-0.873922 0.137535 3.89125 
0.137535 -0.926175 -2.3452 
3.89125 -2.3452 0.516154 
-0.249559 -0.0607738 3.97979 
-0.0607738 -0.559019 -2.07516 
3.97979 -2.07516 -0.475366 
-0.310282 0.0335833 3.99736 
0.0335833 -0.42501 -2.02719 
3.99736 -2.02719 -0.548652 
-0.573182 0.0196813 0.723821 
0.0196813 -0.462423 0.920282 
0.723821 0.920282 0.164069 
-0.42083 0.105143 0.748421 
0.105143 -0.270811 1.09876 
0.748421 1.09876 -0.179896 
-0.244655 0.110647 0.758167 
0.110647 -0.290774 0.992127 
0.758167 0.992127 -0.336108 
-0.184016 0.0153001 0.813595 
0.0153001 -0.211506 1.05032 
0.813595 1.05032 -0.476015 
-9.51247 0.0260662 2.53676 
0.0260662 -9.5777 -2.44748 
2.53676 -2.44748 -10.1117 
-9.73777 0.126829 2.70387 
0.126829 -9.71432 -2.55826 
2.70387 -2.55826 -9.74976 
-9.69551 -0.00775258 2.78863 
-0.00775258 -9.75864 -2.47743 
2.78863 -2.47743 -9.74771 
-9.7817 -0.0355171 2.8021 
-0.0355171 -9.85619 -2.56868 
2.8021 -2.56868 -9.56397 
-0.262643 0.0305566 -2.98569 
0.0305566 -0.35492 3.44039 
-2.98569 3.44039 -0.448744 
-0.606341 0.0818767 -2.7295 
0.0818767 -0.84668 3.64412 
-2.7295 3.64412 0.386713 
-0.186704 -0.062469 -2.96776 
-0.062469 -0.501014 3.44549 
-2.96776 3.44549 -0.37859 
-0.172443 0.0233182 -3.24207 
0.0233182 -0.193495 3.39035 
-3.24207 3.39035 -0.70037 
-0.497499 -0.0318264 -1.99544 
-0.0318264 -0.166547 -3.98489 
-1.99544 -3.98489 -0.423391 
-0.428759 0.0147089 -2.01178 
0.0147089 -0.227808 -3.99293 
-2.01178 -3.99293 -0.430869 
-0.778202 -0.12816 -2.22457 
-0.12816 -0.662892 -3.89033 
-2.22457 -3.89033 0.353657 
-0.222068 -0.0166412 -1.88759 
-0.0166412 -0.169001 -4.19829 
-1.88759 -4.19829 -0.696368 
-0.182864 -0.252945 -1.30061 
-0.252945 -0.522519 -0.456013 
-1.30061 -0.456013 -0.0598294 
-0.147048 -0.116677 -1.22111 
-0.116677 -0.242556 -0.53483 
-1.22111 -0.53483 -0.375609 
-0.349717 -0.0860869 -0.98789 
-0.0860869 -0.639328 -0.467335 
-0.98789 -0.467335 0.223832 
-0.140304 -0.0114486 -1.18239 
-0.0114486 -0.123598 -0.48427 
-1.18239 -0.48427 -0.50131 
-9.60515 -0.0866046 -3.31194 
-0.0866046 -9.47368 1.09953 
-3.31194 1.09953 -10.0441 
-9.81922 0.022329 -3.4793 
0.022329 -9.69137 1.14158 
-3.4793 1.14158 -9.61229 
-9.74811 -0.0331864 -3.54869 
-0.0331864 -9.51479 1.0188 
-3.54869 1.0188 -9.85998 
-9.80365 0.0425796 -3.52824 
0.0425796 -9.81878 1.15975 
-3.52824 1.15975 -9.50045 
-9.09388 0.0266588 0.333985 
0.0266588 -9.23179 4.70195 
0.333985 4.70195 -9.19393 
-9.17104 -0.115176 0.184371 
-0.115176 -8.82045 4.59658 
0.184371 4.59658 -9.52811 
-9.39941 -0.0795331 0.238802 
-0.0795331 -9.1721 4.78754 
0.238802 4.78754 -8.94809 
-9.13201 0.015964 0.297947 
0.015964 -9.19527 4.68128 
0.297947 4.68128 -9.19232 
-0.424217 -0.0450633 -1.99102 
-0.0450633 -0.168165 -1.19579 
-1.99102 -1.19579 -0.452613 
-0.535428 -0.185017 -2.12636 
-0.185017 -0.522627 -1.13923 
-2.12636 -1.13923 0.0130593 
-0.582716 -0.114239 -1.94754 
-0.114239 -0.363484 -1.36025 
-1.94754 -1.36025 -0.0987959 
-0.252383 -0.0347565 -1.94358 
-0.0347565 -0.227376 -1.29416 
-1.94358 -1.29416 -0.565237 
-0.412586 -0.0301092 3.46935 
-0.0301092 -0.277701 2.99858 
3.46935 2.99858 -0.406228 
-0.26675 -0.0516451 3.39834 
-0.0516451 -0.167409 3.25377 
3.39834 3.25377 -0.662357 
-0.870807 -0.0812857 3.65089 
-0.0812857 -0.63269 2.73292 
3.65089 2.73292 0.406982 
-0.50166 0.0421698 3.43677 
0.0421698 -0.184575 2.95924 
3.43677 2.95924 -0.41028 
-9.8073 0.0244529 4.36357 
0.0244529 -9.50209 0.780881 
4.36357 0.780881 -9.64426 
-9.87321 -0.122921 4.27552 
-0.122921 -9.53554 0.715579 
4.27552 0.715579 -9.5449 
-9.20542 -0.0669042 4.44751 
-0.0669042 -9.20587 0.567228 
4.44751 0.567228 -10.5424 
-9.84377 -0.0715173 4.59681 
-0.0715173 -9.82526 0.927599 
4.59681 0.927599 -9.28462 
-0.400558 0.179952 4.28912 
0.179952 -0.242107 1.41873 
4.28912 1.41873 -0.334597 
-0.372139 0.0383865 4.33103 
0.0383865 -0.259437 1.45403 
4.33103 1.45403 -0.345685 
-0.847379 0.0393593 4.37773 
0.0393593 -0.623852 1.18388 
4.37773 1.18388 0.493969 
-0.23193 0.0150435 4.37243 
0.0150435 -0.115851 1.7009 
4.37243 1.7009 -0.62948 
-5.21099 -0.0949499 -1.79775 
-0.0949499 -5.11726 4.31807 
-1.79775 4.31807 -5.23511 
-5.12062 0.0436932 -1.8761 
0.0436932 -5.08962 4.31793 
-1.8761 4.31793 -5.35311 
-5.26061 0.0698148 -1.92639 
0.0698148 -5.31351 4.31929 
-1.92639 4.31929 -4.98923 
-5.27713 0.0939859 -1.96287 
0.0939859 -5.14329 4.28835 
-1.96287 4.28835 -5.14293 
-7.73029 -0.191275 -4.749 
-0.191275 -7.70386 -1.07011 
-4.749 -1.07011 -7.25562 
-7.07835 0.274689 -4.45695 
0.274689 -7.47833 -1.3587 
-4.45695 -1.3587 -8.13309 
-7.41171 0.0724883 -4.47899 
0.0724883 -7.62315 -1.21826 
-4.47899 -1.21826 -7.65491 
-7.57585 -0.08892 -4.41521 
-0.08892 -7.40907 -0.906067 
-4.41521 -0.906067 -7.70486 
-9.29852 -0.0164866 -1.20696 
-0.0164866 -9.29478 4.69371 
-1.20696 4.69371 -8.96516 
-9.3084 0.0139956 -0.982039 
0.0139956 -9.0799 4.46773 
-0.982039 4.46773 -9.17017 
-9.43728 0.0965556 -0.888758 
0.0965556 -8.57818 4.46829 
-0.888758 4.46829 -9.543 
-9.05487 0.0902779 -1.14177 
0.0902779 -9.30706 4.52604 
-1.14177 4.52604 -9.19655 
-0.989827 0.037173 0.317415 
0.037173 -0.944477 -0.683042 
0.317415 -0.683042 -0.895997 
-0.840862 -0.178161 0.419586 
-0.178161 -0.777951 -0.664054 
0.419586 -0.664054 -1.21149 
-1.01367 -0.0477763 0.130389 
-0.0477763 -1.07293 -0.724577 
0.130389 -0.724577 -0.743699 
-0.95375 0.0948661 0.284417 
0.0948661 -0.867392 -0.747103 
0.284417 -0.747103 -1.00916 
-9.16617 0.109471 -3.83756 
0.109471 -9.25388 2.46608 
-3.83756 2.46608 -9.03071 
-8.97498 -0.114423 -3.49309 
-0.114423 -9.2168 2.92368 
-3.49309 2.92368 -9.25897 
-8.94845 -0.118714 -3.79475 
-0.118714 -9.16513 2.39625 
-3.79475 2.39625 -9.33716 
-9.19091 0.0939789 -3.37223 
0.0939789 -9.3161 2.9119 
-3.37223 2.9119 -8.94374 
-6.54856 -0.120063 2.74026 
-0.120063 -6.82134 3.80445 
2.74026 3.80445 -6.00294 
-6.03668 -0.0522446 2.58621 
-0.0522446 -6.35343 4.12023 
2.58621 4.12023 -6.98273 
-6.41527 0.0106691 2.82368 
0.0106691 -6.39331 3.78604 
2.82368 3.78604 -6.56426 
-6.38241 0.0362107 2.7812 
0.0362107 -6.33908 3.67805 
2.7812 3.67805 -6.65134 
-0.211284 -0.0129971 4.34639 
-0.0129971 -0.146349 -1.69414 
4.34639 -1.69414 -0.724478 
-0.323418 -0.133978 4.27721 
-0.133978 -0.334463 -1.35946 
4.27721 -1.35946 -0.42423 
-0.912834 -0.0522634 4.3975 
-0.0522634 -0.548825 -1.10038 
4.3975 -1.10038 0.379549 
-0.395663 -0.120772 4.27446 
-0.120772 -0.267186 -1.40892 
4.27446 -1.40892 -0.419262 
-0.649604 -0.0249746 -1.18349 
-0.0249746 -0.8937 4.38209 
-1.18349 4.38209 0.511662 
-0.27187 -0.136595 -1.44193 
-0.136595 -0.36845 4.27694 
-1.44193 4.27694 -0.391322 
-0.34722 -0.107436 -1.42429 
-0.107436 -0.292646 4.28157 
-1.42429 4.28157 -0.391776 
-0.130909 0.00767239 -1.7233 
0.00767239 -0.203396 4.37881 
-1.7233 4.37881 -0.697338 
-0.429785 -0.0408488 1.16352 
-0.0408488 -0.394735 0.397346 
1.16352 0.397346 -0.134494 
-0.491672 -0.0204872 1.2745 
-0.0204872 -0.391085 0.204886 
1.2745 0.204886 -0.0762563 
-0.324818 0.0247972 1.13565 
0.0247972 -0.261136 0.292715 
1.13565 0.292715 -0.373059 
-0.2172 0.013055 1.1237 
0.013055 -0.245121 0.278905 
1.1237 0.278905 -0.496693 
-0.614874 0.219137 4.53635 
0.219137 -0.367701 -0.665988 
4.53635 -0.665988 -0.0263042 
-0.195145 0.0229862 4.54096 
0.0229862 -0.197224 -0.235023 
4.54096 -0.235023 -0.61651 
-0.400374 0.0988214 4.71275 
0.0988214 -0.41421 -0.340668 
4.71275 -0.340668 -0.194295 
-0.246708 0.0926893 4.49804 
0.0926893 -0.325514 -0.441926 
4.49804 -0.441926 -0.436656 
-9.65866 0.107047 -2.92114 
0.107047 -9.68823 -3.72307 
-2.92114 -3.72307 -9.87389 
-9.64541 0.0982246 -3.0994 
0.0982246 -9.54665 -3.58083 
-3.0994 -3.58083 -10.0287 
-9.7908 0.0434445 -3.0067 
0.0434445 -9.73505 -3.7052 
-3.0067 -3.7052 -9.69492 
-9.81414 -0.0117354 -3.00322 
-0.0117354 -9.81745 -3.72672 
-3.00322 -3.72672 -9.58919 
-3.14814 -0.0631932 -3.20472 
-0.0631932 -3.11719 3.51221 
-3.20472 3.51221 -2.77925 
-2.93101 -0.0973896 -3.2065 
-0.0973896 -3.02632 3.41949 
-3.2065 3.41949 -3.08725 
-2.83534 0.130923 -3.16874 
0.130923 -2.88614 3.49073 
-3.16874 3.49073 -3.32309 
-3.03201 -0.0211102 -3.25574 
-0.0211102 -2.99758 3.36207 
-3.25574 3.36207 -3.01499 
-8.77589 0.0699589 4.48062 
0.0699589 -9.3647 -0.911333 
4.48062 -0.911333 -9.47015 
-9.31622 -0.0267681 4.70334 
-0.0267681 -9.29196 -1.25847 
4.70334 -1.25847 -9.00256 
-9.2624 0.150937 4.57579 
0.150937 -9.10993 -1.23006 
4.57579 -1.23006 -9.23841 
-8.97939 -0.0356739 4.37585 
-0.0356739 -9.38037 -1.00028 
4.37585 -1.00028 -9.25099 
-0.465217 0.00480101 2.15294 
0.00480101 -0.375347 1.4464 
2.15294 1.4464 -0.0326211 
-0.428854 0.0597656 2.26612 
0.0597656 -0.360612 1.67077 
2.26612 1.67077 -0.0837194 
-0.381554 -0.0225495 2.34912 
-0.0225495 -0.279189 1.51543 
2.34912 1.51543 -0.212443 
-0.214541 -0.0484652 2.32473 
-0.0484652 -0.214481 1.54142 
2.32473 1.54142 -0.444164 
-0.565404 0.00505069 -0.938349 
0.00505069 -0.281854 3.79128 
-0.938349 3.79128 -0.289754 
-0.409247 0.0349003 -0.888043 
0.0349003 -0.356731 3.74512 
-0.888043 3.74512 -0.371035 
-0.748697 -0.0206803 -0.892618 
-0.0206803 -0.722119 3.62711 
-0.892618 3.62711 0.333805 
-0.272868 -0.0236178 -0.861234 
-0.0236178 -0.308165 3.86951 
-0.861234 3.86951 -0.555979 
-0.281888 -0.10934 -0.364401 
-0.10934 -0.216144 -4.64918 
-0.364401 -4.64918 -0.133861 
-0.306171 -0.105266 -0.501896 
-0.105266 -0.0728692 -4.51796 
-0.501896 -4.51796 -0.252853 
-0.276441 -0.215824 -0.667312 
-0.215824 -0.466419 -4.54959 
-0.667312 -4.54959 0.110967 
-0.122736 -0.0570069 -0.263045 
-0.0570069 -0.0843552 -4.54851 
-0.263045 -4.54851 -0.424802 
-9.77267 0.0258266 -1.90718 
0.0258266 -9.48873 -2.28389 
-1.90718 -2.28389 -9.83218 
-9.77883 0.0259455 -1.81611 
0.0259455 -9.70687 -2.37523 
-1.81611 -2.37523 -9.60789 
-9.55784 0.049399 -1.61849 
0.049399 -9.46813 -2.34022 
-1.61849 -2.34022 -10.0676 
-9.78043 0.0147668 -1.89335 
0.0147668 -9.83586 -2.3902 
-1.89335 -2.3902 -9.47729 
-9.59879 -0.0581375 -3.43981 
-0.0581375 -9.4008 1.48913 
-3.43981 1.48913 -10.0623 
-9.64275 -0.149098 -3.66672 
-0.149098 -9.52233 1.40749 
-3.66672 1.40749 -9.89685 
-9.74871 -0.0431315 -3.56562 
-0.0431315 -9.65732 1.42512 
-3.56562 1.42512 -9.6559 
-9.79063 -0.0141746 -3.59305 
-0.0141746 -9.76443 1.42932 
-3.59305 1.42932 -9.50687 
-0.599554 -0.0340462 -3.59786 
-0.0340462 -0.573553 -1.04063 
-3.59786 -1.04063 -0.0145337 
-0.396662 -0.0281802 -3.75461 
-0.0281802 -0.592129 -1.06395 
-3.75461 -1.06395 -0.198849 
-0.503378 -0.0689735 -3.69223 
-0.0689735 -0.547915 -0.901367 
-3.69223 -0.901367 -0.136348 
-0.342975 0.000640878 -3.67758 
0.000640878 -0.398598 -1.04015 
-3.67758 -1.04015 -0.446067 
-7.08551 0.0114692 1.21702 
0.0114692 -7.00282 4.52421 
1.21702 4.52421 -7.09455 
-6.96854 0.0606919 1.37597 
0.0606919 -6.77177 4.53108 
1.37597 4.53108 -7.44258 
-7.22143 -0.0102738 1.23203 
-0.0102738 -7.14404 4.60535 
1.23203 4.60535 -6.81741 
-7.07136 -0.0396491 1.13023 
-0.0396491 -6.99512 4.5088 
1.13023 4.5088 -7.1164 
-9.62677 -0.00362711 3.67324 
-0.00362711 -9.699 -1.08165 
3.67324 -1.08165 -9.81631 
-9.59643 -0.0732699 3.48467 
-0.0732699 -9.6094 -1.13052 
3.48467 -1.13052 -9.93625 
-9.67171 0.0406653 3.64732 
0.0406653 -9.66798 -1.28879 
3.64732 -1.28879 -9.80238 
-9.75151 -0.012184 3.64341 
-0.012184 -9.83722 -1.16896 
3.64341 -1.16896 -9.55335 
-0.639588 -0.0864285 -3.27091 
-0.0864285 -0.496743 -1.90956 
-3.27091 -1.90956 0.0277514 
-0.60388 -0.0304072 -3.21967 
-0.0304072 -0.419062 -2.12232 
-3.21967 -2.12232 -0.0856367 
-0.390467 -0.0286128 -3.32118 
-0.0286128 -0.337637 -2.03189 
-3.32118 -2.03189 -0.380475 
-0.261235 -0.0137884 -3.37513 
-0.0137884 -0.337369 -2.09227 
-3.37513 -2.09227 -0.509975 
-8.64729 -0.0689406 4.48357 
-0.0689406 -9.35047 0.911439 
4.48357 0.911439 -9.51513 
-9.0357 0.000221725 4.46149 
0.000221725 -9.26853 0.975844 
4.46149 0.975844 -9.20865 
-9.27199 -0.0744193 4.50879 
-0.0744193 -9.02404 1.11716 
4.50879 1.11716 -9.21686 
-9.23496 0.0192946 4.68483 
0.0192946 -9.29676 1.20419 
4.68483 1.20419 -8.98116 
-0.24083 0.073651 -1.45195 
0.073651 -0.401671 -4.28368 
-1.45195 -4.28368 -0.469666 
-0.274035 0.214662 -1.44833 
0.214662 -0.465319 -4.30424 
-1.44833 -4.30424 -0.372813 
-0.56479 0.0743656 -1.14393 
0.0743656 -0.866243 -4.37272 
-1.14393 -4.37272 0.318866 
-0.145149 0.0316246 -1.66809 
0.0316246 -0.247769 -4.33319 
-1.66809 -4.33319 -0.719249 
-7.85936 -0.000757659 -4.60222 
-0.000757659 -7.98678 -0.439986 
-4.60222 -0.439986 -8.08404 
-8.0691 -0.0187075 -4.69647 
-0.0187075 -7.98699 -0.506855 
-4.69647 -0.506855 -7.87409 
-7.85684 -0.0113523 -4.64903 
-0.0113523 -7.78582 -0.596216 
-4.64903 -0.596216 -8.28752 
-7.88634 -0.0322683 -4.53149 
-0.0322683 -7.94455 -0.446152 
-4.53149 -0.446152 -8.09929 
-0.625728 -0.216172 4.54579 
-0.216172 -0.357211 0.696512 
4.54579 0.696512 0.0726186 
-0.302032 -0.066507 4.61333 
-0.066507 -0.328605 0.331389 
4.61333 0.331389 -0.279683 
-0.145024 -0.000826479 4.57874 
-0.000826479 -0.165031 0.171813 
4.57874 0.171813 -0.600266 
-0.127497 -0.0764661 4.44713 
-0.0764661 -0.367971 0.462789 
4.44713 0.462789 -0.414853 
-9.89148 -0.0587801 4.17619 
-0.0587801 -9.80004 2.26727 
4.17619 2.26727 -9.54249 
-9.55468 0.201834 4.16842 
0.201834 -9.62829 2.10816 
4.16842 2.10816 -10.051 
-9.60175 0.0264999 4.04067 
0.0264999 -9.66708 2.33965 
4.04067 2.33965 -9.96519 
-9.79746 0.00979094 4.07453 
0.00979094 -9.84686 2.22616 
4.07453 2.22616 -9.5897 
-9.71431 -0.0969884 -1.40735 
-0.0969884 -9.96563 -4.52054 
-1.40735 -4.52054 -9.47141 
-9.78334 0.0326526 -1.47178 
0.0326526 -9.35478 -4.36793 
-1.47178 -4.36793 -10.0132 
-9.60921 0.111612 -1.21333 
0.111612 -9.45675 -4.44683 
-1.21333 -4.44683 -10.0854 
-9.85173 -0.0207667 -1.30119 
-0.0207667 -9.80863 -4.31354 
-1.30119 -4.31354 -9.49099 
-0.589365 -0.19904 -4.51489 
-0.19904 -0.374713 -0.676246 
-4.51489 -0.676246 0.0234645 
-0.357398 -0.106306 -4.67338 
-0.106306 -0.378867 -0.34223 
-4.67338 -0.34223 -0.204349 
-0.183419 -0.0305406 -4.54213 
-0.0305406 -0.177363 -0.233266 
-4.54213 -0.233266 -0.579833 
-0.235228 -0.0935385 -4.51079 
-0.0935385 -0.321095 -0.453719 
-4.51079 -0.453719 -0.384291 
-0.342774 0.133064 0.341618 
0.133064 -0.332426 -4.65165 
0.341618 -4.65165 -0.257339 
-0.153218 0.0445346 0.187341 
0.0445346 -0.192937 -4.59729 
0.187341 -4.59729 -0.586383 
-0.392669 0.213565 0.713124 
0.213565 -0.640237 -4.5424 
0.713124 -4.5424 0.100368 
-0.283144 0.104952 0.427576 
0.104952 -0.267251 -4.55462 
0.427576 -4.55462 -0.382144 
-9.56923 0.0886822 1.23763 
0.0886822 -9.45975 4.52349 
1.23763 4.52349 -9.99845 
-9.68043 0.032534 1.50913 
0.032534 -9.32377 4.4425 
1.50913 4.4425 -10.0232 
-9.75629 0.00138869 1.35093 
0.00138869 -9.71546 4.48045 
1.35093 4.48045 -9.55568 
-9.70599 -0.0557034 1.39404 
-0.0557034 -9.84322 4.57514 
1.39404 4.57514 -9.47823 
-0.322683 0.0637444 -0.324662 
0.0637444 -0.319034 4.64516 
-0.324662 4.64516 -0.29522 
-0.390025 0.226652 -0.725885 
0.226652 -0.632041 4.567 
-0.725885 4.567 0.085129 
-0.405234 0.0945786 -0.501281 
0.0945786 -0.14351 4.50617 
-0.501281 4.50617 -0.388193 
-0.186927 0.0304964 -0.191843 
0.0304964 -0.158515 4.60372 
-0.191843 4.60372 -0.591496 
-1.63486 -0.0208992 4.61576 
-0.0208992 -2.09222 -0.858868 
4.61576 -0.858868 -2.33868 
-2.0888 -0.0108694 4.46076 
-0.0108694 -1.97225 -0.994475 
4.46076 -0.994475 -2.0047 
-2.32676 0.0135127 4.59644 
0.0135127 -2.24395 -1.00622 
4.59644 -1.00622 -1.49505 
-2.18088 0.138272 4.28685 
0.138272 -1.94501 -1.05401 
4.28685 -1.05401 -1.93986 
-0.879471 0.243829 2.56453 
0.243829 -1.09568 -3.9119 
2.56453 -3.9119 -0.50724 
-0.828748 0.0301217 2.54163 
0.0301217 -0.82662 -3.90239 
2.54163 -3.90239 -0.827026 
-0.812109 0.00224387 2.67501 
0.00224387 -0.831801 -3.84468 
2.67501 -3.84468 -0.838484 
-0.89384 -0.155809 2.59729 
-0.155809 -0.796501 -3.85111 
2.59729 -3.85111 -0.792052 
-9.82588 0.0226711 -1.59836 
0.0226711 -9.78233 0.194319 
-1.59836 0.194319 -9.65414 
-9.69698 0.0633397 -1.43806 
0.0633397 -9.64309 0.25618 
-1.43806 0.25618 -9.92228 
-9.74693 0.0385947 -1.70653 
0.0385947 -9.59344 0.331072 
-1.70653 0.331072 -9.92198 
-9.83246 0.0195492 -1.61865 
0.0195492 -9.89333 0.188265 
-1.61865 0.188265 -9.53656 
-9.55321 0.0557351 -2.7266 
0.0557351 -9.56646 -2.84099 
-2.7266 -2.84099 -9.99958 
-9.65051 0.100851 -2.91546 
0.100851 -9.5182 -2.70255 
-2.91546 -2.70255 -9.95055 
-9.69542 0.00754439 -2.90456 
0.00754439 -9.74699 -2.82404 
-2.90456 -2.82404 -9.67684 
-9.78429 -0.0408618 -2.91965 
-0.0408618 -9.78372 -2.82851 
-2.91965 -2.82851 -9.55124 
-0.282987 -0.0377407 1.5522 
-0.0377407 -0.575518 -1.16502 
1.5522 -1.16502 0.0581963 
-0.095106 0.00882818 1.74926 
0.00882818 -0.287919 -1.16968 
1.74926 -1.16968 -0.417283 
-0.152251 0.0901743 1.91867 
0.0901743 -0.616146 -1.17305 
1.91867 -1.17305 -0.0319114 
-0.142878 -0.0216169 1.85108 
-0.0216169 -0.0944977 -1.07882 
1.85108 -1.07882 -0.562932 
-0.449949 0.0590562 2.02068 
0.0590562 -0.153082 -3.9962 
2.02068 -3.9962 -0.350614 
-0.129335 0.0125989 1.83324 
0.0125989 -0.132965 -4.22045 
1.83324 -4.22045 -0.691344 
-0.640979 0.201467 2.29573 
0.201467 -0.547866 -3.86992 
2.29573 -3.86992 0.2352 
-0.40089 -0.0167279 2.04124 
-0.0167279 -0.146016 -3.93209 
2.04124 -3.93209 -0.406739 
-0.391681 -0.0837696 -0.650463 
-0.0837696 -0.451545 3.78584 
-0.650463 3.78584 -0.223351 
-0.437171 -0.127053 -0.554015 
-0.127053 -0.329904 3.84817 
-0.554015 3.84817 -0.299502 
-0.59487 -0.0416796 -0.519537 
-0.0416796 -0.619159 3.72073 
-0.519537 3.72073 0.147453 
-0.301179 -0.0280106 -0.610459 
-0.0280106 -0.281319 3.87983 
-0.610459 3.87983 -0.484079 
-0.491754 0.00240188 -2.96762 
0.00240188 -0.461525 -3.58106 
-2.96762 -3.58106 -0.0710692 
-0.595532 -0.131825 -2.75994 
-0.131825 -0.424452 -3.75475 
-2.75994 -3.75475 -0.00436505 
-0.334656 -0.0272694 -2.90745 
-0.0272694 -0.327845 -3.68726 
-2.90745 -3.68726 -0.361847 
-0.264255 0.056283 -2.95938 
0.056283 -0.261956 -3.66217 
-2.95938 -3.66217 -0.498136 
-0.448665 0.0986625 3.77848 
0.0986625 -0.600591 -2.78587 
3.77848 -2.78587 -0.0243365 
-0.498889 0.0692462 3.60889 
0.0692462 -0.495534 -2.99077 
3.60889 -2.99077 -0.0791699 
-0.262019 -0.0745372 3.67901 
-0.0745372 -0.279559 -3.00344 
3.67901 -3.00344 -0.532015 
-0.314045 0.00922747 3.70245 
0.00922747 -0.364795 -2.9391 
3.70245 -2.9391 -0.394753 
-0.150611 -0.0494711 0.140618 
-0.0494711 -0.129791 4.61823 
0.140618 4.61823 -0.617163 
-0.278545 -0.100149 0.343231 
-0.100149 -0.247863 4.55839 
0.343231 4.55839 -0.371157 
-0.398531 -0.251428 0.785111 
-0.251428 -0.65475 4.54908 
0.785111 4.54908 0.155716 
-0.358004 -0.109479 0.492441 
-0.109479 -0.149177 4.50523 
0.492441 4.50523 -0.390385 
-0.104932 0.0565221 -4.56381 
0.0565221 -0.0745378 0.199485 
-4.56381 0.199485 -0.505643 
-0.229932 0.138372 -4.61265 
0.138372 -0.248577 0.34956 
-4.61265 0.34956 -0.206603 
-0.508968 0.209534 -4.51291 
0.209534 -0.291833 0.693545 
-4.51291 0.693545 0.115689 
-0.117577 0.120211 -4.50048 
0.120211 -0.26263 0.46914 
-4.50048 0.46914 -0.304905 
-0.545696 -0.0206923 0.306049 
-0.0206923 -0.635035 -3.70404 
0.306049 -3.70404 0.0649125 
-0.469966 -0.0573347 0.514823 
-0.0573347 -0.523028 -3.75527 
0.514823 -3.75527 -0.122824 
-0.430697 -0.10359 0.378709 
-0.10359 -0.333651 -3.82297 
0.378709 -3.82297 -0.351471 
-0.342895 -0.00555156 0.420597 
-0.00555156 -0.28655 -3.85119 
0.420597 -3.85119 -0.486373 
-9.67815 -0.0338208 3.58688 
-0.0338208 -9.6973 -3.02428 
3.58688 -3.02428 -9.88855 
-9.65399 -0.0983247 3.70207 
-0.0983247 -9.67941 -2.88659 
3.70207 -2.88659 -9.9306 
-9.77733 -0.030362 3.65799 
-0.030362 -9.82119 -2.97093 
3.65799 -2.97093 -9.66547 
-9.68179 -0.0485918 3.70387 
-0.0485918 -9.79572 -2.99405 
3.70387 -2.99405 -9.78648 
-0.290094 -0.00868164 2.33413 
-0.00868164 -0.205187 4.09714 
2.33413 4.09714 -0.4483 
-0.582091 0.0992339 2.12343 
0.0992339 -0.445638 4.14317 
2.12343 4.14317 0.0841476 
-0.202793 -0.068598 2.3665 
-0.068598 -0.637378 4.01348 
2.3665 4.01348 -0.10341 
-0.28085 -0.0334914 2.28663 
-0.0334914 -0.291465 4.07558 
2.28663 4.07558 -0.371266 
-0.151781 -0.0300256 -4.15204 
-0.0300256 -0.296876 2.36148 
-4.15204 2.36148 -0.463262 
-0.43054 -0.0951444 -4.16492 
-0.0951444 -0.565698 2.17693 
-4.16492 2.17693 0.0843186 
-0.62952 0.0521484 -4.02937 
0.0521484 -0.216621 2.43178 
-4.02937 2.43178 -0.0657778 
-0.26777 0.0173877 -4.10347 
0.0173877 -0.277861 2.33672 
-4.10347 2.33672 -0.366288 
-1.39809 -0.0838264 1.73892 
-0.0838264 -1.35355 -4.32901 
1.73892 -4.32901 -1.65058 
-1.42677 -0.052491 1.90061 
-0.052491 -1.09609 -4.26301 
1.90061 -4.26301 -1.87936 
-1.46309 0.0612671 1.83684 
0.0612671 -1.58695 -4.42582 
1.83684 -4.42582 -1.35218 
-1.46342 0.0164853 1.87907 
0.0164853 -1.50523 -4.33056 
1.87907 -4.33056 -1.43358 
-2.62533 0.0781809 3.94749 
0.0781809 -2.43884 -2.65569 
3.94749 -2.65569 -1.84081 
-1.92236 -0.355057 4.17082 
-0.355057 -2.20467 -2.4492 
4.17082 -2.4492 -2.77795 
-2.29787 0.14756 3.8694 
0.14756 -2.27772 -2.53908 
3.8694 -2.53908 -2.3294 
-2.24685 0.133613 3.59624 
0.133613 -2.2506 -2.37701 
3.59624 -2.37701 -2.40754 
-0.0995338 -0.0506714 -4.33606 
-0.0506714 -0.155378 -1.85792 
-4.33606 -1.85792 -0.698913 
-0.591782 -0.178683 -3.89116 
-0.178683 -0.720493 -2.41107 
-3.89116 -2.41107 0.358451 
-0.13637 -0.0471044 -3.99703 
-0.0471044 -0.331268 -2.03094 
-3.99703 -2.03094 -0.486186 
-0.113097 0.0382511 -3.99122 
0.0382511 -0.438956 -2.11044 
-3.99122 -2.11044 -0.401771 
-7.61209 -0.0688807 0.805882 
-0.0688807 -8.49136 4.62815 
0.805882 4.62815 -7.13683 
-7.64347 -0.0462138 1.02744 
-0.0462138 -7.4246 4.68926 
1.02744 4.68926 -8.17222 
-7.8519 0.0301477 1.02448 
0.0301477 -7.58257 4.55054 
1.02448 4.55054 -7.80582 
-7.89583 -0.0187282 1.09169 
-0.0187282 -7.53374 4.30118 
1.09169 4.30118 -7.81072 
-0.514577 0.0988977 2.67812 
0.0988977 -0.936946 -3.69765 
2.67812 -3.69765 0.384057 
-0.194614 -0.152713 2.88015 
-0.152713 -0.446484 -3.45387 
2.88015 -3.45387 -0.426367 
-0.0903737 0.0171504 3.30096 
0.0171504 -0.237948 -3.35479 
3.30096 -3.35479 -0.739143 
-0.162163 0.001631 2.92744 
0.001631 -0.358754 -3.36337 
2.92744 -3.36337 -0.546548 
-9.6718 -0.00409819 -4.53493 
-0.00409819 -9.72191 1.39159 
-4.53493 1.39159 -9.69197 
-9.55443 -0.0459126 -4.5186 
-0.0459126 -9.61102 1.29121 
-4.5186 1.29121 -9.92021 
-9.40935 -0.0263465 -4.4525 
-0.0263465 -9.66168 1.5179 
-4.4525 1.5179 -10.0146 
-9.78173 0.0160479 -4.54483 
0.0160479 -9.72697 1.39049 
-4.54483 1.39049 -9.57698 
-0.797197 0.00139056 2.49197 
0.00139056 -0.806931 3.89932 
2.49197 3.89932 -0.761591 
-0.863412 -0.175844 2.58985 
-0.175844 -0.99136 3.8087 
2.58985 3.8087 -0.510947 
-0.789973 -0.00652155 2.55965 
-0.00652155 -0.841315 3.76012 
2.55965 3.76012 -0.73443 
-0.927157 0.0911296 2.53932 
0.0911296 -0.743039 3.84909 
2.53932 3.84909 -0.695523 
-0.770571 -0.102428 -3.83752 
-0.102428 -0.920349 2.58769 
-3.83752 2.58769 -0.751815 
-0.816563 0.00572499 -3.79939 
0.00572499 -0.7894 2.6254 
-3.79939 2.6254 -0.836771 
-1.06495 0.217431 -3.868 
0.217431 -0.882898 2.53873 
-3.868 2.53873 -0.494888 
-0.827076 0.00778616 -3.86941 
0.00778616 -0.830635 2.53146 
-3.86941 2.53146 -0.785023 
-0.414621 0.0503226 -3.43208 
0.0503226 -0.0823131 -2.98408 
-3.43208 -2.98408 -0.264192 
-0.316183 0.0682462 -3.41516 
0.0682462 -0.102935 -2.91364 
-3.41516 -2.91364 -0.342008 
-0.689047 -0.0669734 -3.60961 
-0.0669734 -0.367836 -2.72823 
-3.60961 -2.72823 0.295756 
-0.140493 -0.0116227 -3.36356 
-0.0116227 -0.048695 -3.16386 
-3.36356 -3.16386 -0.571938 
-0.680991 0.0245002 3.58439 
0.0245002 -0.690152 -0.974891 
3.58439 -0.974891 0.197764 
-0.420984 0.10305 3.7094 
0.10305 -0.461249 -0.883702 
3.7094 -0.883702 -0.291146 
-0.418941 0.031896 3.77653 
0.031896 -0.515454 -0.978589 
3.77653 -0.978589 -0.238984 
-0.356806 0.00788265 3.81153 
0.00788265 -0.31852 -0.881352 
3.81153 -0.881352 -0.498053 
-9.72136 -0.02445 -3.40671 
-0.02445 -9.71057 2.15409 
-3.40671 2.15409 -9.67187 
-9.58235 -0.089757 -3.47507 
-0.089757 -9.50304 1.96858 
-3.47507 1.96858 -10.0184 
-9.56955 -0.116802 -3.28523 
-0.116802 -9.62884 2.14998 
-3.28523 2.14998 -9.90541 
-9.76979 0.0264898 -3.37647 
0.0264898 -9.82097 2.18535 
-3.37647 2.18535 -9.51304 
-0.97064 -0.0725093 -4.56155 
-0.0725093 -0.685292 -1.19267 
-4.56155 -1.19267 -1.05966 
-0.827853 0.0795908 -4.54046 
0.0795908 -0.992472 -1.01582 
-4.54046 -1.01582 -0.895268 
-1.2411 -0.0823929 -4.57489 
-0.0823929 -0.823107 -0.911218 
-4.57489 -0.911218 -0.651386 
-0.858108 0.0170537 -4.52564 
0.0170537 -1.01212 -0.98064 
-4.52564 -0.98064 -0.845364 
-0.826835 0.0522901 0.918389 
0.0522901 -1.24038 -4.56501 
0.918389 -4.56501 -0.63496 
-1.0172 -0.0566785 0.954893 
-0.0566785 -0.856253 -4.53592 
0.954893 -4.53592 -0.828724 
-0.680033 0.0458904 1.16744 
0.0458904 -0.989037 -4.55283 
1.16744 -4.55283 -1.0331 
-1.00013 -0.10271 0.981707 
-0.10271 -0.835347 -4.5421 
0.981707 -4.5421 -0.866696 
-0.812397 -0.00473919 -3.83976 
-0.00473919 -0.793111 -2.62171 
-3.83976 -2.62171 -0.824393 
-0.752814 0.138096 -3.85784 
0.138096 -0.876231 -2.55423 
-3.85784 -2.55423 -0.800857 
-1.07937 -0.284195 -3.84078 
-0.284195 -0.855707 -2.6343 
-3.84078 -2.6343 -0.494828 
-0.787573 -0.0365765 -3.92874 
-0.0365765 -0.774515 -2.51159 
-3.92874 -2.51159 -0.867814 
-9.6965 0.0645318 -4.2479 
0.0645318 -9.67471 -2.28752 
-4.2479 -2.28752 -9.76215 
-9.43566 0.107129 -4.12685 
0.107129 -9.71362 -2.34749 
-4.12685 -2.34749 -9.98408 
-9.60954 -0.0303152 -4.23085 
-0.0303152 -9.62858 -2.14476 
-4.23085 -2.14476 -9.89524 
-9.77234 0.0339493 -4.19598 
0.0339493 -9.76254 -2.26388 
-4.19598 -2.26388 -9.59848 
-8.09097 -0.235076 1.83152 
-0.235076 -7.78862 -4.36943 
1.83152 -4.36943 -7.96957 
-7.69339 0.090639 1.88136 
0.090639 -7.72277 -4.40019 
1.88136 -4.40019 -8.43299 
-8.15075 0.141274 1.58494 
0.141274 -8.20139 -4.6088 
1.58494 -4.6088 -7.49701 
-8.22292 0.0636601 1.75155 
0.0636601 -7.90134 -4.19665 
1.75155 -4.19665 -7.72489 
-6.12469 0.0148173 3.03288 
0.0148173 -6.1619 3.75841 
3.03288 3.75841 -5.5776 
-5.96075 0.0318772 2.7856 
0.0318772 -5.90224 3.79801 
2.7856 3.79801 -6.00119 
-5.67353 -0.0412475 2.9838 
-0.0412475 -5.69554 3.74443 
2.9838 3.74443 -6.49511 
-5.93603 -0.000385652 2.75327 
-0.000385652 -5.97117 3.75425 
2.75327 3.75425 -5.95699 
-9.55961 0.026977 3.73713 
0.026977 -9.74281 3.02724 
3.73713 3.02724 -9.76105 
-9.63089 0.022123 3.6168 
0.022123 -9.65101 3.04229 
3.6168 3.04229 -9.78158 
-9.48686 0.115236 3.77095 
0.115236 -9.47964 2.86471 
3.77095 2.86471 -10.097 
-9.72771 0.0267781 3.64689 
0.0267781 -9.75529 3.0384 
3.64689 3.0384 -9.58048 
-0.636384 0.164236 -3.61464 
0.164236 -0.296586 1.10074 
-3.61464 1.10074 -0.331 
-0.731247 -0.0419037 -3.69516 
-0.0419037 -0.633553 0.935458 
-3.69516 0.935458 0.10083 
-0.394573 0.0476726 -3.71037 
0.0476726 -0.391474 1.11533 
-3.71037 1.11533 -0.477923 
-0.327021 0.019646 -3.66846 
0.019646 -0.296508 1.17952 
-3.66846 1.17952 -0.64044 
-0.389682 0.0173891 1.5456 
0.0173891 -0.447583 -0.700839 
1.5456 -0.700839 -0.0518522 
-0.311296 -0.0450263 1.82106 
-0.0450263 -0.348777 -0.715585 
1.82106 -0.715585 -0.229043 
-0.33566 -0.116276 1.6865 
-0.116276 -0.304249 -0.813983 
1.6865 -0.813983 -0.249208 
-0.221506 0.0654776 1.8708 
0.0654776 -0.181576 -0.775744 
1.8708 -0.775744 -0.486036 
-0.817622 0.141918 3.83855 
0.141918 -0.843777 2.61609 
3.83855 2.61609 -0.713264 
-0.803022 -0.00934069 3.82169 
-0.00934069 -0.873272 2.53453 
3.82169 2.53453 -0.69837 
-0.992176 -0.147708 3.90403 
-0.147708 -0.85204 2.5381 
3.90403 2.5381 -0.530447 
-0.823048 -0.0526036 3.78903 
-0.0526036 -0.767708 2.72426 
3.78903 2.72426 -0.783907 
-0.80809 0.00898561 -2.73527 
0.00898561 -0.811503 3.82181 
-2.73527 3.82181 -0.857965 
-0.851199 -0.16924 -2.62565 
-0.16924 -0.843745 3.82886 
-2.62565 3.82886 -0.782614 
-0.857641 0.276274 -2.53939 
0.276274 -1.12792 3.90832 
-2.53939 3.90832 -0.491996 
-0.870443 -0.0150522 -2.55245 
-0.0150522 -0.825732 3.84661 
-2.55245 3.84661 -0.781383 
-0.340778 0.031214 -2.22958 
0.031214 -0.280267 2.16378 
-2.22958 2.16378 -0.201866 
-0.293287 0.0583102 -2.06836 
0.0583102 -0.208264 2.10981 
-2.06836 2.10981 -0.321359 
-0.410526 -0.00207049 -2.23664 
-0.00207049 -0.314648 1.90312 
-2.23664 1.90312 -0.0977367 
-0.0517946 0.0233669 -2.06301 
0.0233669 -0.2282 2.23361 
-2.06301 2.23361 -0.542915 
-0.359937 0.00609616 -4.51219 
0.00609616 -0.281255 -1.2988 
-4.51219 -1.2988 -0.44537 
-0.638645 -0.152501 -4.559 
-0.152501 -0.571281 -1.14222 
-4.559 -1.14222 0.123364 
-0.521824 -0.0121508 -4.46331 
-0.0121508 -0.458122 -1.44011 
-4.46331 -1.44011 -0.106617 
-0.18415 0.100545 -4.54447 
0.100545 -0.323645 -1.4656 
-4.54447 -1.4656 -0.578767 
-0.472662 -0.0088004 1.43723 
-0.0088004 -0.58304 -4.46078 
1.43723 -4.46078 -0.120796 
-0.588478 0.125116 1.14156 
0.125116 -0.67286 -4.55514 
1.14156 -4.55514 0.0848401 
-0.34476 -0.12553 1.44614 
-0.12553 -0.23201 -4.54393 
1.44614 -4.54393 -0.599729 
-0.316114 -0.0327445 1.30011 
-0.0327445 -0.392586 -4.51217 
1.30011 -4.51217 -0.467798 
-0.191622 -0.0411141 -4.37785 
-0.0411141 -0.0187975 1.78883 
-4.37785 1.78883 -0.720781 
-0.90157 -0.0796368 -4.43587 
-0.0796368 -0.481159 1.05263 
-4.43587 1.05263 0.451529 
-0.319718 -0.115968 -4.23808 
-0.115968 -0.125747 1.38959 
-4.23808 1.38959 -0.485735 
-0.327446 -0.134106 -4.33383 
-0.134106 -0.228353 1.38097 
-4.33383 1.38097 -0.375402 
-2.29466 -0.0106989 -0.965921 
-0.0106989 -2.33752 4.62707 
-0.965921 4.62707 -1.54668 
-1.97195 0.0307386 -1.00969 
0.0307386 -2.16221 4.50514 
-1.00969 4.50514 -2.0447 
-2.07932 -0.0725586 -0.881011 
-0.0725586 -1.68372 4.69476 
-0.881011 4.69476 -2.41581 
-1.98534 0.0722974 -1.01211 
0.0722974 -2.14282 4.31355 
-1.01211 4.31355 -2.0507 
-9.68522 -0.0714567 2.33711 
-0.0714567 -9.72973 -4.18787 
2.33711 -4.18787 -9.71264 
-9.7834 -0.127417 2.36226 
-0.127417 -9.49247 -4.09695 
2.36226 -4.09695 -9.85172 
-9.50861 0.00532978 2.15399 
0.00532978 -9.54264 -4.21013 
2.15399 -4.21013 -10.0763 
-9.74336 -0.0446463 2.38085 
-0.0446463 -9.83106 -4.13566 
2.38085 -4.13566 -9.55317 
-0.207514 -0.0263707 -2.25216 
-0.0263707 -0.227414 -1.43504 
-2.25216 -1.43504 -0.258229 
-0.410144 0.0379344 -2.28529 
0.0379344 -0.321048 -1.68348 
-2.28529 -1.68348 0.0380352 
-0.354387 -0.048395 -2.41196 
-0.048395 -0.166944 -1.44187 
-2.41196 -1.44187 -0.171827 
-0.142457 0.0156619 -2.28301 
0.0156619 -0.120234 -1.42181 
-2.28301 -1.42181 -0.430466 
-2.34999 0.128553 3.26186 
0.128553 -2.22085 -3.3287 
3.26186 -3.3287 -2.25474 
-2.04973 -0.263289 3.3096 
-0.263289 -2.18592 -3.52342 
3.3096 -3.52342 -2.58993 
-2.39618 -0.0929503 3.3018 
-0.0929503 -2.47364 -3.40225 
3.3018 -3.40225 -1.95576 
-2.24448 0.0775748 3.17454 
0.0775748 -2.27355 -3.26847 
3.17454 -3.26847 -2.30755 
-8.16134 -0.0901638 -3.95748 
-0.0901638 -8.20385 2.59749 
-3.95748 2.59749 -8.23906 
-8.2787 0.0501771 -3.94977 
0.0501771 -8.26345 2.66089 
-3.94977 2.66089 -8.0621 
-8.20233 -0.0101818 -3.88547 
-0.0101818 -8.20085 2.67946 
-3.88547 2.67946 -8.20107 
-8.17608 -0.0490989 -3.83943 
-0.0490989 -8.34193 2.55779 
-3.83943 2.55779 -8.08624 
0.00031958 0.0316862 1.69442 
0.0316862 -0.0788611 4.34043 
1.69442 4.34043 -0.593277 
-0.105683 0.108209 1.43402 
0.108209 -0.217246 4.25926 
1.43402 4.25926 -0.34889 
-0.385208 0.0807045 1.13259 
0.0807045 -0.693287 4.39022 
1.13259 4.39022 0.406676 
-0.112499 0.197441 1.43903 
0.197441 -0.294337 4.29945 
1.43903 4.29945 -0.264982 
-9.77645 -0.0469148 -2.22847 
-0.0469148 -9.81358 4.15118 
-2.22847 4.15118 -9.55967 
-9.58505 -0.0631676 -2.38647 
-0.0631676 -9.4275 4.07202 
-2.38647 4.07202 -10.1371 
-9.6461 -0.146626 -2.11353 
-0.146626 -9.62452 4.21276 
-2.11353 4.21276 -9.87908 
-9.80766 0.0431134 -2.21683 
0.0431134 -9.86426 4.25877 
-2.21683 4.25877 -9.47778 
-0.275463 0.225012 -2.3398 
0.225012 -0.529079 2.48043 
-2.3398 2.48043 -0.101367 
-0.23218 0.115802 -2.44906 
0.115802 -0.279612 2.36633 
-2.44906 2.36633 -0.394116 
-0.560719 0.180821 -2.59934 
0.180821 -0.493883 2.17467 
-2.59934 2.17467 0.148692 
-0.152525 0.0397734 -2.33632 
0.0397734 -0.14029 2.47262 
-2.33632 2.47262 -0.613094 
-0.557428 0.200363 4.57071 
0.200363 -0.475194 -1.12602 
4.57071 -1.12602 0.0686771 
-0.460312 -0.00940217 4.46853 
-0.00940217 -0.42436 -1.44525 
4.46853 -1.44525 -0.0792721 
-0.105224 -0.131499 4.54635 
-0.131499 -0.299173 -1.47215 
4.54635 -1.47215 -0.559548 
-0.259793 -0.0177298 4.48246 
-0.0177298 -0.213448 -1.25732 
4.48246 -1.25732 -0.490703 
-6.03416 -0.0622853 3.98837 
-0.0622853 -5.77284 2.5095 
3.98837 2.5095 -5.27669 
-5.65701 -0.055318 3.74805 
-0.055318 -5.67861 2.68607 
3.74805 2.68607 -5.74807 
-5.48691 -0.0379972 4.10808 
-0.0379972 -5.2438 2.43761 
4.10808 2.43761 -6.35298 
-5.68939 0.0852197 3.72261 
0.0852197 -5.49255 2.58533 
3.72261 2.58533 -5.90176 
-9.71085 0.0247244 0.149128 
0.0247244 -9.77237 2.89125 
0.149128 2.89125 -9.85761 
-9.72186 -0.013532 0.0140215 
-0.013532 -9.78672 2.74022 
0.0140215 2.74022 -9.83225 
-9.74316 0.00290371 0.189432 
0.00290371 -9.75994 2.69857 
0.189432 2.69857 -9.83773 
-9.8595 0.0081244 0.118435 
0.0081244 -9.88237 2.76082 
0.118435 2.76082 -9.59895 
-2.13627 -0.0117159 -4.47844 
-0.0117159 -2.04434 -0.998565 
-4.47844 -0.998565 -2.17042 
-1.5163 0.0351016 -4.70194 
0.0351016 -2.15328 -0.822032 
-4.70194 -0.822032 -2.68145 
-2.59187 -0.0372081 -4.66405 
-0.0372081 -2.23438 -0.992375 
-4.66405 -0.992375 -1.52478 
-2.21196 -0.131324 -4.17829 
-0.131324 -2.00067 -1.08376 
-4.17829 -1.08376 -2.1384 
-9.65605 -0.050419 -3.07188 
-0.050419 -9.56336 3.79616 
-3.07188 3.79616 -9.87877 
-9.5923 -0.0117041 -3.0685 
-0.0117041 -9.63175 3.65008 
-3.0685 3.65008 -9.87413 
-9.59083 -0.0813159 -2.92691 
-0.0813159 -9.57816 3.76862 
-2.92691 3.76862 -9.92918 
-9.73797 -0.0725533 -2.98815 
-0.0725533 -9.69809 3.67567 
-2.98815 3.67567 -9.66211 
-0.659882 0.0601625 -1.15377 
0.0601625 -0.932261 4.57866 
-1.15377 4.57866 -1.03942 
-0.952721 -0.0883071 -1.00504 
-0.0883071 -0.804867 4.54976 
-1.00504 4.54976 -0.873979 
-0.774862 0.0842543 -0.91382 
0.0842543 -1.24048 4.58228 
-0.91382 4.58228 -0.616222 
-0.96554 -0.0222882 -0.966325 
-0.0222882 -0.835846 4.54106 
-0.966325 4.54106 -0.83018 
-0.866476 -0.12322 4.53402 
-0.12322 -0.544714 1.2775 
4.53402 1.2775 -1.04879 
-0.680525 0.0776323 4.45156 
0.0776323 -0.962322 1.03044 
4.45156 1.03044 -0.817135 
-1.22489 -0.117969 4.5423 
-0.117969 -0.756748 0.820317 
4.5423 0.820317 -0.478341 
-0.744504 0.0084827 4.45386 
0.0084827 -1.01701 1.03091 
4.45386 1.03091 -0.698463 
-9.5476 -0.00781883 3.815 
-0.00781883 -9.64025 1.05834 
3.815 1.05834 -10.0097 
-9.62311 0.00593152 3.80647 
0.00593152 -9.68573 0.840754 
3.80647 0.840754 -9.88874 
-9.70326 -0.0140903 3.90098 
-0.0140903 -9.74307 0.892252 
3.90098 0.892252 -9.75125 
-9.78863 0.0147707 3.89501 
0.0147707 -9.81068 0.895232 
3.89501 0.895232 -9.59827 
-0.181847 0.0381106 0.841524 
0.0381106 -0.16009 -1.19282 
0.841524 -1.19282 -0.280947 
-0.135446 0.104093 0.617749 
0.104093 -0.374799 -1.33616 
0.617749 -1.33616 -0.112639 
-0.229083 0.0331586 0.664755 
0.0331586 -0.135754 -1.18471 
0.664755 -1.18471 -0.258047 
-0.076893 0.0797527 0.811847 
0.0797527 -0.0606376 -1.35024 
0.811847 -1.35024 -0.485353 
-0.296237 0.0124975 0.412793 
0.0124975 -0.391352 3.8453 
0.412793 3.8453 -0.359215 
-0.499465 -0.00659669 0.57876 
-0.00659669 -0.614842 3.76225 
0.57876 3.76225 0.0675025 
-0.293452 -0.0114872 0.357107 
-0.0114872 -0.604368 3.74513 
0.357107 3.74513 -0.148983 
-0.254873 -0.0101816 0.373253 
-0.0101816 -0.29656 3.84247 
0.373253 3.84247 -0.495372 
-0.293933 -0.0764412 -3.37508 
-0.0764412 -0.0888062 2.89803 
-3.37508 2.89803 -0.358017 
-0.750473 0.089865 -3.66155 
0.089865 -0.366731 2.69647 
-3.66155 2.69647 0.376447 
-0.241801 -0.100028 -3.35964 
-0.100028 -0.115716 2.87272 
-3.35964 2.87272 -0.38324 
-0.0394179 -0.0338656 -3.31403 
-0.0338656 -0.050964 3.22909 
-3.31403 3.22909 -0.650375 
0.000815452 -0.0811555 3.95195 
-0.0811555 -0.318202 2.00391 
3.95195 2.00391 -0.302523 
-0.473011 -0.223362 3.87688 
-0.223362 -0.638675 2.35928 
3.87688 2.35928 0.491776 
-0.0124931 -0.0285376 3.93626 
-0.0285376 -0.282868 1.97784 
3.93626 1.97784 -0.324549 
0.022162 -0.00907794 4.3004 
-0.00907794 -0.0126187 1.79528 
4.3004 1.79528 -0.629453 
-9.81493 0.00958789 -0.665086 
0.00958789 -9.99501 4.78318 
-0.665086 4.78318 -9.44837 
-9.54186 -0.0434504 -0.318756 
-0.0434504 -9.42353 4.709 
-0.318756 4.709 -10.2929 
-9.95073 0.0601798 -0.475648 
0.0601798 -9.54954 4.68499 
-0.475648 4.68499 -9.75804 
-9.87916 0.0699572 -0.422859 
0.0699572 -9.82311 4.59383 
-0.422859 4.59383 -9.55604 
-9.68002 0.111893 -2.01548 
0.111893 -9.51553 -2.63541 
-2.01548 -2.63541 -9.8921 
-9.61558 0.00417593 -1.72593 
0.00417593 -9.40707 -2.69344 
-1.72593 -2.69344 -10.065 
-9.7643 0.0156239 -1.88998 
0.0156239 -9.68658 -2.63234 
-1.88998 -2.63234 -9.63678 
-9.78743 -0.0025069 -1.92765 
-0.0025069 -9.81361 -2.59913 
-1.92765 -2.59913 -9.48662 
-9.67007 -0.0488378 -1.27916 
-0.0488378 -9.59839 4.59304 
-1.27916 4.59304 -9.98843 
-9.71467 -0.00905091 -1.52299 
-0.00905091 -9.59232 4.5182 
-1.52299 4.5182 -9.94989 
-9.80176 0.0173601 -1.41775 
0.0173601 -9.8352 4.60495 
-1.41775 4.60495 -9.61992 
-9.79059 -0.0283833 -1.41651 
-0.0283833 -9.76806 4.57114 
-1.41651 4.57114 -9.69823 
-0.544134 0.148934 -1.14546 
0.148934 -0.595466 4.54973 
-1.14546 4.54973 0.211756 
-0.350783 0.0293827 -1.4288 
0.0293827 -0.467069 4.45689 
-1.4288 4.45689 -0.109992 
-0.226545 -0.00617508 -1.29992 
-0.00617508 -0.283526 4.48054 
-1.29992 4.48054 -0.417772 
-0.28216 -0.102178 -1.51811 
-0.102178 -0.110806 4.50885 
-1.51811 4.50885 -0.534877 
-0.583411 -0.175606 4.55293 
-0.175606 -0.49917 1.14223 
4.55293 1.14223 0.135806 
-0.366608 0.0391984 4.45406 
0.0391984 -0.482359 1.44411 
4.45406 1.44411 -0.097808 
-0.348173 0.0133517 4.50753 
0.0133517 -0.20836 1.27482 
4.50753 1.27482 -0.390243 
-0.173456 0.0780235 4.52031 
0.0780235 -0.274153 1.42938 
4.52031 1.42938 -0.499166 
-9.8684 0.0284077 0.746144 
0.0284077 -9.82268 1.32688 
0.746144 1.32688 -9.64191 
-9.74411 0.0706849 0.90963 
0.0706849 -9.67487 1.39122 
0.90963 1.39122 -9.91401 
-9.80209 0.0393214 0.647152 
0.0393214 -9.67386 1.45478 
0.647152 1.45478 -9.85704 
-9.86768 0.0198946 0.722165 
0.0198946 -9.92375 1.31294 
0.722165 1.31294 -9.54157 
-9.81087 -0.146566 4.51657 
-0.146566 -9.89599 0.357393 
4.51657 0.357393 -9.50552 
-9.55399 -0.0599664 4.65379 
-0.0599664 -9.93625 0.435335 
4.65379 0.435335 -9.72214 
-9.35747 0.054144 4.67949 
0.054144 -9.55688 0.275552 
4.67949 0.275552 -10.298 
-10.0088 -0.0244267 4.7615 
-0.0244267 -9.80263 0.633012 
4.7615 0.633012 -9.40097 
-7.92063 0.136725 4.50156 
0.136725 -8.30222 1.03968 
4.50156 1.03968 -8.28303 
-7.7745 -0.0345501 4.5939 
-0.0345501 -7.80015 1.02226 
4.5939 1.02226 -8.93122 
-8.59 -0.0777042 4.69945 
-0.0777042 -8.10703 0.89374 
4.69945 0.89374 -7.80885 
-8.15299 0.042006 4.25033 
0.042006 -8.25741 1.04918 
4.25033 1.04918 -8.09547 
-0.978261 0.0819504 4.52676 
0.0819504 -0.591547 -1.12728 
4.52676 -1.12728 -1.08057 
-0.80834 -0.0322576 4.5255 
-0.0322576 -0.988861 -0.981098 
4.5255 -0.981098 -0.853174 
-1.21324 0.0830714 4.56437 
0.0830714 -0.796596 -0.880127 
4.56437 -0.880127 -0.64054 
-0.778258 -0.0499671 4.53678 
-0.0499671 -0.980076 -0.969494 
4.53678 -0.969494 -0.892042 
-0.23679 -0.0447392 -2.30651 
-0.0447392 -0.260274 -4.0428 
-2.30651 -4.0428 -0.442629 
-0.375018 -0.0471717 -2.44948 
-0.0471717 -0.674555 -3.98868 
-2.44948 -3.98868 0.10988 
-0.373457 -0.0604531 -2.19095 
-0.0604531 -0.441319 -4.12099 
-2.19095 -4.12099 -0.124917 
-0.277341 0.0565524 -2.19067 
0.0565524 -0.11603 -4.20284 
-2.19067 -4.20284 -0.546322 
-0.472768 0.0578866 4.14839 
0.0578866 -0.362773 -2.18174 
4.14839 -2.18174 -0.15078 
-0.719989 0.0458261 4.01322 
0.0458261 -0.381826 -2.4469 
4.01322 -2.4469 0.115494 
-0.148294 -0.0633059 4.24114 
-0.0633059 -0.263626 -2.15106 
4.24114 -2.15106 -0.574401 
-0.298721 0.06783 4.08228 
0.06783 -0.243485 -2.29988 
4.08228 -2.29988 -0.444115 
-7.68322 -0.0605978 -3.47363 
-0.0605978 -7.72576 -3.34513 
-3.47363 -3.34513 -8.91319 
-8.35184 -0.0868835 -3.64059 
-0.0868835 -8.38911 -3.25397 
-3.64059 -3.25397 -7.5812 
-8.15379 0.206522 -3.28199 
0.206522 -8.03605 -3.3939 
-3.28199 -3.3939 -8.13232 
-8.11552 0.0280247 -3.17861 
0.0280247 -8.22846 -3.27538 
-3.17861 -3.27538 -7.97818 
-0.460453 -0.0179762 3.57719 
-0.0179762 -0.305841 1.06197 
3.57719 1.06197 -0.305118 
-0.55168 0.0499008 3.67148 
0.0499008 -0.319428 1.11775 
3.67148 1.11775 -0.200305 
-0.683486 0.0879374 3.582 
0.0879374 -0.603475 0.924181 
3.582 0.924181 0.215548 
-0.292347 0.0116502 3.60151 
0.0116502 -0.282106 1.12466 
3.60151 1.12466 -0.49696 
-0.255596 -0.099426 2.23758 
-0.099426 -0.0330088 -4.24331 
2.23758 -4.24331 -0.530847 
-0.16465 0.0354385 2.39975 
0.0354385 -0.552454 -4.05609 
2.39975 -4.05609 -0.102348 
-0.367403 0.104269 2.13182 
0.104269 -0.49945 -4.20309 
2.13182 -4.20309 0.0474014 
-0.131214 -0.0276751 2.27329 
-0.0276751 -0.179383 -4.03511 
2.27329 -4.03511 -0.508856 
-0.0205681 0.174073 2.84181 
0.174073 -0.240954 3.39703 
2.84181 3.39703 -0.273351 
-0.289911 -0.0789575 2.68244 
-0.0789575 -0.718223 3.67414 
2.68244 3.67414 0.47326 
0.0672456 0.016301 3.24228 
0.016301 -0.0368528 3.32708 
3.24228 3.32708 -0.565266 
0.0227277 0.0563916 2.8781 
0.0563916 -0.213172 3.35332 
2.8781 3.35332 -0.344429 
-0.737372 0.216246 -2.4396 
0.216246 -0.556877 3.86066 
-2.4396 3.86066 0.575416 
-0.395162 -0.0463732 -2.0318 
-0.0463732 0.0246102 3.91761 
-2.0318 3.91761 -0.348282 
-0.251342 0.0513559 -1.98423 
0.0513559 -0.0222274 3.91867 
-1.98423 3.91867 -0.445264 
-0.0338457 0.0243163 -1.7711 
0.0243163 0.0240315 4.38347 
-1.7711 4.38347 -0.709019 
-9.67071 -0.0133576 4.57025 
-0.0133576 -9.73697 -1.41857 
4.57025 -1.41857 -9.77764 
-9.5739 -0.0240867 4.53987 
-0.0240867 -9.60971 -1.29041 
4.53987 -1.29041 -10.0017 
-9.54526 -0.0301775 4.48011 
-0.0301775 -9.75062 -1.4833 
4.48011 -1.4833 -9.88944 
-9.7762 -0.0255109 4.52144 
-0.0255109 -9.77446 -1.43815 
4.52144 -1.43815 -9.63466 
-9.92218 0.0387124 0.427244 
0.0387124 -9.84755 -4.61711 
0.427244 -4.61711 -9.53904 
-9.97029 0.0509228 0.488041 
0.0509228 -9.58616 -4.70558 
0.488041 -4.70558 -9.75232 
-9.60044 -0.057666 0.28823 
-0.057666 -9.44756 -4.7352 
0.28823 -4.7352 -10.2608 
-9.84204 0.00245827 0.687082 
0.00245827 -10.0266 -4.8031 
0.687082 -4.8031 -9.44015 
-0.135942 -0.0810452 3.00538 
-0.0810452 -0.173091 -3.69733 
3.00538 -3.69733 -0.471411 
-0.411025 -0.0196613 3.07321 
-0.0196613 -0.39487 -3.55852 
3.07321 -3.55852 0.0254516 
-0.440954 0.192906 2.85037 
0.192906 -0.212717 -3.7406 
2.85037 -3.7406 -0.126772 
-0.157689 0.0350217 2.88529 
0.0350217 -0.189957 -3.66978 
2.88529 -3.66978 -0.432797 
-9.72024 -0.0401794 1.23469 
-0.0401794 -9.70367 2.50649 
1.23469 2.50649 -9.90519 
-9.86241 -0.039784 1.10186 
-0.039784 -9.82532 2.6475 
1.10186 2.6475 -9.64137 
-9.87504 0.0361559 0.998981 
0.0361559 -9.70228 2.55629 
0.998981 2.55629 -9.75179 
-9.87256 -0.0726828 1.06985 
-0.0726828 -9.91076 2.66874 
1.06985 2.66874 -9.54578 
-0.566755 -0.00744865 4.65348 
-0.00744865 -0.526416 -0.357941 
4.65348 -0.357941 0.297972 
-0.45433 -0.15848 4.62878 
-0.15848 -0.0194086 -0.511553 
4.62878 -0.511553 -0.32146 
-0.0437499 0.000900526 4.73625 
0.000900526 -0.237086 -0.593805 
4.73625 -0.593805 -0.514362 
-0.124751 -0.0876467 4.53938 
-0.0876467 -0.188236 -0.525042 
4.53938 -0.525042 -0.482212 
-9.56029 0.0265374 -4.68293 
0.0265374 -9.94016 0.498133 
-4.68293 0.498133 -9.74256 
-9.39893 -0.0735116 -4.71191 
-0.0735116 -9.59221 0.29999 
-4.71191 0.29999 -10.2519 
-10.0129 0.00942098 -4.78146 
0.00942098 -9.8305 0.688248 
-4.78146 0.688248 -9.39961 
-9.79905 0.0753701 -4.58383 
0.0753701 -9.92814 0.404755 
-4.58383 0.404755 -9.51583 
-4.93219 0.17155 2.21207 
0.17155 -4.9785 -4.15873 
2.21207 -4.15873 -5.39389 
-4.99652 0.101759 2.09558 
0.101759 -5.22382 -4.18645 
2.09558 -4.18645 -5.08424 
-5.20281 -0.127585 2.22221 
-0.127585 -5.02388 -4.10194 
2.22221 -4.10194 -5.07789 
-5.13122 0.112472 2.17471 
0.112472 -4.92837 -4.2565 
2.17471 -4.2565 -5.245 
-0.226992 0.0617229 3.66591 
0.0617229 -0.194507 2.98917 
3.66591 2.98917 -0.482858 
-0.399382 0.0700582 3.57739 
0.0700582 -0.441059 3.00746 
3.57739 3.00746 -0.0639163 
-0.33756 -0.191677 3.76684 
-0.191677 -0.541433 2.78288 
3.76684 2.78288 -0.0253642 
-0.301967 -0.0557625 3.69877 
-0.0557625 -0.21822 2.8862 
3.69877 2.8862 -0.38417 
-0.182631 0.0514454 -2.88102 
0.0514454 -0.288011 3.69413 
-2.88102 3.69413 -0.405824 
-0.546789 0.200486 -2.7856 
0.200486 -0.339743 3.77641 
-2.7856 3.77641 0.0100659 
-0.428224 -0.0801137 -3.02457 
-0.0801137 -0.401645 3.5744 
-3.02457 3.5744 -0.0465971 
-0.167 -0.0752458 -3.00496 
-0.0752458 -0.221379 3.67358 
-3.00496 3.67358 -0.488087 
-0.164435 0.0249993 -1.25737 
0.0249993 -0.270394 -4.46382 
-1.25737 -4.46382 -0.471173 
-0.429671 0.0389084 -1.45772 
0.0389084 -0.404411 -4.44095 
-1.45772 -4.44095 -0.0719203 
-0.425191 -0.209706 -1.13594 
-0.209706 -0.545464 -4.5446 
-1.13594 -4.5446 0.0646533 
-0.254055 0.124032 -1.44615 
0.124032 -0.118998 -4.52351 
-1.44615 -4.52351 -0.53295 
-9.96764 0.0135114 -4.82165 
0.0135114 -9.82526 -0.633385 
-4.82165 -0.633385 -9.47556 
-9.51288 0.0154176 -4.75567 
0.0154176 -9.57627 -0.304736 
-4.75567 -0.304736 -10.1793 
-9.54087 -0.0753881 -4.7302 
-0.0753881 -9.97802 -0.491144 
-4.7302 -0.491144 -9.74957 
-9.82954 -0.057963 -4.65141 
-0.057963 -9.89002 -0.444642 
-4.65141 -0.444642 -9.5489 
-0.173681 0.184813 0.357853 
0.184813 -0.602743 -0.94175 
0.357853 -0.94175 0.0370725 
-0.231424 -0.0425733 0.770596 
-0.0425733 -0.806398 -1.00858 
0.770596 -1.00858 0.29847 
-0.108547 0.231483 0.591363 
0.231483 -0.24437 -0.818746 
0.591363 -0.818746 -0.386434 
-0.144849 0.0571214 0.586452 
0.0571214 -0.0505188 -0.91985 
0.586452 -0.91985 -0.543984 
-0.136528 -0.0558222 -4.02066 
-0.0558222 -0.101694 -2.2744 
-4.02066 -2.2744 -0.441216 
-0.362512 -0.0105914 -4.18136 
-0.0105914 -0.344876 -2.10899 
-4.18136 -2.10899 0.0279498 
-0.569653 -0.0696262 -4.03674 
-0.0696262 -0.0750413 -2.38251 
-4.03674 -2.38251 -0.0347436 
0.00462442 0.0817049 -4.2326 
0.0817049 -0.204379 -2.19064 
-4.2326 -2.19064 -0.479683 
-9.57331 0.025953 4.5979 
0.025953 -9.64336 1.30359 
4.5979 1.30359 -9.96572 
-9.56874 0.0198311 4.5258 
0.0198311 -9.70479 1.53825 
4.5258 1.53825 -9.90886 
-9.77555 0.00322485 4.58724 
0.00322485 -9.78665 1.44591 
4.58724 1.44591 -9.6202 
-9.70996 0.0487823 4.60364 
0.0487823 -9.7391 1.45729 
4.60364 1.45729 -9.73334 
-9.90823 -0.0976681 3.0239 
-0.0976681 -9.931 3.76963 
3.0239 3.76963 -9.45454 
-9.70471 0.139009 3.14315 
0.139009 -9.51194 3.5236 
3.14315 3.5236 -10.0771 
-9.64452 0.191512 2.88955 
0.191512 -9.72447 3.72773 
2.88955 3.72773 -9.92478 
-9.90047 0.045967 2.9549 
0.045967 -9.90224 3.58906 
2.9549 3.58906 -9.49107 
-0.364685 -0.101695 2.7453 
-0.101695 -0.465013 -0.62766 
2.7453 -0.62766 -0.0562251 
-0.398288 -0.0428104 2.54649 
-0.0428104 -0.309251 -0.430947 
2.54649 -0.430947 -0.178384 
-0.306693 -0.00659189 2.71427 
-0.00659189 -0.166149 -0.448836 
2.71427 -0.448836 -0.41308 
-0.213841 0.0740588 2.76085 
0.0740588 -0.116908 -0.419413 
2.76085 -0.419413 -0.555174 
-0.208277 -0.141996 -3.7372 
-0.141996 -0.44378 -2.8023 
-3.7372 -2.8023 -0.0011472 
-0.325538 -0.0665018 -3.56168 
-0.0665018 -0.327576 -3.01497 
-3.56168 -3.01497 -9.05815e-05 
-0.090157 0.000225735 -3.62228 
0.000225735 -0.155624 -2.8669 
-3.62228 -2.8669 -0.407424 
-0.0888444 0.12518 -3.61456 
0.12518 -0.122925 -3.04607 
-3.61456 -3.04607 -0.441435 
-0.760899 -0.0646045 -0.840535 
-0.0646045 -1.15623 -4.55017 
-0.840535 -4.55017 -0.56708 
-0.92339 0.0778794 -1.00136 
0.0778794 -0.726527 -4.50542 
-1.00136 -4.50542 -0.83429 
-0.530971 -0.0752714 -1.16367 
-0.0752714 -0.894332 -4.52853 
-1.16367 -4.52853 -1.0589 
-0.968748 0.0418877 -1.0042 
0.0418877 -0.753737 -4.48111 
-1.0042 -4.48111 -0.761723 
-0.267319 -0.0776892 0.650007 
-0.0776892 -0.23539 -0.990578 
0.650007 -0.990578 -0.177925 
-0.287826 -0.0321869 0.730838 
-0.0321869 -0.172722 -1.16677 
0.730838 -1.16677 -0.220086 
-0.181109 0.0568589 0.516122 
0.0568589 -0.121536 -1.1369 
0.516122 -1.1369 -0.377989 
-0.0432923 0.0179553 0.540997 
0.0179553 -0.144469 -1.18865 
0.540997 -1.18865 -0.492872 
-0.315734 -0.0497762 2.86139 
-0.0497762 -0.326617 2.40345 
2.86139 2.40345 -0.381983 
-0.385797 -0.0428046 2.96629 
-0.0428046 -0.351663 2.5056 
2.96629 2.5056 -0.286875 
-0.442092 -0.0284508 2.95996 
-0.0284508 -0.45282 2.27376 
2.95996 2.27376 -0.129422 
-0.193214 -0.0386103 2.88604 
-0.0386103 -0.256251 2.39046 
2.88604 2.39046 -0.574869 
-9.92875 0.106198 -3.77865 
0.106198 -9.87882 3.01569 
-3.77865 3.01569 -9.45037 
-9.44646 -0.206529 -3.51831 
-0.206529 -9.68263 3.14481 
-3.51831 3.14481 -10.1289 
-9.74285 -0.148783 -3.70012 
-0.148783 -9.67331 2.91093 
-3.70012 2.91093 -9.84178 
-9.94563 -0.065642 -3.56169 
-0.065642 -9.82341 2.95364 
-3.56169 2.95364 -9.4889 
-9.62984 -0.00662912 1.51911 
-0.00662912 -9.61944 -4.47201 
1.51911 -4.47201 -10.0157 
-9.8287 -0.147324 1.26468 
-0.147324 -9.58859 -4.54794 
1.26468 -4.54794 -9.8477 
-9.9051 0.0258582 1.31408 
0.0258582 -9.73719 -4.52878 
1.31408 -4.52878 -9.62271 
-9.85493 0.0479953 1.27916 
0.0479953 -9.84593 -4.60973 
1.27916 -4.60973 -9.56414 
-8.22294 -0.0178724 -4.68218 
-0.0178724 -8.19124 -0.816973 
-4.68218 -0.816973 -7.94162 
-7.97876 0.0484192 -4.5336 
0.0484192 -8.22708 -1.03918 
-4.5336 -1.03918 -8.14997 
-8.04667 -0.0445289 -4.60841 
-0.0445289 -7.72014 -1.00886 
-4.60841 -1.00886 -8.589 
-8.00071 0.0545294 -4.51081 
0.0545294 -8.16195 -0.992622 
-4.51081 -0.992622 -8.19315 
-0.264626 0.00180313 -1.27775 
0.00180313 -0.241665 -0.176851 
-1.27775 -0.176851 -0.2617 
-0.398775 0.00978715 -1.03154 
0.00978715 -0.283835 -0.192345 
-1.03154 -0.192345 -0.0853804 
-0.295531 -0.00868199 -1.21375 
-0.00868199 -0.206867 -0.321484 
-1.21375 -0.321484 -0.265593 
-0.193869 -0.033643 -1.24935 
-0.033643 -0.107237 -0.206781 
-1.24935 -0.206781 -0.466884 
-0.190266 0.112394 -0.553398 
0.112394 -0.0358817 -4.55531 
-0.553398 -4.55531 -0.429336 
-0.0542138 0.134617 -0.563155 
0.134617 -0.322545 -4.63789 
-0.563155 -4.63789 -0.278725 
-0.415201 -0.0100317 -0.410744 
-0.0100317 -0.565934 -4.66388 
-0.410744 -4.66388 0.325651 
-0.210149 0.00915162 -0.626609 
0.00915162 0.0112765 -4.7298 
-0.626609 -4.7298 -0.456611 
-0.124308 -0.0938006 -0.547204 
-0.0938006 -0.0903574 4.55667 
-0.547204 4.55667 -0.48065 
-0.445996 -0.00131802 -0.356371 
-0.00131802 -0.585241 4.68478 
-0.356371 4.68478 0.335923 
0.0416566 -0.157808 -0.524138 
-0.157808 -0.412742 4.6565 
-0.524138 4.6565 -0.32423 
-0.182854 0.00136759 -0.618526 
0.00136759 -0.00594342 4.76611 
-0.618526 4.76611 -0.506517 
-0.0812369 0.0468529 4.52515 
0.0468529 -0.138749 0.549013 
4.52515 0.549013 -0.452598 
-0.506644 -0.0227815 4.64579 
-0.0227815 -0.479257 0.361852 
4.64579 0.361852 0.313316 
-0.403889 0.128532 4.61998 
0.128532 0.0296807 0.520817 
4.61998 0.520817 -0.298375 
-0.0067265 -0.0413356 4.72362 
-0.0413356 -0.183101 0.642128 
4.72362 0.642128 -0.482756 
-9.87255 0.0217974 2.27564 
0.0217974 -9.86427 4.21182 
2.27564 4.21182 -9.67757 
-9.82646 0.0614283 2.32394 
0.0614283 -9.69218 4.1546 
2.32394 4.1546 -9.89575 
-9.75846 0.00553793 2.13887 
0.00553793 -9.70791 4.25367 
2.13887 4.25367 -9.94802 
-9.85994 0.0484541 2.25949 
0.0484541 -9.81298 4.21656 
2.25949 4.21656 -9.74147 
-9.80899 -0.0313477 -4.24235 
-0.0313477 -9.88853 2.22206 
-4.24235 2.22206 -9.70027 
-9.7011 -0.106294 -4.28312 
-0.106294 -9.73666 2.118 
-4.28312 2.118 -9.96002 
-9.63347 -0.0702224 -4.17126 
-0.0702224 -9.81294 2.32717 
-4.17126 2.32717 -9.95137 
-9.90624 0.0136843 -4.26417 
0.0136843 -9.87189 2.28075 
-4.26417 2.28075 -9.61965 
-0.548945 0.00216117 -4.66773 
0.00216117 -0.449061 -0.354261 
-4.66773 -0.354261 0.323945 
-0.418168 0.155759 -4.63935 
0.155759 0.0276019 -0.535415 
-4.63935 -0.535415 -0.283494 
-0.0843579 0.0909635 -4.545 
0.0909635 -0.130886 -0.542213 
-4.545 -0.542213 -0.458816 
-0.00797621 -0.00413113 -4.74352 
-0.00413113 -0.185763 -0.607188 
-4.74352 -0.607188 -0.480321 
-0.176 -0.00732228 0.640046 
-0.00732228 -0.0580932 -4.75059 
0.640046 -4.75059 -0.505532 
0.0362112 -0.167576 0.539842 
-0.167576 -0.428091 -4.66074 
0.539842 -4.66074 -0.347746 
-0.508375 -0.030796 0.369007 
-0.030796 -0.52181 -4.68799 
0.369007 -4.68799 0.290561 
-0.140657 -0.0960038 0.567691 
-0.0960038 -0.123237 -4.58168 
0.567691 -4.58168 -0.475731 
-1.85048 0.0874404 1.80769 
0.0874404 -2.10452 -4.34284 
1.80769 -4.34284 -2.0682 
-2.23982 0.106296 1.88007 
0.106296 -2.23216 -4.41822 
1.88007 -4.41822 -1.55121 
-1.86196 -0.0734958 2.21968 
-0.0734958 -1.62861 -4.33596 
2.21968 -4.33596 -2.53262 
-1.91686 0.104859 1.73703 
0.104859 -1.91435 -4.15212 
1.73703 -4.15212 -2.19199 
-0.102953 0.0547216 0.584266 
0.0547216 -0.091298 4.54255 
0.584266 4.54255 -0.569797 
0.0818807 0.172854 0.53547 
0.172854 -0.465176 4.66792 
0.53547 4.66792 -0.380753 
-0.540895 0.00849072 0.337189 
0.00849072 -0.502623 4.69835 
0.337189 4.69835 0.27947 
-0.217743 -0.0213273 0.62605 
-0.0213273 0.0344671 4.78808 
0.62605 4.78808 -0.580772 
-0.342565 -0.134779 -4.63952 
-0.134779 -0.0145054 0.543144 
-4.63952 0.543144 -0.269485 
-0.551651 0.0267134 -4.67053 
0.0267134 -0.381326 0.351423 
-4.67053 0.351423 0.306423 
-0.00688121 -0.0983627 -4.52177 
-0.0983627 -0.147973 0.535663 
-4.52177 0.535663 -0.471701 
0.0786684 0.00990976 -4.74966 
0.00990976 -0.225647 0.583548 
-4.74966 0.583548 -0.479576 
-0.389276 -0.205916 2.78537 
-0.205916 -0.153385 3.76716 
2.78537 3.76716 0.0596775 
-0.21885 0.0220758 3.01673 
0.0220758 -0.247427 3.57023 
3.01673 3.57023 -0.0167065 
-0.0115074 0.12841 3.03221 
0.12841 -0.0660183 3.62694 
3.03221 3.62694 -0.405458 
-0.0152303 -0.012362 2.79393 
-0.012362 -0.0633046 3.63229 
2.79393 3.63229 -0.404449 
-0.124425 0.0637999 -3.6324 
0.0637999 -0.0174121 2.7865 
-3.6324 2.7865 -0.462538 
-0.261453 -0.0680423 -3.54498 
-0.0680423 -0.277142 3.04513 
-3.54498 3.04513 -0.0657803 
-0.167193 0.275489 -3.75839 
0.275489 -0.448701 2.79686 
-3.75839 2.79686 0.011519 
-0.102594 -0.116486 -3.64113 
-0.116486 -0.0283087 3.04392 
-3.64113 3.04392 -0.473472 
-0.234207 0.117709 1.53337 
0.117709 0.0336439 4.48535 
1.53337 4.48535 -0.479334 
-0.383287 -0.223738 1.14305 
-0.223738 -0.432017 4.52782 
1.14305 4.52782 0.135406 
-0.289849 -0.0236575 1.44022 
-0.0236575 -0.327963 4.43106 
1.44022 4.43106 -0.062086 
-0.135664 -0.0111801 1.26848 
-0.0111801 -0.105891 4.40946 
1.26848 4.40946 -0.438341 
-0.243991 0.00886077 -4.48341 
0.00886077 -0.0947461 1.22746 
-4.48341 1.22746 -0.499212 
-0.325459 -0.0455405 -4.46211 
-0.0455405 -0.483264 1.49826 
-4.46211 1.49826 -0.0292265 
-0.502748 0.299923 -4.57562 
0.299923 -0.339496 1.14395 
-4.57562 1.14395 0.00429414 
-0.0674683 -0.111125 -4.56792 
-0.111125 -0.220177 1.45282 
-4.56792 1.45282 -0.550305 
-0.703775 -0.0941315 0.956877 
-0.0941315 -1.17845 4.55841 
0.956877 4.55841 -0.568285 
-0.816553 -0.00307943 0.865112 
-0.00307943 -0.787845 4.55624 
0.865112 4.55624 -0.846113 
-0.931692 0.094057 0.926305 
0.094057 -0.685349 4.52845 
0.926305 4.52845 -0.83347 
-0.736208 -0.0104887 1.00033 
-0.0104887 -0.80128 4.56858 
1.00033 4.56858 -0.913023 
-0.748453 -0.00489762 -4.50662 
-0.00489762 -0.958401 0.992936 
-4.50662 0.992936 -0.735334 
-0.674289 -0.0662786 -4.51706 
-0.0662786 -0.95661 0.991629 
-4.51706 0.991629 -0.811289 
-1.1475 0.0884956 -4.58357 
0.0884956 -0.76338 0.826711 
-4.58357 0.826711 -0.531309 
-0.880829 0.0755031 -4.53207 
0.0755031 -0.59247 1.15295 
-4.53207 1.15295 -0.96889 
-2.58852 -0.00517898 2.78178 
-0.00517898 -2.66604 -3.75125 
2.78178 -3.75125 -2.47618 
-2.62629 -0.214537 2.92313 
-0.214537 -2.58341 -3.5912 
2.92313 -3.5912 -2.52104 
-2.52715 0.197943 2.8128 
0.197943 -2.58674 -3.69066 
2.8128 -3.69066 -2.61685 
-2.55535 -0.0222632 2.93457 
-0.0222632 -2.63351 -3.81749 
2.93457 -3.81749 -2.54188 
-9.93622 -0.0182823 4.79304 
-0.0182823 -9.84405 -0.632286 
4.79304 -0.632286 -9.53759 
-9.58808 0.0635043 4.71845 
0.0635043 -9.93822 -0.517772 
4.71845 -0.517772 -9.79156 
-9.54853 -0.013365 4.74179 
-0.013365 -9.58511 -0.342782 
4.74179 -0.342782 -10.1842 
-9.82754 -0.0124078 4.69638 
-0.0124078 -9.86038 -0.483687 
4.69638 -0.483687 -9.62994 
-9.88888 -0.0107958 -4.65547 
-0.0107958 -9.85524 -1.37513 
-4.65547 -1.37513 -9.58369 
-9.7232 0.0514188 -4.59831 
0.0514188 -9.78472 -1.34092 
-4.59831 -1.34092 -9.81989 
-9.48921 0.0266971 -4.52352 
0.0266971 -9.73542 -1.61329 
-4.52352 -1.61329 -10.1032 
-9.81925 0.0632352 -4.58793 
0.0632352 -9.84455 -1.43517 
-4.58793 -1.43517 -9.66401 
-0.0548036 -0.0379284 3.97455 
-0.0379284 -0.0281367 2.31933 
3.97455 2.31933 -0.446865 
-0.222603 -0.00358638 4.15145 
-0.00358638 -0.217634 2.19176 
4.15145 2.19176 -0.0895686 
-0.522149 -0.0616444 4.01711 
-0.0616444 -0.0456035 2.4569 
4.01711 2.4569 0.0379467 
0.0803477 0.10164 4.23731 
0.10164 -0.138687 2.16515 
4.23731 2.16515 -0.471467 
-0.0183254 0.0294833 -2.31287 
0.0294833 -0.0614161 3.97265 
-2.31287 3.97265 -0.481017 
-0.219088 0.0075502 -2.17701 
0.0075502 -0.256809 4.16525 
-2.17701 4.16525 -0.0848613 
-0.0442082 0.0529361 -2.46256 
0.0529361 -0.560693 4.01987 
-2.46256 4.01987 0.044142 
-0.136847 -0.120534 -2.14653 
-0.120534 0.07969 4.25618 
-2.14653 4.25618 -0.503602 
-9.89512 0.00180821 -0.517787 
0.00180821 -9.82172 -4.67619 
-0.517787 -4.67619 -9.64583 
-9.57097 0.00072689 -0.359895 
0.00072689 -9.56254 -4.71375 
-0.359895 -4.71375 -10.2292 
-9.99666 -0.0441596 -0.532832 
-0.0441596 -9.60905 -4.68951 
-0.532832 -4.68951 -9.75697 
-9.90276 0.0531748 -0.715539 
0.0531748 -9.94486 -4.7517 
-0.715539 -4.7517 -9.51506 
-9.77571 -0.108532 2.97218 
-0.108532 -9.83814 -3.77993 
2.97218 -3.77993 -9.86488 
-9.79958 -0.141727 3.2221 
-0.141727 -9.61678 -3.58281 
3.2221 -3.58281 -10.0624 
-9.95713 0.050844 3.10255 
0.050844 -9.98545 -3.79669 
3.10255 -3.79669 -9.53615 
-9.95462 -0.0537049 3.03516 
-0.0537049 -9.95993 -3.67389 
3.03516 -3.67389 -9.56417 
-9.83422 0.0703889 -3.71961 
0.0703889 -9.92856 -2.96964 
-3.71961 -2.96964 -9.67958 
-9.71236 0.068852 -3.60425 
0.068852 -9.76092 -3.09893 
-3.60425 -3.09893 -9.96908 
-9.79581 0.10843 -3.75387 
0.10843 -9.82695 -2.91146 
-3.75387 -2.91146 -9.8196 
-9.87424 0.0162754 -3.7808 
0.0162754 -9.94643 -2.94785 
-3.7808 -2.94785 -9.6217 
-9.59438 0.030639 0.315893 
0.030639 -9.46714 4.81448 
0.315893 4.81448 -10.2214 
-9.89808 -0.0590412 0.524208 
-0.0590412 -9.64562 4.78468 
0.524208 4.78468 -9.73923 
-9.86185 -0.0726879 0.465188 
-0.0726879 -9.76831 4.79538 
0.465188 4.79538 -9.65277 
-9.87415 0.0171555 0.648579 
0.0171555 -9.91015 4.8593 
0.648579 4.8593 -9.49862 
-9.91061 -0.00776526 -2.17032 
-0.00776526 -9.92205 -4.27953 
-2.17032 -4.27953 -9.58413 
-9.79363 0.104797 -2.38234 
0.104797 -9.57164 -4.10093 
-2.38234 -4.10093 -10.0515 
-9.82805 0.0658272 -2.13768 
0.0658272 -9.79817 -4.2222 
-2.13768 -4.2222 -9.79058 
-9.84688 0.106219 -2.23083 
0.106219 -9.92977 -4.17023 
-2.23083 -4.17023 -9.64015 
-9.92898 -0.031282 4.15054 
-0.031282 -9.98924 -2.21635 
4.15054 -2.21635 -9.57898 
-9.76212 -0.113233 4.25605 
-0.113233 -9.78294 -2.10599 
4.25605 -2.10599 -9.95214 
-9.672 -0.056189 4.10498 
-0.056189 -9.84303 -2.39009 
4.10498 -2.39009 -9.98217 
-9.99698 0.038863 4.2676 
0.038863 -9.93835 -2.28181 
4.2676 -2.28181 -9.56187 
-1.30627 0.243752 -0.478502 
0.243752 -1.24784 -1.81153 
-0.478502 -1.81153 -1.62573 
-1.39219 -0.103526 -0.514399 
-0.103526 -1.42041 -1.75477 
-0.514399 -1.75477 -1.36724 
-1.39021 0.0254209 -0.507453 
0.0254209 -1.43501 -1.69739 
-0.507453 -1.69739 -1.35462 
-1.59033 0.191651 -0.371401 
0.191651 -1.5256 -1.60494 
-0.371401 -1.60494 -1.06391 
-2.14879 0.109715 -0.761775 
0.109715 -2.12515 -1.56573 
-0.761775 -1.56573 -2.36185 
-2.02812 0.123735 -0.633763 
0.123735 -2.20682 -1.45538 
-0.633763 -1.45538 -2.40084 
-2.27648 -0.00373603 -0.865781 
-0.00373603 -2.25686 -1.5303 
-0.865781 -1.5303 -2.10245 
-1.75806 0.0274888 -0.414022 
0.0274888 -2.00238 -1.6343 
-0.414022 -1.6343 -2.87534 
-8.0348 -0.0905262 2.32328 
-0.0905262 -8.2329 -3.4877 
2.32328 -3.4877 -9.19743 
-8.59924 -0.356406 2.50328 
-0.356406 -8.15186 -3.39465 
2.50328 -3.39465 -8.71402 
-8.58662 -0.0503502 2.34541 
-0.0503502 -8.4134 -3.14734 
2.34541 -3.14734 -8.4651 
-8.17443 0.175538 2.85427 
0.175538 -8.43408 -3.34648 
2.85427 -3.34648 -8.85661 
-8.4613 0.0102657 2.64762 
0.0102657 -8.53533 -3.5191 
2.64762 -3.5191 -7.23128 
-8.0054 -0.460207 2.18886 
-0.460207 -7.79731 -3.53714 
2.18886 -3.53714 -8.4252 
-7.95083 -0.360783 2.54595 
-0.360783 -8.26006 -3.18311 
2.54595 -3.18311 -8.01701 
-8.55135 0.199298 2.49057 
0.199298 -8.32412 -2.99061 
2.49057 -2.99061 -7.35244 
-1.89507 0.0697802 2.543 
0.0697802 -3.25696 2.42223 
2.543 2.42223 -2.91532 
-2.16297 0.161669 1.65865 
0.161669 -3.09619 2.38436 
1.65865 2.38436 -2.80819 
-2.889 0.0830205 2.56487 
0.0830205 -2.75258 2.28429 
2.56487 2.28429 -2.42577 
-2.24603 -0.00252635 1.58756 
-0.00252635 -2.93989 2.03931 
1.58756 2.03931 -2.88142 
-1.80405 -0.276011 2.26467 
-0.276011 -2.05873 2.16103 
2.26467 2.16103 -2.76075 
-2.35928 -0.608397 1.79726 
-0.608397 -1.87829 1.99964 
1.79726 1.99964 -2.38596 
-1.94213 -0.082201 2.08092 
-0.082201 -1.89943 2.20618 
2.08092 2.20618 -2.78196 
-2.24682 -0.0465785 1.5826 
-0.0465785 -2.0333 2.29793 
1.5826 2.29793 -2.34341 
-7.43131 0.194599 -3.70675 
0.194599 -7.21708 2.70061 
-3.70675 2.70061 -6.992 
-7.27782 0.0509853 -3.86974 
0.0509853 -7.19978 2.8029 
-3.86974 2.8029 -7.16279 
-7.26553 -0.0866018 -3.64569 
-0.0866018 -7.0534 2.76907 
-3.64569 2.76907 -7.32146 
-6.7629 -0.139916 -3.74879 
-0.139916 -7.0187 2.31078 
-3.74879 2.31078 -7.85879 
-2.00344 -0.1812 1.01018 
-0.1812 -2.43146 -3.76924 
1.01018 -3.76924 -2.12642 
-2.74152 -0.421709 -0.735325 
-0.421709 -3.33438 -4.5612 
-0.735325 -4.5612 -0.485408 
-1.90866 0.7939 -0.643164 
0.7939 -0.853275 -4.42905 
-0.643164 -4.42905 -3.79937 
-1.9791 -0.266934 -0.155605 
-0.266934 -2.64334 -4.58145 
-0.155605 -4.58145 -1.93887 
-2.18031 -0.0903805 0.692057 
-0.0903805 -2.37627 -3.13406 
0.692057 -3.13406 -2.32672 
-1.08627 0.237141 -0.470399 
0.237141 -1.37303 -4.4638 
-0.470399 -4.4638 -4.424 
-3.57375 -0.263798 -0.739021 
-0.263798 -3.00189 -4.64918 
-0.739021 -4.64918 -0.307654 
-2.26669 0.0530804 -0.604223 
0.0530804 -2.38467 -3.306 
-0.604223 -3.306 -2.23194 
-6.57545 0.189884 -0.380202 
0.189884 -6.6594 0.275244 
-0.380202 0.275244 -6.43771 
-6.34833 0.293561 -0.987932 
0.293561 -6.98093 -0.360814 
-0.987932 -0.360814 -6.34331 
-6.49088 -0.0935866 -0.168717 
-0.0935866 -6.54996 0.0782903 
-0.168717 0.0782903 -6.63173 
-6.38269 -0.130497 -0.812604 
-0.130497 -6.5818 -0.3282 
-0.812604 -0.3282 -6.70808 
-5.90731 0.0218303 -0.531771 
0.0218303 -6.10422 -0.21084 
-0.531771 -0.21084 -5.84636 
-5.92745 -0.0687362 -0.558941 
-0.0687362 -5.91969 -0.25617 
-0.558941 -0.25617 -6.01074 
-5.98211 0.129493 -0.776377 
0.129493 -6.1687 -0.246746 
-0.776377 -0.246746 -5.70707 
-6.1125 0.108139 -0.589529 
0.108139 -6.44467 -0.324298 
-0.589529 -0.324298 -5.30071 
-8.06322 -0.0695687 -1.31795 
-0.0695687 -8.14713 -1.01668 
-1.31795 -1.01668 -7.90558 
-7.96673 -0.0396358 -1.33846 
-0.0396358 -7.92191 -0.903296 
-1.33846 -0.903296 -8.22728 
-8.14472 -0.169175 -1.28198 
-0.169175 -8.08188 -0.967983 
-1.28198 -0.967983 -7.88932 
-8.45456 0.00941635 -1.557 
0.00941635 -8.56558 -0.981756 
-1.557 -0.981756 -7.09579 
-8.7334 -0.127255 -1.19111 
-0.127255 -8.98846 -1.21397 
-1.19111 -1.21397 -8.62275 
-8.76784 -0.0110495 -1.19972 
-0.0110495 -8.69775 -0.988344 
-1.19972 -0.988344 -8.87902 
-8.78843 0.101251 -1.1753 
0.101251 -8.69569 -1.08004 
-1.1753 -1.08004 -8.86049 
-8.25233 -0.273271 -1.07261 
-0.273271 -8.86221 -0.928911 
-1.07261 -0.928911 -9.23007 
-3.34732 0.180046 0.222884 
0.180046 -3.65512 -4.21126 
0.222884 -4.21126 -3.91332 
-3.50546 -0.00327335 -0.483734 
-0.00327335 -4.04458 -3.9886 
-0.483734 -3.9886 -3.36572 
-3.46192 -0.0917984 0.0713793 
-0.0917984 -3.77555 -4.25709 
0.0713793 -4.25709 -3.67828 
-3.61971 0.146017 -0.292025 
0.146017 -3.59999 -4.32084 
-0.292025 -4.32084 -3.69606 
-3.35643 0.0299888 -0.305633 
0.0299888 -3.21012 -3.87978 
-0.305633 -3.87978 -3.40829 
-3.65609 -0.473982 -0.53177 
-0.473982 -3.07446 -3.99562 
-0.53177 -3.99562 -3.24429 
-3.07138 0.300464 -0.199289 
0.300464 -3.35621 -3.68797 
-0.199289 -3.68797 -3.54724 
-3.67676 0.20859 -0.0908988 
0.20859 -3.31798 -4.45051 
-0.0908988 -4.45051 -2.9801 
-2.15133 -0.194144 -1.68338 
-0.194144 -2.13556 1.52961 
-1.68338 1.52961 -2.54699 
-2.20749 -0.16701 -1.60677 
-0.16701 -2.11806 1.40124 
-1.60677 1.40124 -2.50833 
-2.35527 -0.142273 -1.73716 
-0.142273 -2.18201 1.79298 
-1.73716 1.79298 -2.29659 
-2.1047 -0.0823871 -1.56838 
-0.0823871 -2.02129 1.25434 
-1.56838 1.25434 -2.70789 
-1.60902 0.0438387 -1.58666 
0.0438387 -1.77567 1.6097 
-1.58666 1.6097 -1.84669 
-1.60084 0.140419 -1.64853 
0.140419 -1.97176 1.52585 
-1.64853 1.52585 -1.65879 
-1.3603 0.0381107 -1.55169 
0.0381107 -1.45841 1.17419 
-1.55169 1.17419 -2.41267 
-2.15502 0.129093 -1.78043 
0.129093 -1.66337 1.89164 
-1.78043 1.89164 -1.41299 
-7.63936 0.0479566 2.05649 
0.0479566 -7.57633 2.30907 
2.05649 2.30907 -7.29313 
-7.58818 -0.0611981 1.9085 
-0.0611981 -7.71659 2.36015 
1.9085 2.36015 -7.20405 
-7.84258 -0.128251 1.71625 
-0.128251 -7.57731 2.33788 
1.71625 2.33788 -7.08894 
-7.63337 0.1049 2.00082 
0.1049 -7.56762 2.41917 
2.00082 2.41917 -7.30783 
-7.39838 0.00753234 2.10754 
0.00753234 -7.31397 2.60986 
2.10754 2.60986 -7.50932 
-7.54207 0.0226474 2.0334 
0.0226474 -7.54053 2.61492 
2.0334 2.61492 -7.13906 
-7.55905 -0.142951 1.65201 
-0.142951 -7.09364 2.55111 
1.65201 2.55111 -7.56897 
-7.60049 0.0647672 1.99401 
0.0647672 -7.36838 2.65253 
1.99401 2.65253 -7.2528 
-3.92822 0.241226 -1.30775 
0.241226 -3.62326 -0.573042 
-1.30775 -0.573042 -4.08177 
-4.02599 -0.00118327 -1.29977 
-0.00118327 -3.71632 -0.575914 
-1.29977 -0.575914 -3.89094 
-3.72825 -0.112713 -1.44185 
-0.112713 -4.05472 -0.299024 
-1.44185 -0.299024 -3.85027 
-3.33732 -0.070731 -1.34114 
-0.070731 -3.95607 -0.48006 
-1.34114 -0.48006 -4.33985 
-2.93104 0.188617 -1.39057 
0.188617 -3.19938 -0.323085 
-1.39057 -0.323085 -3.69707 
-3.28471 -0.44225 -1.47888 
-0.44225 -3.40655 -0.483253 
-1.47888 -0.483253 -3.13624 
-3.26777 -0.223582 -1.24656 
-0.223582 -3.23356 -0.325989 
-1.24656 -0.325989 -3.32616 
-3.53835 0.00804667 -1.42924 
0.00804667 -3.59444 -0.724725 
-1.42924 -0.724725 -2.69471 
-4.2844 0.00991844 1.60093 
0.00991844 -4.35221 -0.132898 
1.60093 -0.132898 -3.92192 
-4.18617 -0.00361795 1.89258 
-0.00361795 -4.20211 -0.0445671 
1.89258 -0.0445671 -4.17025 
-4.10341 -0.105733 1.82203 
-0.105733 -4.5519 0.235497 
1.82203 0.235497 -3.90322 
-4.36669 0.209113 1.74077 
0.209113 -3.5386 -0.0444528 
1.74077 -0.0444528 -4.65324 
-3.5999 0.0682234 1.4021 
0.0682234 -3.89078 0.0437859 
1.4021 0.0437859 -3.46113 
-3.74359 0.0758312 2.20943 
0.0758312 -3.45635 -0.400911 
2.20943 -0.400911 -3.75186 
-3.66791 0.366956 1.39367 
0.366956 -3.95658 -0.305862 
1.39367 -0.305862 -3.32732 
-3.55302 0.0198454 1.88114 
0.0198454 -3.92071 -0.217608 
1.88114 -0.217608 -3.47808 
-1.17913 0.00990943 -1.1027 
0.00990943 -1.22765 1.92941 
-1.1027 1.92941 -1.21519 
-1.37596 0.111571 -1.06838 
0.111571 -1.29642 1.77735 
-1.06838 1.77735 -0.949593 
-1.26608 0.329594 -1.28652 
0.329594 -0.980287 1.77947 
-1.28652 1.77947 -1.37561 
-1.18611 -0.0322982 -1.13864 
-0.0322982 -1.32982 1.82951 
-1.13864 1.82951 -1.10604 
-1.8903 0.156068 -1.41301 
0.156068 -1.69937 2.08414 
-1.41301 2.08414 -1.93777 
-1.70914 0.263828 -1.5256 
0.263828 -1.63512 1.94285 
-1.5256 1.94285 -2.18318 
-1.96756 -0.198487 -1.50185 
-0.198487 -1.78178 2.22315 
-1.50185 2.22315 -1.77811 
-1.62999 0.0135591 -1.19037 
0.0135591 -1.7042 1.63826 
-1.19037 1.63826 -2.19324 
-1.27404 -0.0946991 -1.22686 
-0.0946991 -1.1142 1.79665 
-1.22686 1.79665 -1.2201 
-1.15226 -0.0398593 -1.30499 
-0.0398593 -1.2227 1.51411 
-1.30499 1.51411 -1.23339 
-1.20608 -0.0221871 -1.27383 
-0.0221871 -1.29301 1.56037 
-1.27383 1.56037 -1.10926 
-1.59054 0.00779512 -1.3819 
0.00779512 -0.995797 1.41598 
-1.3819 1.41598 -1.02201 
-1.95974 0.188261 -1.53026 
0.188261 -1.74523 1.70545 
-1.53026 1.70545 -2.05113 
-1.57886 0.00363443 -1.807 
0.00363443 -2.33611 1.66843 
-1.807 1.66843 -1.84113 
-1.92966 0.118891 -1.5773 
0.118891 -1.73337 1.63335 
-1.5773 1.63335 -2.09307 
-1.55412 0.198492 -0.97159 
0.198492 -1.68356 1.86845 
-0.97159 1.86845 -2.51843 
-6.2179 -0.0634632 -3.38258 
-0.0634632 -6.3874 2.19025 
-3.38258 2.19025 -6.44759 
-6.60485 -0.0732059 -3.54267 
-0.0732059 -6.06302 2.13155 
-3.54267 2.13155 -6.38502 
-6.46112 -0.185511 -3.34504 
-0.185511 -6.31536 2.26582 
-3.34504 2.26582 -6.27641 
-6.44804 -0.259389 -3.48493 
-0.259389 -6.43969 2.67158 
-3.48493 2.67158 -6.16516 
-6.29623 0.0453932 -3.21589 
0.0453932 -6.45212 2.75347 
-3.21589 2.75347 -6.71374 
-6.50602 0.0618399 -3.39181 
0.0618399 -6.49352 2.68931 
-3.39181 2.68931 -6.46256 
-6.53866 0.140067 -3.60155 
0.140067 -6.68022 2.47393 
-3.60155 2.47393 -6.24321 
-6.42996 -0.00163518 -3.5149 
-0.00163518 -6.52248 2.55841 
-3.5149 2.55841 -6.50966 
-1.84262 -0.0147199 1.96011 
-0.0147199 -2.03854 2.04275 
1.96011 2.04275 -1.4738 
-1.93564 -0.154885 1.77092 
-0.154885 -2.02097 2.02315 
1.77092 2.02315 -1.39834 
-1.69329 0.327015 2.02698 
0.327015 -1.95538 1.97842 
2.02698 1.97842 -1.70628 
-1.61765 -0.0328873 1.6754 
-0.0328873 -1.70011 2.20365 
1.6754 2.20365 -2.03719 
-1.3345 -0.0461505 1.76762 
-0.0461505 -1.03545 2.20867 
1.76762 2.20867 -1.04927 
-1.06714 0.0266222 2.16498 
0.0266222 -1.16636 2.17373 
2.16498 2.17373 -1.18573 
-1.39902 -0.0420029 1.85251 
-0.0420029 -1.15886 2.32299 
1.85251 2.32299 -0.861344 
-1.34894 -0.00873899 1.76837 
-0.00873899 -1.26723 2.14962 
1.76837 2.14962 -0.803056 
-9.65641 0.0538302 1.73122 
0.0538302 -9.80354 -0.187955 
1.73122 -0.187955 -9.28851 
-9.64718 0.261742 1.73996 
0.261742 -9.51179 -0.350518 
1.73996 -0.350518 -9.58949 
-9.5376 0.123015 1.76706 
0.123015 -9.79875 -0.43173 
1.76706 -0.43173 -9.41212 
-9.03542 0.0136879 1.40967 
0.0136879 -9.22685 -0.361858 
1.40967 -0.361858 -10.4862 
-8.8674 -0.321777 1.69329 
-0.321777 -8.94691 -0.435674 
1.69329 -0.435674 -9.14264 
-8.82172 -0.123244 1.92346 
-0.123244 -9.00297 -0.362687 
1.92346 -0.362687 -9.13225 
-8.58383 0.129922 2.08862 
0.129922 -8.83051 -0.774927 
2.08862 -0.774927 -9.54261 
-9.39995 0.356073 1.72331 
0.356073 -8.98112 0.055764 
1.72331 0.055764 -8.57587 
-3.16059 0.00449155 -2.28534 
0.00449155 -3.1436 1.66989 
-2.28534 1.66989 -3.07594 
-3.123 0.0214782 -2.30399 
0.0214782 -3.06594 1.58488 
-2.30399 1.58488 -3.19119 
-3.2019 -0.0919978 -2.07575 
-0.0919978 -3.49003 1.90996 
-2.07575 1.90996 -2.6882 
-3.16404 -0.0188589 -2.23433 
-0.0188589 -3.09183 1.70679 
-2.23433 1.70679 -3.12426 
-3.21583 -0.0241997 -1.87205 
-0.0241997 -3.17338 1.69188 
-1.87205 1.69188 -2.79875 
-3.01751 0.00189338 -1.8399 
0.00189338 -3.02817 1.64451 
-1.8399 1.64451 -3.14228 
-3.24351 0.0195351 -1.92939 
0.0195351 -3.30571 1.47906 
-1.92939 1.47906 -2.63873 
-3.12518 -0.0185607 -1.78529 
-0.0185607 -3.00166 1.56033 
-1.78529 1.56033 -3.06112 
-3.3179 0.306637 2.3506 
0.306637 -3.49422 -0.471649 
2.3506 -0.471649 -3.94472 
-3.66304 -0.0206152 2.42968 
-0.0206152 -3.56961 -0.327619 
2.42968 -0.327619 -3.5242 
-3.56957 0.00977538 2.42341 
0.00977538 -3.67337 -0.211064 
2.42341 -0.211064 -3.51389 
-3.68918 0.281745 2.69652 
0.281745 -3.87584 -0.222153 
2.69652 -0.222153 -3.19182 
-4.27221 0.120263 2.35029 
0.120263 -4.46269 -0.267923 
2.35029 -0.267923 -4.55934 
-3.94983 0.0261747 2.30135 
0.0261747 -4.77456 -0.32994 
2.30135 -0.32994 -4.56985 
-4.41195 -0.0615031 2.3642 
-0.0615031 -4.621 -0.0832932 
2.3642 -0.0832932 -4.26129 
-3.76503 -0.0377569 2.11507 
-0.0377569 -3.89442 -0.200359 
2.11507 -0.200359 -5.63479 
-2.67622 0.589157 2.98651 
0.589157 -3.54346 0.914324 
2.98651 0.914324 -4.75514 
-4.13791 0.490548 3.15177 
0.490548 -3.90718 1.40764 
3.15177 1.40764 -2.92973 
-3.61533 -0.185365 3.17286 
-0.185365 -3.82256 0.710457 
3.17286 0.710457 -3.53693 
-3.6651 0.00893752 3.15445 
0.00893752 -3.77417 0.868368 
3.15445 0.868368 -3.53554 
-3.65725 0.364793 2.68884 
0.364793 -2.66568 0.526683 
2.68884 0.526683 -3.78277 
-3.1133 -0.177682 2.65331 
-0.177682 -3.74307 0.941451 
2.65331 0.941451 -3.24933 
-3.25153 -0.189022 2.77975 
-0.189022 -3.47377 1.1538 
2.77975 1.1538 -3.3804 
-3.55167 0.103008 2.84722 
0.103008 -3.32226 1.01302 
2.84722 1.01302 -3.23177 
-3.55806 -0.00459408 3.14119 
-0.00459408 -3.78163 0.943194 
3.14119 0.943194 -1.42297 
-2.6061 0.0748335 2.2882 
0.0748335 -2.43102 0.413015 
2.2882 0.413015 -3.72553 
-2.82204 0.142559 2.96797 
0.142559 -2.8484 0.630315 
2.96797 0.630315 -3.09222 
-2.81746 0.128767 2.87271 
0.128767 -3.01925 0.661766 
2.87271 0.661766 -2.92594 
-3.30895 0.0891484 2.86922 
0.0891484 -3.31249 0.992529 
2.86922 0.992529 -1.7308 
-2.87916 0.36534 2.76748 
0.36534 -2.62761 0.825129 
2.76748 0.825129 -2.84547 
-2.37499 0.0538868 2.40739 
0.0538868 -2.8401 0.619682 
2.40739 0.619682 -3.13715 
-2.97879 0.121475 2.70777 
0.121475 -2.79771 0.708849 
2.70777 0.708849 -2.57574 
-4.31455 0.0619498 -4.03341 
0.0619498 -4.38536 0.999082 
-4.03341 0.999082 -4.76 
-4.65353 0.13726 -3.95524 
0.13726 -4.35179 1.06217 
-3.95524 1.06217 -4.45459 
-4.39025 0.342423 -4.38703 
0.342423 -4.27206 1.18301 
-4.38703 1.18301 -4.79761 
-3.59694 0.0836535 -3.72507 
0.0836535 -4.07548 0.493824 
-3.72507 0.493824 -5.7875 
-3.13581 0.268161 -4.07684 
0.268161 -4.02054 0.916815 
-4.07684 0.916815 -4.44433 
-4.02989 -0.0302731 -4.07314 
-0.0302731 -3.97997 0.773736 
-4.07314 0.773736 -3.59083 
-3.87704 -0.0199683 -3.9576 
-0.0199683 -3.96477 0.934925 
-3.9576 0.934925 -3.75888 
-3.96525 0.195123 -3.69348 
0.195123 -4.3484 1.26134 
-3.69348 1.26134 -3.28705 
-9.56941 -0.0159718 2.42817 
-0.0159718 -9.71729 -3.85828 
2.42817 -3.85828 -9.436 
-9.40053 0.104637 2.37191 
0.104637 -9.7533 -3.7901 
2.37191 -3.7901 -9.56887 
-9.30193 0.0501567 2.25463 
0.0501567 -9.26433 -3.92882 
2.25463 -3.92882 -10.1565 
-9.43411 0.0902919 2.45942 
0.0902919 -9.50902 -3.93251 
2.45942 -3.93251 -9.77957 
-9.26182 -0.222979 2.57101 
-0.222979 -8.56929 -3.82801 
2.57101 -3.82801 -9.51793 
-8.90922 0.176535 2.60263 
0.176535 -9.32906 -3.73084 
2.60263 -3.73084 -9.11076 
-8.96187 0.129342 2.62608 
0.129342 -9.24151 -3.87815 
2.62608 -3.87815 -9.14565 
-9.25807 0.0102527 2.39857 
0.0102527 -9.0367 -3.99369 
2.39857 -3.99369 -9.05426 
-2.46771 0.0327701 4.27454 
0.0327701 -2.75483 -0.866682 
4.27454 -0.866682 -2.88916 
-2.06187 0.179493 4.86348 
0.179493 -2.58699 -0.269471 
4.86348 -0.269471 -3.46284 
-3.64762 -0.291777 4.45283 
-0.291777 -2.69082 -0.197984 
4.45283 -0.197984 -1.77325 
-2.81176 -0.0359902 4.54833 
-0.0359902 -2.64498 -0.313691 
4.54833 -0.313691 -2.65495 
-2.48351 0.241892 3.96859 
0.241892 -2.70249 -0.347322 
3.96859 -0.347322 -2.65093 
-3.3596 -0.127269 4.49466 
-0.127269 -3.42374 -0.240965 
4.49466 -0.240965 -1.05358 
-2.04714 -0.0556277 4.67917 
-0.0556277 -2.04226 0.0133787 
4.67917 0.0133787 -3.74753 
-2.58317 0.0523114 3.98426 
0.0523114 -2.56131 -0.0930234 
3.98426 -0.0930234 -2.69245 
-9.63437 -0.0329686 3.73624 
-0.0329686 -9.56554 2.63394 
3.73624 2.63394 -9.51804 
-9.63484 -0.0444808 3.81122 
-0.0444808 -9.69608 2.61808 
3.81122 2.61808 -9.38702 
-9.41586 0.0325391 3.63178 
0.0325391 -9.19239 2.79309 
3.63178 2.79309 -10.1097 
-9.52704 -0.0289068 3.84069 
-0.0289068 -9.41131 2.69925 
3.84069 2.69925 -9.77959 
-9.10047 -0.166553 3.83728 
-0.166553 -9.00094 2.44485 
3.83728 2.44485 -9.10609 
-8.84492 0.547756 3.78695 
0.547756 -8.80429 2.52891 
3.78695 2.52891 -9.55829 
-9.08336 -0.142523 3.93287 
-0.142523 -9.07272 2.52682 
3.93287 2.52682 -9.05141 
-9.13723 0.123933 3.76252 
0.123933 -9.06185 2.63101 
3.76252 2.63101 -9.00841 
-3.1636 0.204263 0.586493 
0.204263 -3.25829 -0.885334 
0.586493 -0.885334 -2.50707 
-2.86392 0.0542788 0.625098 
0.0542788 -2.92552 -0.857371 
0.625098 -0.857371 -3.13952 
-3.03034 -0.0530204 0.615303 
-0.0530204 -2.96228 -0.674086 
0.615303 -0.674086 -2.93634 
-2.94975 -0.0184162 0.628071 
-0.0184162 -3.01618 -0.711415 
0.628071 -0.711415 -2.96302 
-2.92816 0.188801 0.321359 
0.188801 -3.12703 -1.06223 
0.321359 -1.06223 -2.70595 
-2.94239 0.00532258 0.386123 
0.00532258 -2.9968 -1.07648 
0.386123 -1.07648 -2.82196 
-2.92192 -0.0645142 0.238674 
-0.0645142 -2.91313 -1.04398 
0.238674 -1.04398 -2.9261 
-2.92738 0.0382143 0.534566 
0.0382143 -2.98453 -0.910793 
0.534566 -0.910793 -2.84924 
-2.88714 0.157955 -0.658765 
0.157955 -3.18357 -1.63148 
-0.658765 -1.63148 -3.23067 
-3.03232 -0.0532611 -0.220578 
-0.0532611 -2.83885 -1.61066 
-0.220578 -1.61066 -3.43021 
-2.72586 -0.0410617 -0.688895 
-0.0410617 -3.36636 -1.58665 
-0.688895 -1.58665 -3.20917 
-3.41688 -0.0176506 -1.03024 
-0.0176506 -3.57552 -1.56911 
-1.03024 -1.56911 -2.30898 
-3.62442 0.0898303 -0.743726 
0.0898303 -3.92087 -1.81334 
-0.743726 -1.81334 -3.588 
-3.71224 -0.0531486 -0.861745 
-0.0531486 -3.59781 -1.64232 
-0.861745 -1.64232 -3.82324 
-3.74756 -0.0636015 -0.804273 
-0.0636015 -3.64492 -1.61193 
-0.804273 -1.61193 -3.74081 
-3.38981 0.119651 -0.820423 
0.119651 -3.72875 -1.56829 
-0.820423 -1.56829 -4.01473 
-6.83758 -0.0703051 -4.61267 
-0.0703051 -6.61739 -0.52858 
-4.61267 -0.52858 -6.69569 
-6.61279 -0.00292297 -4.63693 
-0.00292297 -6.89794 -0.546941 
-4.63693 -0.546941 -6.63994 
-6.57783 -0.119804 -4.52702 
-0.119804 -6.73264 -0.452216 
-4.52702 -0.452216 -6.8402 
-6.27179 0.0441327 -4.38307 
0.0441327 -6.60267 -0.744381 
-4.38307 -0.744381 -7.2762 
-5.79551 -0.157821 -4.10776 
-0.157821 -5.705 -0.520994 
-4.10776 -0.520994 -6.24859 
-5.85354 -0.0123704 -4.49026 
-0.0123704 -6.01145 -0.556394 
-4.49026 -0.556394 -5.88411 
-5.82606 0.021539 -4.46644 
0.021539 -6.10146 -0.57108 
-4.46644 -0.57108 -5.82157 
-6.33112 -0.0469809 -4.3754 
-0.0469809 -6.33125 -0.744744 
-4.3754 -0.744744 -5.08672 
-9.64995 -0.0696673 -3.33167 
-0.0696673 -9.73717 -2.37372 
-3.33167 -2.37372 -9.45632 
-9.4899 0.00192517 -3.20864 
0.00192517 -9.70765 -2.35282 
-3.20864 -2.35282 -9.6459 
-9.48929 -0.0971393 -3.2306 
-0.0971393 -9.70885 -2.35231 
-3.2306 -2.35231 -9.64531 
-9.34194 -0.0595319 -3.09135 
-0.0595319 -9.36646 -2.3856 
-3.09135 -2.3856 -10.1351 
-9.05273 -0.052152 -3.26407 
-0.052152 -8.82881 -2.17266 
-3.26407 -2.17266 -9.03709 
-8.88759 -0.0444741 -3.37004 
-0.0444741 -8.88649 -2.11337 
-3.37004 -2.11337 -9.14456 
-8.61738 -0.0924869 -3.23612 
-0.0924869 -8.90867 -1.83888 
-3.23612 -1.83888 -9.39259 
-8.75318 0.191589 -3.44556 
0.191589 -9.44127 -2.42679 
-3.44556 -2.42679 -8.72419 
-4.25776 0.127908 4.0027 
0.127908 -4.30629 -1.26665 
4.0027 -1.26665 -3.65001 
-4.12233 0.00391677 4.28168 
0.00391677 -4.00793 -1.13637 
4.28168 -1.13637 -4.08381 
-4.15021 -0.0449164 4.34905 
-0.0449164 -4.03472 -1.18517 
4.34905 -1.18517 -4.02914 
-3.55654 0.203632 4.25864 
0.203632 -3.85929 -0.710049 
4.25864 -0.710049 -4.79824 
-3.02996 -0.00833939 4.4401 
-0.00833939 -3.28444 -1.13628 
4.4401 -1.13628 -3.49822 
-3.4003 0.185399 4.40305 
0.185399 -3.22233 -1.13682 
4.40305 -1.13682 -3.18999 
-3.12217 -0.0384916 4.76198 
-0.0384916 -3.12792 -1.01554 
4.76198 -1.01554 -3.56253 
-4.03672 0.0381854 4.23314 
0.0381854 -3.44312 -0.873081 
4.23314 -0.873081 -2.33278 
-1.20946 -0.087444 -2.79024 
-0.087444 -1.34764 0.0530536 
-2.79024 0.0530536 -1.13838 
-1.29213 -0.205884 -2.85756 
-0.205884 -1.29657 -0.064153 
-2.85756 -0.064153 -1.10677 
-1.05773 0.208178 -2.79106 
0.208178 -1.19236 -0.0335039 
-2.79106 -0.0335039 -1.44538 
-1.44768 0.584561 -2.47129 
0.584561 -1.66963 0.0756632 
-2.47129 0.0756632 -0.578161 
-2.0506 0.0666804 -2.8033 
0.0666804 -1.70873 0.044515 
-2.8033 0.044515 -2.14272 
-1.98618 0.00998212 -2.75571 
0.00998212 -1.80311 0.0748306 
-2.75571 0.0748306 -2.11276 
-2.27879 -0.0363833 -2.9852 
-0.0363833 -1.79602 -0.0822421 
-2.9852 -0.0822421 -1.82724 
-1.41849 -0.0469751 -2.67544 
-0.0469751 -1.48423 0.476715 
-2.67544 0.476715 -2.99932 
-6.4203 -0.228057 -4.21511 
-0.228057 -6.3827 -1.12819 
-4.21511 -1.12819 -6.44832 
-6.6987 0.120296 -4.09626 
0.120296 -6.28388 -1.45371 
-4.09626 -1.45371 -6.26875 
-6.25224 -0.102182 -4.1785 
-0.102182 -6.46928 -1.37492 
-4.1785 -1.37492 -6.5298 
-6.28292 0.137679 -4.16518 
0.137679 -6.32726 -0.884917 
-4.16518 -0.884917 -6.64115 
-5.74639 -0.0196338 -4.21036 
-0.0196338 -5.91683 -1.09658 
-4.21036 -1.09658 -5.59336 
-5.73918 -0.0605561 -4.11433 
-0.0605561 -5.71276 -1.14802 
-4.11433 -1.14802 -5.80464 
-5.93941 0.0510808 -3.94555 
0.0510808 -5.9352 -1.08616 
-3.94555 -1.08616 -5.38198 
-6.09677 -0.105165 -4.17515 
-0.105165 -6.00605 -1.07237 
-4.17515 -1.07237 -5.15377 
-4.74144 -0.0147339 -1.3678 
-0.0147339 -4.65472 -1.14837 
-1.3678 -1.14837 -4.58147 
-4.31852 -0.0472233 -1.62717 
-0.0472233 -4.51558 -1.37714 
-1.62717 -1.37714 -5.14354 
-4.8855 -0.0655347 -1.31363 
-0.0655347 -4.67512 -1.06537 
-1.31363 -1.06537 -4.41702 
-4.51689 -0.123843 -1.48464 
-0.123843 -4.67718 -1.0704 
-1.48464 -1.0704 -4.78357 
-4.57031 -0.125332 -1.48152 
-0.125332 -4.54356 -0.979543 
-1.48152 -0.979543 -4.60605 
-4.64739 -0.10448 -1.39127 
-0.10448 -4.73647 -0.896114 
-1.39127 -0.896114 -4.33606 
-4.21456 -0.111177 -1.6708 
-0.111177 -4.33379 -1.39776 
-1.6708 -1.39776 -5.17156 
-4.60412 -0.128734 -1.52473 
-0.128734 -4.58247 -1.05555 
-1.52473 -1.05555 -4.53332 
-5.11051 0.193058 -1.79023 
0.193058 -5.14235 0.922047 
-1.79023 0.922047 -4.65227 
-5.09079 -0.017841 -1.86953 
-0.017841 -4.86481 1.15745 
-1.86953 1.15745 -4.94955 
-5.04036 0.103375 -1.73658 
0.103375 -5.25366 0.770599 
-1.73658 0.770599 -4.61111 
-4.93987 0.0232969 -1.62496 
0.0232969 -5.31672 0.792328 
-1.62496 0.792328 -4.64855 
-5.32028 -0.0520059 -1.64321 
-0.0520059 -5.30587 0.879756 
-1.64321 0.879756 -4.71248 
-5.05798 0.01365 -1.58645 
0.01365 -5.1773 1.274 
-1.58645 1.274 -5.10336 
-5.22529 0.0539489 -1.57735 
0.0539489 -5.34759 1.09984 
-1.57735 1.09984 -4.76576 
-5.42825 0.0934043 -1.51535 
0.0934043 -5.21892 1.06331 
-1.51535 1.06331 -4.69146 
-4.65909 -0.0784748 4.13061 
-0.0784748 -4.56648 2.09062 
4.13061 2.09062 -4.38089 
-4.47386 0.0712354 4.11539 
0.0712354 -4.75529 2.18691 
4.11539 2.18691 -4.37732 
-4.42856 -0.0313066 4.10671 
-0.0313066 -4.6616 2.07996 
4.10671 2.07996 -4.51631 
-4.27418 0.0140896 4.04517 
0.0140896 -4.41436 2.2093 
4.04517 2.2093 -4.91794 
-4.0081 0.0046444 3.80177 
0.0046444 -4.15523 1.72291 
3.80177 1.72291 -4.42353 
-4.17033 0.229823 3.91627 
0.229823 -4.12934 1.68917 
3.91627 1.68917 -4.2872 
-4.12501 0.349493 3.73175 
0.349493 -4.33196 1.9564 
3.73175 1.9564 -4.1299 
-4.35899 0.281853 4.02628 
0.281853 -4.17034 2.16763 
4.02628 2.16763 -4.05753 
-9.64713 0.00852815 2.47942 
0.00852815 -9.58146 2.6496 
2.47942 2.6496 -9.37305 
-9.49912 0.0664686 2.5096 
0.0664686 -9.53275 2.727 
2.5096 2.727 -9.56977 
-9.31743 0.0346795 2.47781 
0.0346795 -9.54459 2.65644 
2.47781 2.65644 -9.73962 
-9.1058 -0.0628537 2.53504 
-0.0628537 -9.31861 2.81716 
2.53504 2.81716 -10.1772 
-8.88985 0.0434486 2.30791 
0.0434486 -8.74122 3.15736 
2.30791 3.15736 -8.71312 
-8.58107 0.193311 2.27304 
0.193311 -8.82005 2.71987 
2.27304 2.71987 -8.94307 
-8.55552 0.0780583 2.23539 
0.0780583 -8.78235 3.23028 
2.23539 3.23028 -9.00632 
-8.86238 0.355421 2.19104 
0.355421 -8.898 2.6441 
2.19104 2.6441 -8.58381 
-8.09843 0.0225364 -1.37808 
0.0225364 -8.32399 3.91783 
-1.37808 3.91783 -8.72533 
-8.37999 0.0378398 -1.4151 
0.0378398 -8.38354 4.13553 
-1.4151 4.13553 -8.38422 
-8.60082 -0.0354597 -1.57401 
-0.0354597 -8.36873 4.29531 
-1.57401 4.29531 -8.1782 
-8.38385 -0.0499323 -1.52899 
-0.0499323 -8.39195 4.10351 
-1.52899 4.10351 -8.37195 
-8.63677 -0.00697534 -1.55114 
-0.00697534 -8.80976 3.73502 
-1.55114 3.73502 -9.29421 
-8.92861 0.0162714 -1.69878 
0.0162714 -8.90089 4.13863 
-1.69878 4.13863 -8.91124 
-8.99156 0.0813148 -1.60718 
0.0813148 -8.75581 3.71665 
-1.60718 3.71665 -8.99337 
-8.75524 0.0102214 -1.65886 
0.0102214 -8.82805 4.06396 
-1.65886 4.06396 -9.15745 
-1.52313 0.119699 -4.19841 
0.119699 -1.68547 0.643258 
-4.19841 0.643258 -1.70522 
-2.20249 0.136348 -3.79065 
0.136348 -1.62842 0.334098 
-3.79065 0.334098 -1.0829 
-1.66799 0.111994 -4.17864 
0.111994 -1.60272 0.646608 
-4.17864 0.646608 -1.64311 
-1.38092 0.0978296 -4.15335 
0.0978296 -1.11961 0.374187 
-4.15335 0.374187 -2.41329 
-1.01947 -0.0292651 -4.25973 
-0.0292651 -1.05108 0.491484 
-4.25973 0.491484 -0.7923 
-1.12084 0.048223 -4.16945 
0.048223 -1.12243 0.487002 
-4.16945 0.487002 -0.619581 
-1.27965 -0.0441526 -4.15285 
-0.0441526 -0.892457 0.463989 
-4.15285 0.463989 -0.690738 
-0.985626 0.196176 -3.9918 
0.196176 -1.74437 0.719637 
-3.9918 0.719637 -0.13285 
-9.16283 -0.0575167 -3.78618 
-0.0575167 -9.14763 -2.76613 
-3.78618 -2.76613 -9.27614 
-9.2718 -0.0439215 -3.82251 
-0.0439215 -9.12521 -2.78346 
-3.82251 -2.78346 -9.18959 
-8.85774 0.128447 -3.81105 
0.128447 -9.23052 -2.47912 
-3.81105 -2.47912 -9.49833 
-9.05008 0.135423 -3.74207 
0.135423 -9.25224 -2.5754 
-3.74207 -2.5754 -9.28427 
-9.25716 -0.0550358 -3.9083 
-0.0550358 -9.46164 -2.33481 
-3.9083 -2.33481 -10.1218 
-9.71099 0.0175116 -3.83196 
0.0175116 -9.61761 -2.48781 
-3.83196 -2.48781 -9.51202 
-9.66717 -0.0630427 -3.8326 
-0.0630427 -9.50061 -2.41966 
-3.8326 -2.41966 -9.67283 
-9.49028 -0.133463 -3.90967 
-0.133463 -9.49007 -2.48437 
-3.90967 -2.48437 -9.86026 
-1.10923 -0.124727 2.42334 
-0.124727 -0.993998 -1.12186 
2.42334 -1.12186 -0.856361 
-1.20712 -0.115071 2.4732 
-0.115071 -0.951687 -1.21818 
2.4732 -1.21818 -0.800783 
-1.09305 -0.0377779 2.34662 
-0.0377779 -1.01735 -1.17807 
2.34662 -1.17807 -0.849195 
-0.95583 0.529155 2.36102 
0.529155 -1.74892 -0.909159 
2.36102 -0.909159 -0.254839 
-1.60841 -0.0369055 2.49516 
-0.0369055 -1.85245 -1.27519 
2.49516 -1.27519 -1.59084 
-1.57741 -0.0649827 2.42437 
-0.0649827 -1.92249 -1.22019 
2.42437 -1.22019 -1.5518 
-2.08849 -0.183912 2.26461 
-0.183912 -2.19452 -1.86602 
2.26461 -1.86602 -0.768685 
-1.08389 -0.129097 2.89906 
-0.129097 -1.12247 -1.17463 
2.89906 -1.17463 -2.84534 
-0.95094 -0.0512071 -0.533771 
-0.0512071 -1.17119 -0.773645 
-0.533771 -0.773645 -1.00425 
-1.24601 0.0942519 -0.694172 
0.0942519 -0.993683 -0.760086 
-0.694172 -0.760086 -0.886693 
-1.237 0.0334478 -0.743681 
0.0334478 -1.01276 -0.739504 
-0.743681 -0.739504 -0.876621 
-0.949979 -0.167672 -0.659305 
-0.167672 -1.64739 -0.645834 
-0.659305 -0.645834 -0.529008 
-1.59422 -0.0896347 -0.637243 
-0.0896347 -1.59132 -0.797136 
-0.637243 -0.797136 -1.7654 
-1.69913 -0.305458 -0.572471 
-0.305458 -1.57389 -0.619614 
-0.572471 -0.619614 -1.67792 
-1.9697 -0.184762 -1.02722 
-0.184762 -1.63962 -0.812477 
-1.02722 -0.812477 -1.34163 
-0.955814 0.141388 -0.363242 
0.141388 -1.27817 -1.04091 
-0.363242 -1.04091 -2.71696 
-9.79251 0.0757852 3.77186 
0.0757852 -9.87389 -2.45509 
3.77186 -2.45509 -9.65316 
-9.97796 0.0222584 3.81008 
0.0222584 -9.82348 -2.52952 
3.81008 -2.52952 -9.51811 
-9.55076 0.0850086 3.9125 
0.0850086 -9.74209 -2.30591 
3.9125 -2.30591 -10.0267 
-9.59701 0.191159 3.93439 
0.191159 -9.8232 -2.44876 
3.93439 -2.44876 -9.89935 
-9.17247 0.161867 3.78907 
0.161867 -9.24031 -2.72265 
3.78907 -2.72265 -9.37449 
-8.98539 -0.0972685 3.81855 
-0.0972685 -9.31829 -2.56105 
3.81855 -2.56105 -9.48361 
-9.32914 0.0350717 3.84137 
0.0350717 -9.21354 -2.72983 
3.84137 -2.72983 -9.2446 
-9.06266 -0.204794 3.69047 
-0.204794 -9.36557 -2.47609 
3.69047 -2.47609 -9.35905 
-0.283655 -0.0359833 3.4321 
-0.0359833 -0.321487 1.6575 
3.4321 1.6575 -0.670352 
-0.509076 -0.15653 3.33843 
-0.15653 -0.309911 1.70174 
3.33843 1.70174 -0.456508 
-0.351862 -0.119767 3.36544 
-0.119767 -0.458013 1.6803 
3.36544 1.6803 -0.46562 
-0.702549 -0.0328922 3.29886 
-0.0328922 -0.832533 1.56337 
3.29886 1.56337 0.259588 
-0.99494 0.142786 3.23579 
0.142786 -1.14296 1.87623 
3.23579 1.87623 -0.978694 
-1.18241 -0.0249368 3.26196 
-0.0249368 -1.11067 2.02871 
3.26196 2.02871 -0.823512 
-1.06074 0.00889919 3.11854 
0.00889919 -1.20101 1.97612 
3.11854 1.97612 -0.854845 
-1.07289 -0.330497 3.37326 
-0.330497 -0.717929 1.72889 
3.37326 1.72889 -1.32577 
-9.41005 -0.0564457 -4.39948 
-0.0564457 -9.13204 0.952481 
-4.39948 0.952481 -8.85262 
-9.01541 0.0709659 -4.23057 
0.0709659 -9.10146 0.882297 
-4.23057 0.882297 -9.27784 
-8.88604 -0.161541 -4.17911 
-0.161541 -9.18492 0.622917 
-4.17911 0.622917 -9.32375 
-8.98207 0.0492915 -3.75716 
0.0492915 -8.63082 0.75846 
-3.75716 0.75846 -9.78182 
-8.58227 -0.00846209 -4.2944 
-0.00846209 -8.44367 0.921127 
-4.2944 0.921127 -8.53261 
-8.52975 -0.153543 -4.32632 
-0.153543 -8.53269 0.934874 
-4.32632 0.934874 -8.4961 
-8.21486 -0.0928034 -4.04972 
-0.0928034 -8.51793 0.612286 
-4.04972 0.612286 -8.82575 
-8.81777 -0.0598513 -4.268 
-0.0598513 -9.00593 0.774577 
-4.268 0.774577 -7.73484 
-8.26476 -0.016117 -2.27293 
-0.016117 -8.51484 -3.04241 
-2.27293 -3.04241 -8.43803 
-8.3413 0.0183488 -2.5179 
0.0183488 -8.21107 -2.91925 
-2.5179 -2.91925 -8.66525 
-8.35643 -0.139778 -2.35697 
-0.139778 -8.56858 -2.98523 
-2.35697 -2.98523 -8.29261 
-8.75212 -0.103722 -2.10162 
-0.103722 -8.69369 -3.22537 
-2.10162 -3.22537 -7.77181 
-9.04088 0.0116797 -2.15564 
0.0116797 -8.90528 -3.01875 
-2.15564 -3.01875 -9.05315 
-8.82259 0.00727404 -2.12645 
0.00727404 -9.40569 -2.93806 
-2.12645 -2.93806 -8.77103 
-9.08564 0.0206538 -2.11818 
0.0206538 -8.85837 -3.07531 
-2.11818 -3.07531 -9.0553 
-8.6463 0.00329874 -2.11651 
0.00329874 -9.03995 -3.19748 
-2.11651 -3.19748 -9.31306 
2.16573 -0.124638 0.38047 
-0.124638 2.02994 1.73875 
0.38047 1.73875 1.53453 
1.4932 0.020627 -0.124237 
0.020627 1.54821 1.71533 
-0.124237 1.71533 2.68879 
2.08875 0.0822393 0.0849639 
0.0822393 1.75197 1.64332 
0.0849639 1.64332 1.88948 
1.97386 0.0950522 0.0201955 
0.0950522 1.88281 1.70718 
0.0201955 1.70718 1.87353 
7.88633 -0.391664 -2.98313 
-0.391664 8.12591 -0.0555177 
-2.98313 -0.0555177 8.20205 
8.14531 -0.225866 -3.05712 
-0.225866 8.29423 0.0674348 
-3.05712 0.0674348 7.77475 
8.28766 0.0243115 -3.29726 
0.0243115 8.26076 0.463348 
-3.29726 0.463348 7.66587 
8.01467 0.146457 -2.97724 
0.146457 8.22646 0.21785 
-2.97724 0.21785 7.97317 
8.02458 -0.220528 0.554692 
-0.220528 7.99623 1.21773 
0.554692 1.21773 7.24703 
7.85283 -0.116779 0.873566 
-0.116779 8.14112 1.40156 
0.873566 1.40156 7.2739 
7.71598 0.0538107 0.706605 
0.0538107 7.56378 1.32271 
0.706605 1.32271 7.98808 
7.83961 -0.110307 0.689566 
-0.110307 7.70495 1.31416 
0.689566 1.31416 7.72328 
4.2838 0.08743 -3.0357 
0.08743 4.80704 0.358319 
-3.0357 0.358319 5.21956 
4.99975 -0.112593 -3.00681 
-0.112593 4.94069 0.0966848 
-3.00681 0.0966848 4.36997 
4.75102 -0.0799908 -2.84609 
-0.0799908 4.68744 0.0679499 
-2.84609 0.0679499 4.87194 
4.91336 -0.013517 -2.87959 
-0.013517 4.76158 0.307342 
-2.87959 0.307342 4.63546 
5.18568 0.0919449 -2.7089 
0.0919449 5.2262 0.590236 
-2.7089 0.590236 5.26912 
5.39623 -0.105331 -2.84039 
-0.105331 5.43457 0.392527 
-2.84039 0.392527 4.8502 
4.92392 0.192505 -2.79894 
0.192505 5.0419 0.754164 
-2.79894 0.754164 5.71519 
5.1759 0.0831232 -2.84081 
0.0831232 5.1014 0.496245 
-2.84081 0.496245 5.4037 
7.89629 0.142102 -2.70534 
0.142102 7.70271 -0.0555905 
-2.70534 -0.0555905 8.71777 
8.24982 0.218658 -3.46979 
0.218658 8.71539 -0.221963 
-3.46979 -0.221963 7.35156 
7.95702 -0.0103961 -3.20873 
-0.0103961 8.00889 -0.115009 
-3.20873 -0.115009 8.35086 
7.9567 0.00100782 -3.00608 
0.00100782 8.26245 -0.208804 
-3.00608 -0.208804 8.09762 
1.95414 -0.104617 2.37883 
-0.104617 1.97907 -3.76168 
2.37883 -3.76168 1.90859 
1.91248 -0.0264497 2.31875 
-0.0264497 1.98144 -3.73103 
2.31875 -3.73103 1.94787 
1.92217 0.0784958 2.00053 
0.0784958 2.19779 -3.58024 
2.00053 -3.58024 1.72184 
1.81825 0.00272464 2.63857 
0.00272464 1.76619 -3.59342 
2.63857 -3.59342 2.25735 
8.47995 -0.199722 3.2682 
-0.199722 7.77064 -2.88084 
3.2682 -2.88084 8.83688 
8.07362 0.0470205 3.4812 
0.0470205 7.97591 -2.15092 
3.4812 -2.15092 9.03794 
8.17369 -0.0255872 3.2062 
-0.0255872 8.54452 -2.3021 
3.2062 -2.3021 8.36925 
8.02869 0.225901 3.45495 
0.225901 8.60585 -2.3691 
3.45495 -2.3691 8.45292 
8.42297 0.0374136 -0.61547 
0.0374136 7.80842 0.556741 
-0.61547 0.556741 7.21995 
7.86679 -0.0624026 -0.660929 
-0.0624026 7.79296 0.583674 
-0.660929 0.583674 7.79159 
7.57315 -0.0625895 -0.736421 
-0.0625895 7.88026 0.529625 
-0.736421 0.529625 7.99794 
8.11745 0.125759 -0.64455 
0.125759 7.92858 0.878048 
-0.64455 0.878048 7.40531 
8.34526 -0.709463 -0.331562 
-0.709463 8.24349 0.145492 
-0.331562 0.145492 8.92897 
8.44999 -0.121794 -0.530361 
-0.121794 8.55199 0.963231 
-0.530361 0.963231 8.51574 
8.53407 -0.0344263 -0.523942 
-0.0344263 8.43837 0.615362 
-0.523942 0.615362 8.54528 
8.73841 -0.624018 -0.496693 
-0.624018 8.69803 1.45374 
-0.496693 1.45374 8.08128 
6.55756 -0.0847733 0.384532 
-0.0847733 6.62827 -2.46881 
0.384532 -2.46881 6.63729 
6.55457 -0.196568 0.558005 
-0.196568 6.44085 -2.4408 
0.558005 -2.4408 6.82769 
6.48488 -0.123374 0.664319 
-0.123374 6.65316 -2.33647 
0.664319 -2.33647 6.68507 
6.37966 0.104503 0.706753 
0.104503 6.29151 -2.28811 
0.706753 -2.28811 7.15194 
4.86316 -0.371358 2.01773 
-0.371358 5.47264 -3.44501 
2.01773 -3.44501 3.67622 
4.66149 0.135497 2.2409 
0.135497 4.50037 -3.33529 
2.2409 -3.33529 4.85015 
4.69474 0.239321 2.39878 
0.239321 4.83544 -3.56437 
2.39878 -3.56437 4.48182 
4.83557 0.0314108 2.25249 
0.0314108 4.59343 -3.50503 
2.25249 -3.50503 4.58302 
1.14766 -0.111818 -0.0609544 
-0.111818 1.22401 1.62143 
-0.0609544 1.62143 1.074 
1.20365 0.257708 -0.0678561 
0.257708 0.780204 1.40646 
-0.0678561 1.40646 1.46181 
1.69001 0.349068 -0.288139 
0.349068 1.18009 1.9279 
-0.288139 1.9279 0.575571 
1.18023 -0.0224709 -0.0545307 
-0.0224709 1.23189 1.66294 
-0.0545307 1.66294 1.03354 
7.76942 0.0427652 -0.0950872 
0.0427652 7.75328 1.1199 
-0.0950872 1.1199 8.2642 
8.45671 0.0378654 -0.790074 
0.0378654 8.34367 0.712957 
-0.790074 0.712957 6.98653 
7.92093 -0.00530709 -0.34427 
-0.00530709 7.9956 1.14179 
-0.34427 1.14179 7.87038 
7.80013 0.104478 -0.456635 
0.104478 8.08007 1.0723 
-0.456635 1.0723 7.9067 
5.97512 0.0914589 0.741073 
0.0914589 6.20725 -1.33547 
0.741073 -1.33547 5.80699 
6.20052 -0.0125804 1.12846 
-0.0125804 5.94069 -1.54265 
1.12846 -1.54265 5.84816 
5.8754 -0.114652 0.598073 
-0.114652 5.91657 -1.35379 
0.598073 -1.35379 6.19739 
6.03952 -0.0877283 1.20657 
-0.0877283 6.39318 -1.37448 
1.20657 -1.37448 5.55666 
8.32938 0.0821572 -3.39717 
0.0821572 7.36379 -0.427257 
-3.39717 -0.427257 7.15478 
8.14174 -0.230631 -2.65793 
-0.230631 7.39158 -0.370068 
-2.65793 -0.370068 7.31463 
8.19596 -0.0319391 -3.66103 
-0.0319391 7.82665 -0.38541 
-3.66103 -0.38541 6.82534 
7.3003 0.00330068 -2.65548 
0.00330068 7.74492 -0.307718 
-2.65548 -0.307718 7.80273 
7.75342 -0.0419555 -0.670596 
-0.0419555 7.73425 -2.89076 
-0.670596 -2.89076 7.94912 
7.92508 0.0655076 -0.281264 
0.0655076 7.98974 -3.13826 
-0.281264 -3.13826 7.52197 
7.90241 0.0115893 -0.620337 
0.0115893 7.887 -2.94703 
-0.620337 -2.94703 7.64739 
7.93769 0.0908622 -0.428749 
0.0908622 7.75889 -2.86621 
-0.428749 -2.86621 7.74022 
4.7101 -0.0200816 1.95381 
-0.0200816 4.94567 -4.08685 
1.95381 -4.08685 4.90317 
4.90289 0.0950512 2.10252 
0.0950512 4.85117 -3.94692 
2.10252 -3.94692 4.80488 
5.8887 -0.221082 2.27446 
-0.221082 5.25391 -3.24666 
2.27446 -3.24666 3.41633 
4.46944 -0.386231 1.35704 
-0.386231 4.00555 -3.46881 
1.35704 -3.46881 6.08395 
3.02271 0.25724 2.58216 
0.25724 3.06415 -3.85524 
2.58216 -3.85524 1.79534 
2.70535 -0.360324 2.64994 
-0.360324 2.69515 -3.0721 
2.64994 -3.0721 2.48171 
1.75388 0.134414 2.92388 
0.134414 2.56902 -3.23901 
2.92388 -3.23901 3.55931 
2.84905 -0.127921 2.64344 
-0.127921 2.71948 -3.12152 
2.64344 -3.12152 2.31367 
7.60135 -0.253567 -0.177619 
-0.253567 7.99679 -2.36655 
-0.177619 -2.36655 8.10217 
7.91757 -0.13066 -0.0513294 
-0.13066 8.05981 -2.55453 
-0.0513294 -2.55453 7.72293 
8.20005 0.0085267 0.0495958 
0.0085267 8.01254 -3.15443 
0.0495958 -3.15443 7.48772 
7.87554 0.153669 -0.199738 
0.153669 7.95753 -2.76974 
-0.199738 -2.76974 7.86724 
3.39421 -0.117856 1.71452 
-0.117856 3.67375 -0.760985 
1.71452 -0.760985 4.54058 
3.90379 0.122116 1.56489 
0.122116 3.86756 -0.279474 
1.56489 -0.279474 3.83718 
4.28281 -0.0269035 1.74193 
-0.0269035 4.06693 0.428305 
1.74193 0.428305 3.25879 
3.70956 0.0553106 1.41781 
0.0553106 4.08467 -0.00634831 
1.41781 -0.00634831 3.8143 
6.43871 -0.00771085 1.27437 
-0.00771085 6.5434 2.16896 
1.27437 2.16896 6.642 
6.55492 -0.0286773 1.44566 
-0.0286773 6.594 2.22415 
1.44566 2.22415 6.4752 
6.42822 -0.139727 1.41177 
-0.139727 6.48924 2.24321 
1.41177 2.24321 6.70666 
6.36185 0.0175073 1.19722 
0.0175073 6.17362 2.26742 
1.19722 2.26742 7.08864 
4.23665 0.380785 -1.36139 
0.380785 3.97774 0.0943191 
-1.36139 0.0943191 4.03247 
4.14798 0.0653229 -0.947677 
0.0653229 4.15929 0.159193 
-0.947677 0.159193 3.93958 
3.46071 -0.554355 -1.11147 
-0.554355 4.13746 0.0253177 
-1.11147 0.0253177 4.64869 
4.39776 0.164669 -0.984353 
0.164669 3.96929 0.386282 
-0.984353 0.386282 3.87981 
4.31431 0.196248 4.30786 
0.196248 4.58826 -0.426787 
4.30786 -0.426787 4.13778 
3.84959 0.445052 3.76453 
0.445052 4.57524 -0.110622 
3.76453 -0.110622 4.61552 
5.31917 -0.676479 3.7724 
-0.676479 4.01241 -0.324949 
3.7724 -0.324949 3.70876 
4.0794 -0.0128551 4.14765 
-0.0128551 4.42243 0.250484 
4.14765 0.250484 4.53851 
3.52441 -0.0314673 1.02732 
-0.0314673 3.37771 -2.78116 
1.02732 -2.78116 3.75097 
3.70667 0.0164701 1.00579 
0.0164701 3.54897 -2.83163 
1.00579 -2.83163 3.39744 
3.67575 -0.0632705 1.03173 
-0.0632705 3.57427 -2.87499 
1.03173 -2.87499 3.40307 
4.1418 0.0247196 1.15951 
0.0247196 3.77008 -2.25333 
1.15951 -2.25333 2.74121 
9.07034 0.00909591 -0.702144 
0.00909591 8.78532 1.14416 
-0.702144 1.14416 8.80267 
8.90586 -0.041171 -0.92249 
-0.041171 9.15057 0.942265 
-0.92249 0.942265 8.60191 
8.17512 0.0701183 -0.822062 
0.0701183 8.98558 1.00082 
-0.822062 1.00082 9.49763 
8.88277 0.0120288 -0.747063 
0.0120288 8.9085 1.07827 
-0.747063 1.07827 8.86707 
6.40605 -0.268526 2.55554 
-0.268526 5.72103 -0.230346 
2.55554 -0.230346 5.7401 
5.42636 -0.0899598 2.68515 
-0.0899598 5.97919 -0.882463 
2.68515 -0.882463 6.46163 
6.22678 0.0891918 2.49419 
0.0891918 5.62906 -0.452154 
2.49419 -0.452154 6.01134 
6.19075 0.183377 1.83655 
0.183377 6.28463 -0.164542 
1.83655 -0.164542 5.3918 
5.67337 0.0017703 1.42316 
0.0017703 5.78206 2.22174 
1.42316 2.22174 5.55913 
5.68115 -0.151124 1.61073 
-0.151124 5.2624 1.8852 
1.61073 1.8852 6.07101 
6.28357 -0.166976 1.61198 
-0.166976 5.59084 2.48522 
1.61198 2.48522 5.14014 
5.68677 0.0883309 1.49331 
0.0883309 5.73931 2.13501 
1.49331 2.13501 5.58847 
7.66141 0.578874 -0.481457 
0.578874 8.89682 1.29605 
-0.481457 1.29605 9.64509 
8.88036 -0.0807456 -0.569618 
-0.0807456 8.57154 0.543346 
-0.569618 0.543346 8.75142 
8.6487 0.348422 -0.11656 
0.348422 9.55508 0.144857 
-0.11656 0.144857 7.99954 
8.81374 -0.0732276 -0.564218 
-0.0732276 8.59147 0.474528 
-0.564218 0.474528 8.79812 
2.36259 -0.0394526 -0.886714 
-0.0394526 2.29482 -1.33253 
-0.886714 -1.33253 2.17568 
2.26687 0.0614548 -0.880396 
0.0614548 2.23302 -1.27024 
-0.880396 -1.27024 2.3332 
1.99511 0.110566 -0.653022 
0.110566 2.30755 -1.38273 
-0.653022 -1.38273 2.53043 
2.11092 0.0398273 -0.614093 
0.0398273 2.09669 -1.07386 
-0.614093 -1.07386 2.62547 
2.65971 -0.25666 -1.58776 
-0.25666 2.45255 2.34435 
-1.58776 2.34435 2.89249 
2.49808 -0.0404675 -1.49962 
-0.0404675 2.39947 2.2755 
-1.49962 2.2755 3.1072 
2.49816 0.118946 -1.94462 
0.118946 2.24195 1.85635 
-1.94462 1.85635 3.26465 
3.02355 -0.0663138 -1.51504 
-0.0663138 2.82919 2.5157 
-1.51504 2.5157 2.15202 
2.84483 0.360025 2.24037 
0.360025 2.12553 -3.81466 
2.24037 -3.81466 3.20777 
2.68656 -0.0532079 2.13663 
-0.0532079 2.69002 -3.97323 
2.13663 -3.97323 2.80155 
2.67327 -0.326162 2.367 
-0.326162 3.1411 -4.13743 
2.367 -4.13743 2.36377 
2.67802 0.0560583 2.05515 
0.0560583 3.44261 -3.41206 
2.05515 -3.41206 2.0575 
6.27755 0.076601 -4.18128 
0.076601 6.47107 -0.0379079 
-4.18128 -0.0379079 6.07411 
7.09523 -0.221963 -3.68848 
-0.221963 6.09898 -0.417536 
-3.68848 -0.417536 5.62851 
5.95115 0.0136284 -3.91427 
0.0136284 6.37676 -0.386689 
-3.91427 -0.386689 6.49481 
5.85839 0.197707 -3.75093 
0.197707 6.07587 -0.145103 
-3.75093 -0.145103 6.88846 
6.38309 -0.208628 -3.98623 
-0.208628 6.85232 -0.170868 
-3.98623 -0.170868 7.31382 
6.38735 -0.196067 -3.81554 
-0.196067 6.7977 -0.466725 
-3.81554 -0.466725 7.36419 
6.72046 -0.0365858 -4.18969 
-0.0365858 6.57157 -0.236797 
-4.18969 -0.236797 7.2572 
6.7705 0.141337 -4.52881 
0.141337 6.09723 -0.0495433 
-4.52881 -0.0495433 7.6815 
7.91164 0.547239 0.760092 
0.547239 8.92068 1.76256 
0.760092 1.76256 9.27914 
8.73683 0.110465 0.289151 
0.110465 8.5854 1.25827 
0.289151 1.25827 8.78922 
8.46932 0.136489 0.622034 
0.136489 8.87185 1.48523 
0.622034 1.48523 8.77028 
8.66726 0.184327 0.0295717 
0.184327 9.12671 1.20261 
0.0295717 1.20261 8.31748 
2.11176 0.196814 -0.69719 
0.196814 1.84348 -1.68025 
-0.69719 -1.68025 1.94842 
1.84157 -0.00042294 -0.419414 
-0.00042294 1.82484 -1.30771 
-0.419414 -1.30771 2.23725 
2.08866 0.228194 -0.635294 
0.228194 1.89331 -1.75014 
-0.635294 -1.75014 1.92169 
1.90232 0.185292 -0.775543 
0.185292 1.99828 -1.61628 
-0.775543 -1.61628 2.00307 
4.41191 -0.153399 2.02239 
-0.153399 4.09188 -2.51871 
2.02239 -2.51871 4.08097 
4.44147 0.132079 1.56639 
0.132079 4.06111 -2.67338 
1.56639 -2.67338 4.08218 
4.49583 -0.248677 1.9224 
-0.248677 3.96868 -2.55504 
1.9224 -2.55504 4.12025 
4.30981 -0.0174437 1.77445 
-0.0174437 4.3959 -2.68072 
1.77445 -2.68072 3.87905 
3.7952 0.120928 1.09166 
0.120928 4.30336 -2.90418 
1.09166 -2.90418 4.00043 
3.96404 0.0967137 0.739913 
0.0967137 4.1899 -2.73122 
0.739913 -2.73122 3.94506 
3.59705 0.168558 1.02664 
0.168558 4.51666 -2.77597 
1.02664 -2.77597 3.98529 
3.93393 -0.00275784 0.997826 
-0.00275784 3.87533 -2.42959 
0.997826 -2.42959 4.28974 
8.77075 -0.0285292 2.94774 
-0.0285292 8.73741 -2.42183 
2.94774 -2.42183 9.3783 
8.79431 -0.23657 3.03695 
-0.23657 8.76062 -2.58591 
3.03695 -2.58591 9.33152 
9.05312 -0.296926 3.31487 
-0.296926 8.59504 -2.19118 
3.31487 -2.19118 9.2383 
8.87595 0.388703 3.28396 
0.388703 9.32323 -2.02215 
3.28396 -2.02215 8.68728 
6.07551 0.108037 -0.489315 
0.108037 6.1134 -1.68995 
-0.489315 -1.68995 6.11159 
6.22224 0.163722 -0.66322 
0.163722 5.90519 -1.73683 
-0.66322 -1.73683 6.17307 
5.68112 -0.0451411 -0.57961 
-0.0451411 6.12045 -2.15208 
-0.57961 -2.15208 6.49894 
6.08314 -0.532881 -0.449985 
-0.532881 6.67681 -1.40039 
-0.449985 -1.40039 5.54056 
1.2351 0.000547939 -1.39985 
0.000547939 1.04984 1.36191 
-1.39985 1.36191 1.03422 
0.328055 0.166414 -1.58776 
0.166414 1.34249 1.58649 
-1.58776 1.58649 1.64862 
0.938873 0.0749341 -0.854567 
0.0749341 2.0486 1.34139 
-0.854567 1.34139 0.331693 
1.28941 -0.0472579 -1.45596 
-0.0472579 1.06295 1.30638 
-1.45596 1.30638 0.966805 
6.3266 -0.18921 0.391077 
-0.18921 6.05212 -1.13127 
0.391077 -1.13127 6.80719 
6.55199 0.0893916 0.475222 
0.0893916 6.65077 -0.941955 
0.475222 -0.941955 5.98315 
6.54952 0.0656268 0.672005 
0.0656268 6.3821 -1.00175 
0.672005 -1.00175 6.25429 
6.61643 -0.119237 0.976144 
-0.119237 6.67262 -0.86842 
0.976144 -0.86842 5.89686 
8.00462 0.133278 1.07667 
0.133278 8.6034 -1.07058 
1.07667 -1.07058 7.31368 
7.94123 0.104378 0.942799 
0.104378 8.06722 -1.13667 
0.942799 -1.13667 7.91325 
8.09566 0.00250116 1.02944 
0.00250116 7.71766 -1.01156 
1.02944 -1.01156 8.10838 
8.02462 0.0261817 1.19271 
0.0261817 8.1384 -1.21808 
1.19271 -1.21808 7.75867 
2.37745 -0.0733627 1.88045 
-0.0733627 2.35106 -1.96699 
1.88045 -1.96699 3.05645 
2.31208 -0.0159006 1.71658 
-0.0159006 2.30344 -2.09104 
1.71658 -2.09104 3.16945 
2.58541 0.106483 1.63774 
0.106483 2.51293 -1.96961 
1.63774 -1.96961 2.68662 
2.55798 -0.0501954 2.3117 
-0.0501954 2.11493 -2.30399 
2.3117 -2.30399 3.11205 
5.68981 0.049873 0.616269 
0.049873 6.31868 -2.40037 
0.616269 -2.40037 5.87669 
5.81515 0.0261476 0.559364 
0.0261476 6.26346 -2.63339 
0.559364 -2.63339 5.80657 
6.10731 0.00952009 0.451648 
0.00952009 5.51128 -2.5017 
0.451648 -2.5017 6.2666 
6.74237 -0.00762339 0.561959 
-0.00762339 6.0267 -2.07608 
0.561959 -2.07608 5.11611 
5.98686 -0.143787 -1.45323 
-0.143787 5.95904 1.97593 
-1.45323 1.97593 5.48451 
5.8188 0.0111088 -1.46936 
0.0111088 5.79712 1.98387 
-1.46936 1.98387 5.81448 
5.72358 -0.134158 -1.54105 
-0.134158 5.69071 2.02856 
-1.54105 2.02856 6.01611 
5.82053 0.0465945 -1.4387 
0.0465945 5.88293 2.02311 
-1.4387 2.02311 5.72695 
4.31358 -0.0956431 4.26634 
-0.0956431 4.90534 -0.260089 
4.26634 -0.260089 3.67498 
4.65854 0.470499 3.34289 
0.470499 5.24225 -0.438318 
3.34289 -0.438318 2.99311 
4.59085 -0.308798 4.55977 
-0.308798 4.16491 -0.240598 
4.55977 -0.240598 4.13814 
4.0089 0.468106 4.27254 
0.468106 3.17832 -0.0888315 
4.27254 -0.0888315 5.70668 
4.82321 0.0106823 1.53731 
0.0106823 5.02171 -3.89911 
1.53731 -3.89911 5.03094 
4.94375 0.334392 1.64473 
0.334392 4.37265 -3.52573 
1.64473 -3.52573 5.55946 
4.98344 -0.0968729 1.49268 
-0.0968729 5.3416 -3.61383 
1.49268 -3.61383 4.55082 
4.98916 -0.141099 1.64949 
-0.141099 5.04278 -3.69682 
1.64949 -3.69682 4.84393 
2.38497 0.0543831 2.82074 
0.0543831 2.15174 -0.627646 
2.82074 -0.627646 2.11488 
1.88594 -0.00727108 2.89621 
-0.00727108 2.18738 -1.10586 
2.89621 -1.10586 2.57827 
1.89796 -0.0683979 2.7265 
-0.0683979 2.05337 -0.832067 
2.7265 -0.832067 2.70026 
2.07853 -0.184136 2.77021 
-0.184136 2.24315 -0.810946 
2.77021 -0.810946 2.32991 
2.08088 -0.222725 2.28084 
-0.222725 1.86121 -3.63971 
2.28084 -3.63971 2.03597 
2.17694 -0.0640494 2.46876 
-0.0640494 1.98817 -3.48206 
2.46876 -3.48206 1.81294 
2.18825 0.0990705 2.44212 
0.0990705 1.76003 -3.30044 
2.44212 -3.30044 2.02977 
1.86221 -0.0850371 2.45413 
-0.0850371 1.89248 -3.66339 
2.45413 -3.66339 2.22336 
8.82899 -0.301591 1.50603 
-0.301591 8.36081 -1.334 
1.50603 -1.334 9.33602 
8.92137 -0.0554492 0.759576 
-0.0554492 8.52382 -1.18782 
0.759576 -1.18782 9.08063 
8.82307 -0.0187499 0.673262 
-0.0187499 8.97323 -1.29055 
0.673262 -1.29055 8.72951 
8.72633 -0.114259 1.46147 
-0.114259 8.9395 -1.24258 
1.46147 -1.24258 8.85998 
3.89278 -0.0789993 1.81567 
-0.0789993 4.25841 -0.855042 
1.81567 -0.855042 5.34301 
4.41594 0.139714 1.82163 
0.139714 4.60783 -0.5262 
1.82163 -0.5262 4.47043 
4.90374 -0.0102374 1.8994 
-0.0102374 4.52834 -0.0249406 
1.8994 -0.0249406 4.06211 
4.4432 0.0191468 1.78461 
0.0191468 4.45527 -0.387691 
1.78461 -0.387691 4.59572 
7.85344 0.203516 0.702941 
0.203516 6.73106 4.53019 
0.702941 4.53019 7.10615 
7.68541 -0.282172 0.54647 
-0.282172 6.58622 3.66811 
0.54647 3.66811 7.41901 
7.25232 0.170911 0.566614 
0.170911 7.82987 4.45071 
0.566614 4.45071 6.60845 
7.19879 0.0517135 0.242332 
0.0517135 6.91922 3.86149 
0.242332 3.86149 7.57263 
8.92276 0.0259212 -3.59805 
0.0259212 7.71242 -0.166256 
-3.59805 -0.166256 9.38491 
9.27562 0.0649745 -2.70709 
0.0649745 8.55628 -0.673818 
-2.70709 -0.673818 8.18819 
8.57892 -0.119402 -2.93827 
-0.119402 8.68639 -0.382843 
-2.93827 -0.382843 8.75478 
8.63209 0.0599652 -3.24177 
0.0599652 8.61387 -0.210444 
-3.24177 -0.210444 8.77413 
6.37523 0.0218119 1.31544 
0.0218119 6.46634 2.43216 
1.31544 2.43216 6.36202 
6.57872 0.0948808 1.23943 
0.0948808 6.34335 2.80185 
1.23943 2.80185 6.28152 
6.35098 -0.0160657 1.18782 
-0.0160657 6.43826 2.69103 
1.18782 2.69103 6.41436 
6.00018 -0.15412 1.03175 
-0.15412 6.55553 2.59152 
1.03175 2.59152 6.64789 
8.04862 0.0120568 1.00575 
0.0120568 7.59264 -1.60876 
1.00575 -1.60876 8.301 
8.01035 -0.00882281 0.679375 
-0.00882281 8.27166 -1.31563 
0.679375 -1.31563 7.66025 
7.95626 0.0840723 1.00796 
0.0840723 8.22151 -1.37163 
1.00796 -1.37163 7.76449 
7.81788 0.106455 0.912161 
0.106455 8.0098 -1.38516 
0.912161 -1.38516 8.11458 
7.84696 0.259562 -0.427607 
0.259562 7.71836 -2.4403 
-0.427607 -2.4403 8.46024 
8.23535 0.231035 0.241655 
0.231035 8.6475 -2.4701 
0.241655 -2.4701 7.14271 
7.88 -0.0212045 -0.0783036 
-0.0212045 8.18751 -2.58105 
-0.0783036 -2.58105 7.95805 
7.7332 0.0328495 -0.162016 
0.0328495 8.40002 -2.39435 
-0.162016 -2.39435 7.89234 
8.61535 0.203318 0.326295 
0.203318 8.61856 4.42073 
0.326295 4.42073 6.1069 
6.9544 0.0551921 0.980601 
0.0551921 6.95746 4.49688 
0.980601 4.49688 9.42895 
7.64658 -0.317228 -0.0953276 
-0.317228 7.73002 3.22358 
-0.0953276 3.22358 7.96421 
7.82427 -0.189615 1.02534 
-0.189615 7.77967 3.23183 
1.02534 3.23183 7.73687 
8.23257 -0.270297 3.06263 
-0.270297 8.07576 -0.0405853 
3.06263 -0.0405853 7.5607 
8.02433 0.0646372 3.12654 
0.0646372 7.90039 -0.0357161 
3.12654 -0.0357161 7.94431 
7.91572 0.111173 3.15149 
0.111173 7.88225 -0.110916 
3.15149 -0.110916 8.07106 
8.09941 -0.0209617 2.90255 
-0.0209617 7.99219 -0.23178 
2.90255 -0.23178 7.77744 
2.11049 0.0720812 0.423377 
0.0720812 1.81037 2.00725 
0.423377 2.00725 1.59391 
2.00198 -0.121137 0.101623 
-0.121137 1.71529 2.12242 
0.101623 2.12242 1.79749 
1.32001 -0.0344204 -0.0192788 
-0.0344204 1.72462 2.03872 
-0.0192788 2.03872 2.47013 
1.82634 -0.0512662 0.112835 
-0.0512662 1.78272 1.98049 
0.112835 1.98049 1.9057 
6.60387 -0.274119 0.984922 
-0.274119 6.76042 4.50107 
0.984922 4.50107 7.1929 
6.54154 -0.505691 1.39389 
-0.505691 7.33944 4.19343 
1.39389 4.19343 6.67621 
6.50472 -0.0725297 0.864253 
-0.0725297 6.91674 4.06768 
0.864253 4.06768 7.13573 
6.27617 0.242972 0.430786 
0.242972 6.5408 3.73946 
0.430786 3.73946 7.74022 
8.44367 -0.071976 0.540116 
-0.071976 8.2944 3.85467 
0.540116 3.85467 8.46011 
8.18969 0.124312 0.404051 
0.124312 8.23287 4.22327 
0.404051 4.22327 8.77561 
8.44144 -0.173954 0.689148 
-0.173954 8.10914 4.21946 
0.689148 4.21946 8.6476 
8.39423 0.0723055 0.71353 
0.0723055 7.94877 4.18101 
0.71353 4.18101 8.85518 
3.73201 -0.0971902 -1.06843 
-0.0971902 3.18983 -0.0350365 
-1.06843 -0.0350365 3.46542 
3.97 -0.00634455 -1.51053 
-0.00634455 3.5917 0.319003 
-1.51053 0.319003 2.82555 
3.81905 -0.173064 -1.26107 
-0.173064 3.33038 0.0652313 
-1.26107 0.0652313 3.23782 
3.71446 -0.0850095 -1.35301 
-0.0850095 3.39667 0.13292 
-1.35301 0.13292 3.27613 
5.84746 -0.000190451 -0.449807 
-0.000190451 6.01979 -1.71938 
-0.449807 -1.71938 4.38438 
5.50531 -0.163733 -0.542008 
-0.163733 5.38673 -1.79697 
-0.542008 -1.79697 5.35959 
5.38925 0.0238757 -0.712308 
0.0238757 5.27789 -1.9786 
-0.712308 -1.9786 5.58448 
5.41768 -0.146865 -0.673577 
-0.146865 5.69435 -1.78012 
-0.673577 -1.78012 5.1396 
7.82963 -0.0820087 0.923305 
-0.0820087 7.97664 0.796124 
0.923305 0.796124 8.00073 
8.03224 0.109776 1.02649 
0.109776 8.02316 0.98574 
1.02649 0.98574 7.7516 
8.09798 -0.00722419 0.824467 
-0.00722419 7.9436 0.843372 
0.824467 0.843372 7.76541 
7.88379 0.0144587 0.911341 
0.0144587 8.01075 0.994382 
0.911341 0.994382 7.91246 
4.61574 0.225519 -0.892313 
0.225519 4.83232 0.0568465 
-0.892313 0.0568465 4.91785 
4.96653 0.0109229 -1.06516 
0.0109229 4.64946 0.368602 
-1.06516 0.368602 4.74993 
4.45642 -0.0897232 -0.922383 
-0.0897232 4.66824 -0.284468 
-0.922383 -0.284468 5.24126 
4.47991 0.0406847 -0.834773 
0.0406847 4.71168 0.0676281 
-0.834773 0.0676281 5.17433 
7.8281 -0.169784 1.86919 
-0.169784 8.19912 -4.22005 
1.86919 -4.22005 8.37137 
8.22051 0.135285 1.66284 
0.135285 8.02289 -4.03362 
1.66284 -4.03362 8.15519 
8.43769 0.0927664 1.53569 
0.0927664 8.25017 -3.35348 
1.53569 -3.35348 7.71073 
8.11845 0.324383 1.68977 
0.324383 8.08901 -3.89927 
1.68977 -3.89927 8.19113 
7.85092 0.166569 2.80415 
0.166569 7.77981 -0.594853 
2.80415 -0.594853 8.20735 
7.88553 0.144933 2.47153 
0.144933 8.05053 -0.480549 
2.47153 -0.480549 7.90204 
8.45536 -0.169043 2.67637 
-0.169043 8.33089 -0.292213 
2.67637 -0.292213 7.05184 
7.92274 -0.0548623 2.49847 
-0.0548623 8.1038 -0.405858 
2.49847 -0.405858 7.81156 
2.08869 0.025929 3.19329 
0.025929 2.1408 2.33778 
3.19329 2.33778 2.19071 
2.38335 -0.000876858 3.31034 
-0.000876858 2.24612 2.31419 
3.31034 2.31419 1.79072 
2.04115 0.121635 3.34897 
0.121635 2.10822 2.65188 
3.34897 2.65188 2.27082 
2.23699 0.0737277 3.3598 
0.0737277 2.14812 2.53099 
3.3598 2.53099 2.03509 
2.23155 -0.11566 1.67115 
-0.11566 2.07831 -1.87987 
1.67115 -1.87987 1.74977 
1.94563 -0.200579 1.86559 
-0.200579 2.27872 -2.13802 
1.86559 -2.13802 1.83528 
1.61213 0.213876 1.99783 
0.213876 1.85158 -2.22588 
1.99783 -2.22588 2.59593 
1.91078 0.00274437 1.94509 
0.00274437 2.07979 -1.98995 
1.94509 -1.98995 2.06906 
4.04608 0.27954 3.54374 
0.27954 4.24081 -2.3829 
3.54374 -2.3829 4.04196 
4.68798 -0.178929 3.33815 
-0.178929 4.08114 -2.682 
3.33815 -2.682 3.55974 
3.90563 -0.0664515 3.40329 
-0.0664515 3.80984 -1.92818 
3.40329 -1.92818 4.61339 
3.98573 0.200644 3.47866 
0.200644 4.31552 -2.47233 
3.47866 -2.47233 4.02761 
6.72198 -0.0970751 0.896419 
-0.0970751 6.76686 -1.27041 
0.896419 -1.27041 6.69137 
6.87575 -0.166808 0.87401 
-0.166808 6.54812 -1.38275 
0.87401 -1.38275 6.75634 
6.7846 0.0934923 1.08984 
0.0934923 7.06657 -1.68583 
1.08984 -1.68583 6.32904 
6.33563 0.0101238 0.866509 
0.0101238 6.09871 -1.6153 
0.866509 -1.6153 7.74587 
6.85334 -0.269262 -0.642531 
-0.269262 6.83005 -1.50165 
-0.642531 -1.50165 6.91388 
6.6568 -0.187088 -0.551905 
-0.187088 6.97027 -1.44574 
-0.551905 -1.44574 6.97019 
6.55628 -0.083578 -0.400715 
-0.083578 6.13688 -1.61489 
-0.400715 -1.61489 7.90411 
7.27356 0.0653634 -0.964455 
0.0653634 6.89221 -1.28776 
-0.964455 -1.28776 6.43151 
5.60294 -0.151565 0.285349 
-0.151565 5.46154 -1.12382 
0.285349 -1.12382 5.65048 
5.43828 -0.157989 0.265563 
-0.157989 5.5113 -1.12433 
0.265563 -1.12433 5.76537 
5.22674 0.481849 -0.25557 
0.481849 4.99529 -1.81095 
-0.25557 -1.81095 6.49292 
6.15074 0.146885 0.828686 
0.146885 6.09163 -1.15195 
0.828686 -1.15195 4.47258 
5.39016 0.00778975 -3.13425 
0.00778975 5.58517 3.09669 
-3.13425 3.09669 5.78083 
5.71528 -0.0875058 -2.99306 
-0.0875058 5.52276 2.90146 
-2.99306 2.90146 5.51812 
4.97542 -0.0548808 -3.21072 
-0.0548808 5.11118 2.39765 
-3.21072 2.39765 6.66956 
6.10854 -0.447677 -2.92999 
-0.447677 6.2207 2.42684 
-2.92999 2.42684 4.42692 
4.78302 -0.0159816 0.924383 
-0.0159816 4.86181 -2.94882 
0.924383 -2.94882 5.75426 
5.08296 0.221337 0.680471 
0.221337 4.88773 -2.56476 
0.680471 -2.56476 5.4284 
5.21637 0.55166 0.299749 
0.55166 5.34923 -2.72002 
0.299749 -2.72002 4.83349 
5.07853 0.137416 0.761177 
0.137416 5.15269 -3.02657 
0.761177 -3.02657 5.16788 
5.21677 -0.0965189 1.76046 
-0.0965189 5.1551 -2.8235 
1.76046 -2.8235 4.5274 
5.1385 -0.0398617 1.89867 
-0.0398617 4.89875 -2.64876 
1.89867 -2.64876 4.86201 
5.06716 0.0509608 1.88692 
0.0509608 4.70897 -2.68858 
1.88692 -2.68858 5.12313 
5.07857 -0.0461796 1.73358 
-0.0461796 4.95987 -2.64745 
1.73358 -2.64745 4.86083 
4.61884 0.0310807 4.23109 
0.0310807 3.46012 -0.520533 
4.23109 -0.520533 3.44803 
4.18827 -0.123175 3.9214 
-0.123175 3.81862 -0.594952 
3.9214 -0.594952 3.52009 
4.2269 -0.00975625 3.72536 
-0.00975625 3.8247 -0.427694 
3.72536 -0.427694 3.47537 
3.33453 0.0727465 4.50478 
0.0727465 4.19683 -0.430052 
4.50478 -0.430052 3.99562 
2.00797 -0.199533 -0.513767 
-0.199533 1.99173 -0.791631 
-0.513767 -0.791631 2.03566 
1.75706 -0.231321 -0.482229 
-0.231321 2.02601 -1.17141 
-0.482229 -1.17141 2.25229 
1.7328 0.117242 -0.561462 
0.117242 1.99536 -0.847724 
-0.561462 -0.847724 2.30721 
2.05536 -0.063149 -0.630352 
-0.063149 1.90283 -1.23816 
-0.630352 -1.23816 2.07718 
8.81989 0.194875 -3.36401 
0.194875 8.99096 -0.159756 
-3.36401 -0.159756 8.97212 
9.12096 -0.145494 -3.42124 
-0.145494 9.14505 -0.418007 
-3.42124 -0.418007 8.51696 
8.36964 -0.593114 -3.23721 
-0.593114 8.50023 -0.583709 
-3.23721 -0.583709 9.91311 
8.90116 0.10681 -3.41687 
0.10681 8.91463 -0.224873 
-3.41687 -0.224873 8.96719 
8.49535 0.131282 -0.173125 
0.131282 8.48311 -3.1965 
-0.173125 -3.1965 8.96965 
8.57562 0.0363518 -0.205668 
0.0363518 8.6076 -3.34652 
-0.205668 -3.34652 8.76489 
8.77509 0.200712 -0.122992 
0.200712 8.69295 -3.30947 
-0.122992 -3.30947 8.48007 
8.64177 0.00599 -0.230645 
0.00599 8.63062 -3.27388 
-0.230645 -3.27388 8.67571 
6.24131 -0.00260617 0.94714 
-0.00260617 6.25503 -3.0467 
0.94714 -3.0467 6.49995 
6.18564 0.0404776 1.09067 
0.0404776 6.41393 -2.77844 
1.09067 -2.77844 6.39672 
6.17064 -0.0248903 0.849624 
-0.0248903 6.38658 -2.81843 
0.849624 -2.81843 6.43908 
6.04802 0.0407261 0.966803 
0.0407261 6.32398 -2.7284 
0.966803 -2.7284 6.62429 
3.0731 -0.592736 4.1518 
-0.592736 2.80291 -2.24276 
4.1518 -2.24276 2.84846 
3.28725 -0.389155 3.46559 
-0.389155 2.72616 -1.60808 
3.46559 -1.60808 2.71105 
2.56639 0.173118 3.92784 
0.173118 2.76232 -2.47735 
3.92784 -2.47735 3.39575 
3.03337 -0.366578 3.50954 
-0.366578 2.86281 -2.01782 
3.50954 -2.01782 2.82829 
5.91617 -0.00826705 -0.685147 
-0.00826705 5.83636 1.91702 
-0.685147 1.91702 5.52675 
5.70438 -0.0607778 -0.540092 
-0.0607778 5.85384 1.85124 
-0.540092 1.85124 5.72106 
6.07579 0.00466785 -0.439879 
0.00466785 6.03494 1.86985 
-0.439879 1.86985 5.16855 
5.73419 -0.0242916 -0.589525 
-0.0242916 5.60558 1.82616 
-0.589525 1.82616 5.93951 
8.12524 -0.106553 3.52428 
-0.106553 8.21695 1.96422 
3.52428 1.96422 8.22486 
8.14522 -0.0613395 3.7246 
-0.0613395 8.04985 2.16521 
3.7246 2.16521 8.37199 
7.9857 -0.105571 3.58192 
-0.105571 8.18772 1.99845 
3.58192 1.99845 8.39363 
8.16097 -0.0735167 3.74117 
-0.0735167 8.19973 2.0295 
3.74117 2.0295 8.20635 
5.16129 0.0602932 3.98279 
0.0602932 4.77534 -0.946307 
3.98279 -0.946307 4.68413 
4.1738 -0.13103 4.39374 
-0.13103 5.24856 0.0644015 
4.39374 0.0644015 5.1984 
4.65087 -0.0841993 4.06105 
-0.0841993 5.03485 -0.522023 
4.06105 -0.522023 4.93505 
4.92047 -0.626816 3.87695 
-0.626816 4.94759 -0.0251277 
3.87695 -0.0251277 4.7527 
1.87119 -0.218511 0.97741 
-0.218511 1.01557 -1.68053 
0.97741 -1.68053 0.785944 
1.3037 -0.096679 0.871873 
-0.096679 1.04415 -1.80878 
0.871873 -1.80878 1.32485 
1.11917 0.00699288 0.792068 
0.00699288 1.35263 -1.75794 
0.792068 -1.75794 1.20089 
1.26869 -0.0209451 0.904678 
-0.0209451 1.18755 -1.71364 
0.904678 -1.71364 1.21646 
5.94908 -0.204784 1.00142 
-0.204784 5.45198 -3.05708 
1.00142 -3.05708 5.80485 
6.18724 -0.0709757 0.996433 
-0.0709757 5.31557 -2.65125 
0.996433 -2.65125 5.70309 
5.676 -0.0180094 0.692291 
-0.0180094 5.58793 -3.04962 
0.692291 -3.04962 5.94197 
5.65395 0.046194 0.87202 
0.046194 6.32912 -2.65373 
0.87202 -2.65373 5.22284 
4.78171 -0.027684 2.56138 
-0.027684 4.74138 3.11279 
2.56138 3.11279 4.61671 
4.60209 -0.127598 2.79645 
-0.127598 4.6492 3.06882 
2.79645 3.06882 4.88851 
4.86854 0.0291521 2.589 
0.0291521 4.83479 3.12787 
2.589 3.12787 4.43647 
4.62865 -0.0229272 2.50894 
-0.0229272 4.54942 3.28716 
2.50894 3.28716 4.96172 
6.85412 0.0791615 0.798083 
0.0791615 7.13261 -0.964921 
0.798083 -0.964921 6.60861 
6.35883 0.117782 0.586122 
0.117782 6.99399 -1.63974 
0.586122 -1.63974 7.24251 
6.57228 0.179825 0.757012 
0.179825 6.8743 -1.12851 
0.757012 -1.12851 7.14875 
6.53502 -0.127887 0.0858275 
-0.127887 6.07885 -0.739623 
0.0858275 -0.739623 7.98147 
7.66865 -0.0405542 -0.00767736 
-0.0405542 7.25852 -2.54628 
-0.00767736 -2.54628 7.17452 
7.71575 -0.137976 -0.229254 
-0.137976 7.19465 -2.32732 
-0.229254 -2.32732 7.1913 
7.86319 -0.152908 0.506885 
-0.152908 7.43688 -2.38463 
0.506885 -2.38463 6.80163 
7.21703 0.140404 -0.564751 
0.140404 7.10331 -2.82743 
-0.564751 -2.82743 7.78136 
3.47512 0.104908 4.0293 
0.104908 3.4266 -0.353686 
4.0293 -0.353686 3.82028 
3.51417 -0.0906257 4.14873 
-0.0906257 3.6346 -0.25785 
4.14873 -0.25785 3.57323 
3.75752 -0.0649476 4.07441 
-0.0649476 3.5519 -0.48892 
4.07441 -0.48892 3.41258 
3.8505 -0.482416 4.49585 
-0.482416 3.84364 -0.675879 
4.49585 -0.675879 3.02785 
3.96969 0.418864 3.38454 
0.418864 3.51214 -1.95048 
3.38454 -1.95048 3.17994 
3.79657 0.260274 3.67992 
0.260274 3.69827 -2.20851 
3.67992 -2.20851 3.16693 
3.52285 0.0510721 3.59316 
0.0510721 3.4323 -1.88634 
3.59316 -1.88634 3.70662 
3.42993 0.0103375 3.55084 
0.0103375 3.41394 -1.8427 
3.55084 -1.8427 3.8179 
7.01428 -0.178831 2.15661 
-0.178831 6.86744 -0.115708 
2.15661 -0.115708 6.0407 
6.60666 -0.00149255 2.31306 
-0.00149255 6.73021 -0.560208 
2.31306 -0.560208 6.58554 
6.52538 -0.226613 2.52872 
-0.226613 6.83836 -0.745119 
2.52872 -0.745119 6.55867 
6.08363 0.142502 2.37413 
0.142502 6.16342 -0.301814 
2.37413 -0.301814 7.67536 
7.8959 -0.117815 -1.95772 
-0.117815 7.73901 0.656676 
-1.95772 0.656676 8.06596 
8.28805 0.141833 -1.68134 
0.141833 8.08259 0.869465 
-1.68134 0.869465 7.33023 
7.75242 -0.0729003 -2.10433 
-0.0729003 7.87418 0.454412 
-2.10433 0.454412 8.07426 
8.15084 0.045562 -1.75664 
0.045562 7.82485 0.580609 
-1.75664 0.580609 7.72517 
8.29805 0.159708 3.51725 
0.159708 8.04231 -2.50442 
3.51725 -2.50442 7.38154 
8.01984 0.543655 3.17655 
0.543655 7.82818 -2.36538 
3.17655 -2.36538 7.87388 
8.25242 -0.0975992 3.29629 
-0.0975992 8.24357 -2.56154 
3.29629 -2.56154 7.22592 
7.56037 0.342679 3.385 
0.342679 7.88144 -1.87959 
3.385 -1.87959 8.28009 
6.91713 -0.144302 -0.29507 
-0.144302 6.80357 1.33374 
-0.29507 1.33374 6.80882 
6.50512 -0.109649 -0.382124 
-0.109649 6.89156 1.58427 
-0.382124 1.58427 7.13284 
6.91567 -0.0842352 -0.370934 
-0.0842352 6.90966 1.06153 
-0.370934 1.06153 6.70419 
6.74902 0.0670431 -0.332023 
0.0670431 6.76146 1.13625 
-0.332023 1.13625 7.01903 
2.32444 -0.107414 3.07338 
-0.107414 2.35022 0.19084 
3.07338 0.19084 1.77213 
1.51355 -0.138816 2.66712 
-0.138816 1.59574 0.792476 
2.66712 0.792476 3.33751 
2.22209 -0.121934 2.74649 
-0.121934 1.99238 0.356144 
2.74649 0.356144 2.23232 
2.26753 -0.0103595 2.69331 
-0.0103595 1.91634 0.467356 
2.69331 0.467356 2.26292 
3.20443 -0.0792386 2.47863 
-0.0792386 3.22406 1.05717 
2.47863 1.05717 4.19154 
3.32274 0.170279 3.00142 
0.170279 3.71704 0.766919 
3.00142 0.766919 3.58025 
3.33631 0.223671 2.89769 
0.223671 3.73504 0.738571 
2.89769 0.738571 3.54868 
3.98535 0.128895 2.96262 
0.128895 3.923 0.181578 
2.96262 0.181578 2.71167 
3.73487 0.0386421 3.25099 
0.0386421 3.40615 2.59399 
3.25099 2.59399 3.96261 
3.70027 0.123263 3.32866 
0.123263 3.49152 2.54199 
3.32866 2.54199 3.91185 
3.71127 0.035941 3.13834 
0.035941 3.65978 2.82763 
3.13834 2.82763 3.73259 
3.31608 -0.312011 3.07895 
-0.312011 3.62123 2.39915 
3.07895 2.39915 4.16634 
2.17276 0.00767198 2.74086 
0.00767198 2.49512 1.93069 
2.74086 1.93069 1.92211 
2.01401 -0.00717146 2.55168 
-0.00717146 1.92801 2.16351 
2.55168 2.16351 2.64797 
2.12477 0.0349492 2.61215 
0.0349492 2.21229 2.03461 
2.61215 2.03461 2.25293 
2.10873 -0.0700345 2.74956 
-0.0700345 2.14845 2.13128 
2.74956 2.13128 2.33282 
3.7307 0.889953 3.81174 
0.889953 4.08531 2.9822 
3.81174 2.9822 2.24771 
3.14864 -0.508336 3.54605 
-0.508336 3.23574 2.54883 
3.54605 2.54883 3.67934 
2.99547 -0.516994 3.49621 
-0.516994 2.69748 2.64168 
3.49621 2.64168 4.37077 
3.77763 0.0905614 3.43025 
0.0905614 3.43237 1.39795 
3.43025 1.39795 2.85372 
5.06662 -0.120858 -3.36266 
-0.120858 5.31645 2.75999 
-3.36266 2.75999 4.68852 
4.7818 0.00263761 -3.12567 
0.00263761 4.78638 2.85572 
-3.12567 2.85572 5.50341 
5.24458 -0.207148 -3.28236 
-0.207148 4.97353 2.52123 
-3.28236 2.52123 4.85348 
5.49573 0.113393 -2.5782 
0.113393 5.70681 2.78271 
-2.5782 2.78271 3.86906 
4.03865 -0.0555921 -1.07988 
-0.0555921 4.17102 -0.0952521 
-1.07988 -0.0952521 4.17861 
4.12517 0.0798988 -1.07257 
0.0798988 4.23297 -0.0343928 
-1.07257 -0.0343928 4.03013 
4.19583 0.129492 -1.19268 
0.129492 4.32102 -0.293626 
-1.19268 -0.293626 3.87143 
3.89486 0.395986 -0.915475 
0.395986 4.15557 -0.0822549 
-0.915475 -0.0822549 4.33785 
5.75579 -0.0688611 -1.69191 
-0.0688611 5.67495 1.70163 
-1.69191 1.70163 5.20664 
5.54919 0.0027797 -1.73041 
0.0027797 5.54537 1.60736 
-1.73041 1.60736 5.54282 
5.6515 -0.0541775 -1.6577 
-0.0541775 5.59606 1.84799 
-1.6577 1.84799 5.38981 
5.69333 -0.064244 -1.84286 
-0.064244 5.63713 1.78819 
-1.84286 1.78819 5.30692 
2.16069 0.0369811 -1.55104 
0.0369811 2.15484 0.890312 
-1.55104 0.890312 1.91353 
2.08135 0.0196736 -1.64254 
0.0196736 1.954 0.926466 
-1.64254 0.926466 2.19371 
1.76317 -0.116259 -1.73478 
-0.116259 1.7413 0.872792 
-1.73478 0.872792 2.72459 
2.07832 -0.0108677 -1.61453 
-0.0108677 1.94489 0.783441 
-1.61453 0.783441 2.20585 
6.89258 0.106553 -0.180033 
0.106553 7.16524 1.69328 
-0.180033 1.69328 7.36843 
7.01273 0.0565941 -0.153274 
0.0565941 6.95141 1.41801 
-0.153274 1.41801 7.46211 
7.22112 0.0165151 -0.000269174 
0.0165151 7.17892 1.51451 
-0.000269174 1.51451 7.02621 
7.10512 0.0175682 -0.000975576 
0.0175682 7.13683 1.51973 
-0.000975576 1.51973 7.1843 
8.647 -0.0516557 0.198215 
-0.0516557 8.75117 -3.07311 
0.198215 -3.07311 8.89311 
8.676 0.283587 0.172548 
0.283587 8.54307 -2.97332 
0.172548 -2.97332 9.07221 
8.82063 0.0560183 0.169826 
0.0560183 8.75945 -3.05518 
0.169826 -3.05518 8.7112 
8.79498 -0.061874 0.235288 
-0.061874 8.71499 -3.06549 
0.235288 -3.06549 8.78131 
1.21026 -0.0842373 2.59527 
-0.0842373 1.44066 0.32963 
2.59527 0.32963 1.21821 
1.18876 -0.00851225 2.54057 
-0.00851225 1.40353 0.272999 
2.54057 0.272999 1.27685 
2.09551 0.482911 2.52256 
0.482911 1.23785 -0.0567566 
2.52256 -0.0567566 0.535769 
1.20095 0.346521 2.35427 
0.346521 0.804295 0.390899 
2.35427 0.390899 1.86389 
5.09171 -0.126236 -4.12409 
-0.126236 5.72762 -0.36945 
-4.12409 -0.36945 5.53995 
5.91459 0.171793 -3.8668 
0.171793 5.34122 0.0108173 
-3.8668 0.0108173 5.10347 
5.75496 0.174958 -4.02522 
0.174958 5.3878 -0.134337 
-4.02522 -0.134337 5.21652 
5.73618 0.0405069 -3.601 
0.0405069 5.84043 -0.0408373 
-3.601 -0.0408373 4.78266 
1.59904 0.00766653 -0.776692 
0.00766653 2.21052 0.110291 
-0.776692 0.110291 1.01733 
1.3838 0.0448924 -2.07275 
0.0448924 1.18133 0.178295 
-2.07275 0.178295 2.26176 
1.93671 -0.0418451 -1.39744 
-0.0418451 1.59898 -0.00535546 
-1.39744 -0.00535546 1.2912 
1.96077 0.101847 -1.4487 
0.101847 1.4648 0.0422702 
-1.4487 0.0422702 1.40132 
5.66061 -0.0613434 -0.404331 
-0.0613434 6.0668 -2.6735 
-0.404331 -2.6735 5.90253 
6.20453 -0.0639778 -0.454734 
-0.0639778 6.19042 -2.32863 
-0.454734 -2.32863 5.23499 
5.84395 0.349809 -0.789488 
0.349809 5.3531 -2.69827 
-0.789488 -2.69827 6.43289 
5.84538 -0.00417037 -0.665424 
-0.00417037 6.11139 -2.57117 
-0.665424 -2.57117 5.67316 
9.68458 0.0836286 -0.283524 
0.0836286 9.50709 -3.40013 
-0.283524 -3.40013 9.39581 
9.2215 0.0215519 -0.458272 
0.0215519 9.09989 -3.57526 
-0.458272 -3.57526 10.2661 
9.4327 0.286577 -0.366163 
0.286577 9.56036 -3.38818 
-0.366163 -3.38818 9.59442 
9.70754 0.0513185 -0.438323 
0.0513185 9.56499 -3.41041 
-0.438323 -3.41041 9.31496 
2.39169 0.0319842 2.20684 
0.0319842 2.35714 -0.959708 
2.20684 -0.959708 2.26215 
2.15889 0.0713069 2.37432 
0.0713069 2.35143 -1.01139 
2.37432 -1.01139 2.50066 
2.1474 -0.0162843 2.15754 
-0.0162843 2.31588 -0.969813 
2.15754 -0.969813 2.5477 
2.19681 0.0129927 2.27203 
0.0129927 2.26287 -1.19767 
2.27203 -1.19767 2.55129 
6.13588 -0.0221906 -0.785486 
-0.0221906 6.14273 1.73531 
-0.785486 1.73531 6.29567 
6.22186 0.11677 -0.738141 
0.11677 6.24653 1.50306 
-0.738141 1.50306 6.10589 
6.81089 -0.106509 -0.650453 
-0.106509 5.90499 1.34594 
-0.650453 1.34594 5.8584 
6.1824 0.0529922 -0.698129 
0.0529922 6.14546 1.43513 
-0.698129 1.43513 6.24642 
6.79915 0.0623292 0.674592 
0.0623292 6.72626 3.91889 
0.674592 3.91889 6.48606 
6.47197 -0.409082 0.643653 
-0.409082 6.39258 4.07311 
0.643653 4.07311 7.14692 
6.89177 0.168578 0.91175 
0.168578 6.84978 4.18536 
0.91175 4.18536 6.26992 
6.88661 0.0720896 0.0624496 
0.0720896 7.12643 3.78635 
0.0624496 3.78635 5.99843 
1.99518 -0.0221244 1.66438 
-0.0221244 1.7668 -3.73911 
1.66438 -3.73911 1.81726 
1.92706 0.134844 1.64251 
0.134844 1.76354 -3.8825 
1.64251 -3.8825 1.88864 
1.88624 -0.360894 1.44485 
-0.360894 2.10615 -3.70069 
1.44485 -3.70069 1.58685 
1.70485 -0.0517048 1.9618 
-0.0517048 1.66513 -3.58056 
1.9618 -3.58056 2.20926 
4.74379 0.0948742 5.06572 
0.0948742 5.67945 -0.395738 
5.06572 -0.395738 5.99273 
4.52888 0.282082 3.24041 
0.282082 5.25979 -0.236211 
3.24041 -0.236211 6.6273 
5.27834 -0.118336 4.23216 
-0.118336 5.57732 -0.155384 
4.23216 -0.155384 5.56032 
6.56324 -0.27342 4.18333 
-0.27342 5.80888 -0.919803 
4.18333 -0.919803 4.04386 
8.21961 0.0835885 3.5607 
0.0835885 8.03612 1.66845 
3.5607 1.66845 8.84947 
8.34627 0.00477469 3.92545 
0.00477469 8.31052 1.77635 
3.92545 1.77635 8.44842 
8.32837 -0.0342885 4.05387 
-0.0342885 8.31126 1.86541 
4.05387 1.86541 8.46557 
8.40482 -0.16653 4.06303 
-0.16653 8.32589 1.92554 
4.06303 1.92554 8.3745 
7.64849 -0.0898754 3.54281 
-0.0898754 6.97571 0.0647821 
3.54281 0.0647821 6.33091 
7.55019 0.0326456 2.4759 
0.0326456 6.66749 0.0818364 
2.4759 0.0818364 6.73743 
7.18926 -0.0482977 3.12281 
-0.0482977 6.85299 0.112307 
3.12281 0.112307 6.91285 
5.9388 0.361857 3.04793 
0.361857 6.94703 0.49836 
3.04793 0.49836 8.06928 
4.65455 0.331815 1.6974 
0.331815 4.96414 -3.97309 
1.6974 -3.97309 6.66552 
5.72246 0.385674 2.93883 
0.385674 6.20008 -3.82661 
2.93883 -3.82661 4.36167 
5.8081 0.0381035 2.44299 
0.0381035 5.3123 -3.4122 
2.44299 -3.4122 5.1638 
5.09798 -0.256596 2.11214 
-0.256596 5.53099 -3.39234 
2.11214 -3.39234 5.65524 
5.14417 -0.114245 2.63147 
-0.114245 5.13838 -0.407464 
2.63147 -0.407464 5.71673 
5.03884 -0.260634 2.15686 
-0.260634 5.69183 -0.688839 
2.15686 -0.688839 5.26861 
5.2888 0.0558939 2.36227 
0.0558939 5.43701 -0.381214 
2.36227 -0.381214 5.27347 
6.08849 0.0979877 2.86068 
0.0979877 6.02698 -0.699818 
2.86068 -0.699818 3.8838 
3.33908 -0.270182 4.10965 
-0.270182 3.09134 0.468199 
4.10965 0.468199 3.08916 
3.53394 -0.0693075 4.12058 
-0.0693075 3.38951 0.766958 
4.12058 0.766958 2.59613 
2.99924 -0.033689 4.00331 
-0.033689 3.23928 0.364358 
4.00331 0.364358 3.28106 
3.55827 -0.15742 4.08512 
-0.15742 3.12736 0.419546 
4.08512 0.419546 2.83396 
6.29286 0.00255154 -1.67788 
0.00255154 6.28475 2.4534 
-1.67788 2.4534 6.13978 
6.15934 -0.0340294 -1.70583 
-0.0340294 6.19713 2.50076 
-1.70583 2.50076 6.36092 
6.1272 -0.0245604 -1.60784 
-0.0245604 6.22565 2.42579 
-1.60784 2.42579 6.36454 
5.90183 -0.1058 -1.74285 
-0.1058 6.06958 2.38247 
-1.74285 2.38247 6.74599 
2.79222 -0.0906882 3.77237 
-0.0906882 1.6724 2.58139 
3.77237 2.58139 4.54748 
3.86159 0.039639 3.39483 
0.039639 3.72292 3.11847 
3.39483 3.11847 1.4276 
2.81496 -0.0586366 2.88514 
-0.0586366 3.4745 1.89595 
2.88514 1.89595 2.72265 
2.73804 0.129349 2.90132 
0.129349 3.15475 2.54564 
2.90132 2.54564 3.11931 
2.02833 -0.004172 -1.32348 
-0.004172 2.02141 1.27071 
-1.32348 1.27071 1.78218 
1.72012 0.0550304 -1.45016 
0.0550304 1.76393 1.23093 
-1.45016 1.23093 2.34787 
1.91054 0.0253636 -1.46187 
0.0253636 1.93085 1.1513 
-1.46187 1.1513 1.99053 
1.85474 -0.082336 -1.27998 
-0.082336 1.93682 1.21924 
-1.27998 1.21924 2.04036 
2.31549 0.0883768 -1.64689 
0.0883768 2.1556 2.79892 
-1.64689 2.79892 1.28674 
1.90593 0.00102124 -1.6288 
0.00102124 2.07496 2.22102 
-1.6288 2.22102 1.77694 
1.47623 0.0627313 -1.74889 
0.0627313 1.50177 2.07078 
-1.74889 2.07078 2.77983 
1.77122 0.0380345 -1.61046 
0.0380345 2.12824 2.27628 
-1.61046 2.27628 1.85838 
6.439 -0.214428 1.22934 
-0.214428 5.15946 4.42471 
1.22934 4.42471 7.66968 
5.94687 0.438968 1.01403 
0.438968 8.03333 4.64078 
1.01403 4.64078 5.28793 
6.61648 -0.27399 1.11973 
-0.27399 6.10242 4.23656 
1.11973 4.23656 6.54924 
6.71986 -0.309427 1.07793 
-0.309427 6.57282 2.69555 
1.07793 2.69555 5.97546 
8.4948 0.00714475 3.89512 
0.00714475 8.79647 1.50664 
3.89512 1.50664 8.97418 
8.84724 0.0259611 3.61445 
0.0259611 8.57826 1.45919 
3.61445 1.45919 8.83995 
8.61041 0.0165486 3.78639 
0.0165486 8.53056 1.5655 
3.78639 1.5655 9.12449 
8.54762 0.0286189 4.05547 
0.0286189 8.87278 1.41868 
4.05547 1.41868 8.84507 
7.20924 -0.0139899 1.01961 
-0.0139899 7.12245 -2.05375 
1.01961 -2.05375 6.89059 
6.83069 -0.0165541 0.822971 
-0.0165541 6.62235 -2.35158 
0.822971 -2.35158 7.76924 
7.24966 0.0925241 0.930037 
0.0925241 6.82265 -2.22214 
0.930037 -2.22214 7.14997 
7.12676 0.112388 0.89598 
0.112388 7.0439 -2.11114 
0.89598 -2.11114 7.05162 
3.30672 -0.0816548 -2.96522 
-0.0816548 3.62091 0.135358 
-2.96522 0.135358 3.16119 
4.0973 0.0664895 -2.36955 
0.0664895 4.02671 -0.29558 
-2.36955 -0.29558 1.96482 
3.1881 0.186322 -2.68826 
0.186322 3.24827 0.191251 
-2.68826 0.191251 3.65246 
3.419 -0.32414 -2.80024 
-0.32414 3.5173 0.0323102 
-2.80024 0.0323102 3.15252 
6.33981 -0.109788 1.10451 
-0.109788 6.3722 3.79593 
1.10451 3.79593 6.71151 
6.23539 0.0266292 1.05842 
0.0266292 6.55655 3.93182 
1.05842 3.93182 6.63158 
6.85067 -0.0219908 1.20419 
-0.0219908 6.30785 3.79797 
1.20419 3.79797 6.265 
6.57437 -0.0597117 1.42963 
-0.0597117 5.8843 3.50469 
1.42963 3.50469 6.96485 
0.515237 0.152679 2.49221 
0.152679 0.587322 0.540469 
2.49221 0.540469 0.4529 
0.96296 0.0021726 2.33192 
0.0021726 0.969198 0.543776 
2.33192 0.543776 -0.376699 
0.706457 0.140616 2.47184 
0.140616 0.431716 0.545926 
2.47184 0.545926 0.417286 
0.448858 0.01928 2.49303 
0.01928 0.407699 0.622834 
2.49303 0.622834 0.698902 
7.47718 -0.186256 4.85219 
-0.186256 5.85906 -0.460211 
4.85219 -0.460211 5.46433 
4.5338 0.152671 4.36887 
0.152671 6.75485 -0.586212 
4.36887 -0.586212 7.51193 
6.2603 -0.0229516 4.32208 
-0.0229516 6.29834 -0.377957 
4.32208 -0.377957 6.24194 
6.85651 -0.106284 3.12111 
-0.106284 6.28516 -0.0219504 
3.12111 -0.0219504 5.65891 
3.04452 -0.184021 1.44709 
-0.184021 2.82101 -4.43673 
1.44709 -4.43673 1.63526 
2.09267 0.0855682 2.27384 
0.0855682 1.94117 -3.5717 
2.27384 -3.5717 3.46695 
2.23267 0.0529689 1.54829 
0.0529689 3.05407 -3.72566 
1.54829 -3.72566 2.21405 
2.05306 -0.30803 1.393 
-0.30803 2.9005 -3.62604 
1.393 -3.62604 2.54723 
8.65577 0.211976 2.84622 
0.211976 7.93516 -2.35817 
2.84622 -2.35817 7.63826 
8.32946 -0.00490136 2.93997 
-0.00490136 8.02082 -2.36705 
2.93997 -2.36705 7.8789 
7.63851 -0.333327 2.96612 
-0.333327 8.48191 -2.45504 
2.96612 -2.45504 8.10877 
8.23321 0.00277779 2.59819 
0.00277779 8.32985 -1.6791 
2.59819 -1.6791 7.66613 
2.15244 0.0021673 -2.86666 
0.0021673 2.22676 -1.05857 
-2.86666 -1.05857 2.15397 
2.02537 -0.0184312 -2.76138 
-0.0184312 2.13745 -0.999639 
-2.76138 -0.999639 2.37035 
1.66489 -0.0517678 -2.71186 
-0.0517678 2.00578 -0.936345 
-2.71186 -0.936345 2.8625 
1.9605 -0.0306753 -2.75517 
-0.0306753 2.05635 -1.14686 
-2.75517 -1.14686 2.51632 
3.25182 -0.069202 1.42753 
-0.069202 3.23958 -0.245672 
1.42753 -0.245672 2.82519 
3.01162 -0.0876686 1.36806 
-0.0876686 3.07852 -0.281714 
1.36806 -0.281714 3.22645 
3.08072 0.011943 1.46715 
0.011943 3.27518 -0.309935 
1.46715 -0.309935 2.96069 
4.07868 0.21502 1.07191 
0.21502 2.96601 -0.682304 
1.07191 -0.682304 2.27189 
2.7235 -0.0605369 -2.12572 
-0.0605369 2.54829 2.40258 
-2.12572 2.40258 2.9769 
2.87122 0.0185254 -2.13303 
0.0185254 2.38456 2.52938 
-2.13303 2.52938 2.99291 
2.54326 -0.228375 -2.13768 
-0.228375 2.47203 1.9787 
-2.13768 1.9787 3.23339 
2.93358 0.0675247 -2.06891 
0.0675247 2.92998 2.6485 
-2.06891 2.6485 2.38513 
9.0811 0.0467424 1.71213 
0.0467424 9.06492 -0.491993 
1.71213 -0.491993 10.1323 
9.35169 0.0505853 1.61164 
0.0505853 9.32927 -0.573645 
1.61164 -0.573645 9.59733 
9.41978 0.134337 1.57337 
0.134337 9.25673 -0.501512 
1.57337 -0.501512 9.60178 
9.48217 0.0341443 1.48242 
0.0341443 9.45606 -0.546093 
1.48242 -0.546093 9.34005 
6.07737 0.00586964 -0.494875 
0.00586964 5.77271 -2.96531 
-0.494875 -2.96531 5.99783 
6.45099 0.130918 -0.825301 
0.130918 6.6395 -2.58498 
-0.825301 -2.58498 4.75743 
6.22036 0.033384 -0.621215 
0.033384 5.74955 -2.80912 
-0.621215 -2.80912 5.87801 
5.10827 0.196985 -0.79239 
0.196985 5.78742 -2.43874 
-0.79239 -2.43874 6.95222 
3.33779 -0.00569495 3.62964 
-0.00569495 3.49119 -2.61452 
3.62964 -2.61452 0.808604 
2.31663 0.0173966 2.6366 
0.0173966 2.75701 -1.93044 
2.6366 -1.93044 2.56396 
1.93945 0.114759 4.12829 
0.114759 1.66465 -1.7079 
4.12829 -1.7079 4.03349 
2.38955 0.0118312 3.16208 
0.0118312 2.67445 -0.927773 
3.16208 -0.927773 2.57359 
2.92168 -0.0280755 2.39858 
-0.0280755 2.88158 3.92315 
2.39858 3.92315 3.06876 
2.94111 0.034691 2.52629 
0.034691 3.05317 3.82733 
2.52629 3.82733 2.87775 
2.9985 0.0737309 2.38714 
0.0737309 3.19635 3.89817 
2.38714 3.89817 2.67716 
2.82457 -0.0222357 2.40172 
-0.0222357 2.84015 3.72459 
2.40172 3.72459 3.20731 
4.37269 0.107118 2.86 
0.107118 4.00137 -2.07454 
2.86 -2.07454 4.12064 
3.56015 -0.230913 3.76647 
-0.230913 3.88383 -2.11727 
3.76647 -2.11727 5.05071 
4.31924 -0.361563 2.62522 
-0.361563 4.51666 -2.50358 
2.62522 -2.50358 3.6588 
4.40798 0.227737 2.91698 
0.227737 4.04439 -2.01513 
2.91698 -2.01513 4.04233 
3.5895 0.0800517 4.18319 
0.0800517 3.61271 0.960605 
4.18319 0.960605 3.47038 
3.47179 0.0596575 4.29673 
0.0596575 3.80306 0.981817 
4.29673 0.981817 3.39774 
3.38997 0.0719316 4.14817 
0.0719316 3.64412 1.15853 
4.14817 1.15853 3.6385 
3.93395 -0.0251519 4.0401 
-0.0251519 3.88839 0.638227 
4.0401 0.638227 2.85026 
2.3155 0.0371703 2.62987 
0.0371703 2.36754 1.60022 
2.62987 1.60022 1.97556 
2.18514 -0.0185635 2.50063 
-0.0185635 2.2092 1.63738 
2.50063 1.63738 2.26426 
1.98566 -0.0852911 2.4611 
-0.0852911 1.92536 1.61011 
2.4611 1.61011 2.74759 
2.24315 0.0175565 2.46527 
0.0175565 2.17743 1.55249 
2.46527 1.55249 2.23803 
6.26454 0.00381647 0.620401 
0.00381647 6.07041 2.06346 
0.620401 2.06346 5.61379 
5.65192 0.352707 0.653219 
0.352707 5.9767 1.64553 
0.653219 1.64553 6.32013 
5.92771 -0.156254 0.752263 
-0.156254 6.0576 1.86049 
0.752263 1.86049 5.96344 
6.07159 0.0673226 0.638923 
0.0673226 6.11212 1.71832 
0.638923 1.71832 5.76503 
8.73111 -0.0277241 1.64399 
-0.0277241 9.08941 -4.10576 
1.64399 -4.10576 9.13319 
8.94902 0.006585 1.65135 
0.006585 8.82563 -3.60907 
1.65135 -3.60907 9.17906 
8.48332 -0.604515 1.49302 
-0.604515 8.91795 -3.46242 
1.49302 -3.46242 9.55244 
9.07852 -0.115433 1.69592 
-0.115433 9.20205 -4.50662 
1.69592 -4.50662 8.67314 
8.50389 -0.0577132 2.51908 
-0.0577132 8.83939 -0.426546 
2.51908 -0.426546 9.11586 
8.78939 0.0703285 2.59853 
0.0703285 8.8087 -0.533091 
2.59853 -0.533091 8.86105 
8.75903 -1.81141e-05 2.39583 
-1.81141e-05 8.71552 -0.456405 
2.39583 -0.456405 8.98459 
8.74514 -0.0802637 2.55618 
-0.0802637 8.90352 -0.323881 
2.55618 -0.323881 8.81049 
5.0713 0.00896048 1.26885 
0.00896048 4.94072 -2.97565 
1.26885 -2.97565 4.60775 
4.90368 0.0763761 1.32413 
0.0763761 4.65174 -3.03303 
1.32413 -3.03303 5.06436 
4.92327 -0.105703 1.27295 
-0.105703 4.83727 -3.05297 
1.27295 -3.05297 4.85923 
4.89397 -0.0557875 1.34818 
-0.0557875 4.97018 -2.90525 
1.34818 -2.90525 4.75562 
1.52482 0.0657962 -0.026868 
0.0657962 1.21211 -1.28484 
-0.026868 -1.28484 1.76511 
1.83859 -0.150266 -0.352059 
-0.150266 1.27449 -1.09774 
-0.352059 -1.09774 1.38897 
1.48964 0.0799784 0.0392428 
0.0799784 1.28624 -1.39857 
0.0392428 -1.39857 1.72616 
1.87022 -0.184409 -0.590395 
-0.184409 1.39444 -1.50676 
-0.590395 -1.50676 1.23738 
5.52694 0.0287722 -1.46367 
0.0287722 5.26793 0.873726 
-1.46367 0.873726 5.55768 
5.36454 -0.0330531 -1.48836 
-0.0330531 5.18441 0.717231 
-1.48836 0.717231 5.80361 
4.84376 -0.162401 -0.998052 
-0.162401 5.59893 0.924105 
-0.998052 0.924105 5.90986 
5.73455 0.193589 -1.35493 
0.193589 5.40452 0.70434 
-1.35493 0.70434 5.21349 
5.4279 0.230991 4.03237 
0.230991 5.973 -1.29549 
4.03237 -1.29549 6.12225 
6.22855 0.103769 4.55919 
0.103769 5.5853 0.178436 
4.55919 0.178436 5.7093 
6.00516 0.465587 3.67669 
0.465587 5.96516 0.0929756 
3.67669 0.0929756 5.55283 
6.44311 -0.0762209 3.57981 
-0.0762209 5.43322 -1.02408 
3.57981 -1.02408 5.64682 
1.40376 0.155486 2.20528 
0.155486 1.97154 1.44599 
2.20528 1.44599 0.237031 
1.51979 -0.262145 2.57833 
-0.262145 1.02525 1.32073 
2.57833 1.32073 1.0673 
0.474343 0.156833 2.92675 
0.156833 1.35509 1.08207 
2.92675 1.08207 1.7829 
1.4315 -0.22485 2.99405 
-0.22485 1.08139 1.34272 
2.99405 1.34272 1.09944 
0.89249 -0.116716 0.677566 
-0.116716 1.35078 -1.28267 
0.677566 -1.28267 1.0462 
1.21585 0.547389 1.0502 
0.547389 0.339807 -1.34377 
1.0502 -1.34377 1.73381 
1.75006 0.481835 1.08179 
0.481835 1.58835 -1.67777 
1.08179 -1.67777 -0.0489465 
0.886883 -0.0772989 0.534664 
-0.0772989 1.39745 -1.15971 
0.534664 -1.15971 1.00513 
5.42634 -0.194541 -1.63258 
-0.194541 4.84894 0.899486 
-1.63258 0.899486 5.07986 
5.12885 -0.162709 -1.27257 
-0.162709 4.93258 0.416218 
-1.27257 0.416218 5.29372 
5.19785 -0.271893 -1.41565 
-0.271893 4.94264 0.82653 
-1.41565 0.82653 5.21465 
5.26511 -0.164995 -1.54221 
-0.164995 4.96146 0.475323 
-1.54221 0.475323 5.12858 
1.52741 -0.559167 -1.27991 
-0.559167 1.65814 0.515053 
-1.27991 0.515053 2.14237 
1.63349 0.0931271 -1.34776 
0.0931271 1.80834 0.667542 
-1.34776 0.667542 1.88609 
1.77504 0.069188 -1.32033 
0.069188 1.80294 0.601918 
-1.32033 0.601918 1.74994 
1.88509 -0.0240679 -1.60546 
-0.0240679 1.72577 1.10321 
-1.60546 1.10321 1.71705 
5.94027 -0.199145 0.371548 
-0.199145 5.45914 4.28046 
0.371548 4.28046 6.31224 
6.26647 0.488628 1.20099 
0.488628 5.57597 3.76542 
1.20099 3.76542 5.86922 
5.93797 0.378629 1.73237 
0.378629 6.36326 4.17941 
1.73237 4.17941 5.41042 
5.84628 0.159044 0.826923 
0.159044 5.99456 4.05373 
0.826923 4.05373 5.87081 
2.94289 0.147251 -0.899505 
0.147251 2.59507 -2.41122 
-0.899505 -2.41122 2.71707 
3.08031 0.0144656 -0.824326 
0.0144656 2.95809 -2.60181 
-0.824326 -2.60181 2.21664 
2.72334 -0.0504401 -1.0459 
-0.0504401 2.59152 -2.39948 
-1.0459 -2.39948 2.94018 
2.70162 0.117307 -1.00839 
0.117307 2.79012 -2.5062 
-1.00839 -2.5062 2.76331 
1.88744 0.0458697 -0.866543 
0.0458697 2.13832 -2.32572 
-0.866543 -2.32572 1.80881 
1.93858 -0.0247888 -0.922017 
-0.0247888 1.63258 -2.68564 
-0.922017 -2.68564 2.26341 
2.06152 0.0608512 -0.904305 
0.0608512 2.086 -2.52286 
-0.904305 -2.52286 1.68705 
1.95132 -0.104983 -1.17197 
-0.104983 1.71008 -2.62731 
-1.17197 -2.62731 2.17317 
4.97101 -0.106651 0.386962 
-0.106651 4.94551 -1.31226 
0.386962 -1.31226 4.61078 
4.98655 0.000127084 0.212949 
0.000127084 5.04589 -1.18108 
0.212949 -1.18108 4.49486 
4.84624 -0.0605039 0.279541 
-0.0605039 5.07041 -1.28143 
0.279541 -1.28143 4.61064 
4.76776 -0.064301 0.185424 
-0.064301 4.92925 -0.901031 
0.185424 -0.901031 4.83028 
3.2299 0.025228 -1.89128 
0.025228 3.10241 -0.791779 
-1.89128 -0.791779 3.33672 
3.29344 0.0897571 -1.91468 
0.0897571 3.33486 -0.759857 
-1.91468 -0.759857 3.04072 
3.27128 0.0443105 -1.81672 
0.0443105 3.28223 -0.600789 
-1.81672 -0.600789 3.11551 
3.53571 0.0858676 -1.96339 
0.0858676 3.37234 -0.43818 
-1.96339 -0.43818 2.76098 
4.0569 -0.10489 3.88184 
-0.10489 3.81127 1.23074 
3.88184 1.23074 3.65501 
3.86143 -0.128059 3.8935 
-0.128059 3.88463 1.36825 
3.8935 1.36825 3.77712 
3.93097 -0.0276423 4.04913 
-0.0276423 3.83486 1.087 
4.04913 1.087 3.75734 
4.18586 0.2203 3.73858 
0.2203 3.90467 1.0166 
3.73858 1.0166 3.43264 
7.98239 -0.102725 3.80992 
-0.102725 7.88768 1.1452 
3.80992 1.1452 8.34547 
7.99792 0.00606882 4.15581 
0.00606882 8.08013 0.98444 
4.15581 0.98444 8.13748 
8.08143 -0.0308221 3.80292 
-0.0308221 8.11369 0.970554 
3.80292 0.970554 8.02042 
7.99491 -0.0913882 4.04904 
-0.0913882 8.06983 1.12319 
4.04904 1.12319 8.15079 
6.37375 -0.0249163 -4.34695 
-0.0249163 6.06315 -0.487091 
-4.34695 -0.487091 6.42137 
6.53114 -0.261044 -3.89176 
-0.261044 6.91391 -0.514217 
-3.89176 -0.514217 5.41322 
6.39243 -0.0519759 -4.43193 
-0.0519759 6.10548 -0.467898 
-4.43193 -0.467898 6.36036 
5.4362 -0.361225 -4.05097 
-0.361225 5.4438 -0.672354 
-4.05097 -0.672354 7.97828 
3.25397 -0.166389 -0.71375 
-0.166389 3.19645 -2.79772 
-0.71375 -2.79772 3.17723 
3.64189 -0.158105 -0.742344 
-0.158105 2.9945 -2.64365 
-0.742344 -2.64365 2.99126 
3.20881 -0.144041 -0.575452 
-0.144041 3.12615 -2.84733 
-0.575452 -2.84733 3.2927 
3.40895 0.136904 -0.855275 
0.136904 3.51443 -2.84559 
-0.855275 -2.84559 2.70428 
1.78966 -0.052174 3.5939 
-0.052174 1.99012 -1.87863 
3.5939 -1.87863 1.72521 
2.19689 -0.00123555 3.80597 
-0.00123555 2.0139 -1.55693 
3.80597 -1.55693 1.2942 
1.95175 0.0870792 3.69462 
0.0870792 2.1257 -2.09481 
3.69462 -2.09481 1.42755 
1.6311 -0.246315 3.59477 
-0.246315 1.66399 -2.14764 
3.59477 -2.14764 2.2099 
5.23313 -0.175076 -2.9745 
-0.175076 5.8285 -0.244634 
-2.9745 -0.244634 5.6434 
5.85656 0.0599402 -2.77805 
0.0599402 5.56362 0.245127 
-2.77805 0.245127 5.28484 
5.40896 -0.0551288 -2.8975 
-0.0551288 5.72297 -0.107932 
-2.8975 -0.107932 5.5731 
5.48507 -0.0411609 -3.05398 
-0.0411609 5.46274 0.00908312 
-3.05398 0.00908312 5.75722 
5.26604 0.0391914 3.66907 
0.0391914 5.32641 2.24323 
3.66907 2.24323 5.11095 
6.06846 0.369013 3.38492 
0.369013 5.29525 1.67403 
3.38492 1.67403 4.33969 
4.75348 -0.281972 3.44394 
-0.281972 5.14303 1.9527 
3.44394 1.9527 5.80689 
5.28599 0.0182217 3.6299 
0.0182217 5.27697 2.01382 
3.6299 2.01382 5.14044 
4.23033 -0.0773367 2.34803 
-0.0773367 4.19359 3.55435 
2.34803 3.55435 4.34054 
4.31291 0.0401084 2.56792 
0.0401084 4.21862 3.41896 
2.56792 3.41896 4.23292 
4.50789 0.0324526 2.24118 
0.0324526 4.12112 3.65742 
2.24118 3.65742 4.13545 
4.21843 -0.186967 2.78652 
-0.186967 3.92641 3.22847 
2.78652 3.22847 4.61962 
4.62373 0.0143822 1.60895 
0.0143822 4.77887 -0.22137 
1.60895 -0.22137 4.66455 
3.88857 -0.0308127 1.08091 
-0.0308127 4.72928 -0.0614874 
1.08091 -0.0614874 5.4493 
5.08011 0.0291445 1.29248 
0.0291445 4.58587 -0.147403 
1.29248 -0.147403 4.40117 
4.46345 -0.0800486 1.41442 
-0.0800486 4.78762 -0.0990667 
1.41442 -0.0990667 4.81608 
3.05901 0.047505 -2.24182 
0.047505 3.34136 -0.746309 
-2.24182 -0.746309 3.22204 
3.23786 -0.0423683 -2.20933 
-0.0423683 3.25162 -0.485998 
-2.20933 -0.485998 3.13294 
3.19472 0.0511462 -2.25809 
0.0511462 3.28958 -0.692536 
-2.25809 -0.692536 3.13811 
3.33841 0.00975963 -2.16641 
0.00975963 3.43851 -0.431093 
-2.16641 -0.431093 2.8455 
7.93374 -0.457771 0.357405 
-0.457771 8.91763 -2.87989 
0.357405 -2.87989 9.40554 
8.84415 0.177472 0.117638 
0.177472 8.63393 -2.52699 
0.117638 -2.52699 8.77883 
8.78094 0.147779 0.180685 
0.147779 8.63327 -2.48269 
0.180685 -2.48269 8.8427 
8.68059 -0.24534 0.144605 
-0.24534 9.22536 -1.92106 
0.144605 -1.92106 8.35096 
2.96179 0.211089 2.28489 
0.211089 2.94502 -1.71621 
2.28489 -1.71621 3.35083 
3.24261 -0.0626367 2.21061 
-0.0626367 2.71065 -1.42757 
2.21061 -1.42757 3.30438 
2.93736 0.394524 2.47954 
0.394524 3.02369 -1.74958 
2.47954 -1.74958 3.2966 
2.91575 -0.0533264 2.30628 
-0.0533264 2.78943 -1.68275 
2.30628 -1.68275 3.55247 
5.72813 0.261083 1.61247 
0.261083 4.88935 4.20332 
1.61247 4.20332 7.0161 
6.55017 0.0702369 0.168062 
0.0702369 6.70386 4.57215 
0.168062 4.57215 4.37955 
5.93485 -0.62165 0.521364 
-0.62165 6.03801 3.7246 
0.521364 3.7246 5.66071 
5.7378 -0.142916 0.768964 
-0.142916 6.04725 4.08388 
0.768964 4.08388 5.84853 
5.54471 -0.0480498 1.48404 
-0.0480498 5.77234 2.52171 
1.48404 2.52171 5.86771 
5.8914 0.202454 1.48748 
0.202454 5.76305 2.3743 
1.48748 2.3743 5.5303 
5.66402 -0.209809 1.40172 
-0.209809 5.72379 3.13874 
1.40172 3.13874 5.79695 
5.93995 -0.151735 1.22837 
-0.151735 5.55455 3.00446 
1.22837 3.00446 5.69025 
5.12564 0.0849723 3.03959 
0.0849723 5.05524 3.39982 
3.03959 3.39982 5.93525 
5.0568 -0.298033 2.53216 
-0.298033 4.94471 3.27245 
2.53216 3.27245 6.11461 
5.76337 0.529044 2.67284 
0.529044 5.52451 2.81321 
2.67284 2.81321 4.82826 
5.3232 0.353063 2.37619 
0.353063 5.65429 3.19404 
2.37619 3.19404 5.13863 
8.68695 -0.221681 1.78405 
-0.221681 8.49286 -0.298117 
1.78405 -0.298117 9.30155 
8.88577 -0.135931 1.17043 
-0.135931 8.66031 -0.199268 
1.17043 -0.199268 8.93528 
8.90503 -0.139169 1.11884 
-0.139169 8.90563 -0.32581 
1.11884 -0.32581 8.6707 
8.68876 -0.0383504 1.59136 
-0.0383504 8.89444 -0.199889 
1.59136 -0.199889 8.89815 
7.17316 0.306399 2.53593 
0.306399 6.76876 0.669873 
2.53593 0.669873 4.76002 
6.21843 -0.0167186 3.09863 
-0.0167186 6.44934 0.0255506 
3.09863 0.0255506 6.03416 
6.2537 -0.154144 3.07483 
-0.154144 6.23267 0.0197825 
3.07483 0.0197825 6.21556 
5.78063 0.124839 2.62481 
0.124839 5.63272 -0.155336 
2.62481 -0.155336 7.28858 
4.70284 0.0783739 -1.5051 
0.0783739 5.26272 0.975157 
-1.5051 0.975157 4.96042 
5.01052 0.0643135 -1.58245 
0.0643135 5.1367 0.585232 
-1.58245 0.585232 4.77876 
5.1934 0.0480594 -1.34458 
0.0480594 5.16884 0.797693 
-1.34458 0.797693 4.56374 
5.18864 -0.0519972 -1.3905 
-0.0519972 5.27299 0.547955 
-1.3905 0.547955 4.46435 
5.33773 0.00981135 2.04861 
0.00981135 5.59752 -2.96134 
2.04861 -2.96134 6.16103 
5.58259 0.176226 1.81984 
0.176226 5.82597 -2.39232 
1.81984 -2.39232 5.68771 
5.7956 0.373059 1.69935 
0.373059 5.51917 -2.65484 
1.69935 -2.65484 5.78151 
6.13602 -0.206785 1.85695 
-0.206785 5.73085 -2.0901 
1.85695 -2.0901 5.22941 
4.7919 0.0813735 4.56405 
0.0813735 5.23583 -1.1431 
4.56405 -1.1431 5.84561 
5.11254 0.0913089 3.89538 
0.0913089 5.29112 -0.990067 
3.89538 -0.990067 5.46968 
4.47184 -0.118606 3.35709 
-0.118606 5.14386 -0.558166 
3.35709 -0.558166 6.25765 
6.34097 0.0995656 4.00027 
0.0995656 5.27459 -0.92109 
4.00027 -0.92109 4.25778 
2.46659 -0.0390417 2.46927 
-0.0390417 2.17024 -1.9242 
2.46927 -1.9242 2.21977 
1.89968 0.000419231 2.44463 
0.000419231 2.33078 -1.81579 
2.44463 -1.81579 2.62614 
2.10831 -0.116979 2.4865 
-0.116979 2.37145 -1.79514 
2.4865 -1.79514 2.37685 
1.97944 0.0265723 2.48849 
0.0265723 2.135 -1.39247 
2.48849 -1.39247 2.74217 
7.16844 0.0269867 -0.616697 
0.0269867 6.66847 -1.29929 
-0.616697 -1.29929 7.0412 
6.88261 -0.338107 -0.671054 
-0.338107 7.2298 -1.20839 
-0.671054 -1.20839 6.7657 
6.64762 -0.0432564 -0.151079 
-0.0432564 6.62444 -1.01436 
-0.151079 -1.01436 7.60606 
6.92093 0.100595 -0.610034 
0.100595 6.47864 -1.17076 
-0.610034 -1.17076 7.47854 
5.19728 0.0847266 -0.951654 
0.0847266 4.90201 0.621652 
-0.951654 0.621652 6.18666 
5.56009 0.269446 -1.65971 
0.269446 5.75092 0.961825 
-1.65971 0.961825 4.97494 
5.17746 -0.071223 -1.50524 
-0.071223 5.18686 0.760662 
-1.50524 0.760662 5.92163 
5.19259 -0.00131811 -1.30416 
-0.00131811 5.39871 0.730384 
-1.30416 0.730384 5.69465 
6.22379 -0.0440434 -0.601239 
-0.0440434 6.18601 1.93227 
-0.601239 1.93227 6.24048 
6.40372 0.0250268 -0.533987 
0.0250268 6.38752 1.99589 
-0.533987 1.99589 5.85904 
6.10645 0.00940883 -0.735278 
0.00940883 6.26999 2.06709 
-0.735278 2.06709 6.27385 
5.97096 -0.0676585 -0.884697 
-0.0676585 6.13786 1.88281 
-0.884697 1.88281 6.54146 
9.19156 0.00426278 0.0488439 
0.00426278 9.33771 -2.13256 
0.0488439 -2.13256 9.75029 
9.23765 0.0531262 0.126093 
0.0531262 9.60355 -2.27407 
0.126093 -2.27407 9.43835 
9.09873 -0.0708362 0.19502 
-0.0708362 9.12985 -2.24487 
0.19502 -2.24487 10.051 
9.43476 0.113007 0.181419 
0.113007 9.56137 -2.20711 
0.181419 -2.20711 9.28342 
9.141 -0.0746873 -1.47696 
-0.0746873 9.22214 0.934247 
-1.47696 0.934247 9.92188 
9.37401 -0.0229085 -1.40435 
-0.0229085 9.39811 0.85783 
-1.40435 0.85783 9.51291 
9.23855 -0.118868 -1.34174 
-0.118868 9.1643 0.776678 
-1.34174 0.776678 9.88217 
9.48346 0.0308969 -1.39759 
0.0308969 9.46636 0.864037 
-1.39759 0.864037 9.33521 
1.35112 0.120886 -1.60641 
0.120886 1.0646 2.18122 
-1.60641 2.18122 1.08291 
1.05018 -0.188598 -1.99535 
-0.188598 2.04134 1.94133 
-1.99535 1.94133 0.407109 
1.37994 -0.00112155 -1.59472 
-0.00112155 1.18836 2.20184 
-1.59472 2.20184 0.930325 
0.822488 -0.0705529 -1.43072 
-0.0705529 1.26245 2.09405 
-1.43072 2.09405 1.41369 
1.61378 -0.711621 3.03514 
-0.711621 1.92507 1.26858 
3.03514 1.26858 2.63107 
1.82983 0.197548 2.88104 
0.197548 2.07342 1.30749 
2.88104 1.30749 2.26668 
2.06236 0.12006 2.95201 
0.12006 2.06645 1.2472 
2.95201 1.2472 2.04112 
2.16564 0.0561128 2.59125 
0.0561128 1.93868 1.79214 
2.59125 1.79214 2.0656 
0.647181 0.471431 -1.83863 
0.471431 2.16771 -0.172295 
-1.83863 -0.172295 0.651954 
1.43852 -0.0617791 -1.41748 
-0.0617791 0.77096 -0.313758 
-1.41748 -0.313758 1.25737 
1.22773 -0.0425339 -1.5123 
-0.0425339 1.12427 -0.0747673 
-1.5123 -0.0747673 1.11485 
0.69923 0.307834 -0.85564 
0.307834 1.06101 -0.67382 
-0.85564 -0.67382 1.70661 
5.63504 -0.156098 2.12607 
-0.156098 5.84166 -4.09014 
2.12607 -4.09014 5.51444 
5.63582 0.552338 2.02419 
0.552338 5.09718 -3.85425 
2.02419 -3.85425 6.25814 
5.77646 -0.116249 2.12737 
-0.116249 5.7418 -4.11477 
2.12737 -4.11477 5.47288 
6.11577 -0.412886 1.86976 
-0.412886 5.55928 -3.79028 
1.86976 -3.79028 5.31609 
2.23972 0.0468722 0.466557 
0.0468722 2.42725 -1.57646 
0.466557 -1.57646 1.89288 
2.09422 -0.0133693 0.659897 
-0.0133693 2.20311 -1.70799 
0.659897 -1.70799 2.26251 
1.73821 -0.0271798 0.767542 
-0.0271798 1.95882 -1.70237 
0.767542 -1.70237 2.86282 
2.07929 -0.108184 0.663674 
-0.108184 2.12831 -1.55413 
0.663674 -1.55413 2.35225 
4.96087 0.101232 0.561645 
0.101232 4.99089 -2.6185 
0.561645 -2.6185 4.09848 
4.7888 -0.359921 0.54451 
-0.359921 4.66288 -2.65592 
0.54451 -2.65592 4.59856 
5.03664 -0.012468 0.777606 
-0.012468 4.8267 -2.71203 
0.777606 -2.71203 4.18691 
4.46803 -0.095417 0.686358 
-0.095417 4.64062 -3.0612 
0.686358 -3.0612 4.94159 
1.47243 0.162411 -1.33386 
0.162411 1.73952 0.0837639 
-1.33386 0.0837639 1.68518 
1.28857 0.298076 -1.2318 
0.298076 1.22827 -0.527672 
-1.2318 -0.527672 2.38029 
2.24498 -0.0284899 -1.15944 
-0.0284899 1.37354 0.435832 
-1.15944 0.435832 1.2786 
1.47323 0.23828 -1.32331 
0.23828 1.80059 0.0319376 
-1.32331 0.0319376 1.6233 
6.61947 0.0379614 -0.230013 
0.0379614 6.54333 1.96566 
-0.230013 1.96566 6.52286 
6.1108 -0.153575 -0.413083 
-0.153575 6.75493 1.95007 
-0.413083 1.95007 6.81992 
6.54328 0.0436735 -0.129162 
0.0436735 6.68602 1.82402 
-0.129162 1.82402 6.45636 
6.64379 0.0233225 -0.193892 
0.0233225 6.47277 1.90324 
-0.193892 1.90324 6.5691 
0.673873 0.102764 -0.297102 
0.102764 0.792027 -1.64163 
-0.297102 -1.64163 -0.215841 
0.715979 0.0507594 -0.262207 
0.0507594 0.220325 -1.41004 
-0.262207 -1.41004 0.313755 
0.511353 0.248813 -0.358764 
0.248813 0.45058 -1.46527 
-0.358764 -1.46527 0.288126 
0.393108 0.0129893 -0.286294 
0.0129893 0.311751 -1.44835 
-0.286294 -1.44835 0.545199 
4.58173 -0.273199 3.82315 
-0.273199 5.28532 1.47075 
3.82315 1.47075 6.79677 
6.04517 0.156352 3.50146 
0.156352 5.59179 1.26272 
3.50146 1.26272 5.02686 
5.83933 -0.0443269 4.18991 
-0.0443269 5.20145 1.23597 
4.18991 1.23597 5.62304 
5.64013 0.116412 3.97073 
0.116412 5.4406 1.22642 
3.97073 1.22642 5.58309 
8.58199 -0.322972 3.78694 
-0.322972 8.39289 0.70651 
3.78694 0.70651 9.01316 
8.7335 0.151371 3.57643 
0.151371 8.54962 0.745864 
3.57643 0.745864 8.70493 
8.73 0.127233 3.54686 
0.127233 8.53649 0.801411 
3.54686 0.801411 8.72155 
8.72962 -0.317699 3.13241 
-0.317699 8.79774 1.03928 
3.13241 1.03928 8.46068 
4.08645 0.339464 -2.84869 
0.339464 3.89133 0.415102 
-2.84869 0.415102 3.79578 
4.31272 0.20848 -2.78915 
0.20848 3.83586 0.160819 
-2.78915 0.160819 3.62498 
3.68687 -0.0630369 -2.35346 
-0.0630369 3.76087 0.0187857 
-2.35346 0.0187857 4.32581 
3.78603 -0.181752 -3.02383 
-0.181752 4.65989 0.0123061 
-3.02383 0.0123061 3.32763 
4.93748 -0.0400445 1.63479 
-0.0400445 4.93127 2.64575 
1.63479 2.64575 5.43461 
5.21168 0.0471962 1.51829 
0.0471962 4.98295 2.66882 
1.51829 2.66882 5.10873 
5.76325 0.0769725 1.68957 
0.0769725 5.06253 2.78412 
1.68957 2.78412 4.47758 
5.12523 0.0416871 1.42997 
0.0416871 4.96405 2.79297 
1.42997 2.79297 5.21408 
5.43852 0.203093 2.55737 
0.203093 6.06227 3.9055 
2.55737 3.9055 5.78387 
5.18769 -0.19009 2.04839 
-0.19009 6.21866 3.66399 
2.04839 3.66399 5.87833 
5.76816 -0.318389 2.9015 
-0.318389 5.82189 3.13175 
2.9015 3.13175 5.69461 
5.92671 0.163369 2.85759 
0.163369 6.03601 2.92021 
2.85759 2.92021 5.32195 
1.2315 -0.238145 2.33299 
-0.238145 1.37515 -3.73901 
2.33299 -3.73901 0.868539 
1.04038 0.0872534 2.70954 
0.0872534 0.842816 -4.04842 
2.70954 -4.04842 1.59199 
1.19076 -0.279994 2.50903 
-0.279994 1.49511 -3.53054 
2.50903 -3.53054 0.789314 
1.1026 0.121796 2.75257 
0.121796 1.00547 -4.18128 
2.75257 -4.18128 1.36712 
5.21911 -0.490595 0.327585 
-0.490595 4.84452 -1.93752 
0.327585 -1.93752 6.80174 
5.489 0.154422 -0.187951 
0.154422 5.61517 -1.16443 
-0.187951 -1.16443 5.76119 
5.74417 0.183835 -0.208371 
0.183835 5.5274 -1.18752 
-0.208371 -1.18752 5.5938 
6.72119 -0.164751 -0.436699 
-0.164751 6.10157 -1.34423 
-0.436699 -1.34423 4.04261 
1.87565 0.00415954 3.61694 
0.00415954 1.92041 2.15453 
3.61694 2.15453 1.95072 
2.03131 -0.0386993 3.57524 
-0.0386993 2.12808 2.11797 
3.57524 2.11797 1.58739 
1.88615 0.0263159 3.66823 
0.0263159 2.00339 2.36034 
3.66823 2.36034 1.85724 
1.7735 0.0494019 3.75044 
0.0494019 2.05254 2.4482 
3.75044 2.4482 1.92074 
3.90676 -0.301475 -1.56015 
-0.301475 4.02586 -0.864794 
-1.56015 -0.864794 4.06968 
4.11642 0.178153 -1.30849 
0.178153 4.25882 -1.07586 
-1.30849 -1.07586 3.62706 
3.84447 0.0317035 -2.02678 
0.0317035 4.12621 -0.654058 
-2.02678 -0.654058 4.03162 
4.14356 0.0769384 -2.29008 
0.0769384 3.42968 -0.739525 
-2.29008 -0.739525 4.42906 
3.74251 -0.192712 4.40506 
-0.192712 4.30964 0.766693 
4.40506 0.766693 4.96421 
4.41577 -0.0309298 4.40185 
-0.0309298 4.26507 1.13959 
4.40185 1.13959 4.33552 
4.354 -0.110389 4.59334 
-0.110389 4.65724 0.976276 
4.59334 0.976276 4.00511 
4.6122 0.101953 4.34539 
0.101953 4.30176 1.00975 
4.34539 1.00975 4.1024 
6.20502 -0.00390376 -2.18276 
-0.00390376 6.26145 1.73511 
-2.18276 1.73511 6.1019 
6.01842 -0.000908652 -2.00596 
-0.000908652 6.25121 1.80392 
-2.00596 1.80392 6.29875 
6.11157 0.0230303 -2.1682 
0.0230303 6.26822 1.88155 
-2.1682 1.88155 6.18859 
6.00518 0.00470752 -2.19516 
0.00470752 6.17673 1.80559 
-2.19516 1.80559 6.38647 
0.639216 0.0373732 0.0330948 
0.0373732 0.369788 1.44831 
0.0330948 1.44831 0.315156 
0.576693 0.128764 0.0510376 
0.128764 0.466732 1.4167 
0.0510376 1.4167 0.280735 
0.877423 0.0250534 -0.0207455 
0.0250534 0.887619 1.36139 
-0.0207455 1.36139 -0.440882 
0.399724 0.0494289 0.0893584 
0.0494289 0.410223 1.39771 
0.0893584 1.39771 0.514213 
2.39208 -0.222241 3.34216 
-0.222241 1.94587 0.775655 
3.34216 0.775655 1.83179 
2.2268 -0.042364 2.97258 
-0.042364 2.14951 0.931184 
2.97258 0.931184 1.79342 
1.58804 0.409997 2.91578 
0.409997 2.25025 0.938129 
2.91578 0.938129 2.33144 
1.98691 0.0416941 2.79639 
0.0416941 1.87151 0.503037 
2.79639 0.503037 2.31132 
6.85525 0.0302529 0.824634 
0.0302529 6.83909 1.97942 
0.824634 1.97942 6.92826 
6.89247 -0.0842682 0.835667 
-0.0842682 6.9877 2.05985 
0.835667 2.05985 6.74244 
6.73401 0.0493437 0.984428 
0.0493437 6.73005 2.05951 
0.984428 2.05951 7.15854 
6.66751 0.0102936 0.783327 
0.0102936 6.56508 2.04466 
0.783327 2.04466 7.39002 
6.19871 0.0313469 -1.85292 
0.0313469 6.12261 -2.2745 
-1.85292 -2.2745 6.16237 
6.80247 -0.175523 -1.47576 
-0.175523 6.15916 -2.18881 
-1.47576 -2.18881 5.52206 
6.32537 0.0473161 -1.70498 
0.0473161 6.0062 -2.20028 
-1.70498 -2.20028 6.15212 
6.3653 -0.465021 -2.02827 
-0.465021 5.5996 -1.9854 
-2.02827 -1.9854 6.51879 
4.61293 -0.0980027 3.80035 
-0.0980027 4.61199 -0.914577 
3.80035 -0.914577 4.53213 
4.71579 0.0270318 3.76578 
0.0270318 4.62085 -0.878065 
3.76578 -0.878065 4.42041 
4.42588 -0.211523 3.9182 
-0.211523 4.66405 -0.839406 
3.9182 -0.839406 4.66712 
4.47133 -0.095117 4.07994 
-0.095117 4.46677 -1.16721 
4.07994 -1.16721 4.81896 
9.70792 -0.0188519 -3.36252 
-0.0188519 9.35384 -0.181523 
-3.36252 -0.181523 9.63627 
9.52352 -0.166224 -3.39271 
-0.166224 9.57481 -0.286046 
-3.39271 -0.286046 9.59971 
9.29194 0.0872781 -3.58065 
0.0872781 9.18258 -0.15735 
-3.58065 -0.15735 10.2235 
9.62655 -0.00695933 -3.40792 
-0.00695933 9.67214 -0.175044 
-3.40792 -0.175044 9.39935 
6.91291 -0.101927 4.21531 
-0.101927 6.97625 1.16035 
4.21531 1.16035 6.66242 
6.83202 -0.0902532 3.96163 
-0.0902532 7.01958 1.33503 
3.96163 1.33503 6.69999 
7.2324 -0.253637 4.04104 
-0.253637 7.31742 0.444933 
4.04104 0.444933 6.00176 
6.66121 0.00929655 3.96976 
0.00929655 6.50145 0.89633 
3.96976 0.89633 7.38893 
6.14843 0.43606 -0.462655 
0.43606 6.48896 -1.64666 
-0.462655 -1.64666 5.63538 
6.08535 0.0529417 -0.856072 
0.0529417 6.04336 -1.65058 
-0.856072 -1.65058 6.14406 
5.89877 0.385894 -1.55549 
0.385894 5.87747 -1.82422 
-1.55549 -1.82422 6.49653 
6.01654 -0.0580366 -1.19524 
-0.0580366 6.1867 -1.62433 
-1.19524 -1.62433 6.06953 
5.45991 0.0303229 3.9839 
0.0303229 5.36095 1.83964 
3.9839 1.83964 5.32824 
4.46353 0.179766 3.83603 
0.179766 4.88383 1.32932 
3.83603 1.32932 6.80174 
5.44241 -0.0586528 3.98561 
-0.0586528 5.42802 1.94311 
3.98561 1.94311 5.27866 
5.73528 0.172661 3.11783 
0.172661 6.35339 1.83409 
3.11783 1.83409 4.06043 
8.53082 0.0562843 0.793524 
0.0562843 8.519 3.8145 
0.793524 3.8145 7.82943 
8.1474 0.340564 0.41017 
0.340564 8.69667 3.85386 
0.41017 3.85386 8.03518 
8.03203 0.0487993 0.452839 
0.0487993 8.48981 3.61885 
0.452839 3.61885 8.3574 
8.15993 0.0166141 0.511668 
0.0166141 8.49883 3.83074 
0.511668 3.83074 8.22049 
5.15055 -0.0674685 0.431163 
-0.0674685 5.03846 -1.84248 
0.431163 -1.84248 5.69521 
5.09604 -0.232936 0.656683 
-0.232936 5.24682 -1.54707 
0.656683 -1.54707 5.54135 
5.12721 -0.10361 0.546586 
-0.10361 5.39705 -1.55135 
0.546586 -1.55135 5.35995 
5.50665 -0.0206533 0.688192 
-0.0206533 5.70531 -1.32793 
0.688192 -1.32793 4.67225 
2.68625 0.240672 3.79003 
0.240672 2.64478 2.48356 
3.79003 2.48356 2.69233 
3.00803 0.309706 3.9987 
0.309706 2.6771 2.58497 
3.9987 2.58497 2.33822 
2.05312 -0.8721 3.80369 
-0.8721 2.48906 2.18771 
3.80369 2.18771 3.48117 
2.93085 0.514651 3.17001 
0.514651 2.82919 1.9641 
3.17001 1.9641 2.26332 
6.9992 -0.0522482 4.11332 
-0.0522482 6.64975 -0.654797 
4.11332 -0.654797 6.82381 
7.10332 -0.597439 4.19792 
-0.597439 6.60679 -0.0826443 
4.19792 -0.0826443 6.76265 
6.51143 -0.225282 4.29186 
-0.225282 6.8751 -0.225132 
4.29186 -0.225132 7.08623 
6.70745 0.00677 3.98044 
0.00677 6.72175 -0.752434 
3.98044 -0.752434 7.04356 
5.10232 0.0938893 1.42255 
0.0938893 5.38035 3.70784 
1.42255 3.70784 4.01477 
4.70786 -0.0089672 0.533734 
-0.0089672 4.19342 3.96131 
0.533734 3.96131 5.59617 
5.0149 -0.259922 0.841545 
-0.259922 5.04714 4.10006 
0.841545 4.10006 4.43541 
5.09198 -0.144291 0.902783 
-0.144291 4.88237 3.98378 
0.902783 3.98378 4.52311 
3.13525 0.124128 2.18015 
0.124128 2.74679 -3.67833 
2.18015 -3.67833 3.1729 
3.15377 -0.181549 2.99743 
-0.181549 3.0047 -2.95466 
2.99743 -2.95466 2.89646 
3.40328 0.0505497 2.52441 
0.0505497 2.61019 -2.99235 
2.52441 -2.99235 3.04146 
3.18111 -0.272505 2.11885 
-0.272505 2.7102 -3.10073 
2.11885 -3.10073 3.16363 
8.86852 0.00434395 -0.725343 
0.00434395 8.70923 -3.04803 
-0.725343 -3.04803 8.8854 
8.23089 -0.604456 -0.211907 
-0.604456 8.70909 -3.43366 
-0.211907 -3.43366 9.52317 
8.81216 0.123912 -0.599951 
0.123912 8.71722 -3.02315 
-0.599951 -3.02315 8.93377 
9.00419 -0.641304 -1.21341 
-0.641304 9.20131 -3.0359 
-1.21341 -3.0359 8.25765 
2.01026 -0.211635 0.235059 
-0.211635 2.06538 -1.8411 
0.235059 -1.8411 1.79079 
1.83849 -0.115693 0.309546 
-0.115693 2.01615 -1.87415 
0.309546 -1.87415 2.0118 
1.6759 0.17177 0.403864 
0.17177 1.86691 -1.98173 
0.403864 -1.98173 2.32362 
1.83778 -0.0473983 0.495079 
-0.0473983 2.00181 -1.85395 
0.495079 -1.85395 2.02684 
5.08884 0.170931 2.26855 
0.170931 4.84139 -2.30759 
2.26855 -2.30759 4.95114 
4.57173 -0.131069 2.004 
-0.131069 5.22452 -2.48881 
2.004 -2.48881 5.08511 
5.18169 -0.108194 2.08926 
-0.108194 4.95603 -1.94184 
2.08926 -1.94184 4.74364 
5.12448 -0.0523817 2.24501 
-0.0523817 5.10624 -2.2218 
2.24501 -2.2218 4.65064 
1.17091 -0.0327325 -2.27458 
-0.0327325 1.30751 -1.23618 
-2.27458 -1.23618 1.00365 
1.30315 -0.385866 -1.97356 
-0.385866 1.25379 -1.16301 
-1.97356 -1.16301 0.925128 
1.15137 -0.0477221 -2.04652 
-0.0477221 1.12089 -1.198 
-2.04652 -1.198 1.2098 
1.21731 0.0201107 -2.33891 
0.0201107 1.04592 -1.27151 
-2.33891 -1.27151 1.21884 
8.6152 -0.0569158 2.04851 
-0.0569158 8.75113 -3.37916 
2.04851 -3.37916 8.69276 
8.76672 0.0306656 2.00399 
0.0306656 8.69866 -3.27449 
2.00399 -3.27449 8.5937 
8.75346 0.164711 1.91879 
0.164711 8.27746 -3.39571 
1.91879 -3.39571 9.02816 
8.68794 0.0365374 2.00013 
0.0365374 8.66686 -3.35737 
2.00013 -3.35737 8.70429 
7.08953 0.0714614 -3.43193 
0.0714614 6.98473 3.29749 
-3.43193 3.29749 4.84134 
5.64742 0.126343 -3.40413 
0.126343 5.12575 2.73056 
-3.40413 2.73056 8.14244 
6.30473 0.0491507 -2.77479 
0.0491507 6.63231 2.49678 
-2.77479 2.49678 5.97857 
6.38756 -0.325795 -2.69865 
-0.325795 6.06222 2.69651 
-2.69865 2.69651 6.46582 
7.44453 0.000232049 -0.103453 
0.000232049 7.41202 -4.08054 
-0.103453 -4.08054 7.51883 
7.41201 0.0139348 0.115271 
0.0139348 7.23544 -4.28911 
0.115271 -4.28911 7.72794 
7.41223 -0.0703913 -0.247339 
-0.0703913 7.22442 -4.25796 
-0.247339 -4.25796 7.73873 
7.52623 -0.019226 -0.0798264 
-0.019226 7.57337 -4.13091 
-0.0798264 -4.13091 7.27578 
8.26751 0.0908227 -1.30554 
0.0908227 8.22675 2.85384 
-1.30554 2.85384 7.62317 
8.10766 0.0427074 -1.37023 
0.0427074 8.03388 2.85784 
-1.37023 2.85784 7.97589 
7.97985 -0.125181 -1.44884 
-0.125181 7.99444 2.85689 
-1.44884 2.85689 8.14314 
8.09467 0.0788094 -1.19284 
0.0788094 8.21342 2.60283 
-1.19284 2.60283 7.80934 
4.91063 -0.210782 -1.30846 
-0.210782 5.04094 2.0862 
-1.30846 2.0862 5.02992 
4.90397 -0.0406756 -1.15353 
-0.0406756 4.8346 2.21612 
-1.15353 2.21612 5.24292 
5.17659 -0.184254 -1.27001 
-0.184254 4.87093 1.99757 
-1.27001 1.99757 4.93397 
5.70006 0.0190972 -1.35025 
0.0190972 5.41982 2.28374 
-1.35025 2.28374 3.86161 
4.36302 0.340808 0.778298 
0.340808 4.76901 3.0398 
0.778298 3.0398 4.90487 
4.83861 -0.0277086 0.536794 
-0.0277086 4.60643 3.122 
0.536794 3.122 4.59186 
4.82856 0.097892 0.831827 
0.097892 4.70116 3.55823 
0.831827 3.55823 4.50718 
4.73716 0.0592934 0.685529 
0.0592934 4.57113 3.11593 
0.685529 3.11593 4.72862 
7.10016 -0.0849657 2.96822 
-0.0849657 7.11745 0.643176 
2.96822 0.643176 6.92815 
7.30604 0.125713 2.55425 
0.125713 7.25963 0.699661 
2.55425 0.699661 6.58009 
7.70331 0.164316 3.6454 
0.164316 7.62278 0.311122 
3.6454 0.311122 5.81967 
6.0366 -0.196231 3.02992 
-0.196231 6.88357 0.460799 
3.02992 0.460799 8.22559 
3.27949 0.0312655 4.73129 
0.0312655 3.36353 -0.617095 
4.73129 -0.617095 3.81483 
3.40405 0.0369978 4.55261 
0.0369978 3.44973 -0.54327 
4.55261 -0.54327 3.60406 
4.50404 0.0588703 4.35832 
0.0588703 3.29891 -0.755526 
4.35832 -0.755526 2.65489 
3.07573 0.0504068 4.4084 
0.0504068 3.51377 -0.523702 
4.4084 -0.523702 3.86835 
9.07286 -0.0568965 -0.706255 
-0.0568965 8.95701 1.28862 
-0.706255 1.28862 10.526 
9.3629 -0.159883 -0.611599 
-0.159883 9.59908 1.02793 
-0.611599 1.02793 9.59386 
9.32413 0.0529018 -0.715131 
0.0529018 9.69327 0.969017 
-0.715131 0.969017 9.53844 
9.61928 0.0277156 -0.670696 
0.0277156 9.65302 1.12538 
-0.670696 1.12538 9.28354 
2.35569 -0.0131204 3.02242 
-0.0131204 3.14084 0.70769 
3.02242 0.70769 2.96985 
2.40581 -0.361604 2.27375 
-0.361604 3.24302 0.732034 
2.27375 0.732034 2.81754 
2.46155 -0.0482714 3.19343 
-0.0482714 2.69297 0.621278 
3.19343 0.621278 3.31185 
3.45015 0.0470042 2.5452 
0.0470042 2.83556 1.01573 
2.5452 1.01573 2.18066 
2.23817 0.307006 2.36365 
0.307006 3.39162 4.1006 
2.36365 4.1006 1.78169 
2.40677 -0.0467448 2.22828 
-0.0467448 2.33491 4.02352 
2.22828 4.02352 2.66981 
2.77776 -0.196018 2.57069 
-0.196018 1.6586 3.92193 
2.57069 3.92193 2.97513 
2.80253 -0.301669 2.61847 
-0.301669 2.5841 2.96671 
2.61847 2.96671 2.02486 
1.97423 -0.296631 -1.51597 
-0.296631 2.11878 0.0353396 
-1.51597 0.0353396 2.27512 
2.04564 -0.519083 -1.07055 
-0.519083 1.92944 0.357487 
-1.07055 0.357487 2.39305 
2.00844 -0.158496 -1.62033 
-0.158496 1.98693 0.155738 
-1.62033 0.155738 2.37276 
2.21175 0.105772 -1.07985 
0.105772 2.15767 0.389139 
-1.07985 0.389139 1.99871 
1.73643 0.110582 3.12661 
0.110582 1.65369 2.08346 
3.12661 2.08346 1.11502 
1.52119 0.200439 2.89583 
0.200439 1.25007 2.23757 
2.89583 2.23757 1.73388 
1.58473 -0.115634 2.99403 
-0.115634 1.57666 2.13687 
2.99403 2.13687 1.34374 
1.53378 -0.0338199 2.98746 
-0.0338199 1.50823 2.21879 
2.98746 2.21879 1.46313 
2.99226 -0.188573 -0.799033 
-0.188573 3.00531 -1.66638 
-0.799033 -1.66638 3.29681 
3.60661 0.0196032 -0.572497 
0.0196032 3.3508 -2.42562 
-0.572497 -2.42562 2.33697 
2.8614 0.0856598 -0.582141 
0.0856598 3.42926 -1.96141 
-0.582141 -1.96141 3.00373 
3.18149 0.0500887 -0.774486 
0.0500887 3.31795 -1.94361 
-0.774486 -1.94361 2.79494 
7.94595 0.0448643 -0.381782 
0.0448643 7.84466 -0.110319 
-0.381782 -0.110319 8.39386 
8.33217 0.106172 0.146136 
0.106172 8.54937 0.0807112 
0.146136 0.0807112 7.30293 
7.90948 -0.0847597 -0.0676833 
-0.0847597 8.03585 -0.047516 
-0.0676833 -0.047516 8.23914 
7.84571 0.0147716 -0.133346 
0.0147716 8.32829 0.0414477 
-0.133346 0.0414477 8.01047 
7.96917 -0.0232346 -0.496187 
-0.0232346 7.92654 2.86319 
-0.496187 2.86319 8.26957 
8.41143 0.0042158 -0.658462 
0.0042158 8.29085 3.13421 
-0.658462 3.13421 7.46299 
8.14709 -0.0290718 -0.54307 
-0.0290718 8.11892 2.91669 
-0.54307 2.91669 7.89926 
8.11087 -0.0383769 -0.556372 
-0.0383769 8.06528 3.04016 
-0.556372 3.04016 7.98912 
7.35025 -0.332607 0.910676 
-0.332607 7.59748 -1.4844 
0.910676 -1.4844 7.32269 
7.52478 -0.337534 0.705335 
-0.337534 7.47829 -1.34819 
0.705335 -1.34819 7.26735 
7.56907 -0.183025 0.253858 
-0.183025 7.77702 -1.12959 
0.253858 -1.12959 6.92433 
7.39519 -0.263756 1.40838 
-0.263756 7.25757 -1.41967 
1.40838 -1.41967 7.61767 
4.64093 -0.0446018 -1.42549 
-0.0446018 5.00115 0.764048 
-1.42549 0.764048 5.45377 
5.24558 -0.0285984 -1.11459 
-0.0285984 5.09486 0.809905 
-1.11459 0.809905 4.75541 
5.17681 -0.0568619 -1.32398 
-0.0568619 5.14795 0.560922 
-1.32398 0.560922 4.77108 
5.51594 0.281947 -2.02094 
0.281947 5.21043 0.952469 
-2.02094 0.952469 4.36948 
8.25518 0.235892 -3.0648 
0.235892 8.2557 2.58488 
-3.0648 2.58488 8.5469 
8.3454 -0.182148 -3.13128 
-0.182148 8.21236 2.85092 
-3.13128 2.85092 8.50002 
8.4009 0.1208 -3.07367 
0.1208 8.30941 2.46191 
-3.07367 2.46191 8.34747 
8.29116 0.136112 -3.40778 
0.136112 8.47525 2.46554 
-3.40778 2.46554 8.29137 
2.82919 -0.00119187 -2.31145 
-0.00119187 2.85198 -0.160939 
-2.31145 -0.160939 2.96255 
2.96413 -0.0324306 -2.2679 
-0.0324306 2.81515 -0.213549 
-2.2679 -0.213549 2.86443 
3.07126 0.0722377 -2.13631 
0.0722377 3.03495 -0.39367 
-2.13631 -0.39367 2.53751 
3.09093 0.0207013 -2.21595 
0.0207013 2.88655 -0.176451 
-2.21595 -0.176451 2.66624 
6.79497 -0.240979 2.28067 
-0.240979 6.54296 -0.791308 
2.28067 -0.791308 6.77687 
6.50668 -0.138839 2.48915 
-0.138839 6.63315 -0.940614 
2.48915 -0.940614 6.97496 
6.85269 0.318668 2.26512 
0.318668 6.7012 -0.735436 
2.26512 -0.735436 6.56091 
6.46115 -0.141225 2.21902 
-0.141225 6.42632 -0.969353 
2.21902 -0.969353 7.22732 
6.40341 -0.00331564 -2.16862 
-0.00331564 6.36576 2.20605 
-2.16862 2.20605 6.26477 
6.31056 0.00535222 -2.12194 
0.00535222 6.30961 2.04823 
-2.12194 2.04823 6.41377 
6.27723 -0.00520972 -2.04223 
-0.00520972 6.28044 2.20216 
-2.04223 2.20216 6.47627 
6.09967 -0.0324227 -2.15141 
-0.0324227 6.27357 2.19513 
-2.15141 2.19513 6.66069 
7.85776 -0.0713457 3.69417 
-0.0713457 7.35963 1.74005 
3.69417 1.74005 6.89262 
6.86488 -0.0270975 4.37698 
-0.0270975 7.36062 0.418266 
4.37698 0.418266 7.88451 
6.8777 0.534853 3.37582 
0.534853 7.49142 0.979988 
3.37582 0.979988 7.7409 
7.05808 0.0960463 3.77503 
0.0960463 7.70139 1.0059 
3.77503 1.0059 7.35054 
6.58794 0.114688 -0.577778 
0.114688 6.41958 -1.38902 
-0.577778 -1.38902 6.29818 
6.40888 -0.173983 -0.175834 
-0.173983 6.41878 -1.15512 
-0.175834 -1.15512 6.47804 
6.43484 -0.0452984 -0.254648 
-0.0452984 6.35721 -1.17924 
-0.254648 -1.17924 6.51365 
6.36393 0.420806 -0.354476 
0.420806 6.17746 -0.95924 
-0.354476 -0.95924 6.76431 
8.62107 0.0543857 1.72108 
0.0543857 8.54505 -0.243509 
1.72108 -0.243509 8.73343 
8.64543 0.024546 1.92416 
0.024546 8.68175 -0.210421 
1.92416 -0.210421 8.57236 
8.57805 0.196144 2.02036 
0.196144 8.49052 -0.134393 
2.02036 -0.134393 8.83097 
8.61464 0.281846 1.54741 
0.281846 8.8276 -0.323268 
1.54741 -0.323268 8.4573 
4.67385 -0.110977 3.27414 
-0.110977 4.69514 -2.13439 
3.27414 -2.13439 3.8425 
4.41193 -0.266316 3.25617 
-0.266316 4.62821 -2.55026 
3.25617 -2.55026 4.17135 
4.28508 -0.0824958 3.42218 
-0.0824958 4.60523 -2.43615 
3.42218 -2.43615 4.32118 
3.98751 -0.234332 3.69876 
-0.234332 4.75284 -2.45301 
3.69876 -2.45301 4.47114 
9.24835 0.292541 3.13869 
0.292541 9.7342 -2.25952 
3.13869 -2.25952 9.67217 
9.70973 0.149173 2.95027 
0.149173 9.61245 -2.3389 
2.95027 -2.3389 9.33254 
9.058 0.0119009 3.24721 
0.0119009 9.03437 -1.83051 
3.24721 -1.83051 10.5623 
9.86501 0.090523 3.29577 
0.090523 9.53178 -2.2439 
3.29577 -2.2439 9.25792 
3.3987 -0.0988461 1.92462 
-0.0988461 3.33679 4.34804 
1.92462 4.34804 0.987698 
1.43329 -0.204435 2.20854 
-0.204435 1.88984 3.69479 
2.20854 3.69479 4.40006 
2.78613 0.198228 1.45045 
0.198228 2.77004 3.15124 
1.45045 3.15124 2.16702 
2.43768 0.118292 2.06008 
0.118292 2.84384 2.98867 
2.06008 2.98867 2.44167 
8.44185 0.245602 -1.18863 
0.245602 8.67394 -3.45053 
-1.18863 -3.45053 9.32916 
8.81773 0.0246384 -0.901671 
0.0246384 8.66956 -3.16777 
-0.901671 -3.16777 8.95767 
8.91047 -0.0882112 -1.02891 
-0.0882112 8.62442 -3.06413 
-1.02891 -3.06413 8.91007 
8.53004 0.274586 -0.613269 
0.274586 9.49865 -2.78347 
-0.613269 -2.78347 8.41628 
8.72119 -0.0936992 -1.60221 
-0.0936992 8.28352 0.761699 
-1.60221 0.761699 9.07316 
8.74671 0.0446842 -1.88381 
0.0446842 8.69046 1.04941 
-1.88381 1.04941 8.6407 
8.59938 -0.0333273 -1.94025 
-0.0333273 8.66228 0.968617 
-1.94025 0.968617 8.81622 
8.8563 0.0249273 -1.65199 
0.0249273 8.49741 0.771047 
-1.65199 0.771047 8.72416 
8.54095 0.0495599 -0.534718 
0.0495599 8.56911 2.61125 
-0.534718 2.61125 9.18963 
8.63444 -0.0897155 -0.557292 
-0.0897155 8.65517 2.74674 
-0.557292 2.74674 9.01008 
8.90943 0.1618 -0.516218 
0.1618 8.75941 2.76932 
-0.516218 2.76932 8.63086 
8.73795 -0.0642411 -0.498403 
-0.0642411 8.71093 2.73321 
-0.498403 2.73321 8.85081 
4.96736 -0.00925007 0.884029 
-0.00925007 5.02066 4.25615 
0.884029 4.25615 5.84844 
4.88455 0.0983975 0.863232 
0.0983975 5.25108 4.26157 
0.863232 4.26157 5.70083 
4.80395 0.0162802 0.698476 
0.0162802 5.77351 3.80503 
0.698476 3.80503 5.259 
5.06182 0.123534 1.18007 
0.123534 5.51251 3.74961 
1.18007 3.74961 5.26213 
1.89529 0.0888233 1.89067 
0.0888233 1.77992 3.61751 
1.89067 3.61751 1.75055 
1.52353 0.115804 1.97175 
0.115804 1.60845 3.7074 
1.97175 3.7074 2.29378 
1.94147 0.172 1.61425 
0.172 2.17428 3.59882 
1.61425 3.59882 1.31001 
1.86832 0.0231019 1.93872 
0.0231019 1.84248 3.76528 
1.93872 3.76528 1.71496 
0.42637 -0.0501472 -0.139067 
-0.0501472 0.315018 2.13093 
-0.139067 2.13093 0.506433 
0.924532 0.00630099 -0.413614 
0.00630099 0.734929 2.20355 
-0.413614 2.20355 -0.41164 
0.297695 -0.156329 -0.166344 
-0.156329 0.597523 2.14692 
-0.166344 2.14692 0.352603 
0.418392 -0.0242106 -0.165995 
-0.0242106 0.267075 1.98718 
-0.165995 1.98718 0.562353 
1.10259 -0.0620103 -1.90469 
-0.0620103 1.16234 0.829761 
-1.90469 0.829761 1.09394 
1.86212 0.309374 -1.70176 
0.309374 1.15551 0.430135 
-1.70176 0.430135 0.341249 
1.14725 0.448126 -2.11883 
0.448126 0.555686 0.674955 
-2.11883 0.674955 1.65593 
1.22186 -0.0488362 -1.83841 
-0.0488362 1.09886 0.809585 
-1.83841 0.809585 1.03816 
2.15623 -0.133781 -1.81728 
-0.133781 2.40453 2.85075 
-1.81728 2.85075 1.46294 
1.47245 0.0199918 -2.23105 
0.0199918 1.6192 2.22093 
-2.23105 2.22093 2.93205 
1.9817 0.117495 -2.06441 
0.117495 2.04446 2.42035 
-2.06441 2.42035 1.99755 
1.9344 0.135162 -2.12786 
0.135162 2.11309 2.47066 
-2.12786 2.47066 1.97621 
8.182 0.337616 1.97388 
0.337616 8.57507 -1.04043 
1.97388 -1.04043 9.11123 
8.418 0.389174 1.1414 
0.389174 9.18612 -1.21184 
1.1414 -1.21184 8.26418 
8.65442 -0.0242654 1.47301 
-0.0242654 8.60436 -1.33506 
1.47301 -1.33506 8.60953 
8.59045 -0.0635083 1.62136 
-0.0635083 8.64966 -1.27357 
1.62136 -1.27357 8.62819 
3.79955 -0.0509114 -0.350002 
-0.0509114 3.69585 -1.9126 
-0.350002 -1.9126 3.90653 
3.896 -0.00119773 -0.428308 
-0.00119773 3.72802 -1.94852 
-0.428308 -1.94852 3.77791 
3.31654 1.39106e-05 -0.519742 
1.39106e-05 3.94265 -1.94304 
-0.519742 -1.94304 4.14274 
3.81868 -0.00628772 -0.411686 
-0.00628772 3.91073 -1.96625 
-0.411686 -1.96625 3.67251 
8.29688 -0.102246 0.161268 
-0.102246 8.89716 -0.115271 
0.161268 -0.115271 9.15082 
8.86117 0.0853826 0.190453 
0.0853826 8.64723 0.0219084 
0.190453 0.0219084 8.83645 
8.85541 0.0552023 0.175848 
0.0552023 8.62157 -0.00470528 
0.175848 -0.00470528 8.86787 
8.62803 -0.143536 0.192215 
-0.143536 9.12003 0.344677 
0.192215 0.344677 8.59679 
1.19097 0.00513695 1.94737 
0.00513695 1.23046 -3.60303 
1.94737 -3.60303 0.987774 
1.26864 -0.00728372 1.89522 
-0.00728372 1.36479 -3.59085 
1.89522 -3.59085 0.775776 
1.32536 -0.0679727 2.00794 
-0.0679727 1.33102 -3.55219 
2.00794 -3.55219 0.752828 
1.13472 -0.0192272 1.9975 
-0.0192272 1.16257 -3.76864 
1.9975 -3.76864 1.11191 
8.0456 -0.00324783 2.26878 
-0.00324783 8.03012 -3.81103 
2.26878 -3.81103 8.21189 
8.29296 0.0715233 1.84393 
0.0715233 8.18375 -3.45295 
1.84393 -3.45295 7.8109 
8.0719 0.092 2.28195 
0.092 8.03061 -3.71183 
2.28195 -3.71183 8.18511 
8.19993 0.0813146 2.14432 
0.0813146 7.98872 -3.73446 
2.14432 -3.73446 8.09897 
4.50023 -0.0371722 2.30512 
-0.0371722 4.54496 2.84662 
2.30512 2.84662 4.32052 
4.31189 -0.0157103 2.52884 
-0.0157103 4.33103 2.77298 
2.52884 2.77298 4.72278 
4.54567 -0.111051 2.19298 
-0.111051 4.41192 2.81067 
2.19298 2.81067 4.40812 
4.30974 -0.0500305 2.23617 
-0.0500305 4.38074 2.95084 
2.23617 2.95084 4.67522 
3.67478 -0.119573 3.5471 
-0.119573 3.30683 0.775269 
3.5471 0.775269 3.37165 
3.38233 0.339854 3.41618 
0.339854 3.36234 0.595099 
3.41618 0.595099 3.60859 
3.66636 0.0679939 4.01165 
0.0679939 3.72158 0.943376 
4.01165 0.943376 2.96533 
3.66472 -0.0283191 3.59725 
-0.0283191 3.51868 0.700156 
3.59725 0.700156 3.16985 
3.56742 -0.0691238 -1.25543 
-0.0691238 3.32759 1.4103 
-1.25543 1.4103 3.31074 
2.82463 -0.094898 -1.08602 
-0.094898 3.51343 1.62341 
-1.08602 1.62341 3.8677 
3.62624 0.0424773 -1.25591 
0.0424773 3.35691 1.24249 
-1.25591 1.24249 3.22261 
3.41322 0.0348047 -1.37298 
0.0348047 3.2698 1.24546 
-1.37298 1.24546 3.52273 
6.60095 -0.12713 -2.00208 
-0.12713 6.51152 -2.30477 
-2.00208 -2.30477 6.76755 
6.5815 0.0417733 -2.12649 
0.0417733 6.34729 -2.21792 
-2.12649 -2.21792 6.95124 
6.5212 -0.0836333 -2.19526 
-0.0836333 6.60713 -2.30416 
-2.19526 -2.30416 6.7517 
6.84268 0.249041 -2.00453 
0.249041 5.64628 -1.68596 
-2.00453 -1.68596 7.39106 
6.25162 0.0273123 4.21806 
0.0273123 6.30777 -0.430627 
4.21806 -0.430627 6.72863 
6.6472 -0.131275 4.16509 
-0.131275 6.5349 -0.267887 
4.16509 -0.267887 6.10592 
6.32597 0.0181597 4.09586 
0.0181597 6.28664 -0.496511 
4.09586 -0.496511 6.67542 
6.20627 -0.21041 3.98951 
-0.21041 6.0681 0.0615312 
3.98951 0.0615312 7.01365 
8.64566 0.0586352 -2.74262 
0.0586352 8.67107 -0.391739 
-2.74262 -0.391739 6.99581 
8.04828 -0.0803871 -2.80102 
-0.0803871 8.14428 -0.711697 
-2.80102 -0.711697 8.11998 
7.92613 -0.079994 -3.25111 
-0.079994 7.78418 -0.839642 
-3.25111 -0.839642 8.60222 
8.03235 -0.0497015 -2.81233 
-0.0497015 8.19427 -0.655014 
-2.81233 -0.655014 8.08592 
8.77637 0.00945167 -0.97885 
0.00945167 8.32365 2.22406 
-0.97885 2.22406 8.82629 
9.13941 0.140462 -1.35315 
0.140462 8.28577 2.55274 
-1.35315 2.55274 8.50113 
8.93692 0.0767772 -1.45082 
0.0767772 8.25467 2.52587 
-1.45082 2.52587 8.73472 
8.72615 0.0851014 -1.05918 
0.0851014 8.61519 2.28722 
-1.05918 2.28722 8.58497 
1.83124 0.0630123 -1.53111 
0.0630123 2.21312 -1.42506 
-1.53111 -1.42506 1.64917 
1.78702 0.064904 -1.72064 
0.064904 1.884 -1.33479 
-1.72064 -1.33479 2.02251 
1.78037 0.0732989 -2.20248 
0.0732989 1.60469 -1.48109 
-2.20248 -1.48109 2.30847 
1.95764 -0.182455 -1.9263 
-0.182455 1.84226 -1.51141 
-1.9263 -1.51141 1.89362 
3.19112 0.277151 -0.895425 
0.277151 3.22853 -4.11704 
-0.895425 -4.11704 3.23006 
3.56401 0.00659239 -0.592843 
0.00659239 3.65891 -4.07617 
-0.592843 -4.07617 2.4268 
3.27249 -0.100496 -1.09533 
-0.100496 2.846 -3.85237 
-1.09533 -3.85237 3.53122 
3.20725 0.192756 -0.976336 
0.192756 3.52193 -3.99676 
-0.976336 -3.99676 2.92054 
8.86425 -0.0727981 0.08652 
-0.0727981 7.83812 -2.30656 
0.08652 -2.30656 9.14403 
8.90208 -0.0213958 -0.247632 
-0.0213958 8.61963 -1.9776 
-0.247632 -1.9776 8.32468 
8.41976 -0.0987227 -0.267869 
-0.0987227 8.81917 -2.22143 
-0.267869 -2.22143 8.60745 
8.78027 -0.0321045 0.0488216 
-0.0321045 8.46653 -2.23089 
0.0488216 -2.23089 8.59959 
7.89163 -0.140007 0.116341 
-0.140007 8.05067 -3.74327 
0.116341 -3.74327 7.98114 
7.92626 0.138652 0.180817 
0.138652 8.16436 -3.44221 
0.180817 -3.44221 7.83282 
8.05475 0.063864 0.0638553 
0.063864 8.064 -3.65318 
0.0638553 -3.65318 7.8047 
8.11887 0.0277469 -0.108503 
0.0277469 8.12051 -3.22899 
-0.108503 -3.22899 7.68406 
9.33735 -0.00520897 3.0373 
-0.00520897 9.38051 0.954541 
3.0373 0.954541 9.41469 
9.08731 0.0545617 3.10582 
0.0545617 9.4542 0.995329 
3.10582 0.995329 9.59105 
8.9136 -0.0325534 3.10094 
-0.0325534 8.94995 0.920183 
3.10094 0.920183 10.269 
9.42222 -0.0496965 2.96119 
-0.0496965 9.46851 1.04557 
2.96119 1.04557 9.24182 
3.54872 0.00173582 0.558139 
0.00173582 3.60513 -2.2651 
0.558139 -2.2651 4.43059 
3.90054 0.0394969 0.718569 
0.0394969 3.57891 -2.00938 
0.718569 -2.00938 4.10499 
4.0154 0.0671538 0.588463 
0.0671538 3.61029 -1.97767 
0.588463 -1.97767 3.95874 
3.97633 -0.151904 0.769368 
-0.151904 3.98518 -1.73811 
0.769368 -1.73811 3.62293 
2.58015 -0.0159522 2.34589 
-0.0159522 3.17774 0.344189 
2.34589 0.344189 3.42293 
3.27155 -0.0173773 2.65616 
-0.0173773 2.9633 0.199647 
2.65616 0.199647 2.94597 
2.97085 0.0324746 2.65715 
0.0324746 2.9195 0.355207 
2.65715 0.355207 3.29046 
3.28698 0.0955934 2.58576 
0.0955934 3.13257 0.455368 
2.58576 0.455368 2.76127 
3.95512 0.445982 2.69756 
0.445982 4.10246 3.29053 
2.69756 3.29053 2.64157 
3.37016 -0.0424368 3.05969 
-0.0424368 3.38837 3.84996 
3.05969 3.84996 3.94063 
3.4243 0.047541 2.68179 
0.047541 3.73766 3.68728 
2.68179 3.68728 3.5372 
3.34496 -0.213592 2.64463 
-0.213592 3.39415 3.66554 
2.64463 3.66554 3.96005 
4.074 -0.0363902 -0.665645 
-0.0363902 3.95555 -4.22791 
-0.665645 -4.22791 4.07005 
3.94885 0.350682 -0.552677 
0.350682 4.43994 -4.09856 
-0.552677 -4.09856 3.71082 
4.0458 -0.050644 -0.545322 
-0.050644 3.87937 -4.17102 
-0.545322 -4.17102 4.17444 
3.76318 0.0642373 -0.603742 
0.0642373 3.92082 -4.03691 
-0.603742 -4.03691 4.4156 
4.87016 0.214714 -0.496077 
0.214714 4.54746 -2.98248 
-0.496077 -2.98248 4.52433 
4.79236 0.300143 -0.610662 
0.300143 4.7996 -2.8563 
-0.610662 -2.8563 4.35 
4.84094 0.0950246 -0.419157 
0.0950246 4.84248 -2.48675 
-0.419157 -2.48675 4.25854 
4.30749 0.0874527 -0.483312 
0.0874527 4.49068 -3.43353 
-0.483312 -3.43353 5.1438 
1.62613 -0.0822095 2.50483 
-0.0822095 1.8046 -1.17622 
2.50483 -1.17622 1.21387 
1.10396 -0.109475 2.34839 
-0.109475 1.76493 -1.49876 
2.34839 -1.49876 1.7757 
1.51374 -0.0436239 2.2786 
-0.0436239 1.69885 -1.40324 
2.2786 -1.40324 1.432 
1.51453 0.0681393 2.35039 
0.0681393 1.59869 -1.26302 
2.35039 -1.26302 1.53136 
1.6079 0.069306 2.93053 
0.069306 1.32873 -1.17553 
2.93053 -1.17553 1.35172 
0.961351 -0.352603 2.71487 
-0.352603 1.59542 -1.30946 
2.71487 -1.30946 1.73158 
1.4243 -0.200111 2.90442 
-0.200111 1.75408 -1.0939 
2.90442 -1.0939 1.10997 
1.43141 0.112973 3.1701 
0.112973 1.37414 -1.10921 
3.1701 -1.10921 1.48279 
2.19681 0.0208857 -1.85024 
0.0208857 2.19858 -1.9414 
-1.85024 -1.9414 2.07833 
2.0237 0.0812431 -2.00416 
0.0812431 2.06713 -1.89587 
-2.00416 -1.89587 2.38289 
2.18861 0.00116497 -1.75778 
0.00116497 1.91767 -1.97507 
-1.75778 -1.97507 2.36743 
2.10116 0.0440097 -1.84061 
0.0440097 2.05706 -1.81201 
-1.84061 -1.81201 2.3155 
3.51461 -0.101876 -0.403192 
-0.101876 2.89763 1.40221 
-0.403192 1.40221 3.5184 
2.90835 -0.181449 -0.23537 
-0.181449 3.37744 1.59363 
-0.23537 1.59363 3.64486 
3.53567 0.0272885 -0.340081 
0.0272885 3.18709 1.4735 
-0.340081 1.4735 3.20789 
3.55805 0.15396 -0.30345 
0.15396 3.23153 1.13751 
-0.30345 1.13751 3.14106 
2.63153 0.0965521 -1.84494 
0.0965521 2.83473 -0.0891748 
-1.84494 -0.0891748 2.77403 
2.96467 0.10567 -1.80814 
0.10567 3.03124 -0.36546 
-1.80814 -0.36546 2.24438 
2.87455 0.0524287 -1.62819 
0.0524287 2.66207 -0.0460933 
-1.62819 -0.0460933 2.70367 
3.20704 0.0862726 -1.80168 
0.0862726 2.71052 -0.0854913 
-1.80168 -0.0854913 2.32272 
3.767 -0.167661 3.73439 
-0.167661 3.87707 -2.60811 
3.73439 -2.60811 3.48558 
4.43414 0.446241 3.0113 
0.446241 4.34994 -2.46165 
3.0113 -2.46165 2.34558 
3.82593 -0.302066 3.44937 
-0.302066 3.55403 -2.60154 
3.44937 -2.60154 3.7497 
3.13764 0.0537631 3.17382 
0.0537631 2.96175 -2.46582 
3.17382 -2.46582 5.03026 
8.03138 -0.0150207 1.52573 
-0.0150207 7.91717 0.160647 
1.52573 0.160647 8.11071 
7.99558 0.108301 1.4088 
0.108301 8.38942 -0.14945 
1.4088 -0.14945 7.67426 
7.99263 0.0210973 1.44833 
0.0210973 7.94583 0.0850344 
1.44833 0.0850344 8.12081 
8.00572 -0.00747277 1.57338 
-0.00747277 8.1326 -0.0545645 
1.57338 -0.0545645 7.92095 
6.77807 -0.00770164 -0.665455 
-0.00770164 7.01955 -3.02945 
-0.665455 -3.02945 6.79764 
6.68537 -0.038589 -0.591285 
-0.038589 7.29778 -2.7711 
-0.591285 -2.7711 6.61211 
7.00566 -0.0345448 -0.655075 
-0.0345448 7.23702 -3.40152 
-0.655075 -3.40152 6.35258 
6.88322 0.169385 -0.909333 
0.169385 6.06335 -2.87154 
-0.909333 -2.87154 7.64869 
4.93914 -0.0796433 -0.122511 
-0.0796433 5.23023 -1.00414 
-0.122511 -1.00414 4.48915 
4.94625 0.0570223 -0.235589 
0.0570223 5.00812 -1.39384 
-0.235589 -1.39384 4.70416 
4.91874 0.0742734 -0.187547 
0.0742734 5.10413 -1.38312 
-0.187547 -1.38312 4.63566 
4.84855 0.00996249 -0.143599 
0.00996249 5.04962 -1.05967 
-0.143599 -1.05967 4.76036 
5.24669 0.101757 -0.249203 
0.101757 4.97642 -2.79273 
-0.249203 -2.79273 4.90657 
4.90475 -0.00345711 -0.414558 
-0.00345711 5.14054 -2.76686 
-0.414558 -2.76686 5.0844 
4.45742 -0.143227 -0.206 
-0.143227 5.22686 -2.78676 
-0.206 -2.78676 5.4454 
4.90479 -0.0108797 -0.25442 
-0.0108797 5.02775 -3.13781 
-0.25442 -3.13781 5.19714 
4.54812 -0.0787365 3.34783 
-0.0787365 4.81815 0.799069 
3.34783 0.799069 3.61588 
4.45873 0.0292553 2.8189 
0.0292553 4.09445 0.855348 
2.8189 0.855348 4.42897 
4.46569 0.112122 2.77681 
0.112122 4.22055 0.783612 
2.77681 0.783612 4.29591 
3.59617 -0.0518653 2.92456 
-0.0518653 4.21873 0.345018 
2.92456 0.345018 5.16725 
1.85805 0.197236 -2.44293 
0.197236 1.85927 -0.850294 
-2.44293 -0.850294 2.4164 
2.0452 -0.0895561 -2.34702 
-0.0895561 2.06843 -0.846011 
-2.34702 -0.846011 2.02009 
1.9502 -0.0578638 -2.43881 
-0.0578638 2.0875 -0.807035 
-2.43881 -0.807035 2.09602 
2.03827 -0.0384937 -2.48583 
-0.0384937 1.98348 -0.923819 
-2.48583 -0.923819 2.11196 
7.25923 -0.0047257 0.404623 
-0.0047257 6.74581 1.52315 
0.404623 1.52315 6.36826 
6.49835 -0.0730581 0.482837 
-0.0730581 6.78022 1.5908 
0.482837 1.5908 7.09473 
6.77252 -0.0280178 0.634695 
-0.0280178 6.94763 1.34545 
0.634695 1.34545 6.65315 
6.28973 0.126071 0.408057 
0.126071 6.75064 1.23058 
0.408057 1.23058 7.33294 
4.11311 0.103204 -0.011498 
0.103204 3.83616 -0.325837 
-0.011498 -0.325837 4.59779 
3.99293 -0.153708 0.469902 
-0.153708 4.3146 -0.342267 
0.469902 -0.342267 4.23953 
4.12661 0.0509168 0.289811 
0.0509168 4.32839 -0.19329 
0.289811 -0.19329 4.09206 
4.69439 0.355832 0.375108 
0.355832 4.56633 -0.179218 
0.375108 -0.179218 3.28634 
9.14906 -0.154844 0.0647093 
-0.154844 9.43955 0.459588 
0.0647093 0.459588 9.80252 
9.39418 -0.0218563 0.121943 
-0.0218563 9.5653 0.332228 
0.121943 0.332228 9.43166 
9.09537 -0.0568542 0.215761 
-0.0568542 9.1639 0.332882 
0.215761 0.332882 10.1319 
9.48806 0.0566132 0.166234 
0.0566132 9.61049 0.3958 
0.166234 0.3958 9.29259 
4.46649 0.208191 -4.0411 
0.208191 4.94268 -1.41459 
-4.0411 -1.41459 5.02355 
4.92838 0.00767284 -4.11199 
0.00767284 5.12456 -1.36026 
-4.11199 -1.36026 4.37978 
4.66464 0.126281 -3.95994 
0.126281 4.46476 -1.21491 
-3.95994 -1.21491 5.30332 
4.61562 -0.0700592 -3.66473 
-0.0700592 4.56832 -1.62423 
-3.66473 -1.62423 5.24878 
3.784 -0.0849498 1.6788 
-0.0849498 3.56124 -0.853706 
1.6788 -0.853706 3.69358 
3.58411 -0.0353419 1.69697 
-0.0353419 3.67754 -0.976077 
1.69697 -0.976077 3.77716 
3.56664 0.445746 1.65577 
0.445746 4.1356 -0.642042 
1.65577 -0.642042 3.33657 
3.49513 0.138691 1.60339 
0.138691 3.70138 -0.825257 
1.60339 -0.825257 3.8423 
1.95839 -0.0139492 2.56215 
-0.0139492 1.94351 -3.29579 
2.56215 -3.29579 1.84078 
2.05216 -0.181446 2.33933 
-0.181446 2.08867 -3.21456 
2.33933 -3.21456 1.60186 
1.82119 0.0306709 2.6654 
0.0306709 1.87693 -3.36806 
2.6654 -3.36806 2.04456 
1.86513 -0.058353 2.51206 
-0.058353 1.96086 -3.47131 
2.51206 -3.47131 1.91669 
5.90601 0.418373 -4.39342 
0.418373 6.08915 -0.257913 
-4.39342 -0.257913 5.73246 
5.98797 0.220802 -4.23253 
0.220802 5.8794 -1.32012 
-4.23253 -1.32012 5.86026 
5.57252 0.310612 -4.2745 
0.310612 5.98038 -1.26137 
-4.2745 -1.26137 6.17474 
5.60151 0.264828 -4.36397 
0.264828 6.09194 -0.255664 
-4.36397 -0.255664 6.03417 
6.61942 -0.0391282 0.84589 
-0.0391282 6.7161 2.47614 
0.84589 2.47614 6.89907 
6.76881 -0.00427937 0.653468 
-0.00427937 6.80089 2.51467 
0.653468 2.51467 6.6649 
6.7141 0.0178545 0.732846 
0.0178545 6.79341 2.4293 
0.732846 2.4293 6.72708 
6.51265 -0.138305 0.661772 
-0.138305 6.79632 2.48946 
0.661772 2.48946 6.92562 
3.80388 -0.124007 3.98955 
-0.124007 3.11631 -1.95809 
3.98955 -1.95809 3.08359 
3.82114 0.398762 3.88263 
0.398762 2.65702 -1.44158 
3.88263 -1.44158 3.52562 
3.45239 0.122136 3.42121 
0.122136 3.34453 -1.94962 
3.42121 -1.94962 3.20686 
3.60945 -0.00189901 3.32888 
-0.00189901 3.43283 -2.08951 
3.32888 -2.08951 2.9615 
8.55577 -0.195324 -1.17816 
-0.195324 8.74003 2.45082 
-1.17816 2.45082 9.29534 
8.76117 -0.0495961 -0.923246 
-0.0495961 8.89582 2.40999 
-0.923246 2.40999 8.93415 
8.86041 -0.305582 -0.916283 
-0.305582 9.04316 2.57182 
-0.916283 2.57182 8.68757 
8.77569 0.0906685 -0.924436 
0.0906685 8.968 2.2706 
-0.924436 2.2706 8.84745 
8.7542 0.109619 0.281182 
0.109619 8.557 -1.30801 
0.281182 -1.30801 8.95173 
8.67391 0.0617342 0.72791 
0.0617342 8.81315 -1.22377 
0.72791 -1.22377 8.77587 
8.57583 0.310059 0.740395 
0.310059 8.65079 -1.03574 
0.740395 -1.03574 9.03631 
8.68607 0.16877 0.143773 
0.16877 8.96493 -1.42822 
0.143773 -1.42822 8.61193 
5.33199 -0.262393 1.47479 
-0.262393 5.39352 -0.134971 
1.47479 -0.134971 5.70133 
5.23241 -0.113687 1.22676 
-0.113687 5.23439 -0.406019 
1.22676 -0.406019 5.96004 
5.40055 -0.185412 1.46876 
-0.185412 5.39647 -0.296548 
1.46876 -0.296548 5.62982 
5.76179 0.0518598 1.84836 
0.0518598 5.6842 -0.300043 
1.84836 -0.300043 4.98086 
5.1862 -0.324519 1.34968 
-0.324519 4.65691 -0.844014 
1.34968 -0.844014 5.6786 
5.21687 0.256169 1.94631 
0.256169 5.45269 -0.486302 
1.94631 -0.486302 4.85215 
4.86986 -0.0352724 1.9777 
-0.0352724 4.95873 -0.352682 
1.9777 -0.352682 5.69312 
4.93966 0.0945571 1.72728 
0.0945571 5.41132 -0.43792 
1.72728 -0.43792 5.17074 
4.16314 -0.0637562 -2.5846 
-0.0637562 4.14361 -0.728229 
-2.5846 -0.728229 4.1699 
4.24403 -0.137621 -2.64521 
-0.137621 4.31477 -0.524407 
-2.64521 -0.524407 3.91784 
4.02313 -0.214811 -2.45267 
-0.214811 4.15685 -0.790885 
-2.45267 -0.790885 4.29667 
4.19175 -0.0256789 -2.42233 
-0.0256789 4.1997 -0.671194 
-2.42233 -0.671194 4.08519 
3.81239 -0.031546 0.0768354 
-0.031546 4.14759 -0.284554 
0.0768354 -0.284554 4.53166 
4.19285 0.0873307 0.0996878 
0.0873307 4.1071 -0.671074 
0.0996878 -0.671074 4.19169 
4.15451 -0.0154011 0.246917 
-0.0154011 4.11767 -0.603196 
0.246917 -0.603196 4.21947 
4.31731 0.0232555 0.103913 
0.0232555 4.51622 -0.857191 
0.103913 -0.857191 3.65812 
3.04993 -0.0384121 -1.36585 
-0.0384121 3.24425 0.147338 
-1.36585 0.147338 3.2797 
3.05267 0.181109 -1.37755 
0.181109 3.29485 0.190708 
-1.37755 0.190708 3.22636 
2.9939 -0.232439 -1.65865 
-0.232439 2.90683 0.199578 
-1.65865 0.199578 3.67316 
3.64319 -0.0022405 -1.3677 
-0.0022405 3.52104 -0.0232588 
-1.3677 -0.0232588 2.40965 
6.16728 0.231783 -2.29876 
0.231783 6.31198 -2.61649 
-2.29876 -2.61649 6.21032 
6.25648 -0.0205993 -2.39434 
-0.0205993 6.33458 -2.71529 
-2.39434 -2.71529 6.09853 
6.38579 0.108657 -2.42131 
0.108657 6.02874 -2.54446 
-2.42131 -2.54446 6.27505 
6.27471 0.0349141 -2.15402 
0.0349141 5.88374 -2.41407 
-2.15402 -2.41407 6.53114 
8.73765 0.107506 3.17623 
0.107506 8.08963 0.761909 
3.17623 0.761909 8.70939 
8.77487 0.0899432 2.50105 
0.0899432 8.45313 1.21827 
2.50105 1.21827 8.30866 
8.98502 0.0623472 2.34242 
0.0623472 8.03822 1.25398 
2.34242 1.25398 8.51343 
8.81236 0.268541 3.32029 
0.268541 8.27588 0.69442 
3.32029 0.69442 8.44842 
8.13876 -0.0947724 -3.06702 
-0.0947724 7.93579 2.2438 
-3.06702 2.2438 9.03454 
8.37154 0.0234455 -3.64909 
0.0234455 8.27278 2.61478 
-3.64909 2.61478 8.46477 
8.38106 0.0668402 -3.55667 
0.0668402 8.33386 2.51787 
-3.55667 2.51787 8.39417 
8.6334 0.0890215 -3.59604 
0.0890215 8.43657 2.61676 
-3.59604 2.61676 8.03912 
9.47408 -0.0244265 -0.949102 
-0.0244265 9.28776 -2.81357 
-0.949102 -2.81357 9.81061 
9.57906 -0.0365993 -0.835533 
-0.0365993 9.46737 -2.8424 
-0.835533 -2.8424 9.52604 
9.45109 0.162773 -0.796167 
0.162773 9.25956 -2.71492 
-0.796167 -2.71492 9.8618 
9.65186 -0.0129029 -0.821125 
-0.0129029 9.52484 -2.98278 
-0.821125 -2.98278 9.39576 
1.25366 -0.182906 2.81415 
-0.182906 1.19599 1.05204 
2.81415 1.05204 0.988769 
1.4199 -0.513029 2.51134 
-0.513029 1.62577 0.255742 
2.51134 0.255742 0.392751 
0.835773 -0.431058 2.91036 
-0.431058 1.07781 1.41023 
2.91036 1.41023 1.52484 
1.09237 0.198316 2.8556 
0.198316 1.38935 0.555597 
2.8556 0.555597 0.9567 
3.02911 0.032377 1.51383 
0.032377 2.87232 -0.649684 
1.51383 -0.649684 2.68026 
2.84267 -0.0422308 1.55462 
-0.0422308 2.81174 -0.755365 
1.55462 -0.755365 2.92729 
2.97585 0.0473408 1.4949 
0.0473408 2.91147 -0.779026 
1.4949 -0.779026 2.69437 
3.529 0.185084 1.23037 
0.185084 2.92261 -0.798785 
1.23037 -0.798785 2.13009 
6.69498 0.087023 -4.06242 
0.087023 5.45948 -1.09493 
-4.06242 -1.09493 4.79054 
5.29209 0.14693 -3.5553 
0.14693 5.24105 -0.754937 
-3.5553 -0.754937 6.41186 
5.44627 0.0486837 -4.31892 
0.0486837 5.57884 -1.38316 
-4.31892 -1.38316 5.91989 
5.52236 0.0300601 -4.06327 
0.0300601 5.68094 -1.28235 
-4.06327 -1.28235 5.7417 
6.61798 -0.0441476 1.13754 
-0.0441476 6.69595 -4.48529 
1.13754 -4.48529 6.62641 
6.54557 -0.102788 1.00956 
-0.102788 6.62077 -4.22661 
1.00956 -4.22661 6.774 
6.76464 0.00584406 1.08513 
0.00584406 6.91879 -4.11818 
1.08513 -4.11818 6.25691 
6.10449 -0.0787797 1.03745 
-0.0787797 6.12913 -3.94929 
1.03745 -3.94929 7.70672 
8.30761 0.150057 -0.56711 
0.150057 8.75835 2.57089 
-0.56711 2.57089 9.33646 
8.70239 0.166052 -0.912409 
0.166052 9.07082 2.58538 
-0.912409 2.58538 8.62921 
8.87552 -0.139428 -0.749014 
-0.139428 8.67983 2.42083 
-0.749014 2.42083 8.84707 
8.88477 -0.0839065 -0.809813 
-0.0839065 8.72619 2.30571 
-0.809813 2.30571 8.79147 
2.1875 -0.0921019 0.209432 
-0.0921019 2.19365 2.01101 
0.209432 2.01101 2.77787 
2.25348 0.196168 0.0712154 
0.196168 2.09272 2.01302 
0.0712154 2.01302 2.81283 
2.24192 -0.126862 0.232088 
-0.126862 2.27032 2.11581 
0.232088 2.11581 2.64678 
2.01637 0.178093 0.0649836 
0.178093 2.31267 2.27769 
0.0649836 2.27769 2.82999 
5.12031 0.0115763 0.486683 
0.0115763 5.21278 1.0853 
0.486683 1.0853 5.25037 
5.49039 0.0666973 0.591636 
0.0666973 5.17837 1.11308 
0.591636 1.11308 4.9147 
5.31559 -0.0359273 0.509912 
-0.0359273 5.24909 1.15628 
0.509912 1.15628 5.01878 
5.76874 0.186203 0.543163 
0.186203 5.56267 1.1439 
0.543163 1.1439 4.25204 
8.46982 -0.0835494 -1.6291 
-0.0835494 8.14387 -3.59285 
-1.6291 -3.59285 7.93409 
8.50495 -0.203568 -1.7976 
-0.203568 8.22507 -3.93634 
-1.7976 -3.93634 7.81776 
8.03505 -0.0302099 -1.82936 
-0.0302099 8.13482 -3.76951 
-1.82936 -3.76951 8.37791 
8.20154 -0.0607341 -1.6778 
-0.0607341 8.04857 -3.95847 
-1.6778 -3.95847 8.29766 
1.18928 -0.0475227 0.523641 
-0.0475227 0.935916 1.3293 
0.523641 1.3293 1.01276 
0.78769 0.0344565 0.488709 
0.0344565 1.11351 1.22305 
0.488709 1.22305 1.23675 
1.01489 0.046059 0.2601 
0.046059 1.67622 1.22559 
0.2601 1.22559 0.446843 
1.04643 -0.0285401 0.494587 
-0.0285401 1.14074 1.32074 
0.494587 1.32074 0.950782 
6.92342 -0.194999 2.2274 
-0.194999 7.5501 -0.655402 
2.2274 -0.655402 7.17273 
6.79908 -0.127707 2.23785 
-0.127707 7.59821 -0.119578 
2.23785 -0.119578 7.24896 
7.07294 -0.0647817 2.59418 
-0.0647817 7.3822 -0.453234 
2.59418 -0.453234 7.19111 
7.12218 0.036401 2.37322 
0.036401 6.91419 -0.0518249 
2.37322 -0.0518249 7.60988 
4.5575 0.147579 2.55629 
0.147579 4.02925 3.53375 
2.55629 3.53375 3.51717 
4.32792 0.218339 3.54072 
0.218339 3.31826 2.97418 
3.54072 2.97418 4.45774 
4.13848 0.10193 3.25229 
0.10193 3.97925 3.07847 
3.25229 3.07847 3.98619 
4.16801 -0.192938 2.76297 
-0.192938 4.00252 3.28034 
2.76297 3.28034 3.93338 
8.80656 0.219152 3.07026 
0.219152 8.75572 0.296932 
3.07026 0.296932 8.95825 
9.34606 0.140368 3.14678 
0.140368 8.76498 0.506731 
3.14678 0.506731 8.4095 
8.67092 0.272679 2.34698 
0.272679 8.24684 -0.286277 
2.34698 -0.286277 9.60278 
8.81326 -0.260032 2.87783 
-0.260032 8.67348 -0.265503 
2.87783 -0.265503 9.03379 
3.81416 0.203029 1.11121 
0.203029 3.82913 -4.48766 
1.11121 -4.48766 5.11562 
4.17333 -0.402488 1.27388 
-0.402488 3.88655 -3.58651 
1.27388 -3.58651 4.69903 
4.58425 -0.152744 2.32219 
-0.152744 4.85321 -3.71596 
2.32219 -3.71596 3.32145 
4.78509 0.271368 1.5461 
0.271368 3.85754 -3.41599 
1.5461 -3.41599 4.11628 
1.38671 0.0739659 0.676925 
0.0739659 2.16532 -1.2332 
0.676925 -1.2332 2.5049 
2.10792 0.205315 0.573389 
0.205315 1.76246 -1.30997 
0.573389 -1.30997 2.18656 
2.24542 0.0672637 0.565819 
0.0672637 1.80208 -1.15444 
0.565819 -1.15444 2.00944 
2.0302 -0.015715 0.601546 
-0.015715 1.91998 -1.55567 
0.601546 -1.55567 2.10676 
1.59481 0.514399 3.02236 
0.514399 1.3554 -1.12874 
3.02236 -1.12874 0.802043 
1.20073 0.183167 2.99254 
0.183167 1.29311 -1.11309 
2.99254 -1.11309 1.25841 
1.5109 0.037107 2.88897 
0.037107 1.17104 -0.541582 
2.88897 -0.541582 1.07031 
1.0726 0.0434599 2.87262 
0.0434599 1.19946 -0.471169 
2.87262 -0.471169 1.48019 
6.32862 -0.186627 -4.07338 
-0.186627 6.09599 0.657964 
-4.07338 0.657964 6.05928 
6.339 -0.0024044 -4.04939 
-0.0024044 6.11643 0.596895 
-4.04939 0.596895 6.02847 
5.88189 -0.0319479 -4.43974 
-0.0319479 6.24984 0.67055 
-4.43974 0.67055 6.35217 
6.35989 -0.063674 -4.03259 
-0.063674 6.18324 0.696587 
-4.03259 0.696587 5.94077 
1.91866 0.0647873 3.86572 
0.0647873 1.62578 1.7472 
3.86572 1.7472 1.77761 
1.98287 -0.0162614 3.62606 
-0.0162614 1.44527 1.82663 
3.62606 1.82663 1.89391 
1.73639 -0.0696427 3.88083 
-0.0696427 1.62867 1.73766 
3.88083 1.73766 1.95699 
1.86156 0.119005 3.66875 
0.119005 1.69817 1.97164 
3.66875 1.97164 1.76233 
5.6929 -0.196752 3.96691 
-0.196752 5.04124 1.96156 
3.96691 1.96156 3.25224 
4.53523 -0.204663 4.60176 
-0.204663 3.60077 1.11341 
4.60176 1.11341 5.85038 
4.73278 0.17738 4.00623 
0.17738 4.41282 1.13427 
4.00623 1.13427 4.84078 
4.58428 -0.21916 3.73509 
-0.21916 4.99614 1.29941 
3.73509 1.29941 4.40597 
6.9089 -0.0996595 1.48652 
-0.0996595 7.09694 -2.45221 
1.48652 -2.45221 6.66995 
6.75637 0.188556 1.3526 
0.188556 6.9813 -2.63978 
1.3526 -2.63978 6.93812 
6.58065 -0.0236507 0.961004 
-0.0236507 6.5483 -2.49996 
0.961004 -2.49996 7.54684 
6.73807 0.162782 1.35016 
0.162782 6.84598 -2.47105 
1.35016 -2.47105 7.09175 
3.21868 -0.0372162 0.80026 
-0.0372162 3.02854 -1.62795 
0.80026 -1.62795 3.33642 
3.43382 -0.0211913 0.856813 
-0.0211913 3.21071 -1.91849 
0.856813 -1.91849 2.93912 
2.83341 0.23428 1.0265 
0.23428 3.16793 -1.879 
1.0265 -1.879 3.58231 
3.52356 -0.15802 1.03505 
-0.15802 3.40973 -1.6831 
1.03505 -1.6831 2.65036 
8.01778 -0.0251208 2.84371 
-0.0251208 8.06764 -1.80869 
2.84371 -1.80869 8.37378 
8.63077 0.0932383 2.67402 
0.0932383 8.40513 -2.00742 
2.67402 -2.00742 7.4233 
8.18127 0.0432023 2.88646 
0.0432023 8.23762 -1.6749 
2.88646 -1.6749 8.0403 
8.30236 -0.0575782 2.78425 
-0.0575782 8.1892 -1.72672 
2.78425 -1.72672 7.96764 
3.76269 -0.0222422 3.74258 
-0.0222422 3.52126 -1.74344 
3.74258 -1.74344 4.2049 
3.96371 0.000704452 4.33304 
0.000704452 4.14471 -2.07053 
4.33304 -2.07053 3.38043 
3.64773 0.121417 3.84582 
0.121417 3.63294 -1.7611 
3.84582 -1.7611 4.20818 
3.6148 -0.234632 3.19478 
-0.234632 3.29829 -1.50539 
3.19478 -1.50539 4.57576 
3.79796 -0.121725 -1.44275 
-0.121725 3.76377 1.49884 
-1.44275 1.49884 3.70041 
3.37053 0.101436 -1.1571 
0.101436 3.3745 1.79962 
-1.1571 1.79962 4.51711 
3.78066 -0.145941 -1.40846 
-0.145941 3.52806 1.62702 
-1.40846 1.62702 3.95342 
3.69599 -0.028513 -1.31184 
-0.028513 3.66057 1.70259 
-1.31184 1.70259 3.90557 
1.513 0.0533739 0.778376 
0.0533739 2.1629 0.629118 
0.778376 0.629118 1.36063 
1.50165 0.074521 0.253009 
0.074521 1.3054 0.098772 
0.253009 0.098772 2.22948 
1.88708 0.112718 0.586988 
0.112718 1.52829 0.2682 
0.586988 0.2682 1.62116 
1.92042 0.387111 0.510076 
0.387111 1.72814 0.189524 
0.510076 0.189524 1.38797 
3.82164 -0.126322 -0.23866 
-0.126322 3.84248 0.965472 
-0.23866 0.965472 3.83403 
4.4716 0.168608 0.0133085 
0.168608 3.54331 0.908139 
0.0133085 0.908139 3.48324 
3.71621 -0.126446 -0.201419 
-0.126446 3.85672 0.916765 
-0.201419 0.916765 3.92522 
3.66952 -0.0177742 -0.180006 
-0.0177742 3.60249 1.12637 
-0.180006 1.12637 4.22613 
5.82843 0.137524 -3.22705 
0.137524 5.58233 1.09054 
-3.22705 1.09054 5.50925 
5.48534 -0.212121 -3.07378 
-0.212121 5.56262 1.14716 
-3.07378 1.14716 5.87205 
5.68343 -0.0303644 -3.14806 
-0.0303644 5.56146 1.0865 
-3.14806 1.0865 5.67513 
5.55804 -0.0115657 -2.91028 
-0.0115657 5.41192 0.866042 
-2.91028 0.866042 5.95006 
1.38519 0.430023 -0.66201 
0.430023 1.73623 2.51601 
-0.66201 2.51601 0.716926 
1.23338 -0.0938302 -1.08309 
-0.0938302 1.41048 2.72321 
-1.08309 2.72321 1.19449 
1.3546 -0.0116147 -0.867423 
-0.0116147 1.29043 2.76279 
-0.867423 2.76279 1.19332 
0.971679 0.318477 -1.44357 
0.318477 1.15984 2.82674 
-1.44357 2.82674 1.70683 
7.10975 0.00442223 1.67255 
0.00442223 7.26946 3.32816 
1.67255 3.32816 7.12617 
6.70735 -0.0603044 2.0855 
-0.0603044 7.1037 3.42587 
2.0855 3.42587 7.69433 
7.20501 -0.027686 1.81208 
-0.027686 7.05898 3.23152 
1.81208 3.23152 7.24138 
7.23663 -0.045006 1.80479 
-0.045006 6.98284 3.26208 
1.80479 3.26208 7.2859 
4.77924 0.130338 4.11856 
0.130338 4.81964 -2.5253 
4.11856 -2.5253 3.92802 
4.73392 0.181062 3.66796 
0.181062 4.43149 -2.60314 
3.66796 -2.60314 4.3615 
4.18566 0.184044 3.89825 
0.184044 4.14391 -2.28958 
3.89825 -2.28958 5.19734 
4.73297 -0.0624247 3.63667 
-0.0624247 4.86233 -2.45319 
3.63667 -2.45319 3.93161 
5.13423 0.292332 1.02226 
0.292332 4.6348 3.64855 
1.02226 3.64855 5.50837 
4.9937 -0.0164268 0.692658 
-0.0164268 4.75543 3.43639 
0.692658 3.43639 5.52827 
5.13258 -0.212508 1.12354 
-0.212508 5.11816 3.63839 
1.12354 3.63839 5.02666 
5.2372 0.148302 1.04229 
0.148302 4.81533 3.69917 
1.04229 3.69917 5.22487 
2.65744 -0.00235866 -1.12482 
-0.00235866 2.44589 1.40676 
-1.12482 1.40676 3.13086 
3.05481 0.511684 -1.5362 
0.511684 3.37693 1.12207 
-1.5362 1.12207 1.80245 
2.64217 0.156774 -1.53848 
0.156774 2.84298 1.34022 
-1.53848 1.34022 2.74904 
2.39843 0.05488 -1.92294 
0.05488 2.15604 1.53384 
-1.92294 1.53384 3.67971 
4.53972 -0.190592 1.60255 
-0.190592 4.22488 4.21807 
1.60255 4.21807 4.2746 
4.41811 -0.178732 1.92924 
-0.178732 4.77482 3.85308 
1.92924 3.85308 3.84628 
4.25175 -0.0794146 1.17514 
-0.0794146 4.51034 4.09772 
1.17514 4.09772 4.27711 
4.31382 0.0203586 0.469143 
0.0203586 3.82749 3.93952 
0.469143 3.93952 4.89789 
6.04948 -0.0280001 0.584034 
-0.0280001 6.22892 -4.41877 
0.584034 -4.41877 6.27691 
6.34951 0.226825 0.668668 
0.226825 5.51689 -4.03658 
0.668668 -4.03658 6.68892 
6.39709 0.0550102 0.546618 
0.0550102 6.29009 -4.13684 
0.546618 -4.13684 5.86814 
6.16841 -0.0798143 0.601428 
-0.0798143 6.22036 -4.23538 
0.601428 -4.23538 6.16655 
1.95949 0.126999 -2.52342 
0.126999 0.956354 1.00777 
-2.52342 1.00777 0.792308 
1.21627 -0.00613025 -2.52601 
-0.00613025 1.31932 0.799926 
-2.52601 0.799926 1.17256 
1.1831 -0.0453742 -2.56283 
-0.0453742 1.35064 0.822483 
-2.56283 0.822483 1.17441 
1.31809 0.0184119 -2.47275 
0.0184119 0.92738 0.628774 
-2.47275 0.628774 1.46268 
7.27445 0.12097 -0.960195 
0.12097 7.46433 -3.46052 
-0.960195 -3.46052 6.53331 
7.1341 -0.0138034 -1.16541 
-0.0138034 7.32443 -2.92157 
-1.16541 -2.92157 6.81355 
7.07145 -0.125334 -1.05713 
-0.125334 7.12134 -3.07503 
-1.05713 -3.07503 7.07931 
6.78482 -0.137473 -1.03714 
-0.137473 6.43438 -2.92633 
-1.03714 -2.92633 8.05289 
2.17997 -0.184661 0.482945 
-0.184661 1.91176 0.446574 
0.482945 0.446574 2.50258 
1.94353 -0.01809 0.343739 
-0.01809 2.26738 0.157032 
0.343739 0.157032 2.38341 
1.90374 0.058866 0.369869 
0.058866 2.05706 0.0982392 
0.369869 0.0982392 2.63351 
2.06886 -0.373532 0.625938 
-0.373532 2.26719 0.349607 
0.625938 0.349607 2.25826 
1.4021 -0.0800805 0.311734 
-0.0800805 1.44224 1.41355 
0.311734 1.41355 2.29114 
1.48384 0.134754 0.514791 
0.134754 1.70521 1.48239 
0.514791 1.48239 1.94643 
1.70697 0.161045 0.628481 
0.161045 1.73604 1.35504 
0.628481 1.35504 1.69247 
1.63778 0.0618941 0.430965 
0.0618941 1.65605 1.45695 
0.430965 1.45695 1.84165 
8.96024 0.0220526 0.21368 
0.0220526 8.08186 0.0787621 
0.21368 0.0787621 9.05181 
9.1662 0.121151 -0.601962 
0.121151 8.53182 0.585053 
-0.601962 0.585053 8.39589 
8.90363 -0.0785008 -0.493493 
-0.0785008 8.39321 0.420194 
-0.493493 0.420194 8.79708 
8.941 0.136796 0.100013 
0.136796 8.50079 0.0769968 
0.100013 0.0769968 8.65212 
7.9414 -0.00180302 -1.27098 
-0.00180302 7.98619 2.07454 
-1.27098 2.07454 8.01047 
8.0713 0.00275126 -1.09023 
0.00275126 8.172 2.28684 
-1.09023 2.28684 7.69475 
8.03792 -0.036502 -1.24974 
-0.036502 8.11495 2.04823 
-1.24974 2.04823 7.78518 
7.93326 -0.0717591 -1.21885 
-0.0717591 8.03453 2.00299 
-1.21885 2.00299 7.97027 
3.93974 -0.212248 1.38582 
-0.212248 4.07506 0.484109 
1.38582 0.484109 3.91644 
3.82163 -0.146282 1.49239 
-0.146282 3.9766 0.770189 
1.49239 0.770189 4.13301 
4.32682 0.472856 1.54522 
0.472856 4.19693 0.388192 
1.54522 0.388192 3.40748 
3.97791 -0.0445988 1.65325 
-0.0445988 3.86441 0.533847 
1.65325 0.533847 4.08892 
7.89246 -0.00290362 -1.35247 
-0.00290362 7.89064 -0.334088 
-1.35247 -0.334088 8.07228 
8.02258 -0.106159 -1.38714 
-0.106159 8.02395 -0.279392 
-1.38714 -0.279392 7.80885 
7.94891 -0.0636397 -1.2676 
-0.0636397 8.08162 -0.435219 
-1.2676 -0.435219 7.82485 
8.11072 -0.0384458 -1.55789 
-0.0384458 8.134 -0.503936 
-1.55789 -0.503936 7.61066 
1.76249 0.096197 -1.22124 
0.096197 2.12787 -2.49857 
-1.22124 -2.49857 2.20474 
1.65203 -0.0831924 -1.09825 
-0.0831924 1.74733 -2.84757 
-1.09825 -2.84757 2.69574 
2.15204 -0.0373324 -1.27589 
-0.0373324 2.11518 -2.39892 
-1.27589 -2.39892 1.82788 
1.98269 -0.00868596 -1.28379 
-0.00868596 2.08229 -2.5559 
-1.28379 -2.5559 2.03012 
5.78267 -0.245265 0.691179 
-0.245265 5.68387 0.666018 
0.691179 0.666018 6.45333 
5.95247 -0.172561 0.623745 
-0.172561 6.11576 1.52674 
0.623745 1.52674 5.85165 
6.19879 0.0362309 0.671295 
0.0362309 5.83094 1.02433 
0.671295 1.02433 5.89014 
6.47309 -0.527078 0.936129 
-0.527078 6.11804 1.70208 
0.936129 1.70208 5.32874 
5.80724 -0.146976 -3.76622 
-0.146976 5.54214 2.59123 
-3.76622 2.59123 5.65217 
5.51978 0.165631 -3.80641 
0.165631 5.13777 2.15191 
-3.80641 2.15191 6.34401 
5.77127 0.204866 -3.49495 
0.204866 5.77395 2.67541 
-3.49495 2.67541 5.45634 
5.95075 0.0185434 -2.6427 
0.0185434 6.59399 2.64597 
-2.6427 2.64597 4.45682 
6.09023 -0.260555 2.24563 
-0.260555 6.137 2.30565 
2.24563 2.30565 5.47002 
5.54834 -0.176838 1.59695 
-0.176838 5.65547 1.87126 
1.59695 1.87126 6.49344 
6.00005 -0.00773783 2.12031 
-0.00773783 5.90862 1.85443 
2.12031 1.85443 5.78858 
5.75608 0.0026068 1.89401 
0.0026068 6.03953 1.9243 
1.89401 1.9243 5.90164 
7.96804 0.10712 -3.44663 
0.10712 8.30726 2.01263 
-3.44663 2.01263 8.48675 
8.08368 -0.0302221 -3.48462 
-0.0302221 8.5358 2.13913 
-3.48462 2.13913 8.14257 
8.46148 -0.049316 -3.65902 
-0.049316 8.45911 2.26261 
-3.65902 2.26261 7.84145 
8.19268 0.073569 -3.55654 
0.073569 8.32314 2.24886 
-3.55654 2.24886 8.24624 
3.70212 -0.413368 1.97982 
-0.413368 5.35412 -3.8002 
1.97982 -3.8002 2.99683 
4.11873 0.299038 1.83478 
0.299038 3.17015 -4.58731 
1.83478 -4.58731 4.76419 
3.96904 -0.163425 1.87902 
-0.163425 4.10689 -4.08216 
1.87902 -4.08216 3.97713 
3.94049 -0.254578 1.97146 
-0.254578 2.96621 -3.12414 
1.97146 -3.12414 5.14637 
2.86329 -0.0482856 -1.61902 
-0.0482856 3.38241 1.53509 
-1.61902 1.53509 3.15132 
3.88403 0.243357 -1.33278 
0.243357 2.92924 1.54309 
-1.33278 1.54309 2.58375 
2.61699 -0.0785392 -1.25877 
-0.0785392 3.56692 1.67431 
-1.25877 1.67431 3.21311 
2.94215 -0.133182 -1.74128 
-0.133182 3.12067 1.79022 
-1.74128 1.79022 3.3342 
7.00728 -0.233932 2.5766 
-0.233932 6.51143 0.30764 
2.5766 0.30764 4.97613 
5.95329 0.0940117 2.96324 
0.0940117 6.39322 0.67296 
2.96324 0.67296 6.14833 
5.96912 0.223003 2.97831 
0.223003 6.31584 0.806548 
2.97831 0.806548 6.20987 
5.75478 -0.0871128 2.58947 
-0.0871128 5.48672 0.65634 
2.58947 0.65634 7.25334 
7.74301 -0.0553042 2.9935 
-0.0553042 7.35207 -2.40675 
2.9935 -2.40675 7.13384 
6.62535 -0.0648934 3.27878 
-0.0648934 7.94147 -2.22353 
3.27878 -2.22353 7.66211 
7.10715 0.0792268 3.75325 
0.0792268 7.53787 -2.17728 
3.75325 -2.17728 7.5839 
7.14672 0.0770664 3.39685 
0.0770664 7.62497 -2.54473 
3.39685 -2.54473 7.45724 
4.85016 -0.163281 -1.40629 
-0.163281 4.45133 -0.822736 
-1.40629 -0.822736 4.67971 
4.80285 0.0763731 -1.32582 
0.0763731 4.83542 -0.749424 
-1.32582 -0.749424 4.34293 
4.46913 -0.108438 -1.68683 
-0.108438 4.41925 -0.613499 
-1.68683 -0.613499 5.09281 
4.8969 0.0590034 -1.44198 
0.0590034 4.55383 -0.695494 
-1.44198 -0.695494 4.53047 
3.89265 -0.0749657 -0.685285 
-0.0749657 4.17909 -2.8101 
-0.685285 -2.8101 3.98424 
4.89523 0.261155 -0.515131 
0.261155 4.03835 -3.1961 
-0.515131 -3.1961 3.1224 
3.73042 -0.0983774 -0.492219 
-0.0983774 4.22471 -2.69924 
-0.492219 -2.69924 4.10085 
3.82568 0.0450478 -1.1211 
0.0450478 3.45098 -2.93917 
-1.1211 -2.93917 4.77932 
6.34931 -0.0341971 -0.273861 
-0.0341971 5.94527 0.895067 
-0.273861 0.895067 5.89749 
5.79665 0.105526 -0.494372 
0.105526 6.1549 1.23875 
-0.494372 1.23875 6.24052 
6.11657 -0.107708 -0.336191 
-0.107708 6.00355 0.923432 
-0.336191 0.923432 6.07194 
6.08526 0.145921 -0.279488 
0.145921 6.35037 1.16526 
-0.279488 1.16526 5.75643 
2.49628 0.157577 3.07805 
0.157577 2.18035 -1.79276 
3.07805 -1.79276 2.21726 
1.67142 -0.10043 2.92932 
-0.10043 2.25218 -1.72538 
2.92932 -1.72538 2.97029 
2.03817 -0.016727 3.03049 
-0.016727 2.13375 -1.38896 
3.03049 -1.38896 2.72197 
2.01789 -0.0119818 3.18884 
-0.0119818 2.40713 -1.79306 
3.18884 -1.79306 2.46888 
4.17151 -0.359684 1.32039 
-0.359684 4.77419 4.22073 
1.32039 4.22073 3.10459 
3.82991 0.285469 0.517458 
0.285469 4.04853 4.04075 
0.517458 4.04075 4.17184 
3.50978 -0.274124 0.271973 
-0.274124 3.70748 4.53805 
0.271973 4.53805 4.83303 
4.29253 -0.0561829 0.875987 
-0.0561829 3.92245 4.03425 
0.875987 4.03425 3.8353 
2.6682 -0.0935701 1.75251 
-0.0935701 3.24498 0.28073 
1.75251 0.28073 3.7177 
3.28651 0.0566154 1.46802 
0.0566154 2.93508 0.189012 
1.46802 0.189012 3.40928 
3.54051 0.154361 1.78583 
0.154361 3.23094 -0.0430791 
1.78583 -0.0430791 2.85943 
3.70465 0.00357688 1.73901 
0.00357688 3.07861 0.326715 
1.73901 0.326715 2.84761 
8.82251 0.0379946 -0.153468 
0.0379946 8.77374 1.19536 
-0.153468 1.19536 8.94679 
9.26598 -0.353189 -0.291077 
-0.353189 8.89859 1.11756 
-0.291077 1.11756 8.37847 
8.69959 -0.0722889 0.278718 
-0.0722889 8.39096 1.18694 
0.278718 1.18694 9.45248 
8.70722 0.0520917 -0.080477 
0.0520917 8.95407 1.38628 
-0.080477 1.38628 8.88174 
4.01809 0.064109 0.15735 
0.064109 4.56082 0.135998 
0.15735 0.135998 4.18384 
4.16935 0.0623243 0.235205 
0.0623243 4.43364 0.0556543 
0.235205 0.0556543 4.15977 
4.44073 0.0194738 0.388986 
0.0194738 4.36094 -0.0946139 
0.388986 -0.0946139 3.96109 
4.3452 0.0607501 0.16002 
0.0607501 4.22091 -0.250172 
0.16002 -0.250172 4.19664 
4.99135 -0.189342 2.95752 
-0.189342 4.8992 0.939599 
2.95752 0.939599 4.81336 
4.76825 -0.517475 3.10492 
-0.517475 5.01374 0.990452 
3.10492 0.990452 4.92192 
5.03234 -0.120857 2.9933 
-0.120857 5.02934 0.645953 
2.9933 0.645953 4.64223 
4.70181 -0.0419563 3.37495 
-0.0419563 4.9173 0.709257 
3.37495 0.709257 5.0848 
3.87128 0.0911596 -0.406008 
0.0911596 3.69882 -2.55226 
-0.406008 -2.55226 3.8157 
3.16971 -0.19906 -0.529632 
-0.19906 3.91999 -2.45809 
-0.529632 -2.45809 4.29609 
3.87562 0.0611166 -0.405641 
0.0611166 3.70954 -2.55307 
-0.405641 -2.55307 3.80063 
3.84272 -0.0229026 -0.309553 
-0.0229026 3.89143 -2.37931 
-0.309553 -2.37931 3.65164 
8.08642 -0.0533024 0.536369 
-0.0533024 8.03273 -3.37852 
0.536369 -3.37852 8.09077 
8.15785 0.0115697 0.393198 
0.0115697 8.13217 -3.25609 
0.393198 -3.25609 7.9199 
8.21237 0.0275791 0.509383 
0.0275791 8.13924 -3.3629 
0.509383 -3.3629 7.85831 
8.18671 0.0267648 0.464726 
0.0267648 8.02813 -3.36769 
0.464726 -3.36769 7.99508 
3.53237 -0.114799 -0.992015 
-0.114799 3.73997 -1.44987 
-0.992015 -1.44987 4.41548 
3.67677 0.159748 -0.811125 
0.159748 4.13259 -1.57581 
-0.811125 -1.57581 3.87845 
4.41349 0.0820941 -0.621842 
0.0820941 3.83674 -2.10669 
-0.621842 -2.10669 3.4376 
3.89413 -0.0414355 -0.678081 
-0.0414355 3.80389 -1.85653 
-0.678081 -1.85653 3.9898 
6.09118 0.564314 -0.687059 
0.564314 6.86139 -4.79759 
-0.687059 -4.79759 7.21581 
6.81608 0.40228 0.518592 
0.40228 7.32828 -4.1577 
0.518592 -4.1577 6.02403 
6.98863 0.0357878 -0.120305 
0.0357878 6.53876 -4.35733 
-0.120305 -4.35733 6.64098 
6.82987 -0.0120069 -0.31044 
-0.0120069 6.65946 -4.49293 
-0.31044 -4.49293 6.67905 
1.2075 -0.202532 0.133047 
-0.202532 1.35838 2.24088 
0.133047 2.24088 0.687565 
1.2265 0.127883 0.047603 
0.127883 1.06515 2.19994 
0.047603 2.19994 0.961796 
1.24182 0.145827 0.0763784 
0.145827 1.04317 2.21157 
0.0763784 2.21157 0.968456 
0.920297 -0.256948 -0.163586 
-0.256948 1.10466 2.06559 
-0.163586 2.06559 1.22849 
2.80912 0.0125156 1.5684 
0.0125156 3.02352 -2.3917 
1.5684 -2.3917 2.93204 
2.6548 0.130162 1.97957 
0.130162 3.01893 -2.62594 
1.97957 -2.62594 3.09094 
2.60516 0.100929 2.05953 
0.100929 3.04462 -2.45091 
2.05953 -2.45091 3.1149 
2.59824 0.00443048 1.88776 
0.00443048 2.96166 -2.5491 
1.88776 -2.5491 3.20478 
1.64662 0.0228162 2.12569 
0.0228162 1.09583 -2.21536 
2.12569 -2.21536 1.05133 
1.20828 0.17658 2.04288 
0.17658 1.09016 -2.28417 
2.04288 -2.28417 1.49534 
1.86771 0.231925 2.22465 
0.231925 1.14157 -1.33547 
2.22465 -1.33547 0.784512 
1.30169 0.244634 2.33407 
0.244634 1.26585 -1.37368 
2.33407 -1.37368 1.22624 
6.85414 0.119867 -0.0461918 
0.119867 6.83991 -2.57221 
-0.0461918 -2.57221 6.57278 
6.91571 0.170896 -0.0108764 
0.170896 6.66576 -2.48494 
-0.0108764 -2.48494 6.68536 
6.4273 -0.0123407 -0.251594 
-0.0123407 6.59985 -2.54821 
-0.251594 -2.54821 7.23968 
6.67908 -0.161935 -0.0434379 
-0.161935 7.21989 -2.12038 
-0.0434379 -2.12038 6.36786 
3.17711 0.0383327 -1.61597 
0.0383327 3.30576 -1.23955 
-1.61597 -1.23955 3.13341 
3.07519 0.0750177 -1.81026 
0.0750177 3.53557 -1.18578 
-1.81026 -1.18578 3.00552 
3.01528 -0.0394471 -1.77446 
-0.0394471 3.26585 -1.23074 
-1.77446 -1.23074 3.33514 
3.11586 -0.101284 -1.78277 
-0.101284 3.07769 -1.35864 
-1.78277 -1.35864 3.42273 
6.73338 0.00989037 1.8386 
0.00989037 6.7 -2.28491 
1.8386 -2.28491 5.84229 
6.34326 0.0103834 2.00553 
0.0103834 6.48805 -2.66771 
2.00553 -2.66771 6.44436 
6.45111 -0.0919393 1.98557 
-0.0919393 6.28649 -2.53392 
1.98557 -2.53392 6.53806 
5.84752 -0.00289807 1.43983 
-0.00289807 5.90261 -2.25185 
1.43983 -2.25185 7.52554 
7.80997 -0.0441415 -1.00243 
-0.0441415 7.82379 3.18711 
-1.00243 3.18711 7.98388 
7.91833 -0.00152631 -1.02492 
-0.00152631 7.91926 3.195 
-1.02492 3.195 7.78006 
8.06837 0.0943414 -0.963338 
0.0943414 8.12994 3.23897 
-0.963338 3.23897 7.41933 
7.96776 0.0252642 -0.816776 
0.0252642 7.96247 3.07892 
-0.816776 3.07892 7.68741 
2.29119 -0.0562651 0.364974 
-0.0562651 2.76843 1.73891 
0.364974 1.73891 2.44501 
2.01532 -0.333744 -0.048732 
-0.333744 2.38948 1.39749 
-0.048732 1.39749 3.09981 
2.08193 0.195046 -0.0948575 
0.195046 2.94429 1.80531 
-0.0948575 1.80531 2.47839 
2.23342 -0.0823771 0.00148847 
-0.0823771 2.10573 1.6001 
0.00148847 1.6001 3.16546 
6.1888 0.0465814 2.2884 
0.0465814 6.24904 -3.52654 
2.2884 -3.52654 6.36853 
6.19025 -0.0165781 2.35972 
-0.0165781 6.66825 -3.38627 
2.35972 -3.38627 5.94788 
6.23541 0.087776 2.43405 
0.087776 6.17085 -3.42146 
2.43405 -3.42146 6.40012 
6.08554 0.0905986 2.50206 
0.0905986 5.86681 -3.09126 
2.50206 -3.09126 6.85403 
6.59783 0.635045 2.93694 
0.635045 6.65095 3.88506 
2.93694 3.88506 5.37427 
5.72381 -0.964325 2.81613 
-0.964325 5.4371 3.45226 
2.81613 3.45226 7.46214 
6.17795 0.14034 2.56874 
0.14034 6.30653 3.62699 
2.56874 3.62699 6.13857 
6.47122 0.338837 1.6135 
0.338837 6.35015 2.95629 
1.6135 2.95629 5.80169 
3.60766 -0.0174052 -1.57862 
-0.0174052 4.02925 -1.15898 
-1.57862 -1.15898 3.63794 
3.52628 -0.13155 -1.48753 
-0.13155 3.7846 -1.16827 
-1.48753 -1.16827 3.96398 
3.71262 0.0350053 -1.16249 
0.0350053 3.85092 -1.37156 
-1.16249 -1.37156 3.71131 
3.72677 -0.085764 -1.2157 
-0.085764 3.6322 -1.43033 
-1.2157 -1.43033 3.91588 
8.19991 0.0406713 -0.280825 
0.0406713 7.90918 2.35246 
-0.280825 2.35246 8.03316 
7.91634 -0.0407201 -0.310304 
-0.0407201 8.04664 2.34439 
-0.310304 2.34439 8.17926 
8.18643 -0.147415 -0.486874 
-0.147415 8.15905 2.77337 
-0.486874 2.77337 7.79677 
8.1829 -0.147777 -0.74821 
-0.147777 8.12015 2.43874 
-0.74821 2.43874 7.8392 
3.71204 -0.0894187 -0.682615 
-0.0894187 4.03354 1.75559 
-0.682615 1.75559 4.38776 
4.29211 -0.0378314 -0.715286 
-0.0378314 3.81607 1.7931 
-0.715286 1.7931 4.02516 
3.87369 -0.158811 -0.446644 
-0.158811 3.93676 1.2622 
-0.446644 1.2622 4.32289 
4.27958 0.0918678 -0.325711 
0.0918678 3.84719 1.05412 
-0.325711 1.05412 4.00657 
8.92912 0.0168219 3.38886 
0.0168219 8.97654 1.11066 
3.38886 1.11066 10.2763 
9.44021 -0.0905645 3.30185 
-0.0905645 9.24296 1.12159 
3.30185 1.12159 9.4988 
9.35073 -0.00614291 3.31616 
-0.00614291 9.36907 1.16898 
3.31616 1.16898 9.46217 
9.46951 0.0280165 3.20526 
0.0280165 9.49869 1.20069 
3.20526 1.20069 9.21376 
3.53863 0.00122879 4.24161 
0.00122879 4.12595 0.581853 
4.24161 0.581853 3.6165 
3.91618 0.0614625 4.40353 
0.0614625 3.43444 0.0955703 
4.40353 0.0955703 3.93046 
4.41553 -0.0112436 4.27236 
-0.0112436 4.2071 0.955143 
4.27236 0.955143 2.65845 
3.40665 0.0277597 3.78099 
0.0277597 3.416 -0.248279 
3.78099 -0.248279 4.45843 
5.12304 -0.0635318 -0.60774 
-0.0635318 5.26019 -2.94419 
-0.60774 -2.94419 5.41013 
5.11643 0.00302783 -0.518064 
0.00302783 4.99738 -2.57279 
-0.518064 -2.57279 5.67955 
5.25133 -0.185315 -0.378816 
-0.185315 5.31557 -2.80077 
-0.378816 -2.80077 5.22645 
5.6684 -0.271423 -0.355173 
-0.271423 5.312 -3.21613 
-0.355173 -3.21613 4.81296 
1.67262 -0.00895857 -2.86442 
-0.00895857 1.68394 0.684569 
-2.86442 0.684569 2.86911 
2.07029 -0.0899159 -2.70748 
-0.0899159 1.88958 0.849887 
-2.70748 0.849887 2.2658 
2.16136 -0.023083 -2.71365 
-0.023083 2.15785 0.872244 
-2.71365 0.872244 1.90646 
2.02306 -0.0376473 -2.69174 
-0.0376473 2.0146 0.768112 
-2.69174 0.768112 2.188 
0.414585 0.10035 -1.97193 
0.10035 0.673699 1.00224 
-1.97193 1.00224 0.205933 
0.647001 -0.0504552 -1.86576 
-0.0504552 0.840893 1.13347 
-1.86576 1.13347 -0.193676 
0.399217 0.093584 -1.88102 
0.093584 0.42957 0.882909 
-1.88102 0.882909 0.46543 
0.384737 0.0340433 -1.94622 
0.0340433 0.31042 0.901354 
-1.94622 0.901354 0.59906 
3.33811 -0.124964 0.793521 
-0.124964 3.44066 4.12343 
0.793521 4.12343 3.11914 
3.27792 0.0434623 0.766055 
0.0434623 3.50266 4.12736 
0.766055 4.12736 3.11733 
3.23263 -0.066412 0.648513 
-0.066412 3.18803 4.04556 
0.648513 4.04556 3.47724 
3.76732 0.0350649 0.373478 
0.0350649 3.88864 4.00915 
0.373478 4.00915 2.24195 
1.92522 -0.024175 -0.885478 
-0.024175 1.91391 2.94452 
-0.885478 2.94452 2.6952 
2.14569 0.0538541 -0.673494 
0.0538541 1.95866 2.84252 
-0.673494 2.84252 2.42998 
2.17478 0.0134942 -0.88858 
0.0134942 2.32707 2.86076 
-0.88858 2.86076 2.03248 
2.15601 -0.0112103 -0.866313 
-0.0112103 2.12182 2.9468 
-0.866313 2.9468 2.2565 
8.74674 -0.146159 1.5125 
-0.146159 8.94474 -2.79967 
1.5125 -2.79967 8.91478 
8.62233 0.61433 1.62796 
0.61433 8.40445 -2.45101 
1.62796 -2.45101 9.57948 
8.91068 0.0650878 1.4542 
0.0650878 9.01715 -2.67513 
1.4542 -2.67513 8.67843 
8.80077 -0.0403302 1.53352 
-0.0403302 8.88864 -2.67247 
1.53352 -2.67247 8.91685 
5.23089 0.141057 0.762547 
0.141057 5.23088 1.7185 
0.762547 1.7185 5.1546 
5.47186 0.272477 0.863723 
0.272477 5.11225 1.71212 
0.863723 1.71212 5.03226 
5.04715 0.0380266 0.842854 
0.0380266 5.07114 1.53828 
0.842854 1.53828 5.49808 
5.72775 0.00622749 1.07618 
0.00622749 5.71804 1.80579 
1.07618 1.80579 4.17059 
6.87557 0.00735422 2.03631 
0.00735422 6.32997 3.36064 
2.03631 3.36064 5.92198 
6.49643 -0.137661 2.38685 
-0.137661 6.40068 3.41094 
2.38685 3.41094 6.23041 
6.46247 -0.0726749 2.41176 
-0.0726749 6.30238 3.39596 
2.41176 3.39596 6.36267 
6.5674 0.113564 2.43145 
0.113564 6.15513 3.5267 
2.43145 3.5267 6.40499 
8.67579 0.0126233 -0.943359 
0.0126233 8.90304 -0.968387 
-0.943359 -0.968387 8.85038 
8.95825 0.407565 -0.717597 
0.407565 8.29791 -0.713889 
-0.717597 -0.713889 9.17304 
8.89534 0.0650929 -0.857488 
0.0650929 8.79816 -0.83851 
-0.857488 -0.83851 8.73571 
9.08022 0.0828662 -1.12074 
0.0828662 8.80599 -1.22307 
-1.12074 -1.22307 8.54299 
6.95058 0.0423491 0.0259865 
0.0423491 6.89333 -3.8447 
0.0259865 -3.8447 6.8045 
6.71373 -0.0361211 -0.149094 
-0.0361211 6.94156 -3.73733 
-0.149094 -3.73733 6.99313 
6.77911 -0.0546903 0.144908 
-0.0546903 6.84789 -3.90059 
0.144908 -3.90059 7.02142 
6.97765 -0.0199981 -0.0903785 
-0.0199981 6.92014 -3.71103 
-0.0903785 -3.71103 6.75062 
3.58507 -0.0851778 1.37878 
-0.0851778 3.25122 2.52032 
1.37878 2.52032 3.7269 
3.52978 0.0496836 1.454 
0.0496836 3.17656 2.57756 
1.454 2.57756 3.85684 
3.48394 0.0449308 1.2739 
0.0449308 3.74506 2.71445 
1.2739 2.71445 3.33418 
2.96977 0.0570255 1.24887 
0.0570255 3.37512 2.15757 
1.24887 2.15757 4.21829 
5.50642 -0.0438415 0.16668 
-0.0438415 5.53195 2.06744 
0.16668 2.06744 5.5843 
5.563 0.0910485 0.210052 
0.0910485 5.64104 2.03149 
0.210052 2.03149 5.41863 
5.76277 0.116837 0.369411 
0.116837 5.5754 2.11678 
0.369411 2.11678 5.2845 
5.70424 0.034277 0.411687 
0.034277 5.56927 1.94341 
0.411687 1.94341 5.34916 
5.26132 -0.0272393 0.33465 
-0.0272393 5.01425 2.85618 
0.33465 2.85618 5.83032 
5.37345 0.332982 0.265271 
0.332982 5.21607 3.08352 
0.265271 3.08352 5.51636 
5.25028 -0.133161 0.0100788 
-0.133161 5.52149 3.1756 
0.0100788 3.1756 5.33411 
5.48963 0.147127 0.37508 
0.147127 5.00171 2.97343 
0.37508 2.97343 5.61454 
8.55465 0.0254863 -1.43311 
0.0254863 8.74836 3.10341 
-1.43311 3.10341 9.28959 
8.94575 -0.0851894 -1.4933 
-0.0851894 8.60974 2.93644 
-1.4933 2.93644 9.0371 
8.95368 -0.103195 -1.43468 
-0.103195 8.56801 2.76315 
-1.43468 2.76315 9.0709 
8.58699 0.0758369 -1.4946 
0.0758369 9.35514 2.53232 
-1.4946 2.53232 8.65046 
3.39934 0.268208 2.78966 
0.268208 3.50829 -3.40841 
2.78966 -3.40841 3.50413 
4.18858 -0.903488 2.36043 
-0.903488 4.43865 -4.1737 
2.36043 -4.1737 1.78454 
3.36487 0.711815 2.80056 
0.711815 2.78163 -3.81708 
2.80056 -3.81708 4.26525 
4.03479 0.177218 1.71244 
0.177218 3.15011 -2.17547 
1.71244 -2.17547 3.22686 
4.24318 0.200482 -0.198843 
0.200482 4.6685 0.689022 
-0.198843 0.689022 4.39658 
4.25599 0.187044 -0.145722 
0.187044 4.52359 1.00499 
-0.145722 1.00499 4.52867 
3.96344 -0.0698752 -0.640785 
-0.0698752 3.99119 1.19918 
-0.640785 1.19918 5.35362 
4.3735 0.10874 -0.335872 
0.10874 4.24503 1.03004 
-0.335872 1.03004 4.68973 
2.00452 -0.0495615 4.07555 
-0.0495615 1.8213 -0.241486 
4.07555 -0.241486 1.97609 
1.75167 0.035385 4.25079 
0.035385 1.67193 -0.227312 
4.25079 -0.227312 2.37831 
2.18054 0.0649426 4.00468 
0.0649426 1.92559 -0.146768 
4.00468 -0.146768 1.69577 
1.91655 -0.0586448 4.24854 
-0.0586448 1.96012 -0.189955 
4.24854 -0.189955 1.92523 
7.26938 0.104491 -0.570544 
0.104491 7.41008 -1.69642 
-0.570544 -1.69642 7.659 
7.16255 0.130306 -0.793011 
0.130306 7.49745 -1.62035 
-0.793011 -1.62035 7.67846 
7.34974 0.238689 -0.787342 
0.238689 7.50326 -1.24979 
-0.787342 -1.24979 7.48546 
7.16744 0.0294993 -0.491252 
0.0294993 7.32159 -1.87259 
-0.491252 -1.87259 7.84944 
1.3435 0.0100105 1.18449 
0.0100105 1.33455 -1.30128 
1.18449 -1.30128 0.762719 
1.28401 -0.148135 1.10659 
-0.148135 1.29612 -1.15285 
1.10659 -1.15285 0.860631 
0.530465 0.299719 0.827197 
0.299719 1.37499 -1.08007 
0.827197 -1.08007 1.53531 
1.23716 -0.0596555 0.857867 
-0.0596555 1.08252 -1.14523 
0.857867 -1.14523 1.12108 
9.38264 0.0539785 -1.2379 
0.0539785 9.4742 -1.09347 
-1.2379 -1.09347 9.72646 
9.4115 0.00558325 -1.34763 
0.00558325 9.40688 -0.994857 
-1.34763 -0.994857 9.76492 
9.30188 -0.0246584 -1.15277 
-0.0246584 9.23971 -0.932312 
-1.15277 -0.932312 10.0417 
9.54092 -0.0346734 -1.29092 
-0.0346734 9.59166 -1.05407 
-1.29092 -1.05407 9.45072 
9.4997 -0.00981705 1.45917 
-0.00981705 9.20671 -1.56914 
1.45917 -1.56914 9.94486 
9.59554 -0.0296619 1.32287 
-0.0296619 9.49952 -1.54665 
1.32287 -1.54665 9.55622 
9.49177 0.111311 1.24148 
0.111311 9.25466 -1.60137 
1.24148 -1.60137 9.90485 
9.63849 -0.00433637 1.30677 
-0.00433637 9.64358 -1.45701 
1.30677 -1.45701 9.3692 
3.56868 0.192686 -2.22486 
0.192686 3.62444 -3.45061 
-2.22486 -3.45061 4.01496 
3.70328 -0.0244468 -2.04086 
-0.0244468 3.54193 -3.53669 
-2.04086 -3.53669 3.96286 
3.69112 0.0731168 -2.14144 
0.0731168 3.54148 -3.40582 
-2.14144 -3.40582 3.97548 
3.59405 0.139438 -2.11314 
0.139438 3.54448 -3.59678 
-2.11314 -3.59678 4.06956 
6.07989 -0.10425 3.83176 
-0.10425 6.45892 1.64381 
3.83176 1.64381 6.46318 
6.33925 -0.666894 3.81358 
-0.666894 6.3338 0.675143 
3.81358 0.675143 6.32893 
6.86358 -0.135915 4.34009 
-0.135915 6.07996 0.634862 
4.34009 0.634862 6.05845 
6.63379 -0.0255625 3.6812 
-0.0255625 6.15993 1.49163 
3.6812 1.49163 6.20827 
4.67597 -0.00875452 -3.45974 
-0.00875452 4.77126 0.260175 
-3.45974 0.260175 4.24143 
4.63729 -0.0261211 -3.43476 
-0.0261211 4.61495 0.448176 
-3.43476 0.448176 4.43642 
4.54168 0.00645498 -3.44316 
0.00645498 4.46721 0.399478 
-3.44316 0.399478 4.67976 
4.55438 -0.0954969 -3.47337 
-0.0954969 4.63467 0.265622 
-3.47337 0.265622 4.4996 
4.94868 0.437302 4.30989 
0.437302 5.26962 -0.117278 
4.30989 -0.117278 8.10265 
6.10903 -0.261602 3.81006 
-0.261602 6.47938 -1.15017 
3.81006 -1.15017 5.73255 
6.8792 0.370796 4.82136 
0.370796 7.30164 -1.50453 
4.82136 -1.50453 4.14013 
6.33058 0.0318972 3.79611 
0.0318972 5.6942 -0.982266 
3.79611 -0.982266 6.29618 
4.26991 -0.170489 0.6031 
-0.170489 4.19091 3.50061 
0.6031 3.50061 3.78011 
3.81075 -0.0184015 0.565626 
-0.0184015 4.34402 3.36566 
0.565626 3.36566 4.08616 
3.95253 -0.206861 0.386831 
-0.206861 4.29261 3.05115 
0.386831 3.05115 3.99578 
3.91462 0.0423243 0.312152 
0.0423243 4.08029 2.87106 
0.312152 2.87106 4.24601 
7.77398 0.692652 0.479814 
0.692652 9.09108 4.46279 
0.479814 4.46279 6.35142 
7.49241 -0.395644 0.743666 
-0.395644 6.63201 4.7352 
0.743666 4.7352 9.09206 
7.89247 -0.1509 0.218754 
-0.1509 7.39778 4.55871 
0.218754 4.55871 7.92623 
7.74347 -0.27554 -0.79784 
-0.27554 7.39406 3.6107 
-0.79784 3.6107 8.07895 
0.57214 0.096857 -1.52003 
0.096857 0.469039 1.33133 
-1.52003 1.33133 0.25844 
0.417406 0.153556 -1.46921 
0.153556 0.573328 1.27165 
-1.46921 1.27165 0.308883 
1.12337 0.040422 -1.74545 
0.040422 0.719624 1.16846 
-1.74545 1.16846 -0.543371 
0.440618 0.0289655 -1.48713 
0.0289655 0.389105 1.39833 
-1.48713 1.39833 0.469895 
6.67564 -0.0378933 -2.08588 
-0.0378933 6.72309 0.379131 
-2.08588 0.379131 5.57427 
5.92432 -0.20903 -1.54391 
-0.20903 6.0569 0.372304 
-1.54391 0.372304 6.99179 
6.54104 0.175431 -1.76243 
0.175431 6.21573 0.673705 
-1.76243 0.673705 6.21623 
6.57401 0.158663 -1.82305 
0.158663 6.20855 0.53654 
-1.82305 0.53654 6.19044 
2.87541 0.0371148 1.11481 
0.0371148 2.97452 2.50923 
1.11481 2.50923 2.97524 
2.86702 0.260251 0.870089 
0.260251 2.96816 2.9807 
0.870089 2.9807 2.98998 
2.82388 0.271691 1.56248 
0.271691 2.25936 2.15185 
1.56248 2.15185 3.74192 
3.43802 -0.104124 1.5366 
-0.104124 3.65377 2.59666 
1.5366 2.59666 1.73338 
2.06341 0.121317 -0.29535 
0.121317 0.996688 -0.607551 
-0.29535 -0.607551 0.0315233 
0.894995 0.0434777 -0.286886 
0.0434777 1.30312 -1.301 
-0.286886 -1.301 0.893509 
1.06257 -0.165002 -0.471098 
-0.165002 1.3547 -1.34824 
-0.471098 -1.34824 0.674357 
1.08632 0.0709879 -0.00441071 
0.0709879 0.363585 -1.69983 
-0.00441071 -1.69983 1.64172 
9.40654 0.104766 3.39303 
0.104766 9.21759 1.40702 
3.39303 1.40702 9.5655 
9.41844 0.0153683 3.41851 
0.0153683 9.38238 1.45817 
3.41851 1.45817 9.3888 
9.00998 -0.00960424 3.48816 
-0.00960424 8.94792 1.45305 
3.48816 1.45305 10.2317 
9.50367 -0.035122 3.27325 
-0.035122 9.43931 1.50255 
3.27325 1.50255 9.24664 
7.96762 -0.0288961 -0.0126787 
-0.0288961 7.97573 1.58581 
-0.0126787 1.58581 8.20291 
8.10995 -0.0676427 0.0581756 
-0.0676427 8.55593 1.26896 
0.0581756 1.26896 7.48037 
8.27841 -0.186722 -0.00264492 
-0.186722 7.90052 1.57293 
-0.00264492 1.57293 7.96733 
8.0765 -0.0485734 0.0415038 
-0.0485734 8.03905 1.51089 
0.0415038 1.51089 8.03071 
6.53669 -0.105546 -4.33579 
-0.105546 6.96433 0.40224 
-4.33579 0.40224 7.12633 
6.86138 -0.0810418 -4.29454 
-0.0810418 6.55316 0.70217 
-4.29454 0.70217 7.21282 
6.94922 -0.352172 -4.62909 
-0.352172 6.93877 0.148874 
-4.62909 0.148874 6.73936 
6.77996 0.176414 -3.94254 
0.176414 6.57382 0.634035 
-3.94254 0.634035 7.27357 
6.53672 0.0544451 1.24165 
0.0544451 6.52411 -3.99667 
1.24165 -3.99667 6.7771 
6.66347 -0.169104 1.20811 
-0.169104 6.79178 -3.78856 
1.20811 -3.78856 6.38268 
6.58449 0.0600208 1.47783 
0.0600208 6.58833 -3.90901 
1.47783 -3.90901 6.66511 
6.31389 0.315908 1.23669 
0.315908 6.28183 -3.79295 
1.23669 -3.79295 7.24221 
8.10435 0.0090099 0.222718 
0.0090099 7.99763 -0.920361 
0.222718 -0.920361 8.21085 
8.28358 -0.0933572 0.121568 
-0.0933572 8.34725 -1.36294 
0.121568 -1.36294 7.682 
8.18051 -0.0642697 0.124311 
-0.0642697 7.98422 -0.99212 
0.124311 -0.99212 8.1481 
8.19966 -0.00532209 0.185403 
-0.00532209 8.04346 -1.0116 
0.185403 -1.0116 8.06971 
4.95122 -0.0566714 -4.84921 
-0.0566714 5.46053 -0.789521 
-4.84921 -0.789521 6.17587 
7.02866 0.347662 -4.16541 
0.347662 5.28481 -0.583368 
-4.16541 -0.583368 4.27414 
5.30912 -0.0514598 -4.47747 
-0.0514598 5.71672 -0.398382 
-4.47747 -0.398382 5.56178 
4.96081 -0.189204 -4.02955 
-0.189204 5.63723 -0.219366 
-4.02955 -0.219366 5.98958 
5.87292 0.104719 -4.13893 
0.104719 6.11867 -0.811635 
-4.13893 -0.811635 6.39201 
6.08972 0.236363 -4.38683 
0.236363 5.97098 -1.63716 
-4.38683 -1.63716 6.3229 
6.32933 0.280605 -3.96884 
0.280605 6.2219 -1.55031 
-3.96884 -1.55031 5.83237 
6.48942 0.145572 -4.13661 
0.145572 5.8207 -0.865905 
-4.13661 -0.865905 6.07348 
6.86142 0.179534 -4.31927 
0.179534 7.23764 -0.28813 
-4.31927 -0.28813 7.40623 
7.39798 0.298689 -4.2839 
0.298689 6.97846 -0.440818 
-4.2839 -0.440818 7.12885 
7.34019 -0.0489078 -4.20166 
-0.0489078 7.16772 -0.677856 
-4.20166 -0.677856 6.99738 
7.00545 0.280791 -4.50307 
0.280791 7.09076 -0.444488 
-4.50307 -0.444488 7.40907 
1.28208 -0.00618404 1.89786 
-0.00618404 1.45349 -2.21531 
1.89786 -2.21531 0.883247 
1.39093 -0.00467177 1.83048 
-0.00467177 1.10131 -2.2847 
1.83048 -2.2847 1.12658 
1.42319 -0.0400436 1.7946 
-0.0400436 1.20068 -2.36078 
1.7946 -2.36078 0.994957 
0.968306 0.0544999 2.15424 
0.0544999 1.35645 -2.19166 
2.15424 -2.19166 1.29407 
8.34456 -0.0131616 1.4622 
-0.0131616 8.64394 -4.16308 
1.4622 -4.16308 8.67575 
8.03988 -0.13677 1.01199 
-0.13677 8.44536 -4.00546 
1.01199 -4.00546 9.17901 
8.25972 0.112158 1.67249 
0.112158 8.57743 -4.34962 
1.67249 -4.34962 8.82709 
8.9397 0.0499206 1.93878 
0.0499206 8.87418 -4.18622 
1.93878 -4.18622 7.85036 
4.24864 -0.132883 -2.40762 
-0.132883 4.53183 0.493513 
-2.40762 0.493513 4.5112 
4.06118 -0.133908 -2.47991 
-0.133908 4.59983 0.66863 
-2.47991 0.66863 4.63065 
4.50274 0.0651565 -2.40764 
0.0651565 3.96685 0.690168 
-2.40764 0.690168 4.82208 
4.71586 0.0586238 -2.61164 
0.0586238 4.50975 0.841357 
-2.61164 0.841357 4.06606 
1.44352 -0.149307 -1.33908 
-0.149307 1.05904 1.96497 
-1.33908 1.96497 0.905861 
1.1043 -0.249388 -1.51738 
-0.249388 1.09562 1.24156 
-1.51738 1.24156 1.2085 
1.44221 -0.365622 -1.4918 
-0.365622 1.13485 1.27364 
-1.4918 1.27364 0.831359 
1.04605 -0.0880982 -1.42092 
-0.0880982 1.12143 2.01322 
-1.42092 2.01322 1.24094 
8.83807 0.0363394 -3.43302 
0.0363394 8.76556 0.396988 
-3.43302 0.396988 9.17961 
8.88746 0.0541768 -3.42075 
0.0541768 8.82001 0.267468 
-3.42075 0.267468 9.07577 
9.04701 0.112155 -3.30019 
0.112155 8.9025 0.332843 
-3.30019 0.332843 8.83373 
8.9264 -0.0882135 -3.53535 
-0.0882135 8.93839 0.269441 
-3.53535 0.269441 8.91846 
6.24548 -0.0314993 -1.13184 
-0.0314993 6.23554 -2.85482 
-1.13184 -2.85482 6.22791 
6.19544 0.0949398 -1.31392 
0.0949398 6.29667 -2.86676 
-1.31392 -2.86676 6.21683 
6.2575 -0.361489 -0.800131 
-0.361489 6.83434 -2.71036 
-0.800131 -2.71036 5.6171 
5.98434 -0.107699 -1.44664 
-0.107699 6.00589 -2.65894 
-1.44664 -2.65894 6.71871 
9.10472 -0.129616 -2.60592 
-0.129616 9.2508 -0.111457 
-2.60592 -0.111457 10.29 
9.66435 -0.0240199 -2.66973 
-0.0240199 9.47747 -0.30468 
-2.66973 -0.30468 9.50372 
9.54866 -0.132863 -2.61384 
-0.132863 9.41809 -0.332207 
-2.61384 -0.332207 9.67879 
9.72173 0.0397309 -2.60336 
0.0397309 9.60197 -0.413108 
-2.60336 -0.413108 9.32184 
7.99524 -0.239934 2.63818 
-0.239934 7.77711 1.2773 
2.63818 1.2773 8.20659 
8.14967 0.40739 2.69581 
0.40739 8.50673 1.17325 
2.69581 1.17325 7.32253 
7.98749 -0.0922538 2.52367 
-0.0922538 8.01859 1.13815 
2.52367 1.13815 7.97285 
8.05605 -0.0349708 2.74701 
-0.0349708 8.02421 1.02257 
2.74701 1.02257 7.89867 
5.31596 -0.0453807 -3.65987 
-0.0453807 5.16412 -1.06622 
-3.65987 -1.06622 4.70861 
5.48112 -0.355381 -3.91788 
-0.355381 4.65833 -1.29487 
-3.91788 -1.29487 5.04924 
5.09961 -0.216201 -4.15079 
-0.216201 4.95008 -1.32015 
-4.15079 -1.32015 5.139 
4.96077 -0.0287414 -4.06544 
-0.0287414 4.89169 -1.08313 
-4.06544 -1.08313 5.33623 
0.757421 -0.0604522 1.99405 
-0.0604522 0.917301 0.509337 
1.99405 0.509337 -0.196536 
0.70152 -0.191565 2.17504 
-0.191565 0.627653 0.617834 
2.17504 0.617834 0.149012 
0.479113 -0.00954553 2.11705 
-0.00954553 0.526667 0.543225 
2.11705 0.543225 0.472407 
0.396046 0.0469048 2.14375 
0.0469048 0.43778 0.576036 
2.14375 0.576036 0.644361 
7.94955 -0.155176 2.01163 
-0.155176 7.87235 -2.8971 
2.01163 -2.8971 8.68629 
8.02399 0.0888446 1.84216 
0.0888446 8.46046 -2.78188 
1.84216 -2.78188 8.02373 
8.02348 -0.06516 1.66514 
-0.06516 8.12759 -2.81847 
1.66514 -2.81847 8.35712 
8.21972 -0.117168 1.33911 
-0.117168 8.78618 -2.72027 
1.33911 -2.72027 7.50228 
8.75026 -0.1274 -3.24192 
-0.1274 8.73516 1.91654 
-3.24192 1.91654 8.81066 
9.05141 0.157305 -3.22893 
0.157305 8.71523 1.89376 
-3.22893 1.89376 8.52944 
8.87108 0.267835 -3.25087 
0.267835 8.33223 1.96832 
-3.25087 1.96832 9.09276 
8.73527 -0.0182393 -3.27236 
-0.0182393 8.86153 1.85944 
-3.27236 1.85944 8.69928 
6.4774 0.0181053 -2.29681 
0.0181053 6.81989 0.259846 
-2.29681 0.259846 5.35979 
6.26839 0.00680636 -2.56641 
0.00680636 6.21366 0.494924 
-2.56641 0.494924 6.17503 
5.4388 0.0101213 -2.21996 
0.0101213 6.16963 0.0834132 
-2.21996 0.0834132 7.04864 
6.26799 -0.00547393 -2.50528 
-0.00547393 6.18483 0.497666 
-2.50528 0.497666 6.20426 
5.07003 -0.194331 0.614152 
-0.194331 4.77891 0.166505 
0.614152 0.166505 4.62562 
4.74555 0.105943 0.759624 
0.105943 5.01364 -0.126329 
0.759624 -0.126329 4.71537 
4.62497 -0.086959 0.573055 
-0.086959 4.89618 -0.0393372 
0.573055 -0.0393372 4.95341 
4.20121 -0.30294 0.459763 
-0.30294 4.7794 -0.458596 
0.459763 -0.458596 5.49395 
8.46843 -0.00679913 1.0995 
-0.00679913 9.05978 -3.15441 
1.0995 -3.15441 9.31719 
8.9826 -0.0383391 1.18522 
-0.0383391 8.8567 -3.32113 
1.18522 -3.32113 9.00611 
8.94335 -0.0697005 1.2273 
-0.0697005 8.83661 -3.35707 
1.2273 -3.35707 9.06544 
8.83494 0.00645412 1.18411 
0.00645412 9.18785 -3.41258 
1.18411 -3.41258 8.82261 
6.29694 -0.6338 0.631619 
-0.6338 6.79645 -4.73133 
0.631619 -4.73133 7.33447 
6.98317 -0.0270984 0.108296 
-0.0270984 6.65996 -4.43634 
0.108296 -4.43634 6.78473 
6.95418 -0.434116 -0.481329 
-0.434116 7.25152 -4.31608 
-0.481329 -4.31608 6.22215 
6.88051 -0.0127623 0.265067 
-0.0127623 6.75546 -4.5228 
0.265067 -4.5228 6.79189 
1.09588 -0.165343 3.60587 
-0.165343 1.35233 -1.88202 
3.60587 -1.88202 0.705441 
1.28761 0.0256128 3.67057 
0.0256128 1.03784 -2.08386 
3.67057 -2.08386 0.828209 
1.2255 0.0444756 3.2127 
0.0444756 1.46558 -2.07372 
3.2127 -2.07372 0.46258 
0.986974 0.0527315 3.78498 
0.0527315 1.1453 -2.08318 
3.78498 -2.08318 1.02139 
8.19005 0.163798 -1.84186 
0.163798 8.08419 -0.749873 
-1.84186 -0.749873 8.14342 
8.27243 0.160066 -1.6748 
0.160066 8.28813 -0.69823 
-1.6748 -0.69823 7.8571 
8.52508 0.0733333 -1.73554 
0.0733333 8.34369 -0.377949 
-1.73554 -0.377949 7.54888 
8.17623 0.108946 -1.77283 
0.108946 8.25551 -0.540253 
-1.77283 -0.540253 7.98592 
3.37152 0.228492 -1.52198 
0.228492 3.19624 2.36347 
-1.52198 2.36347 3.52208 
3.39428 0.0409266 -1.47558 
0.0409266 3.39364 2.52866 
-1.47558 2.52866 3.30191 
3.32721 0.0124615 -1.45022 
0.0124615 3.2501 2.23813 
-1.45022 2.23813 3.51252 
2.86064 -0.234754 -1.32112 
-0.234754 3.24157 2.1485 
-1.32112 2.1485 3.98762 
1.72311 0.0374909 1.36296 
0.0374909 1.77363 0.322118 
1.36296 0.322118 1.50664 
1.84519 -0.0611369 1.27222 
-0.0611369 1.53331 0.347281 
1.27222 0.347281 1.62488 
1.5392 0.0155625 1.60182 
0.0155625 1.70985 0.267677 
1.60182 0.267677 1.75434 
1.53893 0.132184 1.58957 
0.132184 1.60236 0.628229 
1.58957 0.628229 1.86209 
8.14469 -0.00899335 -0.90398 
-0.00899335 8.09919 -0.603875 
-0.90398 -0.603875 8.31672 
8.50125 -0.0844775 -0.99711 
-0.0844775 8.22216 -0.478077 
-0.99711 -0.478077 7.83719 
8.41493 -0.106501 -1.20291 
-0.106501 8.42642 -0.753649 
-1.20291 -0.753649 7.71924 
8.28207 -0.0583928 -0.950345 
-0.0583928 8.11277 -0.611409 
-0.950345 -0.611409 8.16575 
6.73948 -0.0208467 -1.80112 
-0.0208467 6.84185 -0.0353251 
-1.80112 -0.0353251 5.5658 
6.37102 0.0338106 -1.19427 
0.0338106 6.63535 0.302399 
-1.19427 0.302399 6.14076 
6.29404 -0.284022 -1.52267 
-0.284022 5.91707 0.265043 
-1.52267 0.265043 6.93602 
6.38528 0.0528097 -1.44961 
0.0528097 6.54581 0.198964 
-1.44961 0.198964 6.21603 
1.99904 -0.0731829 -0.920018 
-0.0731829 2.28671 -2.60922 
-0.920018 -2.60922 3.09841 
2.40468 0.1958 -0.727845 
0.1958 2.31535 -2.9037 
-0.727845 -2.9037 2.66412 
2.82962 0.0693902 -0.872717 
0.0693902 1.96275 -3.4165 
-0.872717 -3.4165 2.59179 
2.88467 0.386698 -0.174951 
0.386698 2.17745 -3.22219 
-0.174951 -3.22219 2.32203 
4.68645 -0.231028 2.41769 
-0.231028 5.69799 3.82935 
2.41769 3.82935 7.60608 
6.47797 -0.0520296 2.68797 
-0.0520296 5.76853 2.86508 
2.68797 2.86508 5.74402 
6.54642 -0.196061 3.4969 
-0.196061 7.07714 3.27909 
3.4969 3.27909 4.36695 
6.12393 0.12049 2.76931 
0.12049 5.82711 3.06035 
2.76931 3.06035 6.03947 
5.3883 -0.0121392 0.663788 
-0.0121392 5.50297 0.658389 
0.663788 0.658389 5.57014 
5.4177 -0.0634768 0.747553 
-0.0634768 5.61759 0.734857 
0.747553 0.734857 5.42612 
5.46728 0.0117334 0.724608 
0.0117334 5.58255 0.738785 
0.724608 0.738785 5.41158 
5.76247 0.322523 0.55056 
0.322523 5.90094 0.956806 
0.55056 0.956806 4.798 
4.99537 0.345227 -1.38307 
0.345227 5.03848 2.83677 
-1.38307 2.83677 6.07236 
5.43591 -0.0357735 -1.65954 
-0.0357735 5.25911 2.58457 
-1.65954 2.58457 5.41119 
5.31009 -0.00674526 -1.65586 
-0.00674526 5.58595 2.38304 
-1.65586 2.38304 5.21017 
5.80597 0.620133 -1.34936 
0.620133 6.02435 1.97836 
-1.34936 1.97836 4.27589 
8.4814 -0.133247 -1.54792 
-0.133247 8.42848 -1.70322 
-1.54792 -1.70322 7.24918 
8.06123 -0.00142475 -1.49801 
-0.00142475 8.03555 -1.68708 
-1.49801 -1.68708 8.06227 
7.94976 0.0848515 -1.4769 
0.0848515 7.91779 -1.56818 
-1.4769 -1.56818 8.29151 
8.33796 -0.0818968 -1.40364 
-0.0818968 7.99275 -1.593 
-1.40364 -1.593 7.82835 
3.05323 -0.101529 -1.87057 
-0.101529 3.30443 -2.06805 
-1.87057 -2.06805 3.15504 
3.50549 -0.0558536 -1.64822 
-0.0558536 3.47149 -2.34629 
-1.64822 -2.34629 2.53572 
2.95729 0.172496 -1.78141 
0.172496 3.12835 -2.06806 
-1.78141 -2.06806 3.42706 
3.1866 -0.224368 -1.60499 
-0.224368 3.45265 -2.09885 
-1.60499 -2.09885 2.87345 
6.21605 0.0895283 -1.53416 
0.0895283 6.59713 2.05205 
-1.53416 2.05205 7.49446 
6.704 -0.124772 -1.10818 
-0.124772 6.85586 1.7428 
-1.10818 1.7428 6.74777 
6.56866 -0.119263 -1.22386 
-0.119263 7.00355 1.74048 
-1.22386 1.74048 6.73542 
6.97458 0.278676 -1.01757 
0.278676 6.95977 1.39125 
-1.01757 1.39125 6.37329 
4.87707 -0.057152 1.36046 
-0.057152 4.81645 0.525082 
1.36046 0.525082 4.21366 
3.75646 0.0360678 1.05021 
0.0360678 4.25935 0.174825 
1.05021 0.174825 5.89137 
4.64364 -0.0125049 1.67251 
-0.0125049 4.45525 0.645875 
1.67251 0.645875 4.8083 
4.48574 -0.0335561 1.55182 
-0.0335561 4.58737 0.746228 
1.55182 0.746228 4.83408 
6.40832 -0.160009 -1.55835 
-0.160009 6.31898 1.54964 
-1.55835 1.54964 6.37847 
6.28213 -0.165762 -1.60461 
-0.165762 6.44224 1.36076 
-1.60461 1.36076 6.38141 
6.26547 0.0849654 -1.53797 
0.0849654 6.16665 1.80428 
-1.53797 1.80428 6.67367 
6.58834 0.0150894 -1.55921 
0.0150894 6.33434 1.29477 
-1.55921 1.29477 6.1831 
4.77648 -0.0235481 1.17495 
-0.0235481 4.68005 3.02137 
1.17495 3.02137 4.93563 
4.81126 -0.0207777 1.23286 
-0.0207777 4.90628 2.98654 
1.23286 2.98654 4.67462 
4.76427 -0.0522234 0.931166 
-0.0522234 4.70233 3.05755 
0.931166 3.05755 4.92556 
4.87405 0.0186264 1.13208 
0.0186264 4.72274 3.09748 
1.13208 3.09748 4.79537 
6.82451 0.217775 -3.64674 
0.217775 6.71334 -2.68524 
-3.64674 -2.68524 7.0648 
6.96814 -0.193008 -3.29941 
-0.193008 6.96702 -2.79659 
-3.29941 -2.79659 6.6675 
6.51436 -0.243614 -3.55672 
-0.243614 6.66252 -2.32704 
-3.55672 -2.32704 7.42577 
6.81416 0.270007 -3.45932 
0.270007 6.61513 -2.72934 
-3.45932 -2.72934 7.17336 
9.41284 -0.0804071 -1.51793 
-0.0804071 9.61824 2.61577 
-1.51793 2.61577 9.50719 
9.31397 0.0711378 -1.53081 
0.0711378 9.66792 2.62974 
-1.53081 2.62974 9.55638 
9.14939 -0.0390636 -1.71627 
-0.0390636 9.13716 2.49409 
-1.71627 2.49409 10.2517 
9.57094 -0.0686997 -1.39592 
-0.0686997 9.62694 2.56081 
-1.39592 2.56081 9.34038 
2.07825 0.0900799 0.211934 
0.0900799 1.93678 -2.35747 
0.211934 -2.35747 1.91768 
1.6945 -0.18636 0.200256 
-0.18636 1.92101 -2.41125 
0.200256 -2.41125 2.31719 
1.96277 -0.0614983 0.197104 
-0.0614983 1.88976 -2.43021 
0.197104 -2.43021 2.08017 
1.91436 0.0282882 0.339475 
0.0282882 1.83564 -2.58838 
0.339475 -2.58838 2.18271 
8.53644 0.35892 -1.43767 
0.35892 8.72292 -3.53841 
-1.43767 -3.53841 9.65349 
9.01272 -0.00218622 -1.66173 
-0.00218622 8.75009 -3.69001 
-1.66173 -3.69001 9.15004 
8.81286 -0.0797326 -1.67522 
-0.0797326 8.98483 -4.01187 
-1.67522 -4.01187 9.11516 
9.10253 0.124029 -1.66992 
0.124029 9.08863 -4.20718 
-1.66992 -4.20718 8.72169 
3.97328 0.0546335 2.57503 
0.0546335 3.67891 2.49779 
2.57503 2.49779 3.84145 
3.81961 -0.0883431 2.49236 
-0.0883431 3.82586 2.09674 
2.49236 2.09674 3.84817 
3.74329 0.132049 2.79017 
0.132049 3.75254 2.40131 
2.79017 2.40131 3.99781 
3.74912 0.101194 2.55572 
0.101194 3.64 2.32258 
2.55572 2.32258 4.10452 
1.27284 -0.178779 -2.02963 
-0.178779 1.24326 0.785408 
-2.02963 0.785408 1.13843 
1.36244 -0.390937 -1.85751 
-0.390937 0.829543 0.85486 
-1.85751 0.85486 1.46254 
1.35356 -0.288073 -2.45291 
-0.288073 1.3297 0.588741 
-2.45291 0.588741 0.971272 
1.18217 -0.0465125 -2.28081 
-0.0465125 1.15714 0.675229 
-2.28081 0.675229 1.31522 
4.79237 -0.277002 -0.731054 
-0.277002 4.99833 0.6556 
-0.731054 0.6556 3.52061 
4.51578 0.055639 -1.41923 
0.055639 4.75043 0.706412 
-1.41923 0.706412 4.0451 
4.23683 -0.235257 -1.37705 
-0.235257 4.02338 0.626815 
-1.37705 0.626815 5.0511 
4.57725 0.0894202 -1.35607 
0.0894202 4.56143 0.677845 
-1.35607 0.677845 4.17263 
3.39853 -0.124449 3.52178 
-0.124449 3.80842 -1.66397 
3.52178 -1.66397 3.52131 
3.42515 -0.333027 3.66862 
-0.333027 3.89936 -1.78291 
3.66862 -1.78291 3.40375 
3.5284 0.0803438 3.95574 
0.0803438 4.11153 -1.41151 
3.95574 -1.41151 3.08833 
3.45399 0.245458 3.39335 
0.245458 3.5453 -1.64945 
3.39335 -1.64945 3.72898 
3.79686 0.239072 -2.15815 
0.239072 2.79628 -4.50406 
-2.15815 -4.50406 3.0845 
3.1955 -0.290283 -1.79206 
-0.290283 2.43461 -3.08651 
-1.79206 -3.08651 4.04752 
3.21761 -0.293645 -2.00834 
-0.293645 3.11117 -3.47642 
-2.00834 -3.47642 3.34886 
3.66075 0.376708 -2.42792 
0.376708 4.08675 -3.50139 
-2.42792 -3.50139 1.93013 
3.53408 0.00505322 0.997745 
0.00505322 4.07737 -1.37744 
0.997745 -1.37744 4.17275 
4.32722 -0.0127278 0.716714 
-0.0127278 3.83112 -1.64936 
0.716714 -1.64936 3.62586 
3.70615 -0.0885691 0.803239 
-0.0885691 4.11026 -1.46805 
0.803239 -1.46805 3.96778 
3.80773 -0.0600788 0.972345 
-0.0600788 3.73758 -1.66205 
0.972345 -1.66205 4.23889 
1.24782 -0.126966 4.01269 
-0.126966 1.45858 -0.581276 
4.01269 -0.581276 1.55143 
1.47013 0.225145 4.27777 
0.225145 1.44459 -0.598554 
4.27777 -0.598554 1.34311 
1.55241 0.120764 4.38315 
0.120764 1.33699 -0.230635 
4.38315 -0.230635 1.36842 
1.12653 0.366747 4.13837 
0.366747 1.72738 -0.208308 
4.13837 -0.208308 1.40392 
8.72661 0.121692 1.81763 
0.121692 8.72429 -2.69034 
1.81763 -2.69034 8.80754 
9.54564 -0.0556029 2.03769 
-0.0556029 8.57084 -2.4002 
2.03769 -2.4002 8.14195 
8.94177 -0.256821 1.18421 
-0.256821 7.76775 -2.71342 
1.18421 -2.71342 9.54892 
8.66346 -0.0108482 1.63524 
-0.0108482 8.70607 -2.79314 
1.63524 -2.79314 8.88891 
6.76055 -0.0782123 4.07985 
-0.0782123 6.77512 2.60109 
4.07985 2.60109 8.78943 
8.08362 0.243776 4.04474 
0.243776 8.38515 1.45482 
4.04474 1.45482 5.85632 
7.44986 -0.262489 3.21646 
-0.262489 6.99477 1.89987 
3.21646 1.89987 7.88046 
7.34501 -0.16627 3.51023 
-0.16627 7.54732 2.04984 
3.51023 2.04984 7.43277 
3.36469 -0.0853692 -4.27486 
-0.0853692 3.22386 -1.08899 
-4.27486 -1.08899 6.18134 
4.79493 0.0974029 -4.45118 
0.0974029 5.3077 -2.03932 
-4.45118 -2.03932 2.66725 
4.51306 0.367225 -3.24685 
0.367225 4.21886 -0.608601 
-3.24685 -0.608601 4.03797 
4.29451 0.0331023 -3.56389 
0.0331023 4.48485 -1.54141 
-3.56389 -1.54141 3.99052 
8.19565 0.00923542 1.19776 
0.00923542 8.01742 -0.449965 
1.19776 -0.449965 8.44652 
8.27422 0.00819595 1.10359 
0.00819595 8.56035 -0.452628 
1.10359 -0.452628 7.82502 
8.22023 0.0837201 1.23718 
0.0837201 8.37426 -0.399247 
1.23718 -0.399247 8.0651 
8.18252 -0.00861535 1.11776 
-0.00861535 8.27524 -0.408023 
1.11776 -0.408023 8.20184 
8.66218 0.114533 -1.49442 
0.114533 8.79548 -3.40087 
-1.49442 -3.40087 8.85238 
8.89931 -0.301516 -1.43314 
-0.301516 8.86647 -3.41004 
-1.43314 -3.41004 8.54426 
8.60513 -0.279631 -1.57881 
-0.279631 8.56627 -3.4375 
-1.57881 -3.4375 9.13864 
8.76572 0.0117396 -1.48169 
0.0117396 8.75626 -3.37697 
-1.48169 -3.37697 8.78806 
0.695893 -0.00924985 0.656032 
-0.00924985 0.754917 1.08581 
0.656032 1.08581 -0.266917 
0.256928 0.0926958 0.560523 
0.0926958 0.58529 1.28604 
0.560523 1.28604 0.341676 
0.251351 -0.0848794 0.592335 
-0.0848794 0.611535 1.24177 
0.592335 1.24177 0.321009 
0.2838 -0.0487315 0.618914 
-0.0487315 0.41118 1.3148 
0.618914 1.3148 0.488914 
8.12836 0.349316 4.44033 
0.349316 6.55339 1.29008 
4.44033 1.29008 5.90819 
7.0003 -0.00164243 4.16922 
-0.00164243 6.74933 1.2175 
4.16922 1.2175 6.8403 
5.53665 -0.292188 4.60905 
-0.292188 7.29 1.38221 
4.60905 1.38221 7.76328 
6.70705 0.083624 3.21115 
0.083624 6.65424 0.785048 
3.21115 0.785048 7.22864 
3.6762 -0.0818043 3.29222 
-0.0818043 3.85228 3.24555 
3.29222 3.24555 3.66058 
3.84257 0.00256557 3.02071 
0.00256557 4.50287 2.76513 
3.02071 2.76513 2.84361 
3.60631 -0.0216406 3.09181 
-0.0216406 3.95235 3.08689 
3.09181 3.08689 3.63038 
3.34719 0.0831685 2.8827 
0.0831685 3.54838 2.98988 
2.8827 2.98988 4.29348 
4.06968 -0.0480152 -0.281575 
-0.0480152 4.12569 -3.4723 
-0.281575 -3.4723 4.08905 
4.03653 -0.00809392 -0.211396 
-0.00809392 4.06746 -3.55288 
-0.211396 -3.55288 4.18042 
4.02622 0.242773 -0.280458 
0.242773 4.43777 -3.67244 
-0.280458 -3.67244 3.82042 
3.88876 0.0705524 -0.37462 
0.0705524 3.96904 -3.61283 
-0.37462 -3.61283 4.42662 
1.25296 0.0341628 -0.780065 
0.0341628 1.46025 -0.789238 
-0.780065 -0.789238 0.806908 
0.88112 0.0418908 -0.53201 
0.0418908 1.31263 -0.837734 
-0.53201 -0.837734 1.32637 
1.38715 0.0737162 -0.695423 
0.0737162 1.16105 -0.697938 
-0.695423 -0.697938 0.971921 
1.21207 0.0334233 -0.694942 
0.0334233 1.18361 -0.789854 
-0.694942 -0.789854 1.12444 
3.16431 -0.267171 2.89198 
-0.267171 2.93894 2.05875 
2.89198 2.05875 3.10441 
2.4438 0.467714 2.38725 
0.467714 3.02036 2.12887 
2.38725 2.12887 3.7435 
3.09238 -0.236675 2.49774 
-0.236675 3.0156 2.22767 
2.49774 2.22767 3.09968 
3.32208 -0.029351 2.37949 
-0.029351 3.25154 2.34473 
2.37949 2.34473 2.63404 
9.3454 0.0527628 0.339029 
0.0527628 9.38573 -1.69977 
0.339029 -1.69977 9.71276 
9.41846 0.0899582 0.264685 
0.0899582 9.3156 -1.59476 
0.264685 -1.59476 9.70983 
9.21482 0.0159845 0.420429 
0.0159845 9.20602 -1.56453 
0.420429 -1.56453 10.0231 
9.51565 0.0100902 0.283835 
0.0100902 9.51381 -1.59865 
0.283835 -1.59865 9.41443 
3.08198 0.107458 -0.566952 
0.107458 3.44718 -3.27254 
-0.566952 -3.27254 3.20238 
3.13526 -0.147352 -0.794063 
-0.147352 3.11261 -3.23008 
-0.794063 -3.23008 3.48367 
3.5774 0.00725117 -0.422891 
0.00725117 3.57979 -3.53072 
-0.422891 -3.53072 2.57435 
3.25108 0.199717 -0.688894 
0.199717 3.55334 -3.29474 
-0.688894 -3.29474 2.92713 
1.45546 -0.133492 -3.16352 
-0.133492 1.69008 0.976113 
-3.16352 0.976113 2.59938 
1.80622 0.089161 -3.08144 
0.089161 1.82404 1.29696 
-3.08144 1.29696 2.11466 
1.98836 0.0569316 -3.06125 
0.0569316 1.92374 1.26784 
-3.06125 1.26784 1.83282 
1.8213 0.0044149 -2.97669 
0.0044149 1.82586 1.20161 
-2.97669 1.20161 2.09776 
6.41911 -0.0105234 2.67426 
-0.0105234 6.25198 -1.36707 
2.67426 -1.36707 6.57879 
6.53865 0.0182828 2.76956 
0.0182828 6.40987 -1.32316 
2.76956 -1.32316 6.30137 
6.34921 -0.00323979 2.83788 
-0.00323979 6.34251 -1.34673 
2.83788 -1.34673 6.55817 
6.13758 -0.197723 2.31853 
-0.197723 6.1263 -1.25051 
2.31853 -1.25051 6.98601 
3.08666 -0.0185893 1.28185 
-0.0185893 3.46301 -4.09104 
1.28185 -4.09104 2.82439 
3.10392 0.0716886 2.00929 
0.0716886 2.87345 -3.82073 
2.00929 -3.82073 3.3967 
3.07431 0.496908 1.42893 
0.496908 3.13052 -3.73779 
1.42893 -3.73779 3.16924 
2.77619 0.0378547 1.81691 
0.0378547 3.25983 -3.58396 
1.81691 -3.58396 3.33805 
1.42827 -0.0908698 1.91195 
-0.0908698 1.31403 0.074503 
1.91195 0.074503 1.10783 
1.22341 0.058472 1.90906 
0.058472 1.22787 0.17309 
1.90906 0.17309 1.39884 
1.42908 -0.0740611 2.16699 
-0.0740611 1.22698 0.385053 
2.16699 0.385053 1.19406 
1.41933 0.00642346 2.24931 
0.00642346 0.861794 0.479391 
2.24931 0.479391 1.569 
5.41577 -0.28187 -1.15914 
-0.28187 6.16668 0.306234 
-1.15914 0.306234 5.66485 
5.49531 -0.294116 -1.21436 
-0.294116 5.9802 0.333096 
-1.21436 0.333096 5.77179 
5.80043 -0.0940376 -1.51467 
-0.0940376 5.92409 0.46601 
-1.51467 0.46601 5.52278 
5.52977 -0.0453475 -1.03269 
-0.0453475 5.9342 0.600131 
-1.03269 0.600131 5.78333 
1.5496 0.138061 3.40475 
0.138061 1.16893 -2.02368 
3.40475 -2.02368 1.06984 
1.3883 -0.136757 3.04411 
-0.136757 1.14662 -1.354 
3.04411 -1.354 1.25346 
2.11514 -0.00272365 3.06273 
-0.00272365 0.931845 -1.17629 
3.06273 -1.17629 0.741385 
1.28665 -0.119823 3.54579 
-0.119823 1.0115 -2.12147 
3.54579 -2.12147 1.49022 
5.3078 -0.0631639 -1.781 
-0.0631639 4.99077 -3.02399 
-1.781 -3.02399 5.23372 
5.07234 -0.0539502 -1.81416 
-0.0539502 5.12754 -3.06799 
-1.81416 -3.06799 5.33241 
5.39135 0.157433 -1.67625 
0.157433 4.96784 -3.03242 
-1.67625 -3.03242 5.1731 
5.36311 -0.0404828 -1.76572 
-0.0404828 5.21537 -2.75883 
-1.76572 -2.75883 4.95381 
4.49715 0.179538 -1.7445 
0.179538 4.7166 -1.94276 
-1.7445 -1.94276 3.71642 
3.87873 0.103696 -2.01674 
0.103696 4.44562 -2.45761 
-2.01674 -2.45761 4.60581 
4.18029 0.0681124 -1.86689 
0.0681124 4.29355 -2.2542 
-1.86689 -2.2542 4.45632 
3.48343 0.11623 -2.34115 
0.11623 3.82001 -1.78811 
-2.34115 -1.78811 5.62673 
8.50885 0.101302 1.48234 
0.101302 8.50592 -3.28366 
1.48234 -3.28366 7.59758 
8.26634 -0.0216328 1.22525 
-0.0216328 8.27193 -3.25267 
1.22525 -3.25267 8.07408 
8.16388 -0.0130427 1.22157 
-0.0130427 8.07347 -3.30057 
1.22157 -3.30057 8.37501 
8.31461 -0.00167987 1.11448 
-0.00167987 8.16929 -3.30308 
1.11448 -3.30308 8.12845 
8.42265 -0.235074 1.86771 
-0.235074 8.62423 -0.51669 
1.86771 -0.51669 9.31381 
8.78955 -0.450918 1.55965 
-0.450918 9.14289 -0.993119 
1.55965 -0.993119 8.42826 
8.77364 0.0373198 1.85279 
0.0373198 8.75987 -0.877446 
1.85279 -0.877446 8.82718 
8.84009 0.0261075 1.90145 
0.0261075 8.71579 -0.796972 
1.90145 -0.796972 8.80482 
3.55892 0.130855 -2.35443 
0.130855 3.83723 0.638913 
-2.35443 0.638913 4.02601 
4.5105 -0.255992 -2.17409 
-0.255992 3.75732 0.280719 
-2.17409 0.280719 3.15434 
3.92415 0.0721905 -2.50408 
0.0721905 3.84041 0.71522 
-2.50408 0.71522 3.6576 
3.73875 -0.0322076 -2.44445 
-0.0322076 3.88376 0.479715 
-2.44445 0.479715 3.79966 
8.06847 -0.0955563 0.953331 
-0.0955563 8.40434 -1.95178 
0.953331 -1.95178 7.70428 
8.28178 -0.0207006 0.591496 
-0.0207006 8.26633 -1.88864 
0.591496 -1.88864 7.62897 
7.99183 -0.0429074 0.810724 
-0.0429074 8.00141 -2.05894 
0.810724 -2.05894 8.18384 
8.00583 -0.0181004 0.850755 
-0.0181004 8.14713 -2.02342 
0.850755 -2.02342 8.02411 
8.18892 0.0187244 -1.10168 
0.0187244 8.10879 -3.01116 
-1.10168 -3.01116 7.54369 
8.00763 -0.0169949 -1.21482 
-0.0169949 8.01697 -3.14171 
-1.21482 -3.14171 7.81679 
7.91544 0.0480346 -1.17519 
0.0480346 7.86411 -2.99249 
-1.17519 -2.99249 8.06184 
8.04982 0.0404799 -1.27854 
0.0404799 8.03792 -2.86974 
-1.27854 -2.86974 7.75366 
4.75387 -0.0228374 -2.57625 
-0.0228374 4.04684 1.59664 
-2.57625 1.59664 4.50573 
3.44662 0.199648 -2.0541 
0.199648 4.36718 1.11333 
-2.0541 1.11333 5.49264 
4.38447 -0.0357789 -2.94192 
-0.0357789 4.09137 1.95715 
-2.94192 1.95715 4.8306 
4.98069 -0.158566 -2.64243 
-0.158566 4.70437 1.61144 
-2.64243 1.61144 3.62138 
8.77761 -0.493657 0.918456 
-0.493657 8.31838 -2.28376 
0.918456 -2.28376 9.07129 
8.83361 -0.0067356 0.67212 
-0.0067356 8.68648 -2.1912 
0.67212 -2.1912 8.64719 
8.83178 0.0887831 0.549483 
0.0887831 8.60484 -2.18846 
0.549483 -2.18846 8.73066 
8.93133 -0.299371 0.0682553 
-0.299371 8.83329 -2.05869 
0.0682553 -2.05869 8.40266 
5.66084 0.0858852 2.97392 
0.0858852 6.21491 -1.51427 
2.97392 -1.51427 6.03722 
5.75508 -0.0205561 2.68634 
-0.0205561 6.08499 -1.09004 
2.68634 -1.09004 6.0729 
5.55116 0.312187 2.64342 
0.312187 6.24579 -1.45079 
2.64342 -1.45079 6.11602 
6.20637 0.0543099 2.49503 
0.0543099 5.92566 -0.901988 
2.49503 -0.901988 5.78094 
3.31875 0.0282234 -2.76628 
0.0282234 3.42178 1.74031 
-2.76628 1.74031 3.3908 
3.4745 -0.0760994 -2.652 
-0.0760994 3.55628 1.69241 
-2.652 1.69241 3.10055 
3.6052 0.0854814 -2.57694 
0.0854814 3.32341 2.01087 
-2.57694 2.01087 3.20272 
3.35932 0.136083 -2.56157 
0.136083 3.33699 2.08698 
-2.56157 2.08698 3.43502 
3.26088 -0.162248 -1.7772 
-0.162248 3.66509 0.52716 
-1.7772 0.52716 3.81109 
3.46681 -0.174882 -1.60206 
-0.174882 3.69065 0.505159 
-1.60206 0.505159 3.5796 
4.04909 0.0659136 -1.47806 
0.0659136 3.63897 0.190201 
-1.47806 0.190201 3.049 
3.30102 -0.046388 -1.69232 
-0.046388 3.74667 0.459852 
-1.69232 0.459852 3.68937 
4.60185 -0.018816 -0.0914203 
-0.018816 4.86971 -3.1955 
-0.0914203 -3.1955 5.63156 
4.97436 0.0654952 -0.148688 
0.0654952 4.96115 -3.42729 
-0.148688 -3.42729 5.16761 
5.11935 -0.0201279 -0.190545 
-0.0201279 5.07752 -3.48037 
-0.190545 -3.48037 4.90624 
5.0481 -0.064732 -0.225735 
-0.064732 4.98024 -3.4332 
-0.225735 -3.4332 5.07478 
0.601016 -0.195247 0.41392 
-0.195247 0.801658 -1.06508 
0.41392 -1.06508 -0.103783 
0.587128 -0.154814 0.676512 
-0.154814 0.462041 -1.19955 
0.676512 -1.19955 0.249722 
0.606464 -0.133639 0.63808 
-0.133639 0.304511 -1.3573 
0.63808 -1.3573 0.387916 
0.46346 -0.114283 0.805419 
-0.114283 0.38498 -1.29839 
0.805419 -1.29839 0.45045 
6.15471 -0.220586 -1.24919 
-0.220586 6.90291 -1.78847 
-1.24919 -1.78847 6.04873 
5.81794 -0.0912283 -1.72976 
-0.0912283 6.52021 -2.38779 
-1.72976 -2.38779 6.7682 
6.34202 -0.0129149 -1.58097 
-0.0129149 6.44031 -2.14112 
-1.58097 -2.14112 6.32402 
6.32724 0.0832296 -1.5047 
0.0832296 6.38621 -1.94648 
-1.5047 -1.94648 6.3929 
7.89106 0.0502979 1.83874 
0.0502979 7.79261 -1.47276 
1.83874 -1.47276 7.9332 
7.98883 -0.114963 1.78659 
-0.114963 8.17602 -1.12687 
1.78659 -1.12687 7.45201 
7.92518 0.023677 1.83094 
0.023677 7.97225 -1.43074 
1.83094 -1.43074 7.71944 
8.02252 -0.0593151 1.61168 
-0.0593151 7.98631 -1.35221 
1.61168 -1.35221 7.60803 
8.69406 0.0950467 -3.10113 
0.0950467 8.61006 0.66983 
-3.10113 0.66983 8.89189 
8.93389 0.246777 -3.09585 
0.246777 8.7607 0.633643 
-3.09585 0.633643 8.50142 
8.64143 0.0655531 -3.07268 
0.0655531 8.65049 0.545764 
-3.07268 0.545764 8.90409 
8.71425 -0.10161 -2.91472 
-0.10161 8.74796 0.719177 
-2.91472 0.719177 8.73379 
8.85636 0.239105 -1.44035 
0.239105 8.55919 0.180222 
-1.44035 0.180222 9.05186 
9.26443 0.213561 -1.35411 
0.213561 8.59686 0.33866 
-1.35411 0.33866 8.60611 
8.62446 0.162061 -1.74819 
0.162061 8.75814 -0.292461 
-1.74819 -0.292461 9.08481 
8.88513 -0.0849953 -1.60699 
-0.0849953 8.83778 -0.242895 
-1.60699 -0.242895 8.7445 
3.94174 -0.161116 2.55053 
-0.161116 4.19653 0.981759 
2.55053 0.981759 4.27947 
3.96206 -0.100183 2.73548 
-0.100183 4.29254 0.939036 
2.73548 0.939036 4.16314 
4.68271 0.172081 2.58876 
0.172081 3.98365 0.988028 
2.58876 0.988028 3.75138 
3.85756 0.0393037 2.21546 
0.0393037 3.82208 0.829148 
2.21546 0.829148 4.7381 
6.9329 0.015129 2.08323 
0.015129 6.80783 3.58423 
2.08323 3.58423 6.915 
6.65811 -0.0338481 2.12541 
-0.0338481 6.7848 3.49165 
2.12541 3.49165 7.21281 
6.83811 0.294054 1.9282 
0.294054 7.16103 3.7764 
1.9282 3.7764 6.65659 
6.82253 -0.0389377 2.04135 
-0.0389377 6.82041 3.7474 
2.04135 3.7474 7.01279 
4.08363 -0.146328 -1.30072 
-0.146328 3.9069 -1.50855 
-1.30072 -1.50855 3.961 
3.9105 0.0742057 -1.44155 
0.0742057 3.76277 -1.44149 
-1.44155 -1.44149 4.27826 
4.33357 0.000576222 -1.77636 
0.000576222 3.62827 -2.07379 
-1.77636 -2.07379 3.98968 
4.31233 0.140217 -1.86018 
0.140217 3.38902 -1.99947 
-1.86018 -1.99947 4.25018 
3.8968 0.205055 -1.99842 
0.205055 3.74888 -1.94913 
-1.99842 -1.94913 3.60888 
4.03281 0.246123 -1.94749 
0.246123 3.64613 -2.11645 
-1.94749 -2.11645 3.57562 
3.50827 -0.055993 -1.64228 
-0.055993 3.72927 -2.11226 
-1.64228 -2.11226 4.01702 
3.71009 -0.152501 -1.99122 
-0.152501 4.25991 -2.18483 
-1.99122 -2.18483 3.28457 
2.26074 0.112362 -3.2239 
0.112362 2.1395 0.131199 
-3.2239 0.131199 1.7789 
2.24146 -0.0736699 -3.10852 
-0.0736699 1.73867 0.287548 
-3.10852 0.287548 2.19902 
1.8959 0.207192 -2.71531 
0.207192 1.51774 0.44979 
-2.71531 0.44979 2.76551 
2.17388 -0.0847367 -2.97149 
-0.0847367 1.94636 0.347738 
-2.97149 0.347738 2.0589 
8.31341 0.0105858 2.2908 
0.0105858 8.16996 -2.128 
2.2908 -2.128 7.35318 
7.97958 0.0890941 2.33889 
0.0890941 8.09117 -1.98662 
2.33889 -1.98662 7.7658 
7.87189 0.0133757 2.25519 
0.0133757 7.90546 -1.95468 
2.25519 -1.95468 8.05918 
7.96622 0.0253885 2.18317 
0.0253885 8.0062 -1.94945 
2.18317 -1.94945 7.86413 
4.70264 -0.0355657 -2.79858 
-0.0355657 4.41326 -0.413304 
-2.79858 -0.413304 4.68412 
4.70368 -0.220524 -2.78657 
-0.220524 4.32564 -0.318368 
-2.78657 -0.318368 4.7707 
4.58826 0.0399169 -2.40474 
0.0399169 4.36699 -0.666982 
-2.40474 -0.666982 4.84477 
4.59165 0.164069 -2.85321 
0.164069 4.67492 -0.338124 
-2.85321 -0.338124 4.53346 
1.25546 0.146311 -2.85939 
0.146311 1.40189 0.150653 
-2.85939 0.150653 1.28931 
1.56965 -0.564653 -2.69284 
-0.564653 1.58391 0.204924 
-2.69284 0.204924 0.793097 
1.15672 -0.178382 -2.86149 
-0.178382 1.28743 -0.0358749 
-2.86149 -0.0358749 1.50252 
1.2704 0.0390366 -2.7957 
0.0390366 1.37813 0.120299 
-2.7957 0.120299 1.29813 
2.36468 0.0580989 -1.52233 
0.0580989 2.87164 -0.288589 
-1.52233 -0.288589 2.46042 
2.43448 0.212093 -1.74583 
0.212093 2.67611 -0.112785 
-1.74583 -0.112785 2.58614 
1.88649 -0.0437968 -0.746257 
-0.0437968 2.07714 -0.16161 
-0.746257 -0.16161 3.73311 
3.08871 0.0708667 -1.58821 
0.0708667 2.99128 0.665272 
-1.58821 0.665272 1.61675 
8.46998 -0.149329 -2.06437 
-0.149329 8.40539 -3.32558 
-2.06437 -3.32558 8.13425 
8.28422 0.0127616 -2.27782 
0.0127616 8.23309 -3.63644 
-2.27782 -3.63644 8.49231 
8.32097 0.0335026 -2.34131 
0.0335026 8.38004 -3.63993 
-2.34131 -3.63993 8.30861 
8.44393 -0.0482336 -2.18958 
-0.0482336 8.19095 -3.64959 
-2.18958 -3.64959 8.37474 
2.13712 0.113303 1.66256 
0.113303 1.92049 0.42286 
1.66256 0.42286 1.60023 
1.84821 0.0474699 1.53199 
0.0474699 1.9014 0.238751 
1.53199 0.238751 1.90823 
1.787 0.141344 1.55272 
0.141344 1.72739 0.0539256 
1.55272 0.0539256 2.14345 
1.86058 0.0786839 1.68292 
0.0786839 1.88213 0.311628 
1.68292 0.311628 1.91512 
1.49331 0.0112845 -1.76267 
0.0112845 1.33008 -4.01836 
-1.76267 -4.01836 4.59824 
2.73314 0.197578 -1.72831 
0.197578 2.32822 -3.32461 
-1.72831 -3.32461 2.36027 
3.16831 -0.0867771 -2.73932 
-0.0867771 3.69799 -3.80602 
-2.73932 -3.80602 0.555317 
2.54163 0.408574 -1.78889 
0.408574 2.38014 -2.84651 
-1.78889 -2.84651 2.49984 
8.76952 -0.221752 0.293219 
-0.221752 8.50297 -1.41898 
0.293219 -1.41898 9.12917 
8.84912 -0.0258164 -0.0746863 
-0.0258164 8.71505 -1.39949 
-0.0746863 -1.39949 8.8375 
8.98025 -0.165628 -0.121037 
-0.165628 8.86277 -1.51476 
-0.121037 -1.51476 8.55865 
8.77484 -0.00642533 0.052041 
-0.00642533 8.82457 -1.31812 
0.052041 -1.31812 8.80225 
5.46045 -0.234082 -2.96625 
-0.234082 4.68548 2.40627 
-2.96625 2.40627 5.94721 
5.11056 -0.070126 -2.46667 
-0.070126 5.4854 2.27144 
-2.46667 2.27144 5.49717 
5.31969 0.0283627 -2.61739 
0.0283627 5.26926 2.43294 
-2.61739 2.43294 5.50418 
5.75924 -0.00307443 -2.18612 
-0.00307443 5.4963 1.93598 
-2.18612 1.93598 4.8376 
8.17545 -0.0173294 -2.58742 
-0.0173294 9.17102 -0.436139 
-2.58742 -0.436139 9.30767 
9.04336 0.0043671 -2.61533 
0.0043671 8.75842 -0.655739 
-2.61533 -0.655739 8.85236 
8.99377 0.0270648 -2.5297 
0.0270648 8.95638 -0.685652 
-2.5297 -0.685652 8.704 
8.88101 0.0104245 -2.60554 
0.0104245 8.94309 -0.550088 
-2.60554 -0.550088 8.83004 
3.74443 -0.0306777 -4.23953 
-0.0306777 4.06372 -1.43254 
-4.23953 -1.43254 3.41012 
4.82692 0.338642 -3.6684 
0.338642 3.41205 -1.07792 
-3.6684 -1.07792 2.9793 
3.61529 -0.145881 -3.97183 
-0.145881 3.97973 -1.42722 
-3.97183 -1.42722 3.62326 
3.76124 0.0443165 -4.00783 
0.0443165 3.8364 -1.27113 
-4.00783 -1.27113 3.62064 
3.6495 0.128977 0.513287 
0.128977 3.4857 1.20236 
0.513287 1.20236 3.75408 
3.8797 0.335434 0.575235 
0.335434 3.65859 1.15566 
0.575235 1.15566 3.35099 
3.57464 0.0137629 0.299257 
0.0137629 3.75063 1.26759 
0.299257 1.26759 3.56401 
3.59384 -0.0506767 0.223865 
-0.0506767 3.46458 1.2599 
0.223865 1.2599 3.83086 
7.72796 0.0337318 2.25247 
0.0337318 8.0322 -2.52682 
2.25247 -2.52682 7.93677 
8.00601 0.041828 2.30106 
0.041828 7.92199 -2.44386 
2.30106 -2.44386 7.76893 
8.3049 -0.0461813 2.24509 
-0.0461813 7.8509 -2.44976 
2.24509 -2.44976 7.54113 
8.04966 -0.00694022 2.26497 
-0.00694022 8.0106 -2.12328 
2.26497 -2.12328 7.63667 
1.32394 0.0412523 -2.72036 
0.0412523 1.61153 -1.25723 
-2.72036 -1.25723 1.18146 
0.807179 0.201681 -2.71481 
0.201681 1.58278 -1.26793 
-2.71481 -1.26793 1.72698 
1.46293 0.0144751 -2.70937 
0.0144751 1.47993 -1.41899 
-2.70937 -1.41899 1.17408 
1.36835 -0.0881951 -2.84019 
-0.0881951 1.34351 -1.32799 
-2.84019 -1.32799 1.40508 
6.33179 -0.0212836 -4.31451 
-0.0212836 6.36455 0.231806 
-4.31451 0.231806 6.12871 
5.98802 0.0552038 -4.65485 
0.0552038 6.05994 0.564454 
-4.65485 0.564454 6.77709 
6.29093 0.00857224 -4.24072 
0.00857224 6.38347 0.299381 
-4.24072 0.299381 6.15065 
6.29658 0.23368 -3.85467 
0.23368 6.70622 0.156845 
-3.85467 0.156845 5.82224 
8.92286 0.0238524 3.13063 
0.0238524 8.87166 -0.99931 
3.13063 -0.99931 9.00449 
9.0357 0.018489 3.59276 
0.018489 8.07997 -1.05422 
3.59276 -1.05422 9.68333 
8.70725 -0.0734047 2.98279 
-0.0734047 8.98419 -0.906081 
2.98279 -0.906081 9.10756 
9.91516 0.308991 2.99806 
0.308991 8.66432 -1.12471 
2.99806 -1.12471 8.21953 
4.88851 -0.231414 -2.15528 
-0.231414 5.01609 -0.9114 
-2.15528 -0.9114 4.93495 
4.82687 -0.166284 -2.19335 
-0.166284 4.75236 -1.05145 
-2.19335 -1.05145 5.26032 
4.93207 0.103087 -1.98306 
0.103087 5.15345 -0.977283 
-1.98306 -0.977283 4.75403 
4.88578 -0.0569177 -2.42227 
-0.0569177 4.69695 -0.851475 
-2.42227 -0.851475 5.25682 
2.25721 0.0775448 1.83585 
0.0775448 2.15926 -2.56253 
1.83585 -2.56253 2.08812 
2.06454 -0.119913 1.87215 
-0.119913 2.00037 -2.60631 
1.87215 -2.60631 2.43968 
2.16571 -0.0416758 1.70685 
-0.0416758 1.9882 -2.74451 
1.70685 -2.74451 2.35068 
2.11129 0.0175882 2.1056 
0.0175882 1.90755 -2.92804 
2.1056 -2.92804 2.48574 
3.58221 0.00880292 1.10007 
0.00880292 3.59629 4.41381 
1.10007 4.41381 3.66081 
3.59773 -0.028736 1.06656 
-0.028736 3.0218 4.74967 
1.06656 4.74967 4.21978 
3.40626 0.0783898 1.05647 
0.0783898 4.72024 4.28465 
1.05647 4.28465 2.71281 
3.56487 0.0920363 1.41828 
0.0920363 3.17376 3.93585 
1.41828 3.93585 4.10068 
8.08136 -0.120538 -0.397966 
-0.120538 8.11166 -4.1042 
-0.397966 -4.1042 8.62443 
8.26917 0.116335 -0.134753 
0.116335 8.29099 -4.12951 
-0.134753 -4.12951 8.25728 
8.56288 0.0807766 0.0411763 
0.0807766 8.38263 -4.36377 
0.0411763 -4.36377 7.87194 
8.18501 0.0360013 -0.0814312 
0.0360013 8.17417 -4.23989 
-0.0814312 -4.23989 8.45827 
6.27697 -0.152439 -3.72597 
-0.152439 6.25832 2.58981 
-3.72597 2.58981 6.11602 
6.46384 -0.174555 -3.75668 
-0.174555 6.55899 2.85894 
-3.75668 2.85894 5.62847 
5.72702 0.591132 -3.46383 
0.591132 5.78624 2.81095 
-3.46383 2.81095 7.13805 
6.1826 -0.273712 -3.36813 
-0.273712 6.5398 2.07342 
-3.36813 2.07342 5.92891 
4.1264 -0.0302402 -0.366661 
-0.0302402 4.16066 -0.551364 
-0.366661 -0.551364 4.57012 
4.34482 0.0328437 -0.338068 
0.0328437 4.26376 -0.592532 
-0.338068 -0.592532 4.2486 
4.27232 0.0980698 -0.327392 
0.0980698 4.19691 -0.626821 
-0.327392 -0.626821 4.38795 
4.36676 -0.030909 -0.146752 
-0.030909 4.45838 -0.794126 
-0.146752 -0.794126 4.03205 
8.04017 0.0463789 1.71289 
0.0463789 7.65924 -2.51626 
1.71289 -2.51626 7.26215 
7.74408 0.026269 1.96313 
0.026269 7.62886 -2.77376 
1.96313 -2.77376 7.58862 
7.90655 0.00690617 1.55641 
0.00690617 7.96922 -2.60582 
1.55641 -2.60582 7.08578 
8.08021 0.166302 1.61903 
0.166302 7.43726 -2.7318 
1.61903 -2.7318 7.44409 
2.97961 0.331693 -0.242313 
0.331693 2.90946 1.3753 
-0.242313 1.3753 2.65905 
2.98643 0.540182 -0.155792 
0.540182 2.87389 1.23068 
-0.155792 1.23068 2.68781 
3.12764 -0.0118676 -0.16885 
-0.0118676 3.06172 1.04612 
-0.16885 1.04612 2.35876 
2.89332 0.270595 -0.674665 
0.270595 2.75795 1.23286 
-0.674665 1.23286 2.89686 
9.44374 -0.00243107 0.292547 
-0.00243107 9.41105 -1.88829 
0.292547 -1.88829 9.60763 
9.17398 0.0227976 0.416139 
0.0227976 9.16868 -1.94545 
0.416139 -1.94545 10.1198 
9.5028 0.00785114 0.246826 
0.00785114 9.28343 -1.97822 
0.246826 -1.97822 9.6762 
9.53853 0.0313665 0.20714 
0.0313665 9.56652 -1.92076 
0.20714 -1.92076 9.35737 
2.55606 0.621213 1.85747 
0.621213 2.8108 4.51456 
1.85747 4.51456 1.77085 
2.36331 -1.06693 1.8772 
-1.06693 1.34478 3.9662 
1.8772 3.9662 3.42962 
2.22081 0.250007 1.76625 
0.250007 2.67149 4.26472 
1.76625 4.26472 2.24541 
2.48585 0.616739 0.721952 
0.616739 2.75048 3.24076 
0.721952 3.24076 1.90137 
3.62265 0.159579 -2.62229 
0.159579 3.23878 -4.07436 
-2.62229 -4.07436 3.34159 
3.0895 0.491182 -2.65632 
0.491182 3.34898 -3.68032 
-2.65632 -3.68032 3.76453 
1.57159 -0.105444 -2.12314 
-0.105444 2.90121 -2.7684 
-2.12314 -2.7684 5.73022 
3.94002 -0.549985 -2.45422 
-0.549985 4.62338 -3.07601 
-2.45422 -3.07601 1.63961 
3.22736 0.403137 0.646076 
0.403137 3.51305 -2.02813 
0.646076 -2.02813 4.95476 
4.01388 -0.0954737 0.581491 
-0.0954737 3.7786 -2.51273 
0.581491 -2.51273 3.90268 
4.08522 -0.0883271 0.548872 
-0.0883271 3.68088 -2.43246 
0.548872 -2.43246 3.92906 
3.84258 0.328359 1.2139 
0.328359 4.59864 -2.4404 
1.2139 -2.4404 3.25394 
7.84283 -0.109336 0.370412 
-0.109336 7.85633 3.32824 
0.370412 3.32824 6.97627 
7.57865 0.417776 0.613113 
0.417776 7.81938 3.68651 
0.613113 3.68651 7.2774 
7.65459 0.157767 0.352821 
0.157767 7.76949 3.74087 
0.352821 3.74087 7.25134 
7.30101 -0.0575822 0.806061 
-0.0575822 7.27509 3.46604 
0.806061 3.46604 8.09933 
7.84737 -0.0466262 2.2284 
-0.0466262 7.756 -0.568116 
2.2284 -0.568116 8.02796 
7.92917 0.143399 2.33433 
0.143399 8.05533 -0.479164 
2.33433 -0.479164 7.64683 
7.996 0.058858 2.21131 
0.058858 7.89097 -0.673128 
2.21131 -0.673128 7.74435 
8.0671 -0.00684891 2.07846 
-0.00684891 7.90941 -0.366063 
2.07846 -0.366063 7.65482 
8.97264 -0.0893954 -1.68154 
-0.0893954 8.48519 -0.881395 
-1.68154 -0.881395 9.05913 
8.738 -0.0426855 -1.67821 
-0.0426855 8.88256 -0.988507 
-1.67821 -0.988507 8.89638 
9.23452 -0.0789477 -1.70795 
-0.0789477 8.68125 -0.866694 
-1.70795 -0.866694 8.60117 
8.83568 0.0390393 -1.69817 
0.0390393 8.91087 -0.980698 
-1.69817 -0.980698 8.77039 
2.93163 -0.171182 -4.01085 
-0.171182 2.86656 2.12025 
-4.01085 2.12025 2.44037 
2.64406 0.0265994 -4.08602 
0.0265994 2.6587 2.37777 
-4.08602 2.37777 2.9358 
2.74957 -0.0410221 -4.03998 
-0.0410221 2.76157 2.26855 
-4.03998 2.26855 2.72742 
2.64914 0.00955895 -4.06889 
0.00955895 2.58652 2.1139 
-4.06889 2.1139 3.0029 
5.05218 -0.20357 1.28751 
-0.20357 4.84058 1.82871 
1.28751 1.82871 4.90832 
4.80232 -0.0450285 1.21289 
-0.0450285 4.82186 1.69712 
1.21289 1.69712 5.1769 
5.11131 -0.0665307 1.35973 
-0.0665307 4.79609 1.84745 
1.35973 1.84745 4.89368 
5.28326 -0.0380712 1.5429 
-0.0380712 5.27504 1.98871 
1.5429 1.98871 4.24278 
3.86504 -0.125504 -2.79057 
-0.125504 3.85262 1.2479 
-2.79057 1.2479 3.20554 
4.33426 0.268779 -2.18293 
0.268779 3.49942 1.57709 
-2.18293 1.57709 3.08952 
3.4635 -0.217139 -2.53425 
-0.217139 3.8982 1.31366 
-2.53425 1.31366 3.56151 
3.38523 -0.00770979 -2.61435 
-0.00770979 3.68305 1.65958 
-2.61435 1.65958 3.85492 
1.15753 -0.0478118 -0.328276 
-0.0478118 1.23917 1.35771 
-0.328276 1.35771 1.05936 
1.17127 0.162565 -0.706348 
0.162565 1.4565 1.44038 
-0.706348 1.44038 0.828289 
0.97098 0.262436 -0.11726 
0.262436 1.08429 1.30879 
-0.11726 1.30879 1.40079 
1.21462 -0.0416654 -0.506066 
-0.0416654 1.11388 1.29375 
-0.506066 1.29375 1.12756 
3.17805 0.156034 -3.56743 
0.156034 3.37297 2.41654 
-3.56743 2.41654 3.06327 
3.10623 -0.0978706 -3.43661 
-0.0978706 3.33409 2.76213 
-3.43661 2.76213 3.17397 
3.48007 -0.182982 -3.77261 
-0.182982 3.76607 2.00263 
-3.77261 2.00263 2.36815 
2.85343 0.140682 -2.89143 
0.140682 3.32439 2.77161 
-2.89143 2.77161 3.43647 
6.17904 0.118979 1.7601 
0.118979 6.44774 -1.65106 
1.7601 -1.65106 5.16749 
5.49225 0.264687 1.57301 
0.264687 5.89123 -2.04407 
1.57301 -2.04407 6.4108 
5.78615 -0.0964685 1.89248 
-0.0964685 6.10128 -1.76915 
1.89248 -1.76915 5.90685 
5.88023 -0.00228098 1.88906 
-0.00228098 5.93963 -1.88168 
1.88906 -1.88168 5.97442 
3.42465 0.34052 -2.64853 
0.34052 3.47428 1.33572 
-2.64853 1.33572 4.7591 
4.01578 0.0909983 -2.15718 
0.0909983 4.36102 1.63748 
-2.15718 1.63748 3.28123 
4.14272 0.0499746 -2.51133 
0.0499746 3.7545 1.41075 
-2.51133 1.41075 3.76081 
4.19499 -0.041158 -2.54926 
-0.041158 3.76641 1.30809 
-2.54926 1.30809 3.69663 
4.65857 -0.249927 -0.729801 
-0.249927 4.49713 -1.83179 
-0.729801 -1.83179 4.42481 
4.8988 0.170272 -0.63045 
0.170272 4.64067 -1.85212 
-0.63045 -1.85212 4.04104 
4.48387 -0.366694 -0.329331 
-0.366694 4.24761 -1.7537 
-0.329331 -1.7537 4.84903 
4.07927 -0.411454 -0.419652 
-0.411454 4.3004 -1.30454 
-0.419652 -1.30454 5.20083 
8.47355 0.0383308 2.01854 
0.0383308 9.12161 3.08513 
2.01854 3.08513 9.05681 
8.90059 0.0511181 2.07324 
0.0511181 8.86929 2.96003 
2.07324 2.96003 8.88208 
8.83944 0.0175336 2.14111 
0.0175336 8.80481 2.84573 
2.14111 2.84573 9.00772 
8.86975 0.132843 2.20225 
0.132843 8.87144 2.69888 
2.20225 2.69888 8.91078 
9.30267 -0.0095403 1.99068 
-0.0095403 9.10785 2.60508 
1.99068 2.60508 9.81873 
9.22976 0.0612296 2.01402 
0.0612296 9.34294 2.69564 
2.01402 2.69564 9.65655 
9.20422 -0.0374362 2.11048 
-0.0374362 9.26163 2.63777 
2.11048 2.63777 9.76339 
9.37168 -0.0231909 2.05118 
-0.0231909 9.4243 2.71571 
2.05118 2.71571 9.43327 
2.36498 -0.123315 -3.18843 
-0.123315 2.17339 0.382442 
-3.18843 0.382442 2.04639 
2.165 0.0391233 -3.07681 
0.0391233 2.17486 0.257485 
-3.07681 0.257485 2.2449 
1.78369 0.338276 -3.11509 
0.338276 1.98774 0.400025 
-3.11509 0.400025 2.81333 
2.06017 0.0507338 -2.8888 
0.0507338 2.06751 0.546608 
-2.8888 0.546608 2.45707 
2.10755 -0.0857378 -3.97771 
-0.0857378 2.09709 0.92968 
-3.97771 0.92968 1.78327 
2.00242 -0.356229 -4.46662 
-0.356229 1.98913 0.74899 
-4.46662 0.74899 1.99637 
2.10479 -0.0836981 -3.79497 
-0.0836981 2.16877 0.673316 
-3.79497 0.673316 1.71436 
2.03026 -0.118876 -4.10147 
-0.118876 2.17184 1.15916 
-4.10147 1.15916 1.78582 
3.2299 0.0380592 -4.09289 
0.0380592 3.40055 0.801179 
-4.09289 0.801179 3.57607 
3.45196 0.0568105 -3.88554 
0.0568105 3.368 1.2388 
-3.88554 1.2388 3.38655 
3.06296 -0.41806 -4.15964 
-0.41806 3.47894 0.99103 
-4.15964 0.99103 3.66462 
3.09539 -0.163126 -4.06691 
-0.163126 3.64968 1.09993 
-4.06691 1.09993 3.46145 
5.57987 0.338632 4.67053 
0.338632 5.36804 1.31285 
4.67053 1.31285 4.44108 
5.0483 -0.0737849 4.37384 
-0.0737849 5.14019 1.27237 
4.37384 1.27237 5.2005 
4.43523 -0.456648 4.28813 
-0.456648 4.84585 1.32809 
4.28813 1.32809 6.10791 
5.1893 0.108251 4.27956 
0.108251 5.24336 0.625884 
4.27956 0.625884 4.95633 
2.53508 0.594909 2.95423 
0.594909 1.80559 -3.67122 
2.95423 -3.67122 3.21102 
2.39919 -0.590832 2.97232 
-0.590832 3.31238 -3.56855 
2.97232 -3.56855 1.84012 
2.5859 0.0230445 2.88099 
0.0230445 2.44478 -3.35581 
2.88099 -3.35581 2.52101 
2.80227 0.0209392 2.29114 
0.0209392 2.46046 -2.65765 
2.29114 -2.65765 2.28895 
5.61159 -0.0268638 0.507459 
-0.0268638 6.15428 1.05312 
0.507459 1.05312 6.98245 
6.31413 0.119834 0.983916 
0.119834 6.24773 0.838454 
0.983916 0.838454 6.18647 
6.40109 0.0514235 1.01028 
0.0514235 6.25712 0.748278 
1.01028 0.748278 6.09012 
6.2903 -0.0319853 1.37374 
-0.0319853 6.72524 1.0798 
1.37374 1.0798 5.73278 
9.23655 0.0141707 -1.18219 
0.0141707 9.27644 -3.49105 
-1.18219 -3.49105 10.1675 
9.59051 -0.123138 -1.31185 
-0.123138 9.53416 -3.55964 
-1.31185 -3.55964 9.55586 
9.36878 -0.116276 -1.27588 
-0.116276 9.64918 -3.61594 
-1.27588 -3.61594 9.66257 
9.63825 0.01035 -1.34172 
0.01035 9.67589 -3.6411 
-1.34172 -3.6411 9.36639 
4.08197 0.0716056 -0.707098 
0.0716056 3.98232 4.30123 
-0.707098 4.30123 3.91017 
4.02672 0.0632007 -0.740469 
0.0632007 3.98632 4.24584 
-0.740469 4.24584 3.96142 
3.59654 0.000116895 -0.563539 
0.000116895 3.98212 4.14496 
-0.563539 4.14496 4.39579 
3.75505 -0.0735838 -0.872406 
-0.0735838 4.68851 3.95493 
-0.872406 3.95493 3.53089 
1.99825 -0.00738232 4.05056 
-0.00738232 1.80763 0.28226 
4.05056 0.28226 1.54465 
1.47039 0.0166962 4.27691 
0.0166962 1.58823 0.225781 
4.27691 0.225781 2.2919 
1.90833 0.120316 4.14376 
0.120316 1.57948 0.359224 
4.14376 0.359224 1.86272 
1.83278 0.0698154 4.30492 
0.0698154 1.74769 0.356403 
4.30492 0.356403 1.77005 
8.58035 0.852565 3.89001 
0.852565 7.62798 1.94249 
3.89001 1.94249 6.4966 
7.46766 -0.115224 4.11966 
-0.115224 7.59801 1.79531 
4.11966 1.79531 7.63926 
6.86886 -0.256834 4.42409 
-0.256834 7.22971 2.23382 
4.42409 2.23382 8.60635 
6.93469 -0.360286 3.45362 
-0.360286 7.53928 1.17356 
3.45362 1.17356 8.23095 
2.7985 -0.107609 -3.58634 
-0.107609 2.86556 2.44088 
-3.58634 2.44088 2.90854 
3.06643 -0.203806 -3.67356 
-0.203806 2.97128 2.26058 
-3.67356 2.26058 2.53488 
2.69026 0.213352 -3.4447 
0.213352 2.73601 2.24314 
-3.4447 2.24314 3.14633 
2.99574 -0.313647 -3.44514 
-0.313647 3.25527 2.37118 
-3.44514 2.37118 2.32159 
6.91642 0.216277 4.75204 
0.216277 7.98028 -0.649881 
4.75204 -0.649881 7.61131 
7.28886 0.0797591 4.24726 
0.0797591 7.79818 -0.676006 
4.24726 -0.676006 7.42097 
8.1336 0.140592 4.57708 
0.140592 7.48362 -1.26358 
4.57708 -1.26358 6.89079 
7.04026 -0.0497438 3.70615 
-0.0497438 7.60884 -0.332389 
3.70615 -0.332389 7.85891 
5.67782 0.0424141 2.94534 
0.0424141 5.59603 0.182776 
2.94534 0.182776 5.44564 
5.97399 -0.0830971 3.04548 
-0.0830971 5.46429 0.209371 
3.04548 0.209371 5.28121 
5.62147 -0.00446588 2.98675 
-0.00446588 5.48246 0.0683934 
2.98675 0.0683934 5.61557 
6.11498 -0.0712579 3.05212 
-0.0712579 5.84933 -0.200901 
3.05212 -0.200901 4.75518 
7.28832 0.344459 -0.0601133 
0.344459 5.90388 -4.40632 
-0.0601133 -4.40632 8.48858 
7.41068 -0.189681 -0.15946 
-0.189681 7.89927 -4.8428 
-0.15946 -4.8428 6.37084 
7.0271 -0.0255849 -0.376964 
-0.0255849 7.57973 -4.61183 
-0.376964 -4.61183 7.07396 
7.20152 -0.2202 -0.848676 
-0.2202 7.4384 -4.10996 
-0.848676 -4.10996 7.04087 
7.95638 0.0517137 -2.72187 
0.0517137 7.9433 0.372118 
-2.72187 0.372118 8.03745 
8.08982 0.0440166 -2.8678 
0.0440166 8.1139 0.398218 
-2.8678 0.398218 7.73341 
8.21801 0.0397733 -2.66647 
0.0397733 8.16205 0.283878 
-2.66647 0.283878 7.55707 
8.01851 0.0415816 -2.70276 
0.0415816 8.04481 0.300101 
-2.70276 0.300101 7.87381 
8.91668 0.0785928 1.39254 
0.0785928 8.01038 -1.40901 
1.39254 -1.40901 9.48474 
8.75665 -0.0385482 1.81196 
-0.0385482 8.8327 -1.04479 
1.81196 -1.04479 8.82245 
9.64115 0.228773 1.71042 
0.228773 8.39619 -0.59265 
1.71042 -0.59265 8.37446 
8.71224 -0.0609688 1.8869 
-0.0609688 8.88885 -1.06468 
1.8869 -1.06468 8.81071 
9.17985 0.0540693 -1.19743 
0.0540693 9.55024 -0.0621205 
-1.19743 -0.0621205 9.95014 
9.3194 0.0765181 -1.13716 
0.0765181 9.45895 0.197477 
-1.13716 0.197477 9.90189 
9.52088 0.0336986 -1.22048 
0.0336986 9.63124 0.087312 
-1.22048 0.087312 9.52812 
9.64649 0.00472679 -1.28181 
0.00472679 9.6753 0.116311 
-1.28181 0.116311 9.35845 
5.19806 0.356688 -2.47006 
0.356688 4.41898 2.51902 
-2.47006 2.51902 4.43232 
4.74528 0.139726 -2.75144 
0.139726 4.52281 2.28349 
-2.75144 2.28349 4.78128 
4.45311 -0.207615 -2.63433 
-0.207615 4.48268 2.52025 
-2.63433 2.52025 5.11357 
5.09524 0.0148342 -2.34766 
0.0148342 5.03256 2.48408 
-2.34766 2.48408 3.92157 
5.38911 0.329943 2.84058 
0.329943 4.68628 1.18709 
2.84058 1.18709 5.69678 
5.13065 -0.0694233 2.86201 
-0.0694233 5.47718 1.01807 
2.86201 1.01807 5.16433 
5.06519 0.0274849 2.85942 
0.0274849 5.30397 0.945637 
2.85942 0.945637 5.40301 
5.18136 -0.042059 3.26553 
-0.042059 5.285 1.12112 
3.26553 1.12112 5.30581 
3.14786 0.228567 -4.26558 
0.228567 3.47242 -1.04415 
-4.26558 -1.04415 3.13043 
2.79428 0.259272 -3.95255 
0.259272 3.37506 -1.44133 
-3.95255 -1.44133 3.58137 
3.1924 0.155302 -4.13489 
0.155302 3.44944 -0.933564 
-4.13489 -0.933564 3.10888 
3.6743 0.126783 -3.99579 
0.126783 3.70071 -0.385237 
-3.99579 -0.385237 2.37571 
1.5426 -0.128602 -1.11174 
-0.128602 1.20758 2.78487 
-1.11174 2.78487 1.1793 
1.94339 -0.0227274 -1.46813 
-0.0227274 0.992593 2.18404 
-1.46813 2.18404 0.993497 
1.41351 0.0594447 -1.46928 
0.0594447 1.15779 2.29735 
-1.46928 2.29735 1.35817 
1.35279 0.0609726 -1.03049 
0.0609726 1.00366 3.00511 
-1.03049 3.00511 1.57303 
6.35833 -0.0228224 2.75967 
-0.0228224 6.30695 -3.51686 
2.75967 -3.51686 6.46753 
6.33826 -0.26609 2.92004 
-0.26609 6.2669 -3.57935 
2.92004 -3.57935 6.52764 
6.47439 0.0531996 2.47354 
0.0531996 6.63283 -3.44754 
2.47354 -3.44754 6.02558 
5.93329 0.0776843 2.88584 
0.0776843 6.0195 -3.1187 
2.88584 -3.1187 7.18002 
3.18783 -0.0482379 2.75018 
-0.0482379 3.22837 -0.702298 
2.75018 -0.702298 3.193 
3.01161 0.0385283 3.04543 
0.0385283 3.06861 -0.631469 
3.04543 -0.631469 3.52897 
2.96616 -0.122275 2.94702 
-0.122275 3.14263 -0.55407 
2.94702 -0.55407 3.5004 
3.20209 0.0423779 3.00854 
0.0423779 2.74471 -0.325816 
3.00854 -0.325816 3.66239 
5.74046 -0.172348 0.92791 
-0.172348 6.64568 -4.33857 
0.92791 -4.33857 5.40477 
5.70596 -0.0783639 1.15756 
-0.0783639 5.90551 -4.56027 
1.15756 -4.56027 6.17945 
6.0651 0.0257991 1.15643 
0.0257991 5.83129 -4.47062 
1.15643 -4.47062 5.89452 
6.08377 0.0327607 1.10746 
0.0327607 5.69088 -4.37681 
1.10746 -4.37681 6.01626 
1.5748 0.00286558 -2.28281 
0.00286558 1.37628 -1.98904 
-2.28281 -1.98904 1.31126 
1.47132 0.0590055 -2.27849 
0.0590055 1.12985 -2.0232 
-2.27849 -2.0232 1.66118 
1.58601 -0.0448407 -2.16704 
-0.0448407 1.44455 -1.80472 
-2.16704 -1.80472 1.23179 
1.43175 0.052722 -2.18085 
0.052722 1.32936 -1.83141 
-2.18085 -1.83141 1.50124 
8.65481 -0.258451 0.0965658 
-0.258451 8.61096 4.25049 
0.0965658 4.25049 8.35749 
8.16948 -0.0538693 0.140392 
-0.0538693 8.48566 4.06035 
0.140392 4.06035 8.96813 
8.50042 -0.127419 0.270953 
-0.127419 8.43415 4.58749 
0.270953 4.58749 8.68869 
8.5768 -0.297239 0.31897 
-0.297239 8.77038 4.45142 
0.31897 4.45142 8.27608 
6.25727 -0.0823976 -2.96522 
-0.0823976 6.22456 -0.114516 
-2.96522 -0.114516 6.34539 
6.60542 -0.141454 -2.56219 
-0.141454 6.43201 -0.195213 
-2.56219 -0.195213 5.78978 
5.54912 0.514651 -2.23976 
0.514651 6.05203 0.0179946 
-2.23976 0.0179946 7.22607 
6.21661 -0.106936 -2.76713 
-0.106936 6.29339 -0.155561 
-2.76713 -0.155561 6.31721 
0.281181 0.00934048 -1.50419 
0.00934048 0.796236 2.14013 
-1.50419 2.14013 0.297492 
0.466629 -0.195706 -1.42412 
-0.195706 0.627972 2.16096 
-1.42412 2.16096 0.280308 
0.996807 -0.162035 -1.3436 
-0.162035 0.921398 1.92985 
-1.3436 1.92985 -0.543295 
0.402227 -0.0951121 -1.41092 
-0.0951121 0.389109 2.26306 
-1.41092 2.26306 0.583574 
3.46335 0.165015 2.64641 
0.165015 3.23518 1.41292 
2.64641 1.41292 2.95083 
3.22631 -0.0448883 2.37915 
-0.0448883 3.21863 1.58023 
2.37915 1.58023 3.20441 
2.4773 0.15361 2.2586 
0.15361 3.13464 1.76593 
2.2586 1.76593 4.03742 
3.74579 0.0974093 2.07323 
0.0974093 3.75104 2.0351 
2.07323 2.0351 2.15254 
7.98328 0.132245 2.53587 
0.132245 8.10139 2.94494 
2.53587 2.94494 8.08345 
8.1518 0.0936725 2.52771 
0.0936725 8.08581 2.92078 
2.52771 2.92078 7.93051 
8.52263 -0.0709888 2.56643 
-0.0709888 7.94454 2.94084 
2.56643 2.94084 7.70095 
8.0692 0.139202 2.56954 
0.139202 8.1048 2.83289 
2.56954 2.83289 7.99413 
2.19067 0.386678 0.97308 
0.386678 2.73922 2.62126 
0.97308 2.62126 2.4793 
2.13445 0.213847 1.26402 
0.213847 2.80199 2.29102 
1.26402 2.29102 2.47275 
2.41126 0.148256 1.38946 
0.148256 2.49855 2.81646 
1.38946 2.81646 2.49939 
2.49887 0.0382475 1.58405 
0.0382475 2.65961 2.59507 
1.58405 2.59507 2.25072 
6.37956 -0.00898101 -3.45457 
-0.00898101 6.32269 -2.44009 
-3.45457 -2.44009 6.94546 
6.6166 0.0195662 -3.64091 
0.0195662 6.34044 -2.3963 
-3.64091 -2.3963 6.69066 
6.89827 -0.181419 -3.8312 
-0.181419 6.24277 -2.56582 
-3.8312 -2.56582 6.50666 
6.37973 0.00417202 -3.46054 
0.00417202 6.33146 -2.61341 
-3.46054 -2.61341 6.93652 
8.69514 0.273117 -3.12787 
0.273117 8.53661 2.2409 
-3.12787 2.2409 9.42911 
9.10082 0.188115 -2.81731 
0.188115 8.90501 2.06403 
-2.81731 2.06403 8.65503 
8.87343 -0.0633576 -2.84277 
-0.0633576 8.90321 2.28512 
-2.84277 2.28512 8.88422 
8.84718 -0.0578508 -2.84611 
-0.0578508 8.93809 2.34769 
-2.84611 2.34769 8.87559 
3.2484 -0.0526139 -0.624738 
-0.0526139 3.81533 1.5258 
-0.624738 1.5258 2.98623 
3.1299 -0.0757128 -0.54894 
-0.0757128 3.48094 1.44208 
-0.54894 1.44208 3.43912 
3.5879 0.144419 -0.650748 
0.144419 3.34169 1.7044 
-0.650748 1.7044 3.12038 
3.62112 -0.068821 -0.788154 
-0.068821 3.10949 1.52308 
-0.788154 1.52308 3.31936 
2.1238 -0.785605 -2.28479 
-0.785605 0.729231 -4.01908 
-2.28479 -4.01908 3.35343 
2.29073 0.479471 -2.57952 
0.479471 3.22209 -4.01655 
-2.57952 -4.01655 0.693644 
2.00523 0.151363 -2.53939 
0.151363 2.12544 -3.63596 
-2.53939 -3.63596 2.0758 
2.05837 0.364138 -2.21661 
0.364138 2.10684 -2.09117 
-2.21661 -2.09117 2.04125 
3.95385 0.101695 1.981 
0.101695 3.29873 -4.10641 
1.981 -4.10641 3.62015 
3.75006 0.239104 1.90719 
0.239104 3.36957 -4.19421 
1.90719 -4.19421 3.75311 
3.5058 -0.422231 2.04796 
-0.422231 4.41874 -4.09874 
2.04796 -4.09874 2.9482 
3.94382 0.191209 1.67945 
0.191209 3.53595 -3.24828 
1.67945 -3.24828 3.39298 
4.37657 0.0423672 4.4467 
0.0423672 4.63431 0.462759 
4.4467 0.462759 4.61666 
3.76962 -0.176689 4.29603 
-0.176689 4.58279 0.567792 
4.29603 0.567792 5.27513 
4.88445 0.078427 4.81141 
0.078427 4.54204 0.537947 
4.81141 0.537947 4.20106 
4.92967 0.0453414 4.38563 
0.0453414 4.54196 0.245775 
4.38563 0.245775 4.15592 
4.54391 0.0204415 0.19551 
0.0204415 5.06642 2.9964 
0.19551 2.9964 4.69517 
4.48034 0.353199 0.157473 
0.353199 4.90613 2.97345 
0.157473 2.97345 4.91903 
4.93126 -0.0858648 0.336192 
-0.0858648 4.78617 3.11687 
0.336192 3.11687 4.58807 
4.81332 -0.0741599 0.257147 
-0.0741599 4.43459 3.15433 
0.257147 3.15433 5.05759 
4.00464 -0.27778 -2.54396 
-0.27778 3.97319 1.46319 
-2.54396 1.46319 4.03643 
3.88693 -0.33669 -2.68256 
-0.33669 3.74522 1.06159 
-2.68256 1.06159 4.38211 
4.14972 -0.324638 -2.7265 
-0.324638 4.20484 1.92429 
-2.7265 1.92429 3.65971 
4.02758 -0.290488 -2.62933 
-0.290488 3.95227 1.52284 
-2.62933 1.52284 4.03442 
4.38921 -0.127367 2.35785 
-0.127367 4.23516 -0.666169 
2.35785 -0.666169 4.71395 
4.26055 -0.0596633 2.41222 
-0.0596633 4.59044 -0.412247 
2.41222 -0.412247 4.48734 
4.4668 0.027817 2.43499 
0.027817 4.5906 -0.412021 
2.43499 -0.412021 4.28092 
4.33868 -0.0187036 2.17531 
-0.0187036 4.38438 -0.460428 
2.17531 -0.460428 4.61527 
7.13346 -0.0597608 -1.35255 
-0.0597608 6.95412 -2.48647 
-1.35255 -2.48647 6.87571 
7.00671 0.00719592 -1.40927 
0.00719592 6.79881 -2.32423 
-1.40927 -2.32423 7.15777 
6.66845 0.0831843 -1.60953 
0.0831843 6.69051 -2.36833 
-1.60953 -2.36833 7.60433 
7.13772 -0.0354341 -1.42263 
-0.0354341 6.7087 -2.45928 
-1.42263 -2.45928 7.11687 
2.60041 0.123775 2.92639 
0.123775 2.76521 -0.26394 
2.92639 -0.26394 3.02549 
2.67956 0.441572 2.94366 
0.441572 2.93749 -0.740755 
2.94366 -0.740755 2.77406 
2.51167 0.200833 3.13495 
0.200833 3.00466 -0.701228 
3.13495 -0.701228 2.87478 
2.77963 0.185154 2.75043 
0.185154 2.8781 -0.447217 
2.75043 -0.447217 2.73337 
3.86029 -0.256281 -3.76727 
-0.256281 3.07827 1.24755 
-3.76727 1.24755 4.20293 
4.09766 0.0862656 -4.02254 
0.0862656 3.84564 1.37161 
-4.02254 1.37161 3.19819 
3.8056 -0.421597 -4.17022 
-0.421597 3.12995 1.43684 
-4.17022 1.43684 4.20594 
4.15443 0.0798625 -3.97325 
0.0798625 3.61649 1.31704 
-3.97325 1.31704 3.37056 
1.66907 -0.0113861 1.63407 
-0.0113861 1.62943 4.05093 
1.63407 4.05093 1.62096 
1.52466 0.084595 1.70175 
0.084595 1.67001 4.05354 
1.70175 4.05354 1.72479 
2.19575 -0.0105761 1.39047 
-0.0105761 1.78508 3.58639 
1.39047 3.58639 0.938626 
1.39863 0.0256 1.70502 
0.0256 1.24353 4.0827 
1.70502 4.0827 2.2773 
2.92102 -0.343985 -2.65056 
-0.343985 2.49059 -3.60176 
-2.65056 -3.60176 3.0373 
3.11837 1.12239 -2.73357 
1.12239 3.61757 -3.70666 
-2.73357 -3.70666 1.71296 
2.52403 -0.379885 -2.80129 
-0.379885 2.4556 -3.73182 
-2.80129 -3.73182 3.46928 
2.50693 -0.422123 -1.81094 
-0.422123 3.01109 -3.04842 
-1.81094 -3.04842 2.93088 
7.25095 -0.0875825 4.38275 
-0.0875825 7.23867 -0.875469 
4.38275 -0.875469 9.42491 
8.15719 -0.0561835 3.60823 
-0.0561835 7.80024 -0.257632 
3.60823 -0.257632 7.9571 
8.56822 -0.0584976 4.57371 
-0.0584976 8.52328 -0.557633 
4.57371 -0.557633 6.82302 
8.15055 0.101038 3.49759 
0.101038 7.9471 -0.962429 
3.49759 -0.962429 7.81687 
6.74101 -0.0295589 -3.13582 
-0.0295589 7.16543 3.48473 
-3.13582 3.48473 9.06257 
7.87121 -0.03897 -2.90176 
-0.03897 7.1202 2.57747 
-2.90176 2.57747 7.97759 
8.0549 -0.194076 -3.87285 
-0.194076 8.61708 2.14234 
-3.87285 2.14234 6.29702 
7.83549 0.194052 -3.02848 
0.194052 7.50551 2.57223 
-3.02848 2.57223 7.62801 
8.45875 -0.200177 -2.62464 
-0.200177 8.69798 1.74707 
-2.62464 1.74707 8.98221 
8.63679 -0.292571 -2.66196 
-0.292571 9.02223 1.7744 
-2.66196 1.7744 8.47992 
8.73911 0.00776868 -2.70677 
0.00776868 8.55981 1.7462 
-2.70677 1.7462 8.84002 
8.72009 0.0520956 -2.65326 
0.0520956 8.69901 1.62297 
-2.65326 1.62297 8.71983 
6.8705 -0.200759 -3.10367 
-0.200759 6.86276 2.75166 
-3.10367 2.75166 6.99117 
7.42973 -0.278792 -3.07879 
-0.278792 6.75019 2.65097 
-3.07879 2.65097 6.54452 
6.82887 -0.0139833 -3.78966 
-0.0139833 6.5511 2.89621 
-3.78966 2.89621 7.34446 
6.11736 0.554373 -2.56563 
0.554373 6.85054 2.75696 
-2.56563 2.75696 7.75654 
2.27671 -0.0471505 -2.60059 
-0.0471505 2.2087 3.23521 
-2.60059 3.23521 3.07114 
2.37236 -0.147236 -2.50907 
-0.147236 2.60255 3.29297 
-2.50907 3.29297 2.58164 
2.3683 -0.18381 -2.58761 
-0.18381 2.40231 3.14227 
-2.58761 3.14227 2.78594 
2.25247 -0.0225441 -2.58927 
-0.0225441 2.4399 2.99581 
-2.58927 2.99581 2.86418 
1.28489 -0.234352 -1.27417 
-0.234352 1.61629 -2.82246 
-1.27417 -2.82246 0.735185 
1.21535 0.0943484 -0.642381 
0.0943484 1.2948 -2.68149 
-0.642381 -2.68149 1.12621 
1.29298 -0.00972262 -0.55209 
-0.00972262 1.06147 -2.9164 
-0.55209 -2.9164 1.28192 
1.30244 -0.157653 -1.16131 
-0.157653 1.14544 -2.80181 
-1.16131 -2.80181 1.18848 
1.28894 -0.355077 -0.107922 
-0.355077 1.43521 2.78591 
-0.107922 2.78591 0.574226 
1.21354 0.173118 -0.335632 
0.173118 1.06249 2.67461 
-0.335632 2.67461 1.02236 
1.17301 0.144633 -0.375682 
0.144633 1.22928 2.70308 
-0.375682 2.70308 0.896086 
0.953893 -0.233949 -0.47133 
-0.233949 1.06394 2.48842 
-0.47133 2.48842 1.28055 
7.24822 -0.144654 -1.56989 
-0.144654 6.07402 -2.31449 
-1.56989 -2.31449 5.38301 
6.31602 -0.347955 -0.805052 
-0.347955 5.36702 -1.76127 
-0.805052 -1.76127 7.02222 
6.22703 0.0745883 -1.41594 
0.0745883 6.28917 -1.7655 
-1.41594 -1.7655 6.18905 
6.17901 0.0432975 -1.3657 
0.0432975 6.29732 -1.74148 
-1.3657 -1.74148 6.22891 
1.70252 -0.319257 0.660451 
-0.319257 0.725842 1.30914 
0.660451 1.30914 0.968251 
1.1779 -0.135435 0.831576 
-0.135435 0.927736 1.4556 
0.831576 1.4556 1.29098 
1.08643 -0.0804687 0.852835 
-0.0804687 1.16842 1.52223 
0.852835 1.52223 1.14177 
1.14334 -0.0896665 1.10289 
-0.0896665 0.866352 1.77143 
1.10289 1.77143 1.38693 
0.850636 -0.0339735 -2.31086 
-0.0339735 0.883688 -1.60847 
-2.31086 -1.60847 0.0441347 
0.733299 -0.0583854 -2.24852 
-0.0583854 0.672025 -1.44695 
-2.24852 -1.44695 0.373135 
0.698547 -0.0451597 -2.36671 
-0.0451597 0.745954 -1.44139 
-2.36671 -1.44139 0.333957 
0.535425 -0.0521327 -2.24362 
-0.0521327 0.619786 -1.36304 
-2.24362 -1.36304 0.623248 
9.19427 0.118418 3.38197 
0.118418 9.56812 0.0284985 
3.38197 0.0284985 10.1286 
9.55054 0.149241 3.24704 
0.149241 9.67827 0.165558 
3.24704 0.165558 9.66217 
9.71852 0.192362 3.22627 
0.192362 9.56131 0.0958366 
3.22627 0.0958366 9.61116 
9.72475 0.0753613 3.17509 
0.0753613 9.75355 0.195084 
3.17509 0.195084 9.41269 
2.58723 -0.000792759 -4.27174 
-0.000792759 2.67988 0.320704 
-4.27174 0.320704 1.76981 
2.14853 0.105763 -4.3054 
0.105763 1.92332 1.44631 
-4.3054 1.44631 2.96508 
2.1811 0.294975 -3.93971 
0.294975 2.45365 0.521908 
-3.93971 0.521908 2.40217 
2.25358 0.0395459 -4.03019 
0.0395459 2.25071 0.923243 
-4.03019 0.923243 2.53264 
1.12298 0.00860014 -1.80262 
0.00860014 1.96814 -3.19197 
-1.80262 -3.19197 2.06019 
1.80939 0.21215 -2.13323 
0.21215 1.87757 -3.56554 
-2.13323 -3.56554 1.46435 
1.85681 -0.000260002 -2.14325 
-0.000260002 1.84551 -3.60096 
-2.14325 -3.60096 1.44899 
1.51226 0.0299509 -2.05505 
0.0299509 1.73898 -3.71544 
-2.05505 -3.71544 1.90007 
5.2972 -0.0491588 -3.16397 
-0.0491588 5.05405 1.35407 
-3.16397 1.35407 4.79032 
5.39479 0.111787 -3.09125 
0.111787 4.74856 1.25791 
-3.09125 1.25791 4.99822 
5.2344 -0.13229 -3.17165 
-0.13229 4.99613 1.12069 
-3.17165 1.12069 4.91104 
4.7099 0.0790465 -2.81934 
0.0790465 5.16443 1.34426 
-2.81934 1.34426 5.26724 
6.44912 -0.0747328 -4.36379 
-0.0747328 6.4592 -1.20039 
-4.36379 -1.20039 6.41956 
6.75842 0.0301048 -4.68134 
0.0301048 6.49966 -1.0562 
-4.68134 -1.0562 6.0698 
5.53663 -0.137207 -4.22762 
-0.137207 6.4762 -0.975232 
-4.22762 -0.975232 7.31505 
6.75959 -0.00822346 -4.18026 
-0.00822346 6.47125 -1.25295 
-4.18026 -1.25295 6.09704 
3.50836 -0.0320045 0.439068 
-0.0320045 2.93992 -2.41176 
0.439068 -2.41176 2.84925 
2.89172 0.0401197 0.123889 
0.0401197 2.98429 -2.04628 
0.123889 -2.04628 3.42152 
3.29033 0.0662566 0.325233 
0.0662566 3.02598 -1.93708 
0.325233 -1.93708 2.98121 
2.87892 0.0139063 0.180789 
0.0139063 2.95572 -2.14665 
0.180789 -2.14665 3.46289 
1.39486 -0.140569 -1.79939 
-0.140569 1.30881 -3.42647 
-1.79939 -3.42647 0.204039 
0.796136 0.188614 -1.92479 
0.188614 1.34647 -3.64543 
-1.92479 -3.64543 0.765108 
0.883855 0.000927568 -1.97105 
0.000927568 1.26021 -3.66206 
-1.97105 -3.66206 0.763646 
0.900882 0.0121191 -1.93604 
0.0121191 1.00767 -3.80885 
-1.93604 -3.80885 0.999162 
4.01029 0.118497 3.60866 
0.118497 3.7445 2.32786 
3.60866 2.32786 4.26633 
5.37739 -0.226106 3.44684 
-0.226106 4.05645 2.7194 
3.44684 2.7194 2.58728 
4.03084 -0.364882 3.71319 
-0.364882 4.00237 2.65202 
3.71319 2.65202 3.98791 
3.89963 0.45818 3.20631 
0.45818 3.20275 1.36104 
3.20631 1.36104 4.91874 
4.95325 -0.0300985 2.94191 
-0.0300985 5.20087 -0.839679 
2.94191 -0.839679 6.10063 
5.70905 0.0736165 2.84749 
0.0736165 5.10413 -1.26842 
2.84749 -1.26842 5.44157 
5.22734 0.100851 2.58941 
0.100851 5.24164 -1.38445 
2.58941 -1.38445 5.78577 
5.8146 0.128881 2.95055 
0.128881 5.66162 -1.15626 
2.95055 -1.15626 4.77853 
8.1998 -0.0669309 3.17551 
-0.0669309 8.18008 -1.0143 
3.17551 -1.0143 8.26874 
8.32942 -0.0747034 3.06162 
-0.0747034 8.28977 -1.14691 
3.06162 -1.14691 8.02944 
8.68465 0.123375 3.11311 
0.123375 8.44376 -0.700734 
3.11311 -0.700734 7.52021 
8.32624 0.00118766 3.03775 
0.00118766 8.29095 -0.944364 
3.03775 -0.944364 8.03143 
4.73362 0.0475251 0.451377 
0.0475251 4.81002 -2.91872 
0.451377 -2.91872 4.98114 
4.81051 0.0149598 0.363201 
0.0149598 4.90216 -2.89646 
0.363201 -2.89646 4.81211 
5.14524 -0.145188 0.402062 
-0.145188 4.71624 -2.90801 
0.402062 -2.90801 4.66331 
4.80678 0.0415293 0.271583 
0.0415293 4.77911 -3.30232 
0.271583 -3.30232 4.93889 
3.914 -0.0788147 -2.4594 
-0.0788147 4.22986 1.52198 
-2.4594 1.52198 4.29407 
3.66576 -0.0314897 -2.68173 
-0.0314897 4.44954 1.56535 
-2.68173 1.56535 4.32264 
4.05627 0.315901 -2.0477 
0.315901 3.5042 1.44794 
-2.0477 1.44794 4.87746 
4.49554 0.0156279 -2.8119 
0.0156279 4.62825 1.24315 
-2.8119 1.24315 3.31415 
1.82195 -0.222364 -0.396079 
-0.222364 1.40601 2.9063 
-0.396079 2.9063 2.34741 
1.69758 -0.0322784 -0.309458 
-0.0322784 1.9168 2.65998 
-0.309458 2.65998 1.961 
1.82505 0.05229 -0.260478 
0.05229 1.99234 2.70329 
-0.260478 2.70329 1.75798 
1.85429 -0.00818063 -0.573406 
-0.00818063 1.81947 2.82506 
-0.573406 2.82506 1.90162 
1.94458 -0.00338072 1.30935 
-0.00338072 1.9096 2.42507 
1.30935 2.42507 1.64348 
1.37764 0.00121682 1.33254 
0.00121682 1.9357 2.92624 
1.33254 2.92624 2.18432 
1.68219 -0.0175713 1.36295 
-0.0175713 1.77867 2.49126 
1.36295 2.49126 2.0368 
1.74857 -0.1734 1.36129 
-0.1734 1.93595 2.62097 
1.36129 2.62097 1.81314 
7.98515 -0.242263 3.53982 
-0.242263 8.78228 1.54328 
3.53982 1.54328 9.17301 
8.77 0.0849291 3.28965 
0.0849291 8.61139 1.88166 
3.28965 1.88166 8.55905 
8.58703 -0.107936 3.03752 
-0.107936 9.0401 1.71229 
3.03752 1.71229 8.3133 
8.61853 0.0480645 3.33683 
0.0480645 8.68822 1.81025 
3.33683 1.81025 8.63369 
5.90267 -0.0641558 0.480111 
-0.0641558 6.31427 2.44038 
0.480111 2.44038 6.03782 
6.09906 0.0418729 0.331449 
0.0418729 6.26392 2.51507 
0.331449 2.51507 5.89178 
6.06071 -0.0706672 0.339401 
-0.0706672 6.0022 2.58439 
0.339401 2.58439 6.19185 
6.13692 0.132627 0.448501 
0.132627 6.25465 2.3973 
0.448501 2.3973 5.86319 
4.22606 0.0965047 -3.70167 
0.0965047 4.341 1.38325 
-3.70167 1.38325 4.34442 
4.36661 -0.0356063 -3.92668 
-0.0356063 4.2312 1.56901 
-3.92668 1.56901 4.31367 
4.1084 0.0958237 -3.83884 
0.0958237 4.30655 1.50622 
-3.83884 1.50622 4.49653 
4.12366 -0.0742365 -3.87625 
-0.0742365 4.15319 1.37566 
-3.87625 1.37566 4.63463 
3.95476 0.0842174 -2.46324 
0.0842174 4.15568 -0.614194 
-2.46324 -0.614194 4.01295 
3.9559 0.0143764 -2.87703 
0.0143764 4.07087 -0.884135 
-2.87703 -0.884135 4.09662 
4.07121 -0.009 -2.78021 
-0.009 4.17045 -0.622319 
-2.78021 -0.622319 3.88174 
3.79734 -0.0821078 -2.9513 
-0.0821078 4.44843 -0.85491 
-2.9513 -0.85491 3.87762 
5.14996 0.0238071 0.302192 
0.0238071 4.92903 -0.123822 
0.302192 -0.123822 5.5198 
5.15043 0.32314 0.311714 
0.32314 5.12448 -0.137306 
0.311714 -0.137306 5.32387 
5.43273 0.276082 0.631507 
0.276082 4.86206 -0.253201 
0.631507 -0.253201 5.304 
5.2357 0.123885 0.783369 
0.123885 5.18979 -0.332331 
0.783369 -0.332331 5.17329 
1.10473 -0.11723 3.44319 
-0.11723 1.26908 1.67205 
3.44319 1.67205 1.20907 
1.2045 0.137978 3.2347 
0.137978 1.09618 1.72088 
3.2347 1.72088 1.28221 
1.43231 0.294106 3.42406 
0.294106 1.36837 1.71959 
3.42406 1.71959 0.78221 
1.2115 -0.00770277 3.43728 
-0.00770277 1.13866 1.59707 
3.43728 1.59707 1.23273 
9.13728 0.128849 0.912084 
0.128849 9.06346 4.3214 
0.912084 4.3214 9.32727 
9.12081 -0.168053 0.764295 
-0.168053 9.04058 3.99398 
0.764295 3.99398 9.36661 
8.7431 0.0189546 0.893791 
0.0189546 9.07889 3.90677 
0.893791 3.90677 9.70601 
9.27176 0.0466663 0.961931 
0.0466663 9.13999 4.39777 
0.961931 4.39777 9.11625 
3.84163 0.164927 -3.68896 
0.164927 3.70535 2.64129 
-3.68896 2.64129 3.7473 
3.45058 0.283924 -3.66246 
0.283924 3.6166 2.61645 
-3.66246 2.61645 4.22711 
3.94491 -0.0984263 -4.00416 
-0.0984263 4.00524 2.69051 
-4.00416 2.69051 3.34413 
3.9615 -0.135279 -3.51829 
-0.135279 4.06092 2.61049 
-3.51829 2.61049 3.27187 
4.15942 -0.0407381 4.30139 
-0.0407381 4.45102 1.9084 
4.30139 1.9084 4.78405 
4.26153 -0.196977 4.18744 
-0.196977 4.55538 1.91784 
4.18744 1.91784 4.57758 
5.52892 0.438696 4.09111 
0.438696 4.25337 1.71161 
4.09111 1.71161 3.61221 
4.06645 0.0312144 3.76388 
0.0312144 4.72477 1.88772 
3.76388 1.88772 4.60327 
2.38933 -0.0101121 3.25722 
-0.0101121 2.19131 -0.602974 
3.25722 -0.602974 1.99872 
1.95922 -0.108205 3.04204 
-0.108205 2.16148 -0.691944 
3.04204 -0.691944 2.45867 
2.14384 -0.170061 3.19892 
-0.170061 2.21631 -0.586245 
3.19892 -0.586245 2.21922 
1.97292 -0.048857 2.95458 
-0.048857 2.06844 -0.408783 
2.95458 -0.408783 2.538 
7.67436 0.3006 -0.403169 
0.3006 7.81552 2.15293 
-0.403169 2.15293 7.55981 
7.41528 0.0499908 -0.435646 
0.0499908 7.7986 2.85773 
-0.435646 2.85773 7.83581 
7.79574 0.116762 -0.409133 
0.116762 7.67864 2.62428 
-0.409133 2.62428 7.57532 
7.70155 0.24676 -0.239496 
0.24676 7.80704 2.40191 
-0.239496 2.40191 7.5411 
2.33776 0.00697248 -0.822345 
0.00697248 2.22874 3.35902 
-0.822345 3.35902 2.1263 
2.1435 -0.000168574 -0.719221 
-0.000168574 2.15064 3.31366 
-0.719221 3.31366 2.39865 
1.89236 -0.0482322 -0.908637 
-0.0482322 2.10096 3.30429 
-0.908637 3.30429 2.69947 
2.23792 -0.00367218 -0.878769 
-0.00367218 2.17838 3.30708 
-0.878769 3.30708 2.27649 
9.20494 -0.0287197 1.28031 
-0.0287197 9.23343 1.38658 
1.28031 1.38658 9.90049 
9.35579 -0.0155832 1.42259 
-0.0155832 9.3332 1.37462 
1.42259 1.37462 9.64987 
9.2538 -0.0502023 1.41034 
-0.0502023 9.22928 1.23981 
1.41034 1.23981 9.85577 
9.45156 0.018205 1.43848 
0.018205 9.45668 1.36193 
1.43848 1.36193 9.43062 
3.02086 0.133167 -2.91985 
0.133167 2.95151 1.62435 
-2.91985 1.62435 3.17987 
2.93134 0.195485 -2.94801 
0.195485 2.99234 1.55311 
-2.94801 1.55311 3.22856 
3.8489 -0.154685 -2.92645 
-0.154685 3.22049 1.58362 
-2.92645 1.58362 2.08285 
2.71811 -0.18127 -2.98304 
-0.18127 2.70683 2.12786 
-2.98304 2.12786 3.72729 
6.64636 0.156823 -0.817395 
0.156823 6.92678 1.60144 
-0.817395 1.60144 6.92227 
6.51511 0.0325331 -0.463349 
0.0325331 6.85135 1.75422 
-0.463349 1.75422 7.12895 
6.68376 -0.19391 -1.16828 
-0.19391 7.07631 1.64883 
-1.16828 1.64883 6.73534 
6.68927 0.135125 -0.974771 
0.135125 6.86187 1.69845 
-0.974771 1.69845 6.94427 
6.48017 0.231333 1.91369 
0.231333 6.25822 -1.69097 
1.91369 -1.69097 5.47254 
6.19171 -0.085216 1.6852 
-0.085216 6.02265 -1.49132 
1.6852 -1.49132 5.99656 
6.20807 0.255444 1.07058 
0.255444 5.58251 -1.47685 
1.07058 -1.47685 6.42034 
6.12121 0.073199 1.41339 
0.073199 6.10668 -1.40455 
1.41339 -1.40455 5.98303 
1.29784 -0.0378757 1.32119 
-0.0378757 0.974245 2.27614 
1.32119 2.27614 0.891482 
1.29974 0.339844 1.24529 
0.339844 1.13707 2.70571 
1.24529 2.70571 0.726751 
0.943826 0.140919 1.24304 
0.140919 1.1138 2.82538 
1.24304 2.82538 1.10593 
0.922969 -0.107748 1.32727 
-0.107748 1.04804 2.29755 
1.32727 2.29755 1.19256 
4.73534 0.139462 3.37558 
0.139462 4.96877 3.56111 
3.37558 3.56111 3.81776 
4.5084 0.197008 3.3045 
0.197008 4.61582 3.23442 
3.3045 3.23442 4.39766 
4.34764 -0.70552 2.8656 
-0.70552 3.62553 3.07815 
2.8656 3.07815 5.5487 
4.42715 0.284576 3.26501 
0.284576 4.98688 2.69937 
3.26501 2.69937 4.10785 
3.62442 -0.160139 1.84652 
-0.160139 3.56354 3.9908 
1.84652 3.9908 3.78102 
3.50158 0.00962194 2.1998 
0.00962194 4.10972 3.76019 
2.1998 3.76019 3.35768 
3.65469 0.175253 1.47344 
0.175253 3.68696 3.99821 
1.47344 3.99821 3.62733 
3.60077 0.0170944 1.25679 
0.0170944 3.32151 3.96539 
1.25679 3.96539 4.0467 
3.6156 0.126002 -1.30805 
0.126002 3.73955 -4.34849 
-1.30805 -4.34849 3.85048 
4.26135 -0.125181 -0.508404 
-0.125181 4.44891 -4.19345 
-0.508404 -4.19345 2.49537 
3.93315 -0.0414319 -1.05489 
-0.0414319 3.62032 -4.20969 
-1.05489 -4.20969 3.65216 
3.36621 -0.0309906 -1.58234 
-0.0309906 3.24973 -3.65006 
-1.58234 -3.65006 4.58969 
9.2698 -0.0887263 1.06143 
-0.0887263 9.59293 -3.71874 
1.06143 -3.71874 9.97961 
9.65257 -0.0816773 1.18125 
-0.0816773 9.63302 -3.55584 
1.18125 -3.55584 9.55675 
9.4778 -0.0954741 1.10071 
-0.0954741 9.52073 -3.50434 
1.10071 -3.50434 9.84381 
9.78081 -0.0124622 1.20846 
-0.0124622 9.6653 -3.49903 
1.20846 -3.49903 9.39623 
5.32268 0.161911 -0.500059 
0.161911 5.39541 1.09429 
-0.500059 1.09429 5.54779 
5.5292 0.221452 -0.651116 
0.221452 5.42114 1.17454 
-0.651116 1.17454 5.31555 
5.25088 0.029558 -0.663771 
0.029558 5.29701 1.1903 
-0.663771 1.1903 5.71799 
5.958 0.202814 -0.680789 
0.202814 5.63073 0.901492 
-0.680789 0.901492 4.67715 
3.50979 -0.0846885 0.0912818 
-0.0846885 3.62071 -4.09255 
0.0912818 -4.09255 3.44163 
3.58994 -0.0116963 0.638917 
-0.0116963 3.36042 -4.13692 
0.638917 -4.13692 3.62177 
3.61202 0.373257 0.219178 
0.373257 3.43682 -4.19807 
0.219178 -4.19807 3.52329 
3.31023 0.324595 0.606282 
0.324595 3.67975 -4.12269 
0.606282 -4.12269 3.58215 
3.79865 0.0613228 -3.73755 
0.0613228 3.76969 1.41215 
-3.73755 1.41215 3.48203 
3.40397 -0.0901438 -3.833 
-0.0901438 3.87383 1.4175 
-3.833 1.4175 3.77257 
3.77265 0.0054467 -3.81266 
0.0054467 3.74418 1.60438 
-3.81266 1.60438 3.53353 
3.86006 7.84241e-05 -3.67353 
7.84241e-05 3.82815 1.54118 
-3.67353 1.54118 3.36216 
2.98366 -0.215151 0.49626 
-0.215151 2.88606 -4.36857 
0.49626 -4.36857 2.99643 
2.94526 0.00815052 0.678008 
0.00815052 2.53739 -3.99886 
0.678008 -3.99886 3.3835 
3.4596 -0.00779505 0.481311 
-0.00779505 3.4503 -3.93704 
0.481311 -3.93704 1.95624 
2.76995 -0.134058 0.528706 
-0.134058 3.07855 -4.20281 
0.528706 -4.20281 3.01764 
6.87613 0.12712 -1.65262 
0.12712 6.93671 -1.89011 
-1.65262 -1.89011 7.41974 
7.17711 -0.0822488 -1.52835 
-0.0822488 7.17331 -1.67204 
-1.52835 -1.67204 6.88216 
7.15774 0.045262 -1.44891 
0.045262 7.04165 -1.68957 
-1.44891 -1.68957 7.03319 
6.50044 0.211238 -1.59433 
0.211238 7.07161 -1.59055 
-1.59433 -1.59055 7.66053 
7.15757 0.0179831 -1.00573 
0.0179831 6.89796 4.20156 
-1.00573 4.20156 6.81704 
6.90346 0.0147238 -1.20682 
0.0147238 7.49436 3.88958 
-1.20682 3.88958 6.47475 
6.97246 0.0470359 -1.27228 
0.0470359 6.69294 4.05688 
-1.27228 4.05688 7.20718 
6.93387 -0.108365 -0.941331 
-0.108365 6.48246 4.02608 
-0.941331 4.02608 7.45625 
3.14893 0.0962579 2.30529 
0.0962579 2.97489 -3.95541 
2.30529 -3.95541 3.35675 
3.29989 0.0880251 2.18758 
0.0880251 3.17414 -3.96366 
2.18758 -3.96366 3.00653 
3.07515 -0.217808 2.27746 
-0.217808 3.38701 -3.95458 
2.27746 -3.95458 3.01841 
3.24001 -0.227395 2.14339 
-0.227395 2.97479 -3.72671 
2.14339 -3.72671 3.26576 
1.95504 -0.0520206 1.06046 
-0.0520206 1.84908 2.38451 
1.06046 2.38451 1.80239 
1.70261 -0.0742992 1.13654 
-0.0742992 1.67364 2.47242 
1.13654 2.47242 2.23025 
1.7623 -0.149066 1.00331 
-0.149066 1.83616 2.4353 
1.00331 2.4353 2.00804 
1.71641 -0.078696 1.24145 
-0.078696 1.7749 2.2566 
1.24145 2.2566 2.11519 
8.72233 0.129804 -1.21709 
0.129804 8.74946 1.23496 
-1.21709 1.23496 9.13926 
8.95498 0.302453 -1.13217 
0.302453 9.04085 1.00448 
-1.13217 1.00448 8.61521 
8.8089 0.0267636 -1.08482 
0.0267636 8.84797 1.18081 
-1.08482 1.18081 8.95418 
8.91289 -0.046615 -1.0492 
-0.046615 8.90723 1.31214 
-1.0492 1.31214 8.79093 
6.92948 0.269843 -3.80445 
0.269843 6.88508 -2.68712 
-3.80445 -2.68712 5.97117 
6.33817 -0.243055 -4.12306 
-0.243055 6.09797 -2.54831 
-4.12306 -2.54831 7.34958 
6.46813 0.165207 -3.52412 
0.165207 6.67806 -2.64067 
-3.52412 -2.64067 6.63953 
6.5321 0.140594 -3.24135 
0.140594 6.29922 -2.13171 
-3.24135 -2.13171 6.9544 
1.18322 0.0256452 2.01518 
0.0256452 1.04091 3.59227 
2.01518 3.59227 0.782157 
0.864241 0.0949863 1.99832 
0.0949863 1.2993 3.69655 
1.99832 3.69655 0.842742 
1.73076 -0.115761 2.10044 
-0.115761 0.99173 3.47723 
2.10044 3.47723 0.283792 
1.01337 -0.0333881 2.09478 
-0.0333881 1.00816 3.78526 
2.09478 3.78526 0.984745 
1.41938 -0.115008 4.27265 
-0.115008 1.25784 0.18695 
4.27265 0.18695 1.40347 
1.24938 -0.350924 4.29117 
-0.350924 1.32931 0.645208 
4.29117 0.645208 1.50201 
1.11515 0.0579669 4.08823 
0.0579669 1.37305 0.611337 
4.08823 0.611337 1.5925 
0.907777 -0.341741 4.16886 
-0.341741 1.67514 0.270944 
4.16886 0.270944 1.49778 
3.67244 -0.573273 -4.4487 
-0.573273 4.08317 -1.10567 
-4.4487 -1.10567 5.36451 
5.36414 0.890621 -4.40123 
0.890621 4.35826 -1.68334 
-4.40123 -1.68334 3.39772 
4.05962 -0.221551 -4.26058 
-0.221551 4.54813 -1.35757 
-4.26058 -1.35757 4.51237 
4.08635 -0.0917329 -3.29534 
-0.0917329 5.19278 -0.322623 
-3.29534 -0.322623 3.841 
6.50094 0.0826184 -3.69003 
0.0826184 6.25608 2.24338 
-3.69003 2.24338 6.84304 
6.61909 -0.0953533 -3.65266 
-0.0953533 6.45586 1.93152 
-3.65266 1.93152 6.52511 
6.33425 0.112301 -3.65869 
0.112301 6.20061 1.52483 
-3.65869 1.52483 7.0652 
6.71 -0.453534 -3.7155 
-0.453534 7.23425 1.89296 
-3.7155 1.89296 5.65582 
5.9662 -0.0668601 -2.76538 
-0.0668601 6.45341 0.901838 
-2.76538 0.901838 6.42578 
6.01632 0.242343 -3.05098 
0.242343 6.57564 1.48954 
-3.05098 1.48954 6.25344 
5.95919 0.000383819 -3.14077 
0.000383819 6.51684 1.35339 
-3.14077 1.35339 6.36937 
6.23302 0.108036 -2.71186 
0.108036 6.42429 0.974622 
-2.71186 0.974622 6.1881 
2.32414 -0.071348 -3.07326 
-0.071348 2.6906 -0.0206748 
-3.07326 -0.0206748 3.0318 
2.54984 -0.189208 -2.76459 
-0.189208 2.85833 0.59467 
-2.76459 0.59467 2.63837 
2.37545 0.00343721 -3.14488 
0.00343721 2.83099 0.265344 
-3.14488 0.265344 2.8401 
2.40042 0.0252155 -2.85436 
0.0252155 2.74816 0.334215 
-2.85436 0.334215 2.89797 
1.85572 0.082574 -4.12603 
0.082574 1.76739 0.704849 
-4.12603 0.704849 1.33265 
1.67171 -0.00262799 -4.11327 
-0.00262799 1.75988 0.912518 
-4.11327 0.912518 1.52417 
1.81591 -0.116171 -4.30398 
-0.116171 1.55631 1.04225 
-4.30398 1.04225 1.58354 
1.76281 0.0193991 -4.30895 
0.0193991 1.81028 0.907162 
-4.30895 0.907162 1.38267 
4.08466 -0.0382947 0.250517 
-0.0382947 3.88013 -4.29904 
0.250517 -4.29904 4.2723 
4.14088 -0.0841855 0.194816 
-0.0841855 4.21634 -4.20481 
0.194816 -4.20481 3.87988 
4.03452 -0.0284788 0.323519 
-0.0284788 3.98983 -4.22131 
0.323519 -4.22131 4.21274 
3.5426 -0.150236 -0.0085275 
-0.150236 3.78019 -4.00837 
-0.0085275 -4.00837 4.9143 
1.44484 -0.0988756 0.218853 
-0.0988756 1.36844 -3.16581 
0.218853 -3.16581 1.01298 
1.31431 -0.0116286 0.0471235 
-0.0116286 1.23907 -3.16186 
0.0471235 -3.16186 1.27287 
1.22777 -0.389975 0.0582224 
-0.389975 0.947104 -2.956 
0.0582224 -2.956 1.65139 
1.26168 0.0527879 0.0682263 
0.0527879 1.19097 -3.22843 
0.0682263 -3.22843 1.37361 
5.56695 -0.332753 4.19354 
-0.332753 5.00643 1.70236 
4.19354 1.70236 7.48813 
6.89464 -0.230623 3.88756 
-0.230623 6.66205 2.73479 
3.88756 2.73479 4.50482 
5.76827 -0.110462 3.32802 
-0.110462 6.60069 2.16701 
3.32802 2.16701 5.69256 
6.0924 0.124229 3.56649 
0.124229 5.75121 1.98996 
3.56649 1.98996 6.2179 
2.08013 0.225523 -0.766625 
0.225523 2.02616 -0.490823 
-0.766625 -0.490823 2.44082 
2.07087 0.0493127 -0.48371 
0.0493127 2.15763 -0.33195 
-0.48371 -0.33195 2.31861 
1.60918 -0.38799 -0.545178 
-0.38799 2.06352 0.0663397 
-0.545178 0.0663397 2.8744 
2.01632 0.103581 -0.54692 
0.103581 2.07854 -0.283258 
-0.54692 -0.283258 2.45225 
1.81018 0.513672 2.44212 
0.513672 1.19798 1.1904 
2.44212 1.1904 0.219471 
0.809253 0.364171 1.99107 
0.364171 0.714775 1.26227 
1.99107 1.26227 1.7036 
1.0154 0.00829768 2.15856 
0.00829768 1.10447 1.57173 
2.15856 1.57173 1.10776 
1.1773 0.0223345 2.26772 
0.0223345 1.0409 1.51119 
2.26772 1.51119 1.00942 
0.522802 -0.0301607 2.03652 
-0.0301607 0.610188 -1.40622 
2.03652 -1.40622 0.485874 
0.666303 -0.169005 1.97843 
-0.169005 0.659343 -1.4539 
1.97843 -1.4539 0.293218 
0.921551 -0.044713 1.98587 
-0.044713 0.757814 -1.2967 
1.98587 -1.2967 -0.0605013 
0.479781 0.0169859 2.09469 
0.0169859 0.465123 -1.46453 
2.09469 -1.46453 0.673959 
5.91734 0.0985083 0.539859 
0.0985083 6.09356 -4.26142 
0.539859 -4.26142 4.19893 
4.95549 0.0226504 0.773691 
0.0226504 5.18629 -4.79078 
0.773691 -4.79078 6.06805 
5.66107 0.0531324 0.50513 
0.0531324 5.09406 -4.41422 
0.50513 -4.41422 5.4547 
5.45504 0.11506 0.344245 
0.11506 5.14223 -4.33161 
0.344245 -4.33161 5.61256 
3.38251 -0.134546 3.16552 
-0.134546 2.84967 -0.523762 
3.16552 -0.523762 3.05873 
2.77273 -0.197505 2.88647 
-0.197505 3.15353 -0.507855 
2.88647 -0.507855 3.36465 
3.29483 -0.153609 2.9869 
-0.153609 3.22745 -0.875811 
2.9869 -0.875811 2.76864 
2.71211 -0.262807 3.03243 
-0.262807 3.04733 -0.392677 
3.03243 -0.392677 3.53148 
6.63144 0.130452 -0.706307 
0.130452 6.42489 -1.2635 
-0.706307 -1.2635 6.55645 
6.33443 0.0828208 -0.517958 
0.0828208 6.46404 -1.11767 
-0.517958 -1.11767 6.81431 
6.47652 0.161949 -0.849027 
0.161949 6.69243 -0.745749 
-0.849027 -0.745749 6.44383 
6.2841 0.194847 -0.784822 
0.194847 6.69908 -0.636949 
-0.784822 -0.636949 6.6296 
7.21006 -0.746846 -3.52417 
-0.746846 6.24737 3.13869 
-3.52417 3.13869 4.49593 
5.99456 0.0137574 -3.05964 
0.0137574 6.02206 3.23473 
-3.05964 3.23473 5.93674 
4.71916 0.713542 -3.38592 
0.713542 5.81237 3.17509 
-3.38592 3.17509 7.42184 
6.05153 -0.0442651 -1.67969 
-0.0442651 6.09362 3.23346 
-1.67969 3.23346 5.80822 
8.11278 0.115799 0.653721 
0.115799 8.12923 -0.0271738 
0.653721 -0.0271738 8.29411 
8.44333 -0.121476 0.390317 
-0.121476 8.41708 0.494298 
0.390317 0.494298 7.67571 
8.19483 0.0886815 0.654692 
0.0886815 8.07917 0.177785 
0.654692 0.177785 8.26212 
8.25044 0.0527473 0.526103 
0.0527473 8.18149 0.142441 
0.526103 0.142441 8.10419 
6.0783 0.207853 -0.471376 
0.207853 5.92383 3.01951 
-0.471376 3.01951 6.33965 
6.62905 -0.197849 -0.284899 
-0.197849 6.65741 3.17658 
-0.284899 3.17658 5.05531 
5.36088 -0.188907 -0.320541 
-0.188907 5.73057 3.61587 
-0.320541 3.61587 7.25033 
6.29722 0.108197 -0.40438 
0.108197 5.85402 3.03519 
-0.40438 3.03519 6.19053 
2.60801 0.0603883 0.922117 
0.0603883 2.58059 -0.868145 
0.922117 -0.868145 2.72439 
2.53894 -0.0132149 0.979381 
-0.0132149 2.89077 -0.885648 
0.979381 -0.885648 2.48329 
2.73124 0.0677936 0.882449 
0.0677936 2.70932 -0.741501 
0.882449 -0.741501 2.47243 
2.81344 0.132812 1.12752 
0.132812 2.77471 -0.864497 
1.12752 -0.864497 2.32484 
4.20601 -0.0442058 -1.38197 
-0.0442058 4.26044 -1.46281 
-1.38197 -1.46281 4.99677 
4.26957 -0.026864 -1.35539 
-0.026864 4.59116 -1.71104 
-1.35539 -1.71104 4.60249 
4.55111 0.0561459 -1.26795 
0.0561459 4.55823 -1.80308 
-1.26795 -1.80308 4.35388 
4.30898 -0.0821018 -1.21436 
-0.0821018 4.45566 -1.68868 
-1.21436 -1.68868 4.69859 
5.63011 0.0309482 2.75225 
0.0309482 5.70033 -3.67858 
2.75225 -3.67858 5.72275 
5.52837 -0.218062 2.92547 
-0.218062 5.68995 -3.53388 
2.92547 -3.53388 5.83486 
5.85272 -0.0809474 2.8931 
-0.0809474 5.90554 -3.52127 
2.8931 -3.52127 5.29492 
5.65112 0.122475 2.8395 
0.122475 5.63802 -3.61078 
2.8395 -3.61078 5.76404 
3.70967 -0.0311212 2.34657 
-0.0311212 3.80297 1.61467 
2.34657 1.61467 4.02297 
3.98422 0.0361015 2.36037 
0.0361015 3.83607 1.6367 
2.36037 1.6367 3.71533 
3.74432 0.0193807 2.34946 
0.0193807 3.74778 1.65912 
2.34946 1.65912 4.04351 
3.64856 0.128213 2.16143 
0.128213 3.51165 1.26458 
2.16143 1.26458 4.3754 
5.03687 -0.0591354 -0.818214 
-0.0591354 5.0496 -4.6438 
-0.818214 -4.6438 4.18606 
4.67696 0.0705633 -0.736186 
0.0705633 5.01569 -4.20869 
-0.736186 -4.20869 4.57989 
4.23844 0.00374094 -0.684466 
0.00374094 4.17317 -4.24872 
-0.684466 -4.24872 5.86093 
4.71342 0.240502 -0.670682 
0.240502 4.84009 -4.2876 
-0.670682 -4.2876 4.71902 
9.75302 0.0119021 -0.148987 
0.0119021 9.4173 1.39606 
-0.148987 1.39606 9.47427 
9.64751 -0.180345 -0.190869 
-0.180345 9.44189 1.36094 
-0.190869 1.36094 9.55519 
9.08865 0.0826357 -0.284017 
0.0826357 8.97996 1.62046 
-0.284017 1.62046 10.576 
9.71896 0.00621543 -0.357514 
0.00621543 9.66027 1.34367 
-0.357514 1.34367 9.26536 
1.16038 -0.281167 -0.855184 
-0.281167 0.897847 1.11807 
-0.855184 1.11807 0.803145 
1.03448 -0.188846 -0.889396 
-0.188846 0.735609 1.05012 
-0.889396 1.05012 1.09128 
1.04134 -0.299859 -0.35873 
-0.299859 1.03236 1.43227 
-0.35873 1.43227 0.787675 
0.87943 0.0344034 -0.425806 
0.0344034 0.86274 1.40082 
-0.425806 1.40082 1.1192 
5.2116 0.0916009 2.1263 
0.0916009 5.20945 -1.93151 
2.1263 -1.93151 4.99913 
5.27098 0.0343225 1.90511 
0.0343225 5.14616 -1.91872 
1.90511 -1.91872 5.00305 
5.26193 0.0396413 1.86066 
0.0396413 5.08053 -1.88684 
1.86066 -1.88684 5.07772 
5.43939 0.108967 2.20623 
0.108967 5.27439 -1.99798 
2.20623 -1.99798 4.7064 
8.94634 0.177731 -3.61246 
0.177731 8.85351 2.18737 
-3.61246 2.18737 9.11032 
8.69114 -0.405702 -3.64823 
-0.405702 8.68232 1.96202 
-3.64823 1.96202 9.53671 
8.92044 -0.0203356 -3.58648 
-0.0203356 8.88052 2.11372 
-3.58648 2.11372 9.10922 
9.03541 -0.109599 -3.73632 
-0.109599 8.95369 2.24158 
-3.73632 2.24158 8.92108 
4.70819 -0.0804987 -0.555304 
-0.0804987 4.7804 1.19031 
-0.555304 1.19031 4.43791 
4.84049 0.0857361 -0.648531 
0.0857361 4.77795 1.09671 
-0.648531 1.09671 4.30805 
4.36336 -0.306258 -0.772566 
-0.306258 4.52709 1.16529 
-0.772566 1.16529 5.03603 
4.27811 -0.123064 -0.586233 
-0.123064 4.64044 0.871865 
-0.586233 0.871865 5.00794 
8.25261 -0.949127 -3.48694 
-0.949127 8.14751 2.6663 
-3.48694 2.6663 6.41088 
7.05126 0.219787 -3.86121 
0.219787 7.10912 3.05662 
-3.86121 3.05662 8.65062 
7.51177 0.223344 -3.78472 
0.223344 7.59463 2.51939 
-3.78472 2.51939 7.7046 
7.36257 0.437994 -3.24492 
0.437994 7.32331 1.81358 
-3.24492 1.81358 8.12512 
1.60939 -0.124163 1.54307 
-0.124163 1.63224 -2.85198 
1.54307 -2.85198 2.73071 
1.93973 -0.0559472 1.21696 
-0.0559472 1.93772 -3.01148 
1.21696 -3.01148 2.09489 
2.04764 0.0138075 1.3483 
0.0138075 2.06992 -3.0299 
1.3483 -3.0299 1.85477 
1.93126 -0.0249331 1.27757 
-0.0249331 1.92453 -2.93485 
1.27757 -2.93485 2.11655 
3.162 -0.0696417 -4.08979 
-0.0696417 3.67738 1.97818 
-4.08979 1.97818 3.24132 
3.1638 0.116217 -4.11049 
0.116217 3.36742 1.99752 
-4.11049 1.99752 3.54949 
3.09668 0.114554 -3.61009 
0.114554 3.43793 2.52692 
-3.61009 2.52692 3.5461 
3.22136 -0.149346 -3.39525 
-0.149346 3.58766 2.51819 
-3.39525 2.51819 3.27169 
0.301499 0.0644216 -0.0777819 
0.0644216 0.867955 1.23458 
-0.0777819 1.23458 0.133311 
0.743552 0.0117549 -0.216846 
0.0117549 0.812984 1.19458 
-0.216846 1.19458 -0.253771 
0.421436 -0.0955524 -0.119984 
-0.0955524 0.456046 1.24301 
-0.119984 1.24301 0.425282 
0.35865 0.0173493 -0.0857661 
0.0173493 0.39313 1.23199 
-0.0857661 1.23199 0.550984 
4.41917 0.0607784 4.21695 
0.0607784 4.19928 -1.13564 
4.21695 -1.13564 4.12701 
4.18065 0.0127673 4.05731 
0.0127673 4.33894 -1.41589 
4.05731 -1.41589 4.22586 
4.4885 0.125614 4.02527 
0.125614 4.33403 -1.48569 
4.02527 -1.48569 3.92292 
4.04485 0.0711342 4.13474 
0.0711342 4.20607 -0.905407 
4.13474 -0.905407 4.49454 
1.10051 -0.0599323 3.27827 
-0.0599323 0.889973 -1.25653 
3.27827 -1.25653 -0.42021 
0.717998 -0.102732 3.06364 
-0.102732 0.418677 -1.05646 
3.06364 -1.05646 0.433603 
0.810114 -0.321519 3.08072 
-0.321519 0.402333 -1.12281 
3.08072 -1.12281 0.357831 
0.70183 -0.112803 3.01492 
-0.112803 0.237886 -0.877946 
3.01492 -0.877946 0.630562 
7.10734 -0.123297 -1.57135 
-0.123297 6.97629 0.47137 
-1.57135 0.47137 7.0083 
6.36723 0.0411211 -1.66208 
0.0411211 6.80605 -0.0538041 
-1.66208 -0.0538041 7.91865 
7.41154 -0.0386558 -1.78099 
-0.0386558 6.84527 0.268342 
-1.78099 0.268342 6.83513 
7.29139 0.0311999 -1.01128 
0.0311999 7.34616 0.154881 
-1.01128 0.154881 6.45438 
8.524 -0.0107803 1.4076 
-0.0107803 8.97219 0.853149 
1.4076 0.853149 9.00418 
8.79691 0.0377637 1.43712 
0.0377637 8.96616 0.869579 
1.43712 0.869579 8.7373 
8.60507 -0.0588931 1.18557 
-0.0588931 8.78656 1.18563 
1.18557 1.18563 9.10874 
8.8779 0.0954802 1.19611 
0.0954802 8.80105 1.03494 
1.19611 1.03494 8.82141 
1.88455 -0.188663 -0.419646 
-0.188663 1.73664 -3.07993 
-0.419646 -3.07993 2.10929 
1.98912 -0.0740831 -0.599165 
-0.0740831 1.74393 -2.96735 
-0.599165 -2.96735 1.99744 
1.92136 0.169254 -0.643051 
0.169254 2.2069 -3.34179 
-0.643051 -3.34179 1.60223 
1.99624 -0.0388468 -0.498778 
-0.0388468 1.98895 -3.14764 
-0.498778 -3.14764 1.74529 
2.70718 0.219974 1.46787 
0.219974 1.95399 0.548388 
1.46787 0.548388 2.51674 
2.11662 -0.133943 1.64161 
-0.133943 2.29088 0.127497 
1.64161 0.127497 2.77041 
2.41335 0.075595 1.41958 
0.075595 2.45357 0.125061 
1.41958 0.125061 2.311 
2.65543 0.516982 1.07782 
0.516982 2.31187 0.387179 
1.07782 0.387179 2.21062 
9.47492 0.113441 0.334489 
0.113441 9.5002 0.971662 
0.334489 0.971662 9.63434 
9.45603 0.116018 0.223816 
0.116018 9.36546 1.02082 
0.223816 1.02082 9.78797 
9.4056 0.0475649 0.410755 
0.0475649 9.11767 1.0525 
0.410755 1.0525 10.0862 
9.56612 0.0567266 0.306115 
0.0567266 9.61636 0.981984 
0.306115 0.981984 9.42698 
4.02153 0.280614 -1.56854 
0.280614 4.76496 -2.9698 
-1.56854 -2.9698 4.42429 
4.48678 0.26535 -1.61351 
0.26535 4.44087 -3.17499 
-1.61351 -3.17499 4.28314 
4.40774 0.190797 -1.79521 
0.190797 4.58121 -2.973 
-1.79521 -2.973 4.22184 
4.17947 -0.249152 -1.43147 
-0.249152 4.09485 -2.94885 
-1.43147 -2.94885 4.93646 
9.45215 0.0722521 2.43268 
0.0722521 9.73469 -0.0282142 
2.43268 -0.0282142 9.63952 
9.2351 0.134017 2.27636 
0.134017 9.40302 -0.102351 
2.27636 -0.102351 10.1883 
9.45809 -0.060935 2.37605 
-0.060935 9.76247 -0.0799575 
2.37605 -0.0799575 9.6058 
9.66032 0.0546786 2.48994 
0.0546786 9.78719 -0.0243998 
2.48994 -0.0243998 9.37885 
6.45397 -0.116974 -0.444934 
-0.116974 6.47604 -4.43519 
-0.444934 -4.43519 6.38713 
6.5269 -0.115856 -0.392467 
-0.115856 6.43285 -4.45988 
-0.392467 -4.45988 6.35739 
6.15694 -0.239804 -0.294791 
-0.239804 6.18347 -4.33569 
-0.294791 -4.33569 6.97673 
6.93854 -0.302511 -0.550606 
-0.302511 6.6056 -4.05333 
-0.550606 -4.05333 5.773 
8.37138 -0.0570904 -1.47345 
-0.0570904 8.50812 -4.26672 
-1.47345 -4.26672 8.52017 
8.00654 0.0780716 -1.13714 
0.0780716 8.40543 -3.96407 
-1.13714 -3.96407 8.98771 
8.3818 -0.0279353 -1.47536 
-0.0279353 8.54817 -4.15727 
-1.47536 -4.15727 8.46971 
8.79877 -0.019264 -1.71049 
-0.019264 8.81964 -4.24933 
-1.71049 -4.24933 7.78127 
5.70837 0.0261866 -2.35554 
0.0261866 5.78258 -3.21034 
-2.35554 -3.21034 5.89668 
5.68675 0.0496991 -2.16492 
0.0496991 5.76553 -2.92503 
-2.16492 -2.92503 5.93535 
5.79258 -0.0385408 -2.39196 
-0.0385408 5.86476 -3.15734 
-2.39196 -3.15734 5.73029 
5.822 -0.0631127 -2.22749 
-0.0631127 5.77525 -2.98392 
-2.22749 -2.98392 5.79038 
6.83292 0.00170865 -2.21217 
0.00170865 6.71544 -3.94625 
-2.21217 -3.94625 7.18776 
6.75709 -0.0430136 -2.57549 
-0.0430136 6.31295 -3.22133 
-2.57549 -3.22133 7.66609 
6.86041 0.00315996 -2.30264 
0.00315996 6.87215 -3.48454 
-2.30264 -3.48454 7.00357 
6.79415 0.022884 -2.45776 
0.022884 7.95731 -3.23314 
-2.45776 -3.23314 5.98467 
4.31657 -0.0861157 0.6576 
-0.0861157 3.96811 1.35711 
0.6576 1.35711 4.50094 
4.37451 -0.0480975 0.755592 
-0.0480975 4.22215 1.20603 
0.755592 1.20603 4.18896 
4.05377 -0.238689 0.379313 
-0.238689 3.82247 1.63169 
0.379313 1.63169 4.90938 
4.41281 0.044254 0.531696 
0.044254 3.9974 1.42123 
0.531696 1.42123 4.37541 
4.0727 -0.0242037 -0.612519 
-0.0242037 4.05983 4.26544 
-0.612519 4.26544 5.86396 
4.47434 -0.0222053 -0.749211 
-0.0222053 4.99437 4.13687 
-0.749211 4.13687 4.52778 
4.96037 0.00223395 -0.820795 
0.00223395 4.97722 4.64124 
-0.820795 4.64124 4.05889 
4.57197 -0.238492 -0.588979 
-0.238492 4.89994 4.18791 
-0.588979 4.18791 4.52457 
6.20031 0.172652 0.417973 
0.172652 6.17773 -3.81454 
0.417973 -3.81454 5.60344 
5.88566 -0.00713485 0.46724 
-0.00713485 6.03671 -3.62221 
0.46724 -3.62221 6.05912 
5.9627 -0.00554668 0.401721 
-0.00554668 6.05387 -3.70872 
0.401721 -3.70872 5.96493 
5.88843 -0.0348235 0.311085 
-0.0348235 6.13342 -3.69027 
0.311085 -3.69027 5.95964 
8.03368 -0.0310242 -2.33327 
-0.0310242 8.38192 1.8345 
-2.33327 1.8345 7.61095 
8.13152 0.0795433 -2.6428 
0.0795433 8.24028 1.79064 
-2.6428 1.79064 7.65474 
8.0286 0.0179428 -2.27118 
0.0179428 7.89121 1.71031 
-2.27118 1.71031 8.10674 
7.99754 -0.0473137 -2.38632 
-0.0473137 8.1056 1.7897 
-2.38632 1.7897 7.92341 
4.93198 -0.0962789 -0.530326 
-0.0962789 5.32042 -0.0526436 
-0.530326 -0.0526436 5.60267 
5.15563 -0.00297559 -0.415426 
-0.00297559 5.20964 -0.28889 
-0.415426 -0.28889 5.48979 
5.38651 -0.00914331 -0.448938 
-0.00914331 5.26724 -0.00512761 
-0.448938 -0.00512761 5.20131 
5.2114 -0.0102948 -0.410978 
-0.0102948 5.26229 -0.0726953 
-0.410978 -0.0726953 5.38136 
2.91402 -0.29731 -4.64292 
-0.29731 2.21769 0.964589 
-4.64292 0.964589 1.20552 
2.18409 -0.107076 -4.23994 
-0.107076 2.05148 1.00466 
-4.23994 1.00466 2.10166 
1.32099 0.506013 -4.63272 
0.506013 2.18532 0.774245 
-4.63272 0.774245 2.83093 
2.1025 -0.146714 -3.50167 
-0.146714 2.12844 0.615193 
-3.50167 0.615193 2.10629 
2.44303 0.157881 0.240362 
0.157881 3.16335 -2.1049 
0.240362 -2.1049 2.55182 
2.47432 0.0152036 0.483148 
0.0152036 3.1328 -2.27067 
0.483148 -2.27067 2.55108 
2.84979 0.117888 0.425223 
0.117888 2.64325 -1.83675 
0.425223 -1.83675 2.66516 
2.9673 0.0218417 0.471517 
0.0218417 2.86871 -2.18735 
0.471517 -2.18735 2.32219 
7.95124 -0.0709415 -3.22744 
-0.0709415 8.22166 -1.61383 
-3.22744 -1.61383 8.43029 
8.43675 0.00923676 -3.10706 
0.00923676 8.27625 -1.19528 
-3.10706 -1.19528 7.89019 
8.4766 -0.0169446 -3.06616 
-0.0169446 8.06218 -1.54893 
-3.06616 -1.54893 8.0644 
8.28138 -0.101075 -3.09827 
-0.101075 8.02544 -1.48366 
-3.09827 -1.48366 8.29638 
6.58854 0.0991023 -0.336607 
0.0991023 6.62829 0.202939 
-0.336607 0.202939 6.5147 
6.4635 -0.121357 -0.194373 
-0.121357 6.51038 0.232053 
-0.194373 0.232053 6.75765 
6.5907 0.0411357 -0.444907 
0.0411357 6.45332 0.168568 
-0.444907 0.168568 6.68751 
6.62088 -0.111175 -0.229332 
-0.111175 6.76223 0.205272 
-0.229332 0.205272 6.34841 
4.10146 -0.0758335 -0.863276 
-0.0758335 4.09163 -0.410021 
-0.863276 -0.410021 4.13735 
4.14332 0.0114199 -0.902613 
0.0114199 4.20231 -0.438017 
-0.902613 -0.438017 3.98481 
4.3989 0.211972 -0.768831 
0.211972 4.10731 -0.456923 
-0.768831 -0.456923 3.82424 
4.0881 0.000277277 -0.786726 
0.000277277 4.06768 -0.455092 
-0.786726 -0.455092 4.17466 
7.95084 -0.059489 -0.289763 
-0.059489 7.98072 -1.68209 
-0.289763 -1.68209 8.2193 
8.51732 0.0420554 -0.464035 
0.0420554 8.37739 -1.7767 
-0.464035 -1.7767 7.25616 
8.01977 -0.038822 -0.432369 
-0.038822 8.21116 -1.60233 
-0.432369 -1.60233 7.91994 
8.0118 0.0536075 -0.561428 
0.0536075 8.15225 -1.63591 
-0.561428 -1.63591 7.98682 
9.63053 0.0107878 -3.44287 
0.0107878 9.53394 1.86239 
-3.44287 1.86239 9.53894 
9.65998 -0.028939 -3.50042 
-0.028939 9.31729 1.80345 
-3.50042 1.80345 9.72614 
9.33496 0.0196815 -3.39333 
0.0196815 9.35873 1.71784 
-3.39333 1.71784 10.0097 
9.65525 -0.00217836 -3.47132 
-0.00217836 9.63805 1.91511 
-3.47132 1.91511 9.41012 
8.02039 0.0931033 1.73782 
0.0931033 8.04673 -2.99038 
1.73782 -2.99038 8.15285 
8.15252 0.0752302 1.71894 
0.0752302 8.18889 -3.12061 
1.71894 -3.12061 7.87857 
8.0259 -0.0210121 1.85997 
-0.0210121 8.20621 -3.39625 
1.85997 -3.39625 7.98786 
8.135 0.0192412 1.50499 
0.0192412 8.16977 -3.3672 
1.50499 -3.3672 7.9152 
6.64147 0.11334 0.203052 
0.11334 6.49824 4.5707 
0.203052 4.5707 6.36759 
6.83319 -0.0651004 0.0806021 
-0.0651004 6.42595 4.58092 
0.0806021 4.58092 6.24816 
6.16799 -0.194498 0.751898 
-0.194498 6.06366 4.12486 
0.751898 4.12486 7.27565 
6.92106 -0.177912 -0.522931 
-0.177912 7.17916 4.08799 
-0.522931 4.08799 5.40707 
6.24253 0.0095255 2.99821 
0.0095255 6.26128 -3.0305 
2.99821 -3.0305 6.42913 
6.86034 -0.130097 2.85676 
-0.130097 6.06108 -2.68706 
2.85676 -2.68706 6.01152 
6.27196 -0.0202618 3.11447 
-0.0202618 6.39774 -2.72482 
3.11447 -2.72482 6.26324 
6.07561 0.0271438 3.03471 
0.0271438 6.40233 -2.72499 
3.03471 -2.72499 6.455 
7.15111 0.340073 -3.16362 
0.340073 6.83353 -0.0758049 
-3.16362 -0.0758049 6.78435 
6.85019 0.171632 -3.18006 
0.171632 6.7717 -0.576281 
-3.18006 -0.576281 7.14711 
7.07522 0.240612 -2.96704 
0.240612 6.84635 -0.265765 
-2.96704 -0.265765 6.84743 
7.13821 -0.136407 -2.67446 
-0.136407 7.32366 0.0567988 
-2.67446 0.0567988 6.30713 
7.81817 -0.0300407 -1.77565 
-0.0300407 7.98417 1.34573 
-1.77565 1.34573 8.04169 
8.05599 -0.0269995 -1.70568 
-0.0269995 8.1051 1.04869 
-1.70568 1.04869 7.68294 
8.09907 0.0668148 -1.85638 
0.0668148 7.96669 1.33048 
-1.85638 1.33048 7.77828 
8.03406 -0.0398321 -1.60906 
-0.0398321 8.02027 1.30241 
-1.60906 1.30241 7.78971 
3.14291 -0.0630273 2.66406 
-0.0630273 3.22033 -3.64615 
2.66406 -3.64615 3.57443 
3.45395 -0.0631595 2.61078 
-0.0631595 3.62201 -3.3435 
2.61078 -3.3435 2.86172 
3.26081 -0.148407 2.51373 
-0.148407 3.23138 -3.46052 
2.51373 -3.46052 3.44549 
3.00174 0.28211 2.65565 
0.28211 2.89879 -2.68597 
2.65565 -2.68597 4.03716 
4.258 -0.303549 1.81667 
-0.303549 3.93862 4.09721 
1.81667 4.09721 4.53485 
4.36894 -0.204895 2.04238 
-0.204895 3.78378 3.95784 
2.04238 3.95784 4.57875 
4.21848 0.211445 2.08363 
0.211445 4.60106 4.46641 
2.08363 4.46641 3.91194 
4.45452 0.106475 1.8968 
0.106475 4.74598 4.05084 
1.8968 4.05084 3.53097 
3.64827 -0.0844887 1.76556 
-0.0844887 3.62893 -4.02938 
1.76556 -4.02938 3.45808 
3.3469 0.38717 1.33502 
0.38717 3.06247 -3.84682 
1.33502 -3.84682 4.32591 
3.60518 -0.0319423 1.61904 
-0.0319423 3.59299 -3.83846 
1.61904 -3.83846 3.53712 
3.82685 -0.102416 1.21964 
-0.102416 3.89626 -3.70087 
1.21964 -3.70087 3.01217 
8.70604 0.303072 1.60733 
0.303072 8.49245 2.40866 
1.60733 2.40866 8.86766 
8.75202 0.102643 1.72459 
0.102643 8.68154 2.48689 
1.72459 2.48689 8.6326 
8.60381 0.0752202 1.74521 
0.0752202 8.67943 2.64393 
1.74521 2.64393 8.78293 
8.81436 0.11764 1.87907 
0.11764 8.63145 2.77961 
1.87907 2.77961 8.62034 
9.02515 0.0784851 -4.31218 
0.0784851 9.23738 0.719096 
-4.31218 0.719096 9.30795 
9.14114 -0.157993 -4.10724 
-0.157993 8.70422 0.580194 
-4.10724 0.580194 9.72513 
9.04792 -0.0617171 -4.23094 
-0.0617171 9.14161 0.743024 
-4.23094 0.743024 9.38095 
9.21026 -0.0056433 -4.34321 
-0.0056433 9.22544 0.702296 
-4.34321 0.702296 9.13478 
8.82445 -0.253673 -0.260191 
-0.253673 8.77642 -3.56168 
-0.260191 -3.56168 9.22005 
9.07525 0.0265944 0.0312923 
0.0265944 8.9106 -4.17381 
0.0312923 -4.17381 8.83507 
8.79184 -0.204491 0.128647 
-0.204491 8.86815 -4.07651 
0.128647 -4.07651 9.16093 
9.14593 -0.0332294 -0.263977 
-0.0332294 8.85022 -3.48935 
-0.263977 -3.48935 8.82477 
6.18447 -0.187468 0.792579 
-0.187468 5.82686 -0.330562 
0.792579 -0.330562 5.77927 
6.34853 0.034988 0.86063 
0.034988 5.81464 -0.266739 
0.86063 -0.266739 5.62743 
5.80926 -0.00113171 0.626602 
-0.00113171 5.75548 -0.451716 
0.626602 -0.451716 6.22586 
6.30898 0.0224439 1.19461 
0.0224439 6.31572 -0.461889 
1.19461 -0.461889 5.1659 
4.01259 -0.111319 -4.50409 
-0.111319 4.12595 -1.11504 
-4.50409 -1.11504 3.16378 
2.86217 -0.40163 -4.49519 
-0.40163 3.95742 -0.890323 
-4.49519 -0.890323 4.48272 
4.05063 0.255821 -4.36331 
0.255821 3.52652 -1.17538 
-4.36331 -1.17538 3.72516 
4.07228 0.0790628 -3.85674 
0.0790628 3.48853 -0.918698 
-3.85674 -0.918698 3.7415 
3.42748 0.461212 4.68937 
0.461212 5.48944 -0.0651054 
4.68937 -0.0651054 6.43556 
6.10912 -0.190543 4.9175 
-0.190543 5.03209 -0.155143 
4.9175 -0.155143 4.21126 
5.31848 -0.0734646 4.30726 
-0.0734646 5.04632 -0.449862 
4.30726 -0.449862 4.98767 
5.52608 -0.0208089 3.51908 
-0.0208089 5.04404 -0.234695 
3.51908 -0.234695 4.78235 
3.8787 -0.148492 0.0838792 
-0.148492 3.55987 0.595164 
0.0838792 0.595164 2.447 
3.41474 -0.0542837 -0.291508 
-0.0542837 3.24261 0.562209 
-0.291508 0.562209 3.22821 
3.43025 -0.086672 -0.271126 
-0.086672 3.25808 0.612544 
-0.271126 0.612544 3.19724 
3.08412 -0.0126845 -0.208903 
-0.0126845 3.12383 0.741708 
-0.208903 0.741708 3.67761 
8.11289 -0.140874 -3.75885 
-0.140874 8.15763 0.861629 
-3.75885 0.861629 8.15119 
8.32602 0.0483392 -3.44235 
0.0483392 8.32799 0.526875 
-3.44235 0.526875 7.7677 
8.31267 -0.00474239 -3.71148 
-0.00474239 8.26089 0.765818 
-3.71148 0.765818 7.84816 
8.32526 0.0577691 -3.69923 
0.0577691 8.06627 0.746395 
-3.69923 0.746395 8.03018 
7.2876 0.00431438 -1.22279 
0.00431438 7.04908 1.97625 
-1.22279 1.97625 7.44687 
7.24662 -0.0922088 -1.31511 
-0.0922088 7.09308 1.68369 
-1.31511 1.68369 7.44386 
7.4118 -0.0394823 -1.26125 
-0.0394823 6.8745 1.87211 
-1.26125 1.87211 7.49725 
7.08945 -0.011737 -1.27294 
-0.011737 7.024 1.96391 
-1.27294 1.96391 7.6701 
1.44036 -0.0703976 -2.44907 
-0.0703976 1.46291 -3.46691 
-2.44907 -3.46691 1.31555 
1.70637 -0.248284 -2.15177 
-0.248284 1.62706 -3.23524 
-2.15177 -3.23524 0.885392 
1.48554 -0.118308 -2.40682 
-0.118308 1.52022 -3.65961 
-2.40682 -3.65961 1.21307 
1.33549 -0.045852 -2.519 
-0.045852 1.49979 -3.79597 
-2.519 -3.79597 1.38354 
0.426617 0.051749 0.20741 
0.051749 0.82615 0.430245 
0.20741 0.430245 0.135029 
0.610266 -0.10809 0.374458 
-0.10809 0.97699 0.55215 
0.374458 0.55215 -0.199459 
0.414815 0.0475324 0.301589 
0.0475324 0.573763 0.386643 
0.301589 0.386643 0.399218 
0.376878 0.0362533 0.248792 
0.0362533 0.437354 0.324588 
0.248792 0.324588 0.573565 
1.2333 0.00632851 1.40385 
0.00632851 1.53674 -3.21148 
1.40385 -3.21148 1.34078 
0.919987 -0.0950885 1.48209 
-0.0950885 1.61646 -3.04445 
1.48209 -3.04445 1.57437 
1.29687 -0.0183263 1.83239 
-0.0183263 1.78667 -3.48533 
1.83239 -3.48533 1.02728 
1.34018 -0.0852909 1.71208 
-0.0852909 1.38193 -3.39724 
1.71208 -3.39724 1.38872 
9.04647 -0.134714 0.137965 
-0.134714 8.87863 -4.34997 
0.137965 -4.34997 9.0768 
8.45446 0.188943 0.23705 
0.188943 9.07951 -4.06759 
0.23705 -4.06759 9.46794 
8.94847 0.0396704 0.11676 
0.0396704 8.96398 -4.23017 
0.11676 -4.23017 9.08946 
8.97753 0.0873297 0.165745 
0.0873297 9.19713 -4.53914 
0.165745 -4.53914 8.82724 
4.88776 -0.0160626 0.618414 
-0.0160626 4.75641 -1.63606 
0.618414 -1.63606 4.14103 
4.62217 0.172101 0.631457 
0.172101 4.76392 -1.64025 
0.631457 -1.64025 4.39911 
4.50322 0.500416 0.346276 
0.500416 4.351 -1.62084 
0.346276 -1.62084 4.93098 
4.18809 0.319945 0.550861 
0.319945 4.4406 -1.21104 
0.550861 -1.21104 5.15651 
1.11526 -0.148663 0.512958 
-0.148663 1.18614 0.197271 
0.512958 0.197271 0.987003 
1.10414 -0.288597 0.471129 
-0.288597 1.29865 0.379221 
0.471129 0.379221 0.885615 
2.02033 0.755297 0.979654 
0.755297 1.19981 -0.413749 
0.979654 -0.413749 0.0682573 
0.773649 0.799488 -0.324333 
0.799488 0.503359 0.312794 
-0.324333 0.312794 2.01139 
4.10249 0.239226 2.54563 
0.239226 3.85682 -0.813869 
2.54563 -0.813869 3.99616 
3.92037 0.113017 2.56683 
0.113017 3.84081 -0.611198 
2.56683 -0.611198 4.19428 
3.98174 0.178924 2.37701 
0.178924 3.98353 -0.696701 
2.37701 -0.696701 3.9902 
4.01686 0.100329 2.31223 
0.100329 3.76498 -0.704233 
2.31223 -0.704233 4.17363 
3.39515 0.0356632 -0.327096 
0.0356632 3.46605 4.54788 
-0.327096 4.54788 3.6889 
3.25649 -0.202764 -0.489699 
-0.202764 3.32392 4.1965 
-0.489699 4.1965 3.96969 
3.69724 0.0303606 -0.316105 
0.0303606 3.40273 4.46018 
-0.316105 4.46018 3.45013 
3.8567 -0.183593 -0.200873 
-0.183593 3.74833 4.133 
-0.200873 4.133 2.94507 
5.68586 -0.0489311 1.27052 
-0.0489311 5.61819 4.38726 
1.27052 4.38726 4.83138 
5.42295 -0.0717366 1.60284 
-0.0717366 4.95487 4.51202 
1.60284 4.51202 5.75761 
4.85606 -0.0713814 1.45894 
-0.0713814 5.87456 4.36487 
1.45894 4.36487 5.40481 
5.13233 -0.0339812 1.53419 
-0.0339812 5.17419 4.0316 
1.53419 4.0316 5.82891 
1.70028 -0.141645 -0.568312 
-0.141645 1.70736 0.976417 
-0.568312 0.976417 1.45101 
1.71862 0.208666 -0.609865 
0.208666 1.59392 1.17855 
-0.609865 1.17855 1.54611 
1.45225 0.139852 -0.543213 
0.139852 1.86805 1.12161 
-0.543213 1.12161 1.53835 
1.34282 0.030855 -0.378607 
0.030855 1.51026 1.50642 
-0.378607 1.50642 2.00557 
9.03906 0.035084 -3.55034 
0.035084 8.39477 -1.65639 
-3.55034 -1.65639 9.58441 
8.81851 -0.0704754 -3.90094 
-0.0704754 9.02935 -1.52355 
-3.90094 -1.52355 9.17038 
8.89989 0.121422 -4.04769 
0.121422 8.98879 -1.74431 
-4.04769 -1.74431 9.12956 
9.4427 -0.0702393 -4.32947 
-0.0702393 8.92111 -1.84375 
-4.32947 -1.84375 8.65443 
2.74177 0.0101771 0.548038 
0.0101771 2.94393 0.513762 
0.548038 0.513762 2.8282 
2.83587 0.00220023 0.500567 
0.00220023 2.92931 0.523601 
0.500567 0.523601 2.74871 
3.12469 0.134265 0.686328 
0.134265 2.99253 0.669943 
0.686328 0.669943 2.39668 
2.88039 0.0687309 0.371682 
0.0687309 2.68558 0.704221 
0.371682 0.704221 2.94793 
0.725725 0.014743 -0.401313 
0.014743 0.947459 2.27975 
-0.401313 2.27975 -0.454675 
0.274633 -0.16138 -0.547187 
-0.16138 0.732529 2.41731 
-0.547187 2.41731 0.211348 
0.358662 -0.121424 -0.49868 
-0.121424 0.438287 2.52879 
-0.49868 2.52879 0.42156 
0.263503 0.00224607 -0.603676 
0.00224607 0.32726 2.50079 
-0.603676 2.50079 0.627746 
4.51078 0.251903 4.11445 
0.251903 4.99208 1.89671 
4.11445 1.89671 3.60412 
4.52202 -0.0788354 3.54378 
-0.0788354 4.04929 2.4536 
3.54378 2.4536 4.53567 
3.56873 0.179374 3.44073 
0.179374 4.2776 2.90909 
3.44073 2.90909 5.26066 
4.46658 -0.314476 3.61966 
-0.314476 4.33296 2.17509 
3.61966 2.17509 4.30744 
5.161 -0.0121718 1.36298 
-0.0121718 5.3439 -1.31419 
1.36298 -1.31419 5.40432 
5.28992 0.0602875 1.49687 
0.0602875 5.71754 -1.20546 
1.49687 -1.20546 4.90177 
5.2503 -0.0457185 1.33099 
-0.0457185 5.08621 -1.23399 
1.33099 -1.23399 5.57272 
5.36319 0.162754 1.20891 
0.162754 5.56139 -1.14344 
1.20891 -1.14344 4.98464 
0.201039 0.0394281 -1.03583 
0.0394281 0.450596 1.03893 
-1.03583 1.03893 0.24333 
0.559449 -0.122797 -0.93631 
-0.122797 0.846952 0.681703 
-0.93631 0.681703 -0.511435 
0.29483 0.169515 -1.05176 
0.169515 0.36367 1.08702 
-1.05176 1.08702 0.236467 
0.206566 0.0144786 -0.90922 
0.0144786 0.270008 1.12429 
-0.90922 1.12429 0.418392 
2.14183 -0.151101 -4.04579 
-0.151101 2.96492 -0.544144 
-4.04579 -0.544144 3.53267 
3.35732 -0.00989558 -4.02595 
-0.00989558 2.60174 -0.534249 
-4.02595 -0.534249 2.68038 
2.92976 0.0787874 -4.47221 
0.0787874 2.54135 -0.744854 
-4.47221 -0.744854 3.16832 
3.31539 0.200256 -3.88356 
0.200256 2.94543 -0.859084 
-3.88356 -0.859084 2.37861 
2.78049 -0.225249 2.03592 
-0.225249 2.66909 0.636031 
2.03592 0.636031 2.5392 
2.72953 -0.206792 1.56133 
-0.206792 2.70772 0.26261 
1.56133 0.26261 2.55153 
2.61048 -0.427879 1.56664 
-0.427879 2.08028 -0.388204 
1.56664 -0.388204 3.29802 
3.02188 -0.0948146 1.07765 
-0.0948146 3.30012 0.681393 
1.07765 0.681393 1.66679 
8.38016 -0.459196 4.1544 
-0.459196 8.35381 -2.46202 
4.1544 -2.46202 7.49929 
8.23217 0.298159 3.75051 
0.298159 7.96831 -2.46163 
3.75051 -2.46163 8.0328 
7.61614 0.270049 4.06067 
0.270049 7.65474 -2.45336 
4.06067 -2.45336 8.96238 
8.27682 0.0307605 3.44382 
0.0307605 8.13913 -1.98076 
3.44382 -1.98076 7.81731 
5.07125 0.0257743 2.52527 
0.0257743 5.41191 0.996523 
2.52527 0.996523 5.96467 
5.44166 0.176539 2.8906 
0.176539 5.38843 0.869043 
2.8906 0.869043 5.61774 
5.57342 0.0584957 3.09539 
0.0584957 5.1678 0.697175 
3.09539 0.697175 5.70662 
5.54652 0.28598 3.34826 
0.28598 5.97261 0.923922 
3.34826 0.923922 4.92871 
4.56897 -0.132535 -4.08329 
-0.132535 5.49685 -1.92534 
-4.08329 -1.92534 6.5076 
5.4464 0.0575991 -4.51864 
0.0575991 5.85174 -1.25308 
-4.51864 -1.25308 5.27528 
5.54416 0.14753 -4.30494 
0.14753 5.1518 -1.04896 
-4.30494 -1.04896 5.87746 
5.91676 0.0393509 -3.96483 
0.0393509 5.23417 -1.30489 
-3.96483 -1.30489 5.4225 
6.35349 -0.113948 3.43855 
-0.113948 6.61559 -3.36144 
3.43855 -3.36144 8.50393 
7.43423 0.150121 3.0975 
0.150121 6.75848 -2.66241 
3.0975 -2.66241 7.2803 
7.40217 -0.345941 3.87573 
-0.345941 8.12393 -2.35392 
3.87573 -2.35392 5.94691 
7.40901 0.124391 3.30694 
0.124391 6.80412 -2.83489 
3.30694 -2.83489 7.25988 
1.52411 0.111629 -4.45818 
0.111629 1.59501 -0.56072 
-4.45818 -0.56072 3.78381 
2.46288 0.00361755 -3.48823 
0.00361755 2.29434 -0.927018 
-3.48823 -0.927018 2.1457 
3.01709 -0.045153 -4.58045 
-0.045153 3.01814 -0.893113 
-4.58045 -0.893113 0.867689 
2.44212 0.162844 -3.68967 
0.162844 2.21125 -0.351224 
-3.68967 -0.351224 2.24955 
3.6628 -0.0985698 -1.96344 
-0.0985698 3.53659 4.05798 
-1.96344 4.05798 3.69833 
3.83687 0.0222091 -1.80123 
0.0222091 3.54142 3.94323 
-1.80123 3.94323 3.51942 
4.59145 -0.131127 -1.35522 
-0.131127 4.00232 3.88536 
-1.35522 3.88536 2.30395 
3.3937 -0.0722849 -1.98532 
-0.0722849 3.06836 3.29665 
-1.98532 3.29665 4.43566 
8.30237 -0.158711 -3.79509 
-0.158711 8.30792 -1.48712 
-3.79509 -1.48712 8.1475 
8.3818 -0.0392029 -4.0124 
-0.0392029 8.44578 -1.55733 
-4.0124 -1.55733 7.93022 
8.18787 0.065067 -3.96711 
0.065067 8.07509 -1.41636 
-3.96711 -1.41636 8.49483 
8.16427 -0.0390368 -3.97879 
-0.0390368 8.28378 -1.48835 
-3.97879 -1.48835 8.30974 
9.03399 0.334912 -1.02273 
0.334912 7.88963 -1.66645 
-1.02273 -1.66645 9.62699 
8.80246 -0.041978 -1.48121 
-0.041978 8.89419 -1.86452 
-1.48121 -1.86452 8.85396 
9.54695 0.255835 -1.41725 
0.255835 8.83894 -2.2074 
-1.41725 -2.2074 8.16471 
8.80176 -0.046826 -1.47343 
-0.046826 8.86906 -1.86373 
-1.47343 -1.86373 8.87979 
2.81129 0.0125717 0.774917 
0.0125717 3.1106 -0.400237 
0.774917 -0.400237 2.89428 
3.00429 -0.020062 0.791651 
-0.020062 3.09505 -0.558641 
0.791651 -0.558641 2.71684 
2.83664 -0.0208494 0.791772 
-0.0208494 3.02254 -0.42207 
0.791772 -0.42207 2.95699 
2.9945 0.0212921 0.948383 
0.0212921 3.10045 -0.535444 
0.948383 -0.535444 2.72122 
5.04195 0.182083 -0.978536 
0.182083 4.32088 0.720493 
-0.978536 0.720493 3.95588 
4.33758 0.00186588 -1.34606 
0.00186588 4.4957 0.91395 
-1.34606 0.91395 4.48544 
4.3774 -0.05029 -1.26797 
-0.05029 4.51499 0.751922 
-1.26797 0.751922 4.42632 
4.41391 -0.0213783 -1.36153 
-0.0213783 4.66099 0.841066 
-1.36153 0.841066 4.24381 
4.70406 0.0317901 2.95557 
0.0317901 4.78709 0.0870803 
2.95557 0.0870803 4.58449 
4.98141 -0.0924752 3.27073 
-0.0924752 4.81776 0.258085 
3.27073 0.258085 4.27647 
4.20682 0.167501 2.99303 
0.167501 4.62474 0.12827 
2.99303 0.12827 5.24408 
4.63507 0.0897163 3.04697 
0.0897163 4.70756 0.226042 
3.04697 0.226042 4.73301 
8.2533 0.0931989 -3.23769 
0.0931989 8.13878 1.07251 
-3.23769 1.07251 7.76108 
8.21547 0.0224837 -3.14561 
0.0224837 8.15972 0.836453 
-3.14561 0.836453 7.77797 
7.97746 -0.0312848 -3.25854 
-0.0312848 8.08655 1.07273 
-3.25854 1.07273 8.08915 
8.09176 0.0798051 -3.21727 
0.0798051 8.07832 1.06846 
-3.21727 1.06846 7.98309 
7.14889 -0.0258098 -1.22273 
-0.0258098 6.67629 -4.42641 
-1.22273 -4.42641 8.27744 
7.66386 0.0587457 -2.35734 
0.0587457 7.93979 -3.8289 
-2.35734 -3.8289 6.49898 
7.54148 0.247697 -1.54132 
0.247697 7.16847 -3.64495 
-1.54132 -3.64495 7.39268 
7.63691 0.0101785 -1.62994 
0.0101785 7.21236 -3.73424 
-1.62994 -3.73424 7.25336 
4.79658 -0.175398 4.72992 
-0.175398 5.61269 -1.03941 
4.72992 -1.03941 7.04563 
7.31713 0.155239 4.37334 
0.155239 5.80402 -0.778016 
4.37334 -0.778016 4.33374 
5.58086 0.0087583 4.43336 
0.0087583 5.94001 -1.26812 
4.43336 -1.26812 5.93402 
5.57574 -0.140707 3.7579 
-0.140707 5.88513 -1.81344 
3.7579 -1.81344 5.99402 
6.35747 0.598496 3.9116 
0.598496 6.64478 -2.78135 
3.9116 -2.78135 7.54532 
6.77089 0.0940574 3.60182 
0.0940574 6.88684 -2.52745 
3.60182 -2.52745 6.88983 
7.67116 -0.735714 3.66592 
-0.735714 7.18612 -2.72774 
3.66592 -2.72774 5.69028 
6.82946 0.227591 3.14319 
0.227591 6.62395 -1.81651 
3.14319 -1.81651 7.09415 
6.97196 -0.00894874 -0.703661 
-0.00894874 6.8936 0.518552 
-0.703661 0.518552 6.98188 
6.91442 -0.0579732 -0.564062 
-0.0579732 6.88796 0.640185 
-0.564062 0.640185 7.04507 
6.97814 -0.00998618 -0.520548 
-0.00998618 6.91915 0.486708 
-0.520548 0.486708 6.95015 
7.04314 -0.065363 -0.517797 
-0.065363 7.02245 0.546506 
-0.517797 0.546506 6.78185 
6.23964 0.0584835 -3.0248 
0.0584835 6.3471 -0.358964 
-3.0248 -0.358964 6.12668 
6.31306 -0.0470792 -3.0856 
-0.0470792 5.86597 -0.254485 
-3.0856 -0.254485 6.53439 
6.2762 0.0330577 -3.12908 
0.0330577 6.47031 -0.531336 
-3.12908 -0.531336 5.96691 
6.29073 0.0357749 -3.23195 
0.0357749 6.22424 -0.281003 
-3.23195 -0.281003 6.19846 
4.69949 -0.0624261 -0.620345 
-0.0624261 4.79994 -0.144733 
-0.620345 -0.144733 5.47083 
5.07074 -0.0162068 -0.441435 
-0.0162068 5.00149 -0.535012 
-0.441435 -0.535012 4.89803 
5.0245 -0.0179429 -0.579414 
-0.0179429 4.90572 -0.396412 
-0.579414 -0.396412 5.04005 
4.87581 -0.0121075 -0.464391 
-0.0121075 4.92687 -0.448586 
-0.464391 -0.448586 5.16759 
8.95355 0.109663 2.50834 
0.109663 8.97843 1.08772 
2.50834 1.08772 9.06535 
9.34745 -0.654427 1.95124 
-0.654427 9.7019 0.827894 
1.95124 0.827894 7.94798 
7.80017 -0.490502 2.89713 
-0.490502 8.99285 0.525841 
2.89713 0.525841 10.2043 
8.95891 0.120721 2.51386 
0.120721 8.97627 1.14739 
2.51386 1.14739 9.06216 
7.63256 -0.0495861 -0.0459628 
-0.0495861 7.39053 0.1978 
-0.0459628 0.1978 7.0982 
7.4952 -0.144055 0.00508151 
-0.144055 7.2915 -0.0639115 
0.00508151 -0.0639115 7.3346 
7.46488 0.124658 0.129359 
0.124658 7.81336 -0.176886 
0.129359 -0.176886 6.84306 
7.32662 0.0139799 -0.276028 
0.0139799 7.09733 -0.0751833 
-0.276028 -0.0751833 7.69735 
6.88424 0.0413578 3.54564 
0.0413578 6.86349 -2.44711 
3.54564 -2.44711 6.69464 
7.372 0.145736 3.61104 
0.145736 7.09794 -1.62901 
3.61104 -1.62901 5.97242 
6.85391 0.00742908 3.40141 
0.00742908 6.85899 -2.35827 
3.40141 -2.35827 6.72946 
6.6329 0.113572 3.50633 
0.113572 6.47516 -2.04963 
3.50633 -2.04963 7.3343 
4.33415 -0.114453 -1.95834 
-0.114453 4.41828 4.10142 
-1.95834 4.10142 4.37531 
3.87276 1.02417 -2.11675 
1.02417 3.77879 3.67035 
-2.11675 3.67035 5.47619 
4.87473 -0.31742 -2.13989 
-0.31742 4.79754 4.52457 
-2.13989 4.52457 3.45547 
4.3651 -0.566448 -1.16852 
-0.566448 4.74352 3.88754 
-1.16852 3.88754 4.01911 
3.14021 0.134404 -0.765218 
0.134404 3.3681 -1.47657 
-0.765218 -1.47657 2.76197 
3.03249 0.0478302 -0.769234 
0.0478302 2.89798 -1.26669 
-0.769234 -1.26669 3.33981 
3.06909 0.161026 -0.878884 
0.161026 3.02648 -1.27144 
-0.878884 -1.27144 3.17472 
2.88004 -0.0175253 -0.894197 
-0.0175253 3.01976 -1.01851 
-0.894197 -1.01851 3.37049 
1.85296 0.108065 1.22288 
0.108065 1.69179 1.40724 
1.22288 1.40724 1.61242 
1.59756 0.0133929 1.33562 
0.0133929 1.83535 1.46995 
1.33562 1.46995 1.72426 
1.16056 -0.14871 1.18774 
-0.14871 1.79305 1.44232 
1.18774 1.44232 2.20355 
1.54155 -0.0261589 1.21233 
-0.0261589 1.62183 1.67654 
1.21233 1.67654 1.99379 
4.10312 0.059586 -3.9194 
0.059586 4.37176 1.10435 
-3.9194 1.10435 4.45573 
4.38633 -0.262392 -4.23157 
-0.262392 4.25192 1.18344 
-4.23157 1.18344 4.29236 
4.11667 0.114404 -3.88244 
0.114404 4.1371 1.09352 
-3.88244 1.09352 4.67684 
4.13912 0.101501 -4.0294 
0.101501 4.21004 1.15616 
-4.0294 1.15616 4.58145 
3.11425 0.0792764 0.139358 
0.0792764 3.06725 1.44145 
0.139358 1.44145 3.45138 
3.20279 0.0544795 0.0302948 
0.0544795 3.1918 1.56457 
0.0302948 1.56457 3.23828 
3.34343 0.0719338 0.130859 
0.0719338 3.2267 1.67893 
0.130859 1.67893 3.06275 
3.00572 -0.00678792 0.0638346 
-0.00678792 3.16318 1.68871 
0.0638346 1.68871 3.46398 
3.62511 0.278269 2.87549 
0.278269 3.8718 -3.46781 
2.87549 -3.46781 3.97182 
3.7652 -0.129323 2.27433 
-0.129323 3.8712 -3.64346 
2.27433 -3.64346 3.83233 
3.4515 -0.0370217 2.84512 
-0.0370217 4.27721 -3.15866 
2.84512 -3.15866 3.74003 
3.77862 0.129588 2.05614 
0.129588 3.56262 -3.60342 
2.05614 -3.60342 4.1275 
5.71717 0.323838 -0.508278 
0.323838 5.72905 2.93179 
-0.508278 2.93179 5.31833 
5.60379 0.213241 -0.407485 
0.213241 5.34478 3.34216 
-0.407485 3.34216 5.81598 
5.39863 -0.117848 -0.256054 
-0.117848 5.36933 3.21413 
-0.256054 3.21413 5.99659 
5.53094 0.386868 -0.886721 
0.386868 6.0396 3.17154 
-0.886721 3.17154 5.19403 
5.54086 -0.0456603 2.26421 
-0.0456603 5.82406 2.3687 
2.26421 2.3687 4.97467 
5.41082 -0.0714085 2.36605 
-0.0714085 5.54283 2.06107 
2.36605 2.06107 5.38595 
5.32544 -0.042557 2.31282 
-0.042557 5.36688 2.07462 
2.31282 2.07462 5.64727 
5.42135 -0.0498371 2.37701 
-0.0498371 5.55147 2.17422 
2.37701 2.17422 5.36677 
1.47587 -0.145937 -0.107036 
-0.145937 1.46203 -1.3836 
-0.107036 -1.3836 1.645 
1.75901 -0.160248 0.5592 
-0.160248 1.35326 -1.38731 
0.5592 -1.38731 1.47063 
1.54235 -0.0108296 -0.0729612 
-0.0108296 1.32027 -1.41493 
-0.0729612 -1.41493 1.72027 
1.73526 -0.0161325 0.291068 
-0.0161325 1.34708 -1.68095 
0.291068 -1.68095 1.50056 
5.94967 -0.0815023 2.24341 
-0.0815023 5.12296 -3.84761 
2.24341 -3.84761 6.54257 
5.9477 0.416104 1.04887 
0.416104 5.91193 -3.94069 
1.04887 -3.94069 5.75557 
6.31317 -0.319181 0.703687 
-0.319181 6.16167 -4.38588 
0.703687 -4.38588 5.14037 
5.50107 -0.0978213 1.72681 
-0.0978213 6.07375 -3.62787 
1.72681 -3.62787 6.04038 
1.46947 -0.225584 2.15224 
-0.225584 1.6995 -3.1266 
2.15224 -3.1266 1.04942 
1.17766 -0.180798 2.12165 
-0.180798 1.39477 -2.92826 
2.12165 -2.92826 1.64596 
1.4384 0.155216 2.20512 
0.155216 1.37615 -3.01611 
2.20512 -3.01611 1.40384 
1.40848 0.0107301 2.15735 
0.0107301 1.38492 -3.00257 
2.15735 -3.00257 1.42498 
3.37187 -0.308524 -0.500442 
-0.308524 3.93937 0.664668 
-0.500442 0.664668 4.31653 
3.80555 -0.0648853 -0.32433 
-0.0648853 3.91131 0.714758 
-0.32433 0.714758 3.91091 
3.96012 0.0529461 -0.25131 
0.0529461 3.86259 0.511672 
-0.25131 0.511672 3.80505 
3.83808 0.124772 -0.241344 
0.124772 3.77545 0.586711 
-0.241344 0.586711 4.01424 
4.64597 0.152592 0.560339 
0.152592 4.85679 0.0639477 
0.560339 0.0639477 4.49415 
4.74805 -0.0163724 0.633179 
-0.0163724 4.63085 0.104402 
0.633179 0.104402 4.61801 
4.85255 -0.150762 0.620149 
-0.150762 4.37112 -0.0217176 
0.620149 -0.0217176 4.77324 
4.63275 -0.0302309 1.0487 
-0.0302309 4.62237 -0.128572 
1.0487 -0.128572 4.7418 
6.96607 0.120057 -1.87949 
0.120057 6.73283 -0.0671478 
-1.87949 -0.0671478 5.73418 
6.5173 0.193849 -1.87618 
0.193849 5.56882 -0.52816 
-1.87618 -0.52816 7.34696 
6.39324 -0.0704726 -1.44657 
-0.0704726 6.70485 -0.482698 
-1.44657 -0.482698 6.33499 
6.35187 -0.00486689 -1.49898 
-0.00486689 6.73965 -0.338602 
-1.49898 -0.338602 6.34156 
1.78738 -0.175212 -2.30225 
-0.175212 1.22335 2.36043 
-2.30225 2.36043 1.06051 
1.37395 -0.283639 -2.4404 
-0.283639 1.17423 3.26765 
-2.4404 3.26765 1.52307 
1.72553 -0.130221 -2.35568 
-0.130221 1.20964 3.18244 
-2.35568 3.18244 1.13608 
1.3484 -0.194192 -2.22959 
-0.194192 1.26153 2.41735 
-2.22959 2.41735 1.46132 
8.20165 -0.0922437 4.05054 
-0.0922437 8.41422 -0.296581 
4.05054 -0.296581 9.05409 
8.52992 0.0834925 4.19895 
0.0834925 8.75427 -0.834157 
4.19895 -0.834157 8.38578 
8.48637 0.0942804 4.14692 
0.0942804 8.43744 -0.704838 
4.14692 -0.704838 8.74615 
8.37287 -0.0190262 4.19497 
-0.0190262 8.34931 -0.81035 
4.19497 -0.81035 8.94778 
7.38149 -0.160161 -1.8111 
-0.160161 6.87128 0.625561 
-1.8111 0.625561 7.12454 
7.34384 0.0552511 -2.0624 
0.0552511 7.36652 0.827775 
-2.0624 0.827775 6.66695 
7.30318 0.0555098 -1.85524 
0.0555098 7.14885 0.597741 
-1.85524 0.597741 6.92528 
6.85114 0.0118412 -1.90678 
0.0118412 6.70967 0.751936 
-1.90678 0.751936 7.8165 
9.66118 0.158095 -3.51016 
0.158095 9.4381 0.347719 
-3.51016 0.347719 9.66953 
9.25024 0.00732799 -3.6774 
0.00732799 9.30506 0.367267 
-3.6774 0.367267 10.2135 
9.48943 0.165521 -3.49617 
0.165521 9.69937 0.398131 
-3.49617 0.398131 9.58 
9.61505 0.0237615 -3.4697 
0.0237615 9.69041 0.27254 
-3.4697 0.27254 9.46335 
5.46388 0.0426903 -3.22588 
0.0426903 5.49823 1.52028 
-3.22588 1.52028 6.23247 
5.942 -0.172852 -3.01232 
-0.172852 5.94802 1.45049 
-3.01232 1.45049 5.30456 
5.83922 0.250897 -2.98553 
0.250897 5.65806 1.17397 
-2.98553 1.17397 5.69729 
5.59579 0.213328 -3.08108 
0.213328 5.77948 1.33503 
-3.08108 1.33503 5.8193 
5.26467 -0.738012 3.99553 
-0.738012 6.10833 2.04945 
3.99553 2.04945 7.0732 
6.45725 0.239348 4.16749 
0.239348 6.33061 2.06545 
4.16749 2.06545 5.65833 
6.43921 0.199092 4.0755 
0.199092 6.04784 1.93424 
4.0755 1.93424 5.95915 
6.08944 0.442582 3.47619 
0.442582 6.45167 1.35594 
3.47619 1.35594 5.90508 
8.432 0.191078 -3.66493 
0.191078 8.25649 -2.08397 
-3.66493 -2.08397 8.99214 
8.46451 -0.0158807 -4.04636 
-0.0158807 8.70323 -1.85838 
-4.04636 -1.85838 8.5129 
8.41249 0.0786287 -4.20755 
0.0786287 8.50585 -1.96797 
-4.20755 -1.96797 8.76229 
8.82858 -0.0879838 -4.31915 
-0.0879838 8.9259 -1.74438 
-4.31915 -1.74438 7.92614 
3.6814 0.0510734 0.850469 
0.0510734 3.73363 0.577875 
0.850469 0.577875 3.74413 
3.19672 -0.0737994 0.630664 
-0.0737994 3.57423 0.832437 
0.630664 0.832437 4.38821 
3.61132 -0.144275 1.13368 
-0.144275 4.0381 0.848482 
1.13368 0.848482 3.50974 
3.65138 0.0190305 0.876139 
0.0190305 3.72704 0.652801 
0.876139 0.652801 3.78074 
6.59636 0.0267497 -2.07482 
0.0267497 6.63986 -0.511392 
-2.07482 -0.511392 6.13224 
6.38602 -0.160296 -1.93656 
-0.160296 6.55746 -0.760911 
-1.93656 -0.760911 6.42499 
6.14307 0.421851 -1.7768 
0.421851 6.10882 -0.500251 
-1.7768 -0.500251 7.11658 
6.52306 -0.110195 -2.00718 
-0.110195 6.43938 -0.619557 
-2.00718 -0.619557 6.40603 
9.45687 -0.113917 -0.468579 
-0.113917 9.55699 -3.67393 
-0.468579 -3.67393 9.84082 
9.24884 -0.0635653 -0.464785 
-0.0635653 9.53066 -3.8247 
-0.464785 -3.8247 10.0752 
9.67065 -0.0761623 -0.432181 
-0.0761623 9.56341 -3.75778 
-0.432181 -3.75778 9.62062 
9.73025 0.00788551 -0.424729 
0.00788551 9.67325 -3.70513 
-0.424729 -3.70513 9.45119 
1.31929 0.0883347 -2.95086 
0.0883347 1.27948 -0.91182 
-2.95086 -0.91182 1.27548 
1.62442 -0.335072 -2.88731 
-0.335072 1.20612 -1.02055 
-2.88731 -1.02055 1.04372 
1.19156 0.0520229 -2.98229 
0.0520229 1.29993 -0.933231 
-2.98229 -0.933231 1.38277 
1.31938 -0.293489 -2.96322 
-0.293489 0.972017 -1.05023 
-2.96322 -1.05023 1.58286 
9.53964 -0.0187475 1.9398 
-0.0187475 9.56838 -0.979955 
1.9398 -0.979955 9.55374 
9.17736 0.0304031 1.99009 
0.0304031 9.57694 -1.09941 
1.99009 -1.09941 9.90747 
9.25136 0.148068 2.09316 
0.148068 9.35685 -0.911068 
2.09316 -0.911068 10.0535 
9.70012 -0.0433089 1.8592 
-0.0433089 9.60067 -0.994117 
1.8592 -0.994117 9.36097 
4.68204 -0.0285189 -2.07418 
-0.0285189 5.14778 4.09618 
-2.07418 4.09618 5.24575 
4.91348 -0.153285 -1.90309 
-0.153285 5.07704 3.81127 
-1.90309 3.81127 5.08505 
4.71363 0.148287 -2.28225 
0.148287 4.44037 3.46269 
-2.28225 3.46269 5.92158 
5.19623 -0.0821842 -1.92522 
-0.0821842 5.50551 3.53414 
-1.92522 3.53414 4.37384 
3.20186 0.0234572 -0.284886 
0.0234572 3.3627 4.40556 
-0.284886 4.40556 3.35428 
3.86635 -0.0155615 -0.360181 
-0.0155615 3.35913 4.11596 
-0.360181 4.11596 2.69335 
3.37772 -0.00685653 -0.159177 
-0.00685653 2.90191 4.18872 
-0.159177 4.18872 3.63921 
3.18067 0.0869829 -0.257313 
0.0869829 3.4725 4.29576 
-0.257313 4.29576 3.26567 
6.5526 0.198966 1.03817 
0.198966 6.83347 -0.262581 
1.03817 -0.262581 5.95444 
6.26762 0.0264278 0.80984 
0.0264278 6.5274 -0.394122 
0.80984 -0.394122 6.54549 
6.28452 -0.0330395 0.898447 
-0.0330395 6.40287 -0.457016 
0.898447 -0.457016 6.65312 
6.19554 0.378781 0.42362 
0.378781 6.26224 -0.48622 
0.42362 -0.48622 6.88274 
8.29928 0.0559011 1.51395 
0.0559011 8.22761 1.99323 
1.51395 1.99323 7.87334 
8.27929 0.0155692 1.56321 
0.0155692 8.1571 1.74895 
1.56321 1.74895 7.96385 
8.02742 0.0260754 1.55569 
0.0260754 8.11417 2.01583 
1.55569 2.01583 8.25864 
8.19723 0.0710801 1.5307 
0.0710801 8.08444 1.99494 
1.5307 1.99494 8.11857 
8.63976 0.0076654 1.94846 
0.0076654 8.91097 -2.60392 
1.94846 -2.60392 8.96816 
8.28769 -0.122411 2.04379 
-0.122411 8.91496 -2.00778 
2.04379 -2.00778 9.31623 
8.83757 -0.274272 1.86506 
-0.274272 9.19536 -2.89041 
1.86506 -2.89041 8.48597 
8.91501 -0.0523438 2.13679 
-0.0523438 8.76252 -2.2489 
2.13679 -2.2489 8.84137 
6.68024 -0.155264 -1.76146 
-0.155264 6.62709 -3.99286 
-1.76146 -3.99286 6.65257 
6.71986 0.446871 -1.39095 
0.446871 7.08354 -3.75239 
-1.39095 -3.75239 6.1565 
6.70806 -0.154186 -1.51412 
-0.154186 6.46601 -3.83069 
-1.51412 -3.83069 6.78583 
6.36789 -0.0884124 -1.47186 
-0.0884124 6.42739 -3.6714 
-1.47186 -3.6714 7.16462 
2.17158 -0.0381935 1.82372 
-0.0381935 2.10789 2.73588 
1.82372 2.73588 1.95129 
1.91462 0.0584017 1.66879 
0.0584017 2.0725 2.79039 
1.66879 2.79039 2.24365 
2.03515 -0.0406535 1.86588 
-0.0406535 2.12395 2.72879 
1.86588 2.72879 2.07165 
1.95318 0.0635937 1.7574 
0.0635937 1.98958 3.03155 
1.7574 3.03155 2.288 
4.04434 0.000273317 -1.24151 
0.000273317 4.17394 2.11471 
-1.24151 2.11471 4.0192 
3.72493 0.075598 -1.01355 
0.075598 3.93654 2.15969 
-1.01355 2.15969 4.57601 
4.24348 -0.0103421 -1.16474 
-0.0103421 4.11024 2.07371 
-1.16474 2.07371 3.88376 
3.82437 -0.0499069 -1.07158 
-0.0499069 3.95705 1.86394 
-1.07158 1.86394 4.45606 
1.55299 -0.537979 0.621016 
-0.537979 0.972011 -0.149667 
0.621016 -0.149667 0.507272 
0.983439 0.0291512 0.872855 
0.0291512 1.11672 0.140187 
0.872855 0.140187 0.932115 
0.940409 -0.0451457 1.03557 
-0.0451457 1.1589 0.171056 
1.03557 0.171056 0.932967 
0.969672 -0.372527 1.54738 
-0.372527 0.621719 0.38662 
1.54738 0.38662 1.44089 
6.52364 0.0242426 0.89665 
0.0242426 6.45839 -3.48721 
0.89665 -3.48721 6.46339 
6.56639 0.00679416 0.797217 
0.00679416 6.55128 -3.4105 
0.797217 -3.4105 6.32775 
6.44838 0.0225871 0.684615 
0.0225871 6.46982 -3.54327 
0.684615 -3.54327 6.52722 
6.42093 -0.086962 0.793184 
-0.086962 6.43284 -3.3708 
0.793184 -3.3708 6.59165 
8.60385 -0.10046 -2.81854 
-0.10046 9.02045 2.21473 
-2.81854 2.21473 8.91453 
8.64542 -0.0757055 -2.83528 
-0.0757055 9.21578 2.0993 
-2.83528 2.0993 8.67763 
8.5462 -0.0453532 -2.56214 
-0.0453532 8.83546 1.99806 
-2.56214 1.99806 9.15716 
8.81333 0.0664263 -2.60884 
0.0664263 8.85782 2.11555 
-2.60884 2.11555 8.86767 
0.478555 -0.0731155 0.0106787 
-0.0731155 0.446293 -1.51189 
0.0106787 -1.51189 0.280115 
0.72039 0.105358 0.00273046 
0.105358 0.930862 -1.75853 
0.00273046 -1.75853 -0.446289 
0.33689 -0.051711 0.00797835 
-0.051711 0.702048 -1.5851 
0.00797835 -1.5851 0.166024 
0.391457 0.0726455 -0.0355361 
0.0726455 0.338639 -1.48689 
-0.0355361 -1.48689 0.474866 
6.12916 -0.236306 -3.77367 
-0.236306 6.1344 -2.0968 
-3.77367 -2.0968 5.26168 
5.28572 0.0438485 -3.0672 
0.0438485 5.18394 -2.58464 
-3.0672 -2.58464 7.05558 
5.67714 -0.00298859 -3.58365 
-0.00298859 6.03452 -2.73635 
-3.58365 -2.73635 5.81358 
5.67774 -0.372218 -3.26884 
-0.372218 6.2835 -3.00797 
-3.26884 -3.00797 5.56401 
8.39159 0.175516 -3.90285 
0.175516 7.40401 2.61806 
-3.90285 2.61806 5.97215 
7.03411 -0.291349 -3.42665 
-0.291349 7.30917 1.89752 
-3.42665 1.89752 7.42448 
6.67321 -0.0229497 -4.1846 
-0.0229497 6.05685 1.98841 
-4.1846 1.98841 9.03769 
7.09378 -0.087372 -3.66739 
-0.087372 7.36596 2.04933 
-3.66739 2.04933 7.30802 
6.80184 0.0533444 2.0325 
0.0533444 6.73667 -1.57115 
2.0325 -1.57115 6.80671 
6.86532 0.0260362 2.11876 
0.0260362 6.8262 -1.66318 
2.11876 -1.66318 6.6537 
6.68975 0.144133 2.1182 
0.144133 6.73697 -1.5653 
2.1182 -1.5653 6.9185 
6.5569 -0.113252 1.95688 
-0.113252 6.6214 -1.63056 
1.95688 -1.63056 7.16692 
3.16697 -0.0517846 1.42129 
-0.0517846 3.33294 -2.48189 
1.42129 -2.48189 4.10963 
3.42237 0.000261015 1.78387 
0.000261015 3.66351 -2.48097 
1.78387 -2.48097 3.52365 
3.65109 -0.175128 1.45103 
-0.175128 4.06078 -2.19226 
1.45103 -2.19226 2.89766 
3.54932 -0.0885831 1.95495 
-0.0885831 3.37462 -2.50483 
1.95495 -2.50483 3.68559 
8.26842 -0.135139 -0.307785 
-0.135139 8.44267 2.44388 
-0.307785 2.44388 8.03422 
8.61105 -0.197929 0.0437141 
-0.197929 8.34384 2.49575 
0.0437141 2.49575 7.79043 
8.25349 -0.0811258 -0.291867 
-0.0811258 8.03675 2.32666 
-0.291867 2.32666 8.45508 
8.28686 -0.190533 -0.325858 
-0.190533 8.3534 2.20133 
-0.325858 2.20133 8.10505 
9.0603 -0.00910668 -0.0237263 
-0.00910668 8.74517 4.35949 
-0.0237263 4.35949 9.00062 
8.55798 0.0438847 -0.011632 
0.0438847 8.90509 4.0234 
-0.011632 4.0234 9.34302 
8.95677 0.0662884 0.0445127 
0.0662884 8.8876 4.31854 
0.0445127 4.31854 8.96171 
8.95181 0.0918891 -0.0956638 
0.0918891 9.11508 4.51678 
-0.0956638 4.51678 8.7392 
5.02927 -0.0363451 -2.5676 
-0.0363451 5.23927 1.62896 
-2.5676 1.62896 5.30769 
5.00878 0.0071738 -2.54623 
0.0071738 5.29014 1.67667 
-2.54623 1.67667 5.27732 
5.16072 0.206372 -2.97626 
0.206372 4.75343 1.71612 
-2.97626 1.71612 5.66209 
5.55683 0.12415 -2.28427 
0.12415 5.40927 1.97415 
-2.28427 1.97415 4.61013 
2.99705 0.0754764 0.729188 
0.0754764 3.06891 -1.01749 
0.729188 -1.01749 3.10489 
2.96436 -0.10029 0.838409 
-0.10029 2.94936 -1.22968 
0.838409 -1.22968 3.25712 
3.26595 0.12358 0.552627 
0.12358 3.06373 -0.800974 
0.552627 -0.800974 2.84117 
3.16019 -0.0630477 0.685614 
-0.0630477 3.00011 -1.21428 
0.685614 -1.21428 3.01055 
5.17966 0.0433958 2.88217 
0.0433958 5.03712 -1.04376 
2.88217 -1.04376 4.6301 
5.0752 -0.0469308 2.74477 
-0.0469308 5.00002 -1.01596 
2.74477 -1.01596 4.77166 
5.13777 0.153862 3.08261 
0.153862 5.34274 -1.31391 
3.08261 -1.31391 4.36637 
5.27565 -0.0761104 2.84394 
-0.0761104 4.96906 -0.911579 
2.84394 -0.911579 4.60217 
5.0607 -0.0164114 1.75723 
-0.0164114 4.98044 1.53853 
1.75723 1.53853 5.22025 
4.98855 -0.0229354 1.56522 
-0.0229354 4.93821 1.4375 
1.56522 1.4375 5.33464 
5.20129 0.0530398 1.69752 
0.0530398 5.50938 1.86046 
1.69752 1.86046 4.55072 
4.9901 -0.0762725 1.61919 
-0.0762725 5.22853 1.68118 
1.61919 1.68118 5.04276 
5.72431 -0.0546881 -0.0983806 
-0.0546881 5.76064 0.257255 
-0.0983806 0.257255 5.70414 
5.74607 -0.0911024 0.0145523 
-0.0911024 5.86775 0.36993 
0.0145523 0.36993 5.57528 
5.81015 -0.0253855 0.0904736 
-0.0253855 5.32518 0.383045 
0.0904736 0.383045 6.05376 
6.04724 0.00550913 -0.0271433 
0.00550913 6.0109 0.562424 
-0.0271433 0.562424 5.13095 
6.92298 -0.0347586 1.87329 
-0.0347586 7.03588 -1.27247 
1.87329 -1.27247 6.95716 
7.01306 0.0942314 1.85715 
0.0942314 7.04147 -1.2282 
1.85715 -1.2282 6.86149 
6.90596 -0.0504595 2.03373 
-0.0504595 6.84454 -1.50591 
2.03373 -1.50591 7.16551 
6.86746 -0.172984 1.80313 
-0.172984 6.8169 -1.34669 
1.80313 -1.34669 7.23165 
5.23744 0.0608091 -3.57421 
0.0608091 5.19145 0.723302 
-3.57421 0.723302 4.95398 
5.06491 0.0989577 -3.54483 
0.0989577 5.02335 0.871843 
-3.54483 0.871843 5.2946 
5.10905 -0.0444979 -3.63606 
-0.0444979 5.1422 0.846014 
-3.63606 0.846014 5.13161 
5.10845 -0.000477273 -3.63629 
-0.000477273 5.18066 0.825729 
-3.63629 0.825729 5.09374 
4.36848 0.126223 -2.90553 
0.126223 4.62442 -1.22245 
-2.90553 -1.22245 4.38311 
4.47349 0.142459 -2.90107 
0.142459 4.41387 -1.10356 
-2.90107 -1.10356 4.48866 
4.58682 0.0888165 -2.97714 
0.0888165 4.61624 -1.04849 
-2.97714 -1.04849 4.17296 
4.34216 -0.024427 -2.96913 
-0.024427 4.326 -1.20617 
-2.96913 -1.20617 4.70786 
5.33643 -0.00259806 -1.26897 
-0.00259806 5.40009 -1.58967 
-1.26897 -1.58967 5.39372 
5.37306 0.0950482 -1.1833 
0.0950482 5.15854 -1.41257 
-1.1833 -1.41257 5.59864 
5.41908 -0.0788992 -1.35218 
-0.0788992 6.10277 -1.59891 
-1.35218 -1.59891 4.60839 
5.46461 -0.128147 -1.07627 
-0.128147 5.67594 -1.52263 
-1.07627 -1.52263 4.98968 
5.42692 -0.221678 -3.09671 
-0.221678 5.49084 3.33989 
-3.09671 3.33989 5.25906 
4.98612 0.0567098 -2.99422 
0.0567098 4.56947 3.57959 
-2.99422 3.57959 6.62124 
5.46125 -0.128986 -3.15378 
-0.128986 5.48397 3.28222 
-3.15378 3.28222 5.2316 
6.37342 0.511138 -2.38798 
0.511138 5.63499 2.62152 
-2.38798 2.62152 4.16841 
3.4116 -0.155393 1.64962 
-0.155393 2.97619 1.27672 
1.64962 1.27672 3.85352 
3.376 -0.0153877 1.28958 
-0.0153877 3.54942 1.88419 
1.28958 1.88419 3.31588 
3.46752 0.077493 1.48547 
0.077493 3.42723 1.69591 
1.48547 1.69591 3.34656 
3.99915 -0.10637 1.44654 
-0.10637 3.31745 2.20872 
1.44654 2.20872 2.92471 
3.17874 -0.00130637 0.85361 
-0.00130637 2.97609 2.76952 
0.85361 2.76952 2.44183 
2.81445 -0.247753 1.01611 
-0.247753 2.73017 2.33747 
1.01611 2.33747 3.05203 
2.98402 0.123054 1.11555 
0.123054 2.69335 2.51407 
1.11555 2.51407 2.91929 
3.18737 0.252932 1.05626 
0.252932 2.81002 2.47627 
1.05626 2.47627 2.59926 
1.16254 -0.112217 -1.81765 
-0.112217 1.35934 -3.36369 
-1.81765 -3.36369 1.37399 
1.36438 0.0804791 -1.50354 
0.0804791 0.699814 -3.41607 
-1.50354 -3.41607 1.83168 
2.09544 0.332325 -1.65078 
0.332325 1.16949 -3.77675 
-1.65078 -3.77675 0.630949 
1.24638 -0.057002 -1.76753 
-0.057002 1.30916 -3.43313 
-1.76753 -3.43313 1.34033 
0.992947 0.0753286 -1.34333 
0.0753286 1.32167 -1.36362 
-1.34333 -1.36362 0.672325 
0.920973 0.123116 -1.8565 
0.123116 0.984206 -1.29424 
-1.8565 -1.29424 1.08176 
0.994226 0.204772 -1.79942 
0.204772 1.24629 -1.35058 
-1.79942 -1.35058 0.746422 
1.05974 -0.0113143 -1.39685 
-0.0113143 0.879703 -1.39378 
-1.39685 -1.39378 1.0475 
8.78322 0.0551841 2.88991 
0.0551841 9.08766 -1.69554 
2.88991 -1.69554 8.94776 
9.28107 -0.0822735 3.00127 
-0.0822735 8.82535 -1.6712 
3.00127 -1.6712 8.71223 
9.0642 -0.133148 2.74553 
-0.133148 8.35814 -1.64063 
2.74553 -1.64063 9.39631 
8.8254 0.0190438 2.93426 
0.0190438 8.99679 -1.70249 
2.93426 -1.70249 8.99646 
3.03534 -0.0374121 2.0347 
-0.0374121 3.46478 -0.941467 
2.0347 -0.941467 3.25497 
3.1056 0.120687 2.18982 
0.120687 3.21912 -1.11634 
2.18982 -1.11634 3.43037 
3.29287 0.0635353 2.20458 
0.0635353 3.55631 -0.920367 
2.20458 -0.920367 2.90591 
3.03452 0.111865 1.9393 
0.111865 3.1785 -1.19966 
1.9393 -1.19966 3.54208 
6.60537 0.0699595 0.394987 
0.0699595 6.58604 -4.48077 
0.394987 -4.48077 6.46358 
6.16949 0.293423 0.223268 
0.293423 6.42158 -4.26663 
0.223268 -4.26663 7.06392 
6.46908 0.0276282 0.377638 
0.0276282 6.5984 -4.57742 
0.377638 -4.57742 6.5875 
6.82321 0.226759 0.434036 
0.226759 6.82514 -4.24148 
0.434036 -4.24148 6.00664 
3.48861 0.0634368 2.60429 
0.0634368 3.66551 -0.305611 
2.60429 -0.305611 4.06012 
3.88354 0.0836334 2.65247 
0.0836334 3.70433 0.230697 
2.65247 0.230697 3.62637 
3.80776 0.00854541 2.56533 
0.00854541 3.66784 -0.278511 
2.56533 -0.278511 3.73863 
3.60532 0.0324354 2.72121 
0.0324354 3.7399 -0.0013176 
2.72121 -0.0013176 3.86902 
6.59705 -0.0596982 -3.11484 
-0.0596982 6.64913 1.1679 
-3.11484 1.1679 6.7522 
6.91196 -0.00267851 -2.91672 
-0.00267851 6.78542 1.11295 
-2.91672 1.11295 6.30099 
6.59443 -0.150696 -3.10771 
-0.150696 6.61143 1.3441 
-3.10771 1.3441 6.79252 
6.4014 -0.00176847 -2.41371 
-0.00176847 6.1296 1.16575 
-2.41371 1.16575 7.46737 
5.46922 0.0549349 -1.43074 
0.0549349 5.48841 -0.705626 
-1.43074 -0.705626 5.86076 
5.12966 0.0260182 -1.67331 
0.0260182 5.49235 -1.1627 
-1.67331 -1.1627 6.19638 
5.8726 -0.293171 -1.43865 
-0.293171 6.01994 -0.542043 
-1.43865 -0.542043 4.92585 
5.48234 0.037248 -1.52284 
0.037248 5.55357 -0.805791 
-1.52284 -0.805791 5.78247 
3.11805 0.248186 1.6124 
0.248186 3.08195 1.31481 
1.6124 1.31481 2.22138 
2.74153 -0.022958 1.23307 
-0.022958 2.62677 1.47796 
1.23307 1.47796 3.05309 
2.75555 0.0862949 1.32452 
0.0862949 2.95864 1.47611 
1.32452 1.47611 2.70719 
2.62935 -0.0352249 1.37788 
-0.0352249 2.95156 1.33643 
1.37788 1.33643 2.84047 
1.93661 0.722813 -1.54312 
0.722813 1.50282 -2.47799 
-1.54312 -2.47799 0.66105 
1.38924 -0.162511 -1.44281 
-0.162511 1.35775 -2.77119 
-1.44281 -2.77119 1.35349 
1.29299 -0.163553 -1.33528 
-0.163553 1.42811 -2.61119 
-1.33528 -2.61119 1.37938 
1.19384 0.454297 -1.42871 
0.454297 0.948943 -3.09138 
-1.42871 -3.09138 1.95771 
8.52519 0.0989411 2.82124 
0.0989411 8.32969 3.42916 
2.82124 3.42916 8.78491 
8.42022 -0.18242 2.85679 
-0.18242 8.81226 2.9343 
2.85679 2.9343 8.4073 
8.39489 0.00566321 2.94889 
0.00566321 8.11866 3.19339 
2.94889 3.19339 9.12623 
8.53815 -0.158938 3.02307 
-0.158938 8.59622 3.17345 
3.02307 3.17345 8.50542 
6.15498 0.0816747 -1.94762 
0.0816747 5.55948 -0.811583 
-1.94762 -0.811583 5.86223 
6.09511 0.0320157 -2.03292 
0.0320157 5.57115 -0.901251 
-2.03292 -0.901251 5.91043 
5.99021 0.00341224 -1.75801 
0.00341224 5.74872 -0.899692 
-1.75801 -0.899692 5.83776 
6.02927 0.0471515 -1.70722 
0.0471515 6.07176 -0.55416 
-1.70722 -0.55416 5.47566 
6.68738 0.171071 -1.33405 
0.171071 6.41546 4.19343 
-1.33405 4.19343 6.34541 
6.80674 0.0295008 -1.62095 
0.0295008 6.86373 3.99689 
-1.62095 3.99689 5.77778 
6.55764 0.0939464 -1.30843 
0.0939464 6.45126 4.22122 
-1.30843 4.22122 6.43936 
6.31185 -0.121659 -0.843852 
-0.121659 6.10977 4.04087 
-0.843852 4.04087 7.02664 
0.777634 0.0888291 -1.06725 
0.0888291 0.790054 -0.327392 
-1.06725 -0.327392 -0.0865343 
0.576481 0.0453645 -1.30738 
0.0453645 0.883183 -0.283422 
-1.30738 -0.283422 0.0214905 
0.527885 0.161467 -1.22602 
0.161467 0.492698 -0.248702 
-1.22602 -0.248702 0.460572 
0.514621 0.0691408 -1.27197 
0.0691408 0.395952 -0.303827 
-1.27197 -0.303827 0.570581 
1.39185 -0.0737719 -1.3016 
-0.0737719 1.35517 -1.3615 
-1.3016 -1.3615 1.13532 
1.37698 -0.0182979 -1.35012 
-0.0182979 1.13021 -1.29294 
-1.35012 -1.29294 1.37516 
1.4637 -0.0770976 -1.112 
-0.0770976 1.34124 -1.12462 
-1.112 -1.12462 1.07741 
1.44707 -0.0512802 -1.07667 
-0.0512802 1.06839 -1.04842 
-1.07667 -1.04842 1.36688 
6.84047 -0.000534184 2.74693 
-0.000534184 6.62791 3.4834 
2.74693 3.4834 7.18923 
7.10018 -0.0107124 2.62269 
-0.0107124 7.03233 4.06304 
2.62269 4.06304 6.5251 
6.82865 0.0364514 2.58705 
0.0364514 6.83428 3.40635 
2.58705 3.40635 6.99468 
6.27907 0.124229 2.43732 
0.124229 7.05741 2.84876 
2.43732 2.84876 7.32113 
3.78822 0.137426 -1.59269 
0.137426 3.65717 -2.87928 
-1.59269 -2.87928 3.39928 
3.43314 -0.0100573 -1.4101 
-0.0100573 3.62166 -2.64439 
-1.4101 -2.64439 3.78986 
3.59166 0.0105707 -1.73481 
0.0105707 3.68015 -2.88357 
-1.73481 -2.88357 3.57285 
3.59239 -0.490381 -1.71037 
-0.490381 4.24639 -2.66926 
-1.71037 -2.66926 3.00588 
6.37162 -0.00185119 2.36571 
-0.00185119 6.12549 2.01803 
2.36571 2.01803 6.2411 
6.64873 0.165759 2.51458 
0.165759 6.44993 2.03577 
2.51458 2.03577 5.63954 
6.20677 0.0629126 2.22436 
0.0629126 6.21563 2.08332 
2.22436 2.08332 6.31581 
6.11771 0.167586 2.1328 
0.167586 6.0127 1.77099 
2.1328 1.77099 6.6078 
1.36425 -0.0414386 0.449908 
-0.0414386 1.4424 -2.88266 
0.449908 -2.88266 1.09723 
1.04597 -0.230025 0.405533 
-0.230025 1.32038 -2.75079 
0.405533 -2.75079 1.53753 
1.30272 -0.0555904 0.455175 
-0.0555904 1.42904 -2.72632 
0.455175 -2.72632 1.17212 
1.25561 0.0631156 0.515997 
0.0631156 1.34669 -2.77303 
0.515997 -2.77303 1.30159 
1.23048 0.0890064 1.31765 
0.0890064 1.28203 -1.70832 
1.31765 -1.70832 1.17498 
1.3045 -0.0984367 1.3338 
-0.0984367 0.896198 -1.89898 
1.3338 -1.89898 1.48679 
1.41492 -0.0333828 1.36991 
-0.0333828 1.16515 -1.84618 
1.36991 -1.84618 1.10743 
1.16787 -0.00649487 1.2876 
-0.00649487 1.19607 -1.73884 
1.2876 -1.73884 1.32355 
2.93999 0.00565324 -0.849422 
0.00565324 3.07053 2.68733 
-0.849422 2.68733 3.21889 
3.11845 -0.0414069 -0.981415 
-0.0414069 3.05805 2.85625 
-0.981415 2.85625 3.05292 
3.05443 0.0834739 -0.949442 
0.0834739 2.9249 2.7843 
-0.949442 2.7843 3.25008 
2.79783 -0.0867964 -0.9505 
-0.0867964 2.95429 2.48653 
-0.9505 2.48653 3.47729 
9.06569 0.0505364 0.498877 
0.0505364 8.93743 0.57488 
0.498877 0.57488 8.96735 
9.59585 0.208615 0.334724 
0.208615 8.85554 0.857718 
0.334724 0.857718 8.51909 
8.99937 0.0716129 0.187309 
0.0716129 8.37623 0.220988 
0.187309 0.220988 9.59487 
9.00045 -0.0842829 0.505845 
-0.0842829 8.99369 0.423742 
0.505845 0.423742 8.97633 
4.08333 0.0597202 -2.7514 
0.0597202 4.16418 -3.41709 
-2.7514 -3.41709 4.44879 
4.39391 0.196349 -2.40095 
0.196349 3.96294 -3.72645 
-2.40095 -3.72645 4.33946 
4.33033 -0.14089 -2.34216 
-0.14089 3.82562 -3.63183 
-2.34216 -3.63183 4.54035 
4.29941 0.00797777 -2.5371 
0.00797777 3.81744 -3.72248 
-2.5371 -3.72248 4.57946 
5.47691 -0.0172376 -3.33726 
-0.0172376 5.58862 -2.33538 
-3.33726 -2.33538 5.23902 
5.75979 -0.115774 -3.36741 
-0.115774 5.09841 -2.60633 
-3.36741 -2.60633 5.44634 
5.44269 -0.00865283 -3.2521 
-0.00865283 5.37279 -2.5935 
-3.2521 -2.5935 5.48906 
5.5849 -0.182425 -3.54091 
-0.182425 5.31095 -2.48193 
-3.54091 -2.48193 5.40869 
1.02183 -0.123924 -0.717851 
-0.123924 1.38758 -0.023585 
-0.717851 -0.023585 0.979995 
1.10331 0.172553 -0.816191 
0.172553 1.19687 -0.120636 
-0.816191 -0.120636 1.08922 
1.09561 -0.00837984 -1.08839 
-0.00837984 1.31589 -0.0889376 
-1.08839 -0.0889376 0.977905 
1.12509 -0.250088 -1.42016 
-0.250088 1.08307 -0.314722 
-1.42016 -0.314722 1.18124 
8.15563 -0.207525 -3.00688 
-0.207525 8.27845 -2.22968 
-3.00688 -2.22968 8.62657 
8.43465 0.0442301 -2.76797 
0.0442301 8.45006 -2.21595 
-2.76797 -2.21595 8.17593 
8.8763 0.279789 -2.49263 
0.279789 8.50836 -2.38652 
-2.49263 -2.38652 7.67599 
8.18251 0.0315487 -2.60561 
0.0315487 8.30746 -2.31802 
-2.60561 -2.31802 8.57068 
6.80435 0.0307977 0.76432 
0.0307977 6.90647 -0.000774388 
0.76432 -0.000774388 6.35819 
6.66472 -0.057388 0.366418 
-0.057388 6.78169 0.0894438 
0.366418 0.0894438 6.62261 
6.67629 -0.202011 0.5517 
-0.202011 6.69861 0.0804761 
0.5517 0.0804761 6.69412 
6.71724 0.0895241 0.223399 
0.0895241 6.35139 0.063069 
0.223399 0.063069 7.00039 
4.44755 0.00717413 2.73355 
0.00717413 4.41032 -2.12575 
2.73355 -2.12575 4.54807 
4.75973 0.0914494 2.58059 
0.0914494 4.38448 -2.22337 
2.58059 -2.22337 4.26173 
4.66786 0.0400898 2.56243 
0.0400898 4.49626 -1.90836 
2.56243 -1.90836 4.24183 
4.48304 -0.158341 2.6213 
-0.158341 4.43543 -2.18386 
2.6213 -2.18386 4.48747 
6.67589 -0.0934215 -2.43545 
-0.0934215 7.08579 0.439429 
-2.43545 0.439429 7.05047 
7.06278 0.0156285 -2.54757 
0.0156285 7.00787 0.575673 
-2.54757 0.575673 6.7415 
6.79693 0.040926 -2.50026 
0.040926 6.92034 0.454632 
-2.50026 0.454632 7.09488 
6.72148 0.170249 -2.22537 
0.170249 6.36765 0.67551 
-2.22537 0.67551 7.72303 
8.20279 0.0867194 -4.00133 
0.0867194 8.38036 1.13617 
-4.00133 1.13617 9.18173 
8.50951 -0.233286 -4.10838 
-0.233286 8.69919 0.861251 
-4.10838 0.861251 8.55618 
8.65327 -0.0986091 -4.40039 
-0.0986091 9.02023 0.731433 
-4.40039 0.731433 8.09138 
8.29151 0.0222122 -4.28216 
0.0222122 8.54931 0.724753 
-4.28216 0.724753 8.92406 
2.88109 -0.0421248 4.39768 
-0.0421248 3.0751 0.40351 
4.39768 0.40351 3.04134 
4.40066 0.0164888 4.7738 
0.0164888 2.64304 0.232553 
4.7738 0.232553 1.95383 
1.8985 0.0294756 4.72924 
0.0294756 3.15222 0.192121 
4.72924 0.192121 3.94681 
3.00953 0.111972 3.46871 
0.111972 3.06947 0.655208 
3.46871 0.655208 2.91853 
6.09824 -0.161381 1.53004 
-0.161381 6.32841 0.778523 
1.53004 0.778523 6.33512 
6.12106 -0.0320321 1.66234 
-0.0320321 6.40295 0.642723 
1.66234 0.642723 6.23776 
6.57156 -0.0155942 1.66149 
-0.0155942 6.46644 0.514863 
1.66149 0.514863 5.72377 
6.20751 0.184304 1.93776 
0.184304 5.50512 0.566175 
1.93776 0.566175 7.04913 
8.26391 -0.188949 -1.85857 
-0.188949 8.47834 3.68364 
-1.85857 3.68364 9.09793 
8.47619 -0.0462125 -2.41472 
-0.0462125 8.57002 3.94031 
-2.41472 3.94031 8.79397 
8.6158 0.0595485 -2.31551 
0.0595485 8.63799 3.73239 
-2.31551 3.73239 8.58639 
8.97605 0.0438807 -2.55356 
0.0438807 8.77176 3.82225 
-2.55356 3.82225 8.09238 
9.53475 0.0951341 -1.06863 
0.0951341 9.6054 1.15902 
-1.06863 1.15902 9.52699 
9.69067 0.173439 -1.10375 
0.173439 9.34692 1.23703 
-1.10375 1.23703 9.62955 
9.1353 -0.0319355 -1.0883 
-0.0319355 9.0585 1.40974 
-1.0883 1.40974 10.4733 
9.65973 -0.00479021 -0.94915 
-0.00479021 9.71477 1.22692 
-0.94915 1.22692 9.29264 
7.8543 0.0452513 1.92666 
0.0452513 8.20787 2.02652 
1.92666 2.02652 8.18127 
8.17929 0.158852 1.84898 
0.158852 8.01174 2.16229 
1.84898 2.16229 8.05242 
8.28655 0.0893008 1.8988 
0.0893008 8.07501 2.13504 
1.8988 2.13504 7.88189 
8.28361 0.0395832 1.93537 
0.0395832 8.24704 2.5191 
1.93537 2.5191 7.71279 
4.90429 0.375995 3.90313 
0.375995 4.51262 2.64462 
3.90313 2.64462 4.39357 
4.9558 0.0557526 4.06768 
0.0557526 4.81682 2.51231 
4.06768 2.51231 4.03786 
3.46818 -0.543072 3.5263 
-0.543072 4.73808 2.2939 
3.5263 2.2939 5.60421 
5.24491 0.0821754 3.30386 
0.0821754 4.27669 2.57351 
3.30386 2.57351 4.28888 
1.91323 0.168159 -2.58913 
0.168159 1.89572 -2.10029 
-2.58913 -2.10029 2.46268 
1.8879 0.0328118 -2.38771 
0.0328118 1.97531 -1.84686 
-2.38771 -1.84686 2.4084 
2.14709 -0.0680805 -2.55548 
-0.0680805 2.15381 -2.03563 
-2.55548 -2.03563 1.97071 
2.10567 0.0309866 -2.56689 
0.0309866 1.9877 -2.00318 
-2.56689 -2.00318 2.17825 
8.9532 0.0422745 -4.23854 
0.0422745 8.87788 -0.862681 
-4.23854 -0.862681 9.24632 
8.80666 0.0955932 -3.95868 
0.0955932 8.77203 -0.641366 
-3.95868 -0.641366 9.49872 
9.00676 -0.129241 -4.04655 
-0.129241 8.93492 -0.659676 
-4.04655 -0.659676 9.13573 
9.12112 -0.00220116 -4.31764 
-0.00220116 8.99247 -0.92434 
-4.31764 -0.92434 8.96381 
5.4713 -0.00703596 -3.89829 
-0.00703596 5.93931 -1.13502 
-3.89829 -1.13502 4.6037 
5.72363 -0.0944046 -3.43074 
-0.0944046 5.09376 -0.950647 
-3.43074 -0.950647 5.19692 
5.25849 0.242035 -2.8909 
0.242035 5.3836 -1.18063 
-2.8909 -1.18063 5.37221 
5.0705 -0.232866 -2.71227 
-0.232866 5.05275 -1.59701 
-2.71227 -1.59701 5.89105 
2.58954 -0.740173 1.71398 
-0.740173 2.65614 -4.41898 
1.71398 -4.41898 0.943609 
1.92112 -0.194543 1.72575 
-0.194543 2.16498 -4.17478 
1.72575 -4.17478 2.10319 
1.56794 0.927768 2.26166 
0.927768 1.22048 -3.99014 
2.26166 -3.99014 3.40086 
1.77243 -0.309116 0.37174 
-0.309116 2.09786 -3.49859 
0.37174 -3.49859 2.319 
8.67743 -0.35698 3.51449 
-0.35698 8.93077 -0.423969 
3.51449 -0.423969 9.19812 
8.79702 -0.294262 4.06952 
-0.294262 8.82636 -0.843583 
4.06952 -0.843583 9.18295 
8.94657 0.0418817 4.15486 
0.0418817 9.01199 -0.766698 
4.15486 -0.766698 8.84777 
8.83504 -0.112143 3.41187 
-0.112143 9.16893 -0.309215 
3.41187 -0.309215 8.80236 
5.98287 -0.115847 -3.28137 
-0.115847 5.51296 -0.763257 
-3.28137 -0.763257 6.48559 
6.05885 -0.0371532 -3.21358 
-0.0371532 6.02031 -1.1248 
-3.21358 -1.1248 5.90226 
5.99857 -0.0298092 -3.26117 
-0.0298092 5.88696 -1.14075 
-3.26117 -1.14075 6.09589 
5.98279 -0.0405793 -3.15235 
-0.0405793 5.87984 -1.08896 
-3.15235 -1.08896 6.11879 
0.551967 -0.0291636 0.828683 
-0.0291636 0.510185 1.88864 
0.828683 1.88864 0.428113 
0.691257 0.00492254 0.789933 
0.00492254 0.633157 1.99438 
0.789933 1.99438 0.16585 
0.716335 0.0183654 0.774832 
0.0183654 0.635278 1.78795 
0.774832 1.78795 0.138651 
0.478443 0.0228276 0.867979 
0.0228276 0.469531 1.92324 
0.867979 1.92324 0.54229 
1.09702 -0.130794 0.260362 
-0.130794 1.24139 0.197001 
0.260362 0.197001 0.992729 
1.48866 -0.56368 -0.389456 
-0.56368 1.18955 -0.23179 
-0.389456 -0.23179 0.652926 
1.03669 0.0958101 -0.125987 
0.0958101 1.2106 0.136479 
-0.125987 0.136479 1.08384 
1.38716 -0.321688 0.834502 
-0.321688 0.575211 0.596348 
0.834502 0.596348 1.36876 
8.8722 0.29066 0.966625 
0.29066 8.52977 3.79841 
0.966625 3.79841 9.51231 
8.83136 -0.196478 0.594383 
-0.196478 9.04749 3.65444 
0.594383 3.65444 9.03543 
9.07722 0.0438662 0.537144 
0.0438662 8.98763 3.53092 
0.537144 3.53092 8.84943 
8.95838 -0.0557397 0.622798 
-0.0557397 8.85205 3.71853 
0.622798 3.71853 9.10385 
1.17174 0.0679946 2.61047 
0.0679946 1.18206 2.56727 
2.61047 2.56727 -0.758475 
0.947922 0.149816 2.79913 
0.149816 0.322172 2.39962 
2.79913 2.39962 0.325226 
0.582448 0.0717243 2.95027 
0.0717243 0.450511 2.3979 
2.95027 2.3979 0.562361 
0.466961 0.08007 2.79331 
0.08007 0.444498 2.53145 
2.79331 2.53145 0.683862 
7.3685 -0.245546 0.119106 
-0.245546 6.22117 -4.38242 
0.119106 -4.38242 8.45188 
7.18447 0.00962894 0.346684 
0.00962894 7.54086 -4.61933 
0.346684 -4.61933 7.31622 
7.41848 0.12828 0.21486 
0.12828 7.78259 -4.84566 
0.21486 -4.84566 6.84049 
7.29071 0.214041 0.632139 
0.214041 7.54849 -4.30381 
0.632139 -4.30381 7.20236 
1.50296 0.0187563 -0.458612 
0.0187563 1.64292 -0.239046 
-0.458612 -0.239046 1.89409 
1.81103 -0.0512565 -0.754941 
-0.0512565 1.85977 -0.35342 
-0.754941 -0.35342 1.36917 
1.72031 -0.0355668 -0.569152 
-0.0355668 1.6828 -0.400178 
-0.569152 -0.400178 1.63687 
1.73465 0.00876581 -0.577993 
0.00876581 1.68715 -0.217631 
-0.577993 -0.217631 1.61819 
0.760156 0.0190808 1.82849 
0.0190808 0.6992 -3.3407 
1.82849 -3.3407 0.470989 
0.888703 0.00136806 1.85838 
0.00136806 0.837121 -3.43067 
1.85838 -3.43067 0.204522 
0.908482 0.00740307 1.914 
0.00740307 0.795473 -3.27115 
1.914 -3.27115 0.226391 
0.676856 0.0544022 1.76696 
0.0544022 0.636277 -3.44372 
1.76696 -3.44372 0.617214 
4.57237 -0.115538 -1.14311 
-0.115538 4.78312 -0.558815 
-1.14311 -0.558815 5.04973 
4.68072 -0.1108 -1.29134 
-0.1108 4.61895 -0.302048 
-1.29134 -0.302048 5.10556 
4.80783 -0.0627986 -1.28728 
-0.0627986 4.81426 -0.520669 
-1.28728 -0.520669 4.78314 
4.51501 -0.0748055 -1.29691 
-0.0748055 4.73652 -0.542054 
-1.29691 -0.542054 5.1537 
3.13044 -0.210648 2.92692 
-0.210648 2.73497 3.87818 
2.92692 3.87818 3.34797 
3.3364 0.0717043 2.36321 
0.0717043 3.62925 3.77521 
2.36321 3.77521 2.24773 
3.20436 0.244396 2.72818 
0.244396 3.26184 3.55605 
2.72818 3.55605 2.74718 
3.07517 -0.194585 2.7969 
-0.194585 2.9395 3.30454 
2.7969 3.30454 3.19871 
7.95586 -0.049706 -1.53389 
-0.049706 8.00956 -2.63002 
-1.53389 -2.63002 8.20371 
8.22076 -0.126225 -1.50976 
-0.126225 8.12083 -2.68564 
-1.50976 -2.68564 7.82753 
8.42438 0.0235213 -1.25365 
0.0235213 8.46883 -2.66813 
-1.25365 -2.66813 7.27592 
8.08831 -0.0618742 -1.41949 
-0.0618742 8.09284 -2.57397 
-1.41949 -2.57397 7.98798 
2.01211 -0.0680769 -3.61294 
-0.0680769 2.01851 0.810174 
-3.61294 0.810174 1.93581 
1.93539 0.0255075 -3.24246 
0.0255075 1.80792 0.98879 
-3.24246 0.98879 2.22312 
1.85767 -0.0399433 -3.47739 
-0.0399433 1.83738 0.825774 
-3.47739 0.825774 2.27138 
1.9221 0.0707928 -3.37628 
0.0707928 1.96197 0.687895 
-3.37628 0.687895 2.08236 
6.28093 0.321828 -0.510506 
0.321828 5.3243 4.18273 
-0.510506 4.18273 6.69322 
5.95459 -0.0610437 -0.649751 
-0.0610437 6.27808 4.17292 
-0.649751 4.17292 6.06579 
5.90006 -0.0558298 -0.793468 
-0.0558298 6.28628 4.33539 
-0.793468 4.33539 6.11212 
6.38622 -0.0406276 -0.797631 
-0.0406276 6.25343 3.96858 
-0.797631 3.96858 5.6588 
6.32278 -0.051605 3.31048 
-0.051605 6.39362 -3.35716 
3.31048 -3.35716 6.31971 
6.37903 -0.0391263 3.15565 
-0.0391263 6.23326 -3.22716 
3.15565 -3.22716 6.42382 
6.72628 0.0754284 2.95166 
0.0754284 6.51742 -2.89532 
2.95166 -2.89532 5.79241 
6.11426 0.0321105 2.86007 
0.0321105 5.76295 -3.09254 
2.86007 -3.09254 7.15889 
1.96183 -0.0464935 1.0718 
-0.0464935 1.75144 -0.953451 
1.0718 -0.953451 1.66669 
1.47025 0.034863 0.948934 
0.034863 1.79909 -0.839757 
0.948934 -0.839757 2.11062 
1.81792 -0.0116626 0.983862 
-0.0116626 1.6293 -1.07343 
0.983862 -1.07343 1.93274 
1.78082 -0.0432963 1.0844 
-0.0432963 1.74183 -0.948945 
1.0844 -0.948945 1.85731 
8.00573 0.0521317 -3.04372 
0.0521317 8.01598 1.43575 
-3.04372 1.43575 8.16662 
8.10244 -0.00371032 -2.89914 
-0.00371032 8.15114 1.44557 
-2.89914 1.44557 7.93475 
8.17688 -0.0843767 -3.03571 
-0.0843767 8.37543 1.42975 
-3.03571 1.42975 7.63602 
8.07379 0.00239686 -3.07516 
0.00239686 8.14516 1.44231 
-3.07516 1.44231 7.96937 
5.04984 -0.120203 2.0262 
-0.120203 5.49196 1.1221 
2.0262 1.1221 6.13271 
5.69637 -0.0280045 1.46609 
-0.0280045 5.34407 0.689214 
1.46609 0.689214 5.63407 
5.66784 -0.184131 1.54974 
-0.184131 5.43415 0.787059 
1.54974 0.787059 5.57252 
5.90692 -0.389264 1.21854 
-0.389264 6.05657 0.920811 
1.21854 0.920811 4.71103 
3.86254 0.190961 -3.34346 
0.190961 3.80229 2.96323 
-3.34346 2.96323 3.50068 
3.7221 0.211407 -3.07864 
0.211407 3.65714 2.81161 
-3.07864 2.81161 3.78626 
4.08275 -0.387441 -3.27461 
-0.387441 3.98643 2.54211 
-3.27461 2.54211 3.09633 
3.70535 0.066464 -3.26052 
0.066464 3.79947 2.69033 
-3.26052 2.69033 3.66068 
2.89204 -0.256565 1.18262 
-0.256565 3.35721 1.65538 
1.18262 1.65538 4.15606 
3.39269 0.0994913 1.62103 
0.0994913 3.59671 1.63023 
1.62103 1.63023 3.4159 
3.616 0.00753468 1.85479 
0.00753468 3.49254 1.49949 
1.85479 1.49949 3.29675 
3.55529 -0.333871 2.0981 
-0.333871 3.9932 1.86555 
2.0981 1.86555 2.85682 
8.21118 -0.0787024 -2.50681 
-0.0787024 8.42603 3.56208 
-2.50681 3.56208 8.72151 
8.71523 -0.0283777 -2.63762 
-0.0283777 8.6919 3.65596 
-2.63762 3.65596 7.95159 
8.16993 0.112968 -2.06025 
0.112968 8.24284 3.52563 
-2.06025 3.52563 8.94595 
8.3414 -0.140487 -2.45063 
-0.140487 8.40422 3.63626 
-2.45063 3.63626 8.61309 
6.72677 0.0990441 1.90873 
0.0990441 6.59419 1.82301 
1.90873 1.82301 6.72666 
6.7059 -0.0221025 2.09091 
-0.0221025 6.53364 1.89608 
2.09091 1.89608 6.80807 
6.57687 -0.0486468 1.85416 
-0.0486468 6.91742 1.87651 
1.85416 1.87651 6.55333 
6.66151 0.046067 1.9903 
0.046067 6.36522 1.70621 
1.9903 1.70621 7.02089 
8.35961 -0.146324 1.54342 
-0.146324 7.98542 2.93259 
1.54342 2.93259 8.23641 
8.31651 -0.0870891 1.67366 
-0.0870891 8.19114 2.91722 
1.67366 2.91722 8.0738 
8.38841 -0.107773 2.07943 
-0.107773 8.39631 2.53176 
2.07943 2.53176 7.79672 
8.17231 -0.153148 1.8008 
-0.153148 8.38004 2.6044 
1.8008 2.6044 8.0291 
6.20803 0.0122388 -3.93319 
0.0122388 6.10551 1.96035 
-3.93319 1.96035 5.67926 
6.34388 -0.158191 -3.27006 
-0.158191 6.31885 1.89956 
-3.27006 1.89956 5.33007 
5.82883 0.2624 -3.76408 
0.2624 5.88431 1.90149 
-3.76408 1.90149 6.27966 
6.17379 -0.0213443 -3.68194 
-0.0213443 6.03736 1.94812 
-3.68194 1.94812 5.78166 
3.00719 -0.0505349 1.13781 
-0.0505349 2.62506 -3.11714 
1.13781 -3.11714 2.83587 
3.04469 0.0783299 1.12027 
0.0783299 2.81005 -3.3083 
1.12027 -3.3083 2.61338 
2.94672 -0.0459844 0.746756 
-0.0459844 2.62579 -2.89671 
0.746756 -2.89671 2.89561 
3.10896 0.0152277 0.912907 
0.0152277 2.62888 -2.91167 
0.912907 -2.91167 2.73028 
8.6661 0.146116 -3.37486 
0.146116 8.78536 -1.26206 
-3.37486 -1.26206 9.14745 
8.67005 0.0605825 -3.75543 
0.0605825 9.13187 -1.5534 
-3.75543 -1.5534 8.79699 
8.65691 0.114661 -3.65712 
0.114661 8.90739 -1.61917 
-3.65712 -1.61917 9.03461 
8.76551 -0.00648532 -3.40527 
-0.00648532 8.99577 -1.27384 
-3.40527 -1.27384 8.83762 
2.85507 -0.0728392 1.67992 
-0.0728392 2.56705 3.0863 
1.67992 3.0863 3.01297 
2.79846 -0.0511523 1.80138 
-0.0511523 2.7164 2.77397 
1.80138 2.77397 2.92025 
2.43126 0.308628 1.76551 
0.308628 2.53057 2.37471 
1.76551 2.37471 3.47327 
3.13882 -0.16752 1.94201 
-0.16752 3.19704 2.78823 
1.94201 2.78823 2.09924 
1.41092 -0.130062 -0.172023 
-0.130062 1.86711 0.50965 
-0.172023 0.50965 1.40703 
1.72781 0.157595 -0.095468 
0.157595 1.19821 0.160067 
-0.095468 0.160067 1.75904 
1.49315 0.103848 0.199035 
0.103848 1.36256 0.212127 
0.199035 0.212127 1.82936 
1.714 -0.0855369 -0.0934291 
-0.0855369 1.62023 0.142752 
-0.0934291 0.142752 1.35083 
4.75186 -0.0631913 0.215723 
-0.0631913 4.62957 -3.31245 
0.215723 -3.31245 5.12733 
4.89738 0.0424451 0.228265 
0.0424451 4.89049 -3.50848 
0.228265 -3.50848 4.72089 
4.85616 0.0241472 0.122467 
0.0241472 4.81702 -3.41714 
0.122467 -3.41714 4.83558 
4.73114 0.0340148 0.223381 
0.0340148 4.85386 -3.52472 
0.223381 -3.52472 4.92376 
7.93759 -0.00976137 -2.32112 
-0.00976137 8.11096 2.27746 
-2.32112 2.27746 8.02514 
8.09898 0.0274918 -2.45069 
0.0274918 8.14003 2.1876 
-2.45069 2.1876 7.83469 
8.15987 -0.0465056 -2.28708 
-0.0465056 8.03409 2.27075 
-2.28708 2.27075 7.87974 
8.11792 0.0925426 -2.41081 
0.0925426 8.18761 1.9548 
-2.41081 1.9548 7.76817 
1.44902 0.0473001 -1.71508 
0.0473001 1.46013 -4.13554 
-1.71508 -4.13554 1.48918 
2.07264 -0.00447331 -1.43315 
-0.00447331 1.66837 -3.46439 
-1.43315 -3.46439 0.65732 
1.45092 0.0664419 -1.62684 
0.0664419 1.43052 -4.06346 
-1.62684 -4.06346 1.51689 
1.17254 0.0398403 -1.65239 
0.0398403 1.02212 -4.08122 
-1.65239 -4.08122 2.20367 
8.83196 0.0491146 -2.12027 
0.0491146 8.91107 -3.13708 
-2.12027 -3.13708 8.91993 
9.18516 -0.019768 -2.26746 
-0.019768 8.32586 -3.16886 
-2.26746 -3.16886 9.15195 
9.01669 0.000444162 -2.16383 
0.000444162 8.84236 -3.11683 
-2.16383 -3.11683 8.80392 
9.02229 -0.0584241 -1.94815 
-0.0584241 8.83997 -3.05016 
-1.94815 -3.05016 8.80071 
4.55607 -0.118581 -0.846547 
-0.118581 3.35634 -4.27187 
-0.846547 -4.27187 5.37864 
4.4734 -0.0128119 -1.11293 
-0.0128119 4.8496 -4.71714 
-1.11293 -4.71714 3.96804 
4.39217 -0.0408618 -1.16651 
-0.0408618 4.48091 -4.40146 
-1.16651 -4.40146 4.41796 
4.32544 -0.0418406 -1.26525 
-0.0418406 4.88761 -4.07532 
-1.26525 -4.07532 4.07799 
8.16115 0.104856 -1.80626 
0.104856 8.04372 3.15972 
-1.80626 3.15972 8.53188 
8.5051 -0.0863958 -1.90297 
-0.0863958 8.57327 2.5244 
-1.90297 2.5244 7.65838 
8.20939 -0.018859 -1.91393 
-0.018859 8.11078 2.82942 
-1.91393 2.82942 8.41658 
8.34777 -0.127235 -1.71579 
-0.127235 8.28253 2.86532 
-1.71579 2.86532 8.10644 
3.09249 -0.335294 -2.13961 
-0.335294 3.49917 2.49015 
-2.13961 2.49015 3.43186 
3.18069 -0.232883 -2.1774 
-0.232883 3.30611 2.46944 
-2.1774 2.46944 3.53671 
3.3469 0.0162458 -2.04659 
0.0162458 3.38192 2.67352 
-2.04659 2.67352 3.29469 
3.0454 0.168499 -2.35191 
0.168499 3.09999 2.20239 
-2.35191 2.20239 3.87812 
7.22745 0.00782063 -1.45179 
0.00782063 7.43277 2.91073 
-1.45179 2.91073 6.83378 
7.00597 0.127558 -1.52908 
0.127558 7.39059 2.88478 
-1.52908 2.88478 7.09744 
6.99511 0.0501627 -1.70047 
0.0501627 7.46359 2.75845 
-1.70047 2.75845 7.03529 
7.013 0.106524 -1.82993 
0.106524 7.13864 2.53618 
-1.82993 2.53618 7.34236 
5.15205 0.354784 -2.34648 
0.354784 4.99344 -1.37676 
-2.34648 -1.37676 4.61652 
4.99724 -0.0423777 -2.57292 
-0.0423777 4.90355 -1.52592 
-2.57292 -1.52592 4.86121 
5.134 -0.0267566 -2.57084 
-0.0267566 4.81316 -1.40441 
-2.57084 -1.40441 4.81485 
4.84835 0.0112337 -2.7462 
0.0112337 4.7531 -1.28732 
-2.7462 -1.28732 5.16057 
5.23871 0.00241734 2.24648 
0.00241734 5.21719 2.82631 
2.24648 2.82631 5.31474 
5.25521 -0.00789383 2.27304 
-0.00789383 5.16215 2.58581 
2.27304 2.58581 5.35328 
4.96359 0.0111182 2.11977 
0.0111182 5.18249 2.73594 
2.11977 2.73594 5.62456 
5.20636 0.0375083 2.1485 
0.0375083 5.0891 2.79755 
2.1485 2.79755 5.47518 
8.14557 0.09623 -1.28807 
0.09623 8.01423 1.59773 
-1.28807 1.59773 8.21352 
8.3321 0.0874277 -1.4481 
0.0874277 8.26169 1.55051 
-1.4481 1.55051 7.77953 
8.28971 0.0779705 -1.28867 
0.0779705 8.12484 1.40533 
-1.28867 1.40533 7.95878 
8.19168 0.118802 -1.36201 
0.118802 8.08474 1.56458 
-1.36201 1.56458 8.0969 
3.36963 0.0490977 0.994777 
0.0490977 3.31329 -2.99181 
0.994777 -2.99181 3.38586 
3.13978 -0.0361672 0.960181 
-0.0361672 3.13748 -3.29723 
0.960181 -3.29723 3.79151 
3.41181 0.0935015 0.952365 
0.0935015 3.2762 -2.92848 
0.952365 -2.92848 3.38076 
3.62349 -0.0526146 0.943585 
-0.0526146 3.62636 -3.30533 
0.943585 -3.30533 2.81893 
4.69216 -0.158517 2.3831 
-0.158517 4.78059 -1.64614 
2.3831 -1.64614 4.71245 
4.72335 -0.0717038 2.44528 
-0.0717038 4.79586 -1.84581 
2.44528 -1.84581 4.66599 
4.865 -0.131967 2.39875 
-0.131967 4.81555 -1.86429 
2.39875 -1.86429 4.50465 
4.85731 -0.0116614 2.44025 
-0.0116614 4.79968 -1.65902 
2.44025 -1.65902 4.52821 
1.41751 0.314457 1.67872 
0.314457 1.18428 -0.221005 
1.67872 -0.221005 0.175832 
0.826482 -0.22454 1.37385 
-0.22454 1.12032 0.158533 
1.37385 0.158533 0.830828 
0.938074 -0.23774 1.38411 
-0.23774 1.07582 0.354961 
1.38411 0.354961 0.763735 
1.00818 0.361599 0.936896 
0.361599 0.42077 0.439883 
0.936896 0.439883 1.34868 
5.02601 -0.272239 2.54146 
-0.272239 5.89043 -3.76266 
2.54146 -3.76266 3.92696 
4.69389 0.13673 2.70484 
0.13673 4.1937 -4.0373 
2.70484 -4.0373 5.95582 
4.90133 -0.0181054 2.6991 
-0.0181054 4.9421 -3.73959 
2.6991 -3.73959 4.99996 
4.92675 0.0643697 2.97835 
0.0643697 4.73622 -3.12001 
2.97835 -3.12001 5.18043 
8.77945 -0.0684088 -0.66694 
-0.0684088 8.98761 -1.64693 
-0.66694 -1.64693 8.95168 
8.76777 0.105524 -0.844336 
0.105524 9.5499 -1.56921 
-0.844336 -1.56921 8.40107 
8.31153 -0.0156975 -0.426009 
-0.0156975 8.89452 -2.1558 
-0.426009 -2.1558 9.5127 
8.98605 0.0850659 -0.413578 
0.0850659 8.79106 -1.7869 
-0.413578 -1.7869 8.94163 
5.70831 -0.0957348 -0.601759 
-0.0957348 6.15583 3.23614 
-0.601759 3.23614 6.08028 
5.91591 -0.0207592 -0.41324 
-0.0207592 6.06548 3.30266 
-0.41324 3.30266 5.96302 
6.20226 -0.118522 -0.120173 
-0.118522 5.10314 3.37163 
-0.120173 3.37163 6.63901 
6.24422 0.0462568 -0.751118 
0.0462568 6.28194 3.49109 
-0.751118 3.49109 5.41825 
1.15032 0.0244471 3.18572 
0.0244471 1.20686 2.71875 
3.18572 2.71875 0.948596 
1.22212 -0.489186 2.82031 
-0.489186 1.84931 2.57919 
2.82031 2.57919 0.234337 
1.23883 0.196782 3.24671 
0.196782 1.09758 2.71098 
3.24671 2.71098 0.969366 
0.767215 -0.265719 3.24384 
-0.265719 1.06837 2.9621 
3.24384 2.9621 1.47019 
5.81587 -0.375104 3.77455 
-0.375104 5.42346 -2.70917 
3.77455 -2.70917 5.69166 
5.92745 -0.0568762 3.19237 
-0.0568762 5.90951 -2.11218 
3.19237 -2.11218 5.09404 
5.14747 0.208345 3.47671 
0.208345 5.34509 -2.90813 
3.47671 -2.90813 6.43843 
5.62688 -0.257444 3.54668 
-0.257444 5.61829 -2.41262 
3.54668 -2.41262 5.68583 
8.11664 -0.0659932 -4.14073 
-0.0659932 8.46314 -0.406927 
-4.14073 -0.406927 8.58526 
8.33302 0.0424821 -4.33772 
0.0424821 8.23869 -0.510684 
-4.33772 -0.510684 8.59334 
8.40186 -0.137493 -4.13488 
-0.137493 8.35691 -0.573223 
-4.13488 -0.573223 8.40628 
8.41498 -0.0932416 -4.26242 
-0.0932416 8.53709 -0.758695 
-4.26242 -0.758695 8.21298 
2.93096 0.251254 4.54254 
0.251254 2.31286 0.923518 
4.54254 0.923518 2.27811 
2.43803 0.441941 4.02991 
0.441941 2.62359 0.683923 
4.02991 0.683923 2.46031 
2.20215 0.00447482 4.26259 
0.00447482 2.58748 -0.11549 
4.26259 -0.11549 2.73231 
2.7431 0.0717793 4.12964 
0.0717793 2.32543 0.0805069 
4.12964 0.0805069 2.45341 
8.44711 -0.0128015 -1.96494 
-0.0128015 9.06595 -0.554941 
-1.96494 -0.554941 9.16723 
8.74288 0.0148894 -1.92637 
0.0148894 9.23836 -0.705033 
-1.92637 -0.705033 8.69904 
8.94685 -0.0571994 -2.02956 
-0.0571994 8.79036 -0.542318 
-2.02956 -0.542318 8.94308 
8.99205 0.0297758 -2.00917 
0.0297758 8.85442 -0.586649 
-2.00917 -0.586649 8.83381 
1.21324 -0.081278 1.97105 
-0.081278 1.69287 3.37769 
1.97105 3.37769 1.19965 
1.39256 -0.0839086 1.48354 
-0.0839086 1.60009 3.07748 
1.48354 3.07748 1.11311 
0.968257 0.0551731 1.92921 
0.0551731 1.52815 3.43448 
1.92921 3.43448 1.60935 
1.21569 0.118336 1.57263 
0.118336 1.44086 3.02606 
1.57263 3.02606 1.44922 
6.09613 0.00696113 0.443373 
0.00696113 5.93977 0.0744432 
0.443373 0.0744432 5.85269 
5.96469 -0.154619 0.42377 
-0.154619 5.62273 0.284307 
0.42377 0.284307 6.30117 
6.01857 0.0188516 0.349513 
0.0188516 6.00508 0.18222 
0.349513 0.18222 5.86494 
6.16552 0.133978 0.326557 
0.133978 6.33964 0.465744 
0.326557 0.465744 5.38343 
0.80293 -0.121827 0.829457 
-0.121827 0.343132 -1.83704 
0.829457 -1.83704 0.328306 
0.63239 -0.0190928 0.819141 
-0.0190928 0.464929 -1.86342 
0.819141 -1.86342 0.377049 
1.01193 -0.0274212 0.875728 
-0.0274212 1.03765 -1.91202 
0.875728 -1.91202 -0.57521 
0.486286 -0.0596965 0.800451 
-0.0596965 0.449123 -1.93888 
0.800451 -1.93888 0.538959 
4.76382 -0.116734 -1.49893 
-0.116734 4.80366 -3.08071 
-1.49893 -3.08071 4.70502 
4.75787 0.0292628 -1.40684 
0.0292628 5.01403 -3.25109 
-1.40684 -3.25109 4.50058 
4.50225 0.00978369 -1.57377 
0.00978369 4.41081 -3.09184 
-1.57377 -3.09184 5.35943 
4.83104 -0.111671 -1.37733 
-0.111671 4.56085 -3.07626 
-1.37733 -3.07626 4.8806 
9.07549 0.246176 4.03617 
0.246176 8.65695 0.585727 
4.03617 0.585727 9.69738 
8.94918 -0.135426 4.29956 
-0.135426 9.30473 0.792695 
4.29956 0.792695 9.1759 
9.05786 0.0342794 4.23243 
0.0342794 9.14989 0.761478 
4.23243 0.761478 9.22207 
9.1581 -0.0097823 4.40968 
-0.0097823 9.25244 0.731544 
4.40968 0.731544 9.01928 
1.75539 0.0928706 -3.2151 
0.0928706 1.71858 3.15125 
-3.2151 3.15125 3.16507 
2.64344 -0.16707 -4.22858 
-0.16707 2.59211 2.06627 
-4.22858 2.06627 1.4035 
2.53532 -0.0132163 -3.19433 
-0.0132163 1.98198 2.1884 
-3.19433 2.1884 2.12174 
2.30983 -0.222209 -3.35595 
-0.222209 1.99156 2.05176 
-3.35595 2.05176 2.33766 
8.70351 -0.0028818 -3.16607 
-0.0028818 8.8027 -1.04929 
-3.16607 -1.04929 9.05681 
9.40551 -0.056659 -3.0487 
-0.056659 8.63151 -1.13564 
-3.0487 -1.13564 8.526 
8.70341 0.0706475 -3.25659 
0.0706475 8.70644 -1.1539 
-3.25659 -1.1539 9.15317 
8.7423 0.00825857 -3.04228 
0.00825857 8.92029 -1.17783 
-3.04228 -1.17783 8.90043 
7.14972 -0.0705611 0.100214 
-0.0705611 6.79913 4.64901 
0.100214 4.64901 7.56858 
7.33981 -0.0341173 0.12013 
-0.0341173 7.20158 4.60308 
0.12013 4.60308 6.97605 
7.19515 -0.0329803 0.166732 
-0.0329803 7.15626 4.54097 
0.166732 4.54097 7.16602 
7.13726 -0.0227437 0.211553 
-0.0227437 7.28794 4.34236 
0.211553 4.34236 7.09225 
0.299176 0.150657 0.827593 
0.150657 0.552929 -0.0274839 
0.827593 -0.0274839 0.314119 
0.19659 0.0353142 0.862275 
0.0353142 0.772587 -0.11009 
0.862275 -0.11009 0.197047 
0.707837 0.0434324 0.894084 
0.0434324 0.815143 -0.20901 
0.894084 -0.20901 -0.356756 
0.277746 0.0283961 0.87373 
0.0283961 0.443956 -0.0676555 
0.87373 -0.0676555 0.444523 
6.33622 0.0572994 2.17985 
0.0572994 6.58904 -2.6325 
2.17985 -2.6325 6.44464 
6.7147 0.107036 2.34709 
0.107036 6.40301 -2.6544 
2.34709 -2.6544 6.25219 
6.31777 0.00550549 2.30782 
0.00550549 6.48985 -2.9241 
2.30782 -2.9241 6.56228 
5.92586 -0.00637099 2.50302 
-0.00637099 6.60725 -2.73092 
2.50302 -2.73092 6.83678 
3.34567 -0.0626534 -4.39213 
-0.0626534 3.72112 -0.627715 
-4.39213 -0.627715 3.3061 
3.11806 -0.202943 -4.3483 
-0.202943 3.43392 0.144557 
-4.3483 0.144557 3.82091 
3.67632 0.00277094 -4.40261 
0.00277094 3.35019 -0.156682 
-4.40261 -0.156682 3.34638 
3.84339 0.193924 -3.86793 
0.193924 3.68932 -0.965962 
-3.86793 -0.965962 2.84018 
9.50316 0.0893638 3.00051 
0.0893638 9.49733 -0.944031 
3.00051 -0.944031 9.47028 
9.63362 0.198023 3.04667 
0.198023 9.33348 -0.914615 
3.04667 -0.914615 9.50367 
8.97615 0.0170042 2.77224 
0.0170042 9.16193 -0.953084 
2.77224 -0.953084 10.3327 
9.60535 0.0434008 2.98282 
0.0434008 9.57987 -1.02896 
2.98282 -1.02896 9.28554 
7.39718 0.0278158 -0.355714 
0.0278158 7.12476 2.37803 
-0.355714 2.37803 7.14968 
7.39492 -0.229701 0.0146736 
-0.229701 7.5536 2.36089 
0.0146736 2.36089 6.7231 
7.01268 -0.313897 -0.42086 
-0.313897 6.59488 2.19383 
-0.42086 2.19383 8.06405 
7.40123 0.115157 -0.375996 
0.115157 7.12125 2.43394 
-0.375996 2.43394 7.14913 
5.85186 0.180888 -1.49192 
0.180888 6.38692 -4.23104 
-1.49192 -4.23104 5.95759 
6.27264 -0.0232998 -1.58201 
-0.0232998 5.41802 -4.03782 
-1.58201 -4.03782 6.50572 
5.84371 0.196431 -1.5733 
0.196431 6.53269 -3.66098 
-1.5733 -3.66098 5.81998 
6.24439 -0.0243122 -1.44197 
-0.0243122 6.46045 -3.55549 
-1.44197 -3.55549 5.49154 
4.84917 -0.0905085 -0.129994 
-0.0905085 4.765 0.239681 
-0.129994 0.239681 4.97509 
5.05681 0.12632 -0.0595692 
0.12632 4.88059 0.0529586 
-0.0595692 0.0529586 4.65186 
4.77912 0.00880103 -0.0266147 
0.00880103 4.77577 0.0377533 
-0.0266147 0.0377533 5.03437 
4.91415 -0.00844759 -0.110268 
-0.00844759 4.81393 0.158036 
-0.110268 0.158036 4.86119 
4.08941 -0.148763 3.45939 
-0.148763 4.27531 -0.929127 
3.45939 -0.929127 4.07696 
3.97152 -0.104191 3.43536 
-0.104191 4.17794 -0.900778 
3.43536 -0.900778 4.29221 
4.01224 -0.239915 3.35349 
-0.239915 4.40304 -1.09779 
3.35349 -1.09779 4.0264 
4.03359 -0.126526 3.48736 
-0.126526 4.23889 -1.12322 
3.48736 -1.12322 4.1692 
4.95654 0.280508 -1.37585 
0.280508 5.40759 -0.670783 
-1.37585 -0.670783 5.12275 
5.10461 0.269172 -1.61352 
0.269172 5.014 -1.03918 
-1.61352 -1.03918 5.36827 
5.13511 0.121629 -1.66426 
0.121629 5.20694 -0.593205 
-1.66426 -0.593205 5.14484 
5.02061 -0.0447234 -1.76264 
-0.0447234 4.96899 -0.85745 
-1.76264 -0.85745 5.49729 
8.8215 0.0522097 1.71057 
0.0522097 8.71007 1.5666 
1.71057 1.5666 8.92907 
8.99639 0.132626 1.6326 
0.132626 8.77705 1.61088 
1.6326 1.61088 8.6872 
8.74577 0.0996405 1.68079 
0.0996405 8.62931 1.36943 
1.68079 1.36943 9.08556 
8.84879 -0.0586185 1.7814 
-0.0586185 8.79016 1.54225 
1.7814 1.54225 8.82169 
1.16984 0.0087879 0.709131 
0.0087879 1.22838 2.17305 
0.709131 2.17305 1.07713 
1.14176 0.148526 0.642173 
0.148526 0.997675 2.20765 
0.642173 2.20765 1.33592 
1.25463 0.0863672 0.631835 
0.0863672 1.18911 2.15105 
0.631835 2.15105 1.03162 
1.16214 0.0347681 0.712769 
0.0347681 1.11131 2.13374 
0.712769 2.13374 1.2019 
4.90143 -0.0373026 -3.49955 
-0.0373026 4.82903 -3.17354 
-3.49955 -3.17354 2.9999 
3.52287 -0.0476048 -3.55633 
-0.0476048 3.48435 -2.80054 
-3.55633 -2.80054 5.72314 
4.24268 0.160314 -2.9696 
0.160314 4.24412 -2.58325 
-2.9696 -2.58325 4.24356 
4.2302 -0.0216289 -3.13558 
-0.0216289 4.41802 -2.39592 
-3.13558 -2.39592 4.08215 
1.00173 0.242033 -2.74964 
0.242033 1.6606 1.07855 
-2.74964 1.07855 0.662143 
1.28926 -0.0881872 -3.00558 
-0.0881872 0.937553 1.32374 
-3.00558 1.32374 1.09767 
0.922479 -0.0469526 -3.1284 
-0.0469526 1.05507 1.47877 
-3.1284 1.47877 1.34693 
1.11786 -0.0846932 -2.91821 
-0.0846932 1.09455 1.21217 
-2.91821 1.21217 1.11206 
2.34837 0.173758 -3.47142 
0.173758 3.23976 -2.54998 
-3.47142 -2.54998 4.06785 
2.9334 -0.0641301 -4.52524 
-0.0641301 4.07766 -1.84432 
-4.52524 -1.84432 2.64492 
3.17476 0.270749 -3.75592 
0.270749 3.08224 -2.1128 
-3.75592 -2.1128 3.39898 
3.19976 0.0273434 -4.06546 
0.0273434 3.25947 -1.89744 
-4.06546 -1.89744 3.19674 
3.77836 0.0112231 -3.49943 
0.0112231 3.36836 2.88187 
-3.49943 2.88187 5.56122 
4.19382 0.0366613 -2.9769 
0.0366613 4.42795 2.29241 
-2.9769 2.29241 4.08617 
4.88525 0.00690652 -3.44243 
0.00690652 4.82044 3.08569 
-3.44243 3.08569 3.00225 
4.17375 -0.0989013 -2.86472 
-0.0989013 4.23011 2.65934 
-2.86472 2.65934 4.30408 
8.71487 -0.19482 4.32939 
-0.19482 8.46771 0.728665 
4.32939 0.728665 8.65167 
8.78891 -0.0445588 4.00329 
-0.0445588 8.73843 0.696575 
4.00329 0.696575 8.3069 
8.69122 -0.117529 4.14208 
-0.117529 8.60464 1.00108 
4.14208 1.00108 8.53838 
9.00654 -0.195579 4.23572 
-0.195579 8.29579 0.963232 
4.23572 0.963232 8.53191 
1.98288 -0.0743863 -1.62867 
-0.0743863 1.91296 -1.13102 
-1.62867 -1.13102 1.75346 
1.86509 -0.112901 -1.65628 
-0.112901 1.79096 -0.972927 
-1.65628 -0.972927 1.99325 
2.03353 -0.130544 -1.69331 
-0.130544 1.55793 -1.20122 
-1.69331 -1.20122 2.05784 
1.83876 -0.106213 -1.50413 
-0.106213 1.85603 -1.15963 
-1.50413 -1.15963 1.95451 
9.63865 0.0396918 3.66386 
0.0396918 9.48363 -0.381618 
3.66386 -0.381618 9.62507 
9.39791 -0.0858272 3.56083 
-0.0858272 9.1643 -0.158242 
3.56083 -0.158242 10.1851 
9.63751 0.122592 3.58737 
0.122592 9.55085 -0.384483 
3.58737 -0.384483 9.55898 
9.70258 0.0205242 3.70317 
0.0205242 9.64593 -0.474155 
3.70317 -0.474155 9.39884 
3.96081 -0.0156936 0.202711 
-0.0156936 3.86881 -3.50664 
0.202711 -3.50664 3.87786 
3.92001 -0.0287667 -0.0146963 
-0.0287667 4.35833 -3.7493 
-0.0146963 -3.7493 3.42913 
3.92337 0.0173077 0.172544 
0.0173077 3.87403 -3.58419 
0.172544 -3.58419 3.91007 
3.32956 0.00219724 0.0414789 
0.00219724 3.86451 -3.82311 
0.0414789 -3.82311 4.51341 
2.742 0.157964 -2.11584 
0.157964 2.23921 -1.15755 
-2.11584 -1.15755 2.80199 
2.61148 0.395179 -1.64716 
0.395179 2.70087 -1.5015 
-1.64716 -1.5015 2.47086 
2.68756 0.285856 -1.67671 
0.285856 2.50353 -1.133 
-1.67671 -1.133 2.59211 
2.66992 -0.157097 -1.45868 
-0.157097 2.96945 -1.38195 
-1.45868 -1.38195 2.14383 
2.3335 0.0230708 -2.86197 
0.0230708 2.72835 1.46445 
-2.86197 1.46445 2.42835 
2.2125 0.00355386 -2.87526 
0.00355386 2.86887 1.54594 
-2.87526 1.54594 2.40883 
2.23744 0.0365256 -3.04378 
0.0365256 2.59138 1.82358 
-3.04378 1.82358 2.66138 
2.5375 0.141331 -2.67773 
0.141331 2.86732 1.21563 
-2.67773 1.21563 2.08538 
8.21141 0.0778576 1.73017 
0.0778576 8.27569 0.811639 
1.73017 0.811639 7.79752 
8.17502 -0.00486202 1.54019 
-0.00486202 8.19237 1.01972 
1.54019 1.01972 7.91723 
7.99766 0.0293485 1.5495 
0.0293485 8.01538 0.844044 
1.5495 0.844044 8.27158 
8.12841 0.025689 1.687 
0.025689 8.0763 0.848782 
1.687 0.848782 8.07991 
1.7738 0.023259 1.02512 
0.023259 0.704122 2.13471 
1.02512 2.13471 0.503068 
1.04849 -0.0680697 1.72728 
-0.0680697 0.509984 1.08736 
1.72728 1.08736 1.42252 
1.20741 0.153828 1.4695 
0.153828 0.846273 1.3386 
1.4695 1.3386 0.927311 
1.08942 -0.083862 1.07474 
-0.083862 0.950414 1.82008 
1.07474 1.82008 0.941154 
0.94591 0.0833895 3.28209 
0.0833895 0.735887 -0.933673 
3.28209 -0.933673 -0.218511 
0.728067 0.318931 3.34205 
0.318931 0.594363 -1.19282 
3.34205 -1.19282 0.140856 
0.438742 0.0602306 3.22553 
0.0602306 0.47424 -1.14546 
3.22553 -1.14546 0.550304 
0.404849 -0.0264261 3.26787 
-0.0264261 0.335455 -1.18462 
3.26787 -1.18462 0.722982 
4.41916 -0.14145 -2.2855 
-0.14145 4.18978 3.11328 
-2.2855 3.11328 5.85042 
5.21782 -0.0328477 -1.51014 
-0.0328477 5.18974 2.89426 
-1.51014 2.89426 4.0518 
4.60219 0.00450152 -1.51095 
0.00450152 4.85587 3.08248 
-1.51095 3.08248 5.0013 
4.73851 0.00625235 -1.49048 
0.00625235 4.54332 3.05126 
-1.49048 3.05126 5.17753 
1.158 0.149096 0.426377 
0.149096 0.953349 -2.1907 
0.426377 -2.1907 1.03073 
0.857241 0.466208 0.446831 
0.466208 0.851821 -1.74858 
0.446831 -1.74858 1.43302 
1.36147 0.536052 0.509858 
0.536052 1.14827 -3.00915 
0.509858 -3.00915 0.632338 
0.98455 -0.00149235 0.403525 
-0.00149235 1.08012 -2.63892 
0.403525 -2.63892 1.07741 
8.95806 0.0542571 -2.48568 
0.0542571 8.90972 3.49409 
-2.48568 3.49409 9.17612 
9.01264 0.220772 -2.45351 
0.220772 8.89463 3.47366 
-2.45351 3.47366 9.13664 
8.70343 -0.328455 -2.44193 
-0.328455 8.75941 3.2615 
-2.44193 3.2615 9.58106 
9.08837 -0.172579 -2.63488 
-0.172579 9.04935 3.60434 
-2.63488 3.60434 8.90619 
7.13525 -0.748773 -2.08401 
-0.748773 5.75919 -4.31805 
-2.08401 -4.31805 7.78806 
6.57336 0.19858 -2.13572 
0.19858 7.39144 -4.04849 
-2.13572 -4.04849 6.7177 
6.90994 0.450696 -1.92558 
0.450696 7.44484 -4.19316 
-1.92558 -4.19316 6.32772 
6.29941 -0.0530333 -1.69419 
-0.0530333 7.01331 -3.0702 
-1.69419 -3.0702 7.36978 
5.81178 -0.0958827 1.65491 
-0.0958827 4.98385 0.911101 
1.65491 0.911101 5.97469 
5.34323 0.0140521 1.60836 
0.0140521 5.73312 0.680567 
1.60836 0.680567 5.69397 
5.59158 0.0374788 1.57869 
0.0374788 6.0449 1.10503 
1.57869 1.10503 5.13384 
5.48513 0.142982 1.41016 
0.142982 5.78887 0.856321 
1.41016 0.856321 5.49633 
7.50089 0.140791 4.31164 
0.140791 7.10222 1.53513 
4.31164 1.53513 6.14184 
6.32998 -0.161405 4.33965 
-0.161405 6.95413 1.80474 
4.33965 1.80474 7.46085 
6.99066 0.0697142 4.10068 
0.0697142 6.92387 1.7947 
4.10068 1.7947 6.83042 
6.83878 -0.0448283 3.60159 
-0.0448283 6.93458 1.84598 
3.60159 1.84598 6.9716 
3.56651 -0.0151092 0.344024 
-0.0151092 3.54084 4.44849 
0.344024 4.44849 3.58517 
3.22286 0.103782 0.214923 
0.103782 3.17356 4.18972 
0.214923 4.18972 4.2961 
3.35841 -0.0789024 0.298805 
-0.0789024 3.66354 4.72472 
0.298805 4.72472 3.67057 
4.18174 0.198744 0.450686 
0.198744 3.8929 3.97991 
0.450686 3.97991 2.61788 
0.418483 -0.108829 -0.777714 
-0.108829 0.449891 1.52804 
-0.777714 1.52804 0.320428 
0.449035 0.0138251 -0.87658 
0.0138251 0.89115 1.54487 
-0.87658 1.54487 -0.151382 
0.420525 -0.00558236 -0.704985 
-0.00558236 0.485673 1.4802 
-0.704985 1.4802 0.282604 
0.313911 -0.0194045 -0.705928 
-0.0194045 0.407515 1.43085 
-0.705928 1.43085 0.467376 
0.260688 0.0523999 -1.10153 
0.0523999 0.32926 1.96362 
-1.10153 1.96362 0.432491 
0.574948 -0.026432 -1.04933 
-0.026432 0.409569 2.03808 
-1.04933 2.03808 0.0379216 
0.566103 0.0720869 -1.07259 
0.0720869 0.402871 1.85856 
-1.07259 1.85856 0.0534647 
0.134883 0.0145103 -1.08887 
0.0145103 0.319225 1.9361 
-1.08887 1.9361 0.56833 
0.989325 -0.0476644 0.782873 
-0.0476644 0.931664 0.00610666 
0.782873 0.00610666 0.879087 
0.552247 0.124265 0.278735 
0.124265 2.24933 -0.184722 
0.278735 -0.184722 -0.0014986 
1.23503 -0.0141036 0.960847 
-0.0141036 0.711003 -0.0746471 
0.960847 -0.0746471 0.854038 
0.202664 0.0872781 0.898963 
0.0872781 1.01899 -0.195117 
0.898963 -0.195117 1.57843 
6.22823 0.0392564 1.54685 
0.0392564 6.42841 -0.0159227 
1.54685 -0.0159227 6.25587 
6.7566 -0.0167319 1.64552 
-0.0167319 6.5231 0.247026 
1.64552 0.247026 5.63281 
6.25648 0.0758205 1.56224 
0.0758205 6.35947 -0.03734 
1.56224 -0.03734 6.29655 
6.17405 -0.102431 2.00793 
-0.102431 5.73738 -0.040547 
2.00793 -0.040547 7.00107 
8.38295 0.0749705 -1.91086 
0.0749705 8.50141 -1.53771 
-1.91086 -1.53771 7.58232 
8.19102 0.00968974 -1.78536 
0.00968974 7.99966 -1.34914 
-1.78536 -1.34914 8.27601 
8.183 -0.0223885 -1.80946 
-0.0223885 8.31327 -1.53788 
-1.80946 -1.53788 7.97042 
8.21605 -0.00461829 -1.89565 
-0.00461829 8.18775 -1.43752 
-1.89565 -1.43752 8.06289 
6.44557 0.0193461 2.12116 
0.0193461 6.51793 0.784964 
2.12116 0.784964 5.33914 
5.62232 -0.290058 2.74512 
-0.290058 6.02564 0.605108 
2.74512 0.605108 6.65468 
6.40202 0.0883338 2.56094 
0.0883338 5.83938 0.970391 
2.56094 0.970391 6.06124 
6.39138 0.025882 2.42828 
0.025882 6.00621 0.670735 
2.42828 0.670735 5.90505 
3.09082 0.0337874 1.27348 
0.0337874 3.22235 0.827985 
1.27348 0.827985 3.09257 
3.2519 -0.0518803 1.30713 
-0.0518803 2.87922 0.736562 
1.30713 0.736562 3.27461 
3.1745 0.120664 1.11149 
0.120664 3.25175 0.799912 
1.11149 0.799912 2.97948 
3.37083 0.0487172 1.18066 
0.0487172 3.27785 0.935337 
1.18066 0.935337 2.75705 
3.00121 -0.0711488 -1.36054 
-0.0711488 2.81746 -2.526 
-1.36054 -2.526 2.99114 
2.77407 0.125684 -1.24724 
0.125684 2.71442 -2.32386 
-1.24724 -2.32386 3.32132 
3.39916 0.0767224 -1.38809 
0.0767224 3.21312 -2.73227 
-1.38809 -2.73227 2.19752 
2.94979 -0.211147 -1.31375 
-0.211147 2.91106 -2.61195 
-1.31375 -2.61195 2.94896 
1.07624 -0.160457 0.926993 
-0.160457 1.83454 -1.81703 
0.926993 -1.81703 0.229991 
0.28275 -0.224321 0.398563 
-0.224321 1.16111 -2.41703 
0.398563 -2.41703 1.69691 
1.08883 0.0832174 0.496375 
0.0832174 1.02884 -2.11158 
0.496375 -2.11158 1.0231 
1.1124 0.199102 0.387549 
0.199102 1.02355 -1.97164 
0.387549 -1.97164 1.00482 
8.7918 0.191027 2.1411 
0.191027 8.67566 -1.82783 
2.1411 -1.82783 9.08064 
8.83189 -0.0606818 2.02289 
-0.0606818 8.80318 -1.75525 
2.02289 -1.75525 8.91304 
8.87419 0.0241102 2.2002 
0.0241102 8.91369 -1.79832 
2.2002 -1.79832 8.76022 
8.92244 0.0343225 2.01639 
0.0343225 8.89538 -1.86541 
2.01639 -1.86541 8.73028 
6.36544 -0.01415 -1.88502 
-0.01415 6.34383 3.76803 
-1.88502 3.76803 6.40023 
6.46756 -0.0613435 -1.99118 
-0.0613435 6.38585 3.66233 
-1.99118 3.66233 6.25609 
6.36815 -0.0882742 -2.0519 
-0.0882742 6.23659 3.73895 
-2.0519 3.73895 6.50476 
6.21642 0.40153 -1.62383 
0.40153 5.95769 3.61699 
-1.62383 3.61699 6.93539 
9.0508 -0.0117529 3.92045 
-0.0117529 8.83691 -0.909274 
3.92045 -0.909274 9.73856 
9.07197 -0.117352 4.3132 
-0.117352 9.18392 -0.868796 
4.3132 -0.868796 9.37037 
8.97828 0.167641 4.1274 
0.167641 9.18487 -0.687497 
4.1274 -0.687497 9.46312 
9.3132 0.0277394 4.42844 
0.0277394 9.22485 -0.886104 
4.42844 -0.886104 9.08821 
0.834303 0.229507 3.35013 
0.229507 0.352658 1.79871 
3.35013 1.79871 0.317948 
0.429003 0.124753 3.1933 
0.124753 0.519729 1.80201 
3.1933 1.80201 0.556177 
1.04748 -0.0285159 3.44574 
-0.0285159 0.955926 1.44544 
3.44574 1.44544 -0.498501 
0.370837 0.0302045 3.41726 
0.0302045 0.508095 1.7533 
3.41726 1.7533 0.625977 
7.34513 -0.0173341 0.295549 
-0.0173341 7.61775 -0.988973 
0.295549 -0.988973 7.08984 
7.44588 0.19527 0.0981165 
0.19527 7.30191 -1.04002 
0.0981165 -1.04002 7.30493 
7.38228 0.0790726 -0.0769588 
0.0790726 7.0119 -0.885747 
-0.0769588 -0.885747 7.65854 
7.24877 0.0614621 0.205032 
0.0614621 7.25698 -0.873711 
0.205032 -0.873711 7.54697 
6.18607 0.0556122 -0.816814 
0.0556122 6.07732 -0.704921 
-0.816814 -0.704921 5.91772 
6.54778 0.132305 -1.09936 
0.132305 6.14979 -0.899206 
-1.09936 -0.899206 5.48354 
5.92211 -0.000726233 -0.657355 
-0.000726233 6.0308 -0.70148 
-0.657355 -0.70148 6.22821 
6.14886 0.0784862 -0.703318 
0.0784862 6.10422 -0.761426 
-0.703318 -0.761426 5.92804 
9.38539 0.0468472 -1.75181 
0.0468472 9.26831 -3.24794 
-1.75181 -3.24794 9.89491 
9.34611 0.0242273 -1.90817 
0.0242273 9.32208 -3.23096 
-1.90817 -3.23096 9.88043 
9.43953 0.012723 -1.80441 
0.012723 9.48442 -3.17893 
-1.80441 -3.17893 9.62467 
9.49889 0.0728323 -1.86591 
0.0728323 9.58031 -3.10294 
-1.86591 -3.10294 9.46942 
6.70455 -0.0542536 -0.39423 
-0.0542536 6.41212 -4.07182 
-0.39423 -4.07182 5.39938 
6.39491 -0.300499 -1.01857 
-0.300499 5.20905 -3.95281 
-1.01857 -3.95281 6.91209 
6.11233 0.187257 -0.665828 
0.187257 6.12412 -4.41605 
-0.665828 -4.41605 6.27961 
6.08674 0.143682 -0.712712 
0.143682 6.16909 -4.26182 
-0.712712 -4.26182 6.26022 
6.79299 -0.109056 2.76855 
-0.109056 6.69406 3.08755 
2.76855 3.08755 6.8287 
6.76304 0.154858 2.90414 
0.154858 7.3628 2.74642 
2.90414 2.74642 6.18991 
6.82453 -0.0245425 2.75617 
-0.0245425 6.88512 3.5324 
2.75617 3.5324 6.6061 
6.76904 -0.158717 2.80001 
-0.158717 5.94945 2.87755 
2.80001 2.87755 7.59726 
8.73408 0.0876863 1.23686 
0.0876863 8.67762 4.29171 
1.23686 4.29171 8.69901 
8.75475 0.086362 1.13247 
0.086362 8.66629 4.33505 
1.13247 4.33505 8.68967 
8.29216 0.194314 1.19496 
0.194314 8.67458 3.9379 
1.19496 3.9379 9.14396 
8.90138 0.0734219 1.1179 
0.0734219 8.86859 4.52573 
1.1179 4.52573 8.34074 
1.72352 0.93232 -3.80881 
0.93232 1.42455 2.70866 
-3.80881 2.70866 2.62767 
2.06114 -0.198052 -3.86033 
-0.198052 1.94501 2.57834 
-3.86033 2.57834 1.76959 
1.85696 -0.533075 -4.08091 
-0.533075 2.37 2.38213 
-4.08091 2.38213 1.54878 
1.85568 -0.389275 -3.46883 
-0.389275 1.71059 1.59867 
-3.46883 1.59867 2.20947 
0.324495 0.0674742 -0.377586 
0.0674742 0.368322 -0.823337 
-0.377586 -0.823337 0.457294 
0.164002 -0.0194681 -0.408954 
-0.0194681 0.565999 -0.786303 
-0.408954 -0.786303 0.42011 
0.646941 0.117549 -0.277956 
0.117549 0.608164 -0.649761 
-0.277956 -0.649761 -0.104995 
0.254743 0.0256465 -0.372602 
0.0256465 0.280934 -0.875081 
-0.372602 -0.875081 0.614433 
6.5074 -0.045812 -0.732764 
-0.045812 6.74861 -0.705969 
-0.732764 -0.705969 6.75973 
6.50746 -0.438122 -0.273321 
-0.438122 6.1696 -0.733159 
-0.273321 -0.733159 7.33868 
6.8458 -0.336574 -0.715051 
-0.336574 7.32028 -0.657375 
-0.715051 -0.657375 5.84967 
6.55624 -0.0202249 -0.744823 
-0.0202249 6.6817 -0.774529 
-0.744823 -0.774529 6.77781 
6.30221 -0.245544 0.125983 
-0.245544 6.03136 3.2459 
0.125983 3.2459 6.22374 
6.04136 -0.0655653 0.263305 
-0.0655653 5.70519 3.56108 
0.263305 3.56108 6.81076 
6.52448 0.0136885 -0.382492 
0.0136885 6.79726 3.12156 
-0.382492 3.12156 5.23558 
6.46322 -0.0835193 0.141047 
-0.0835193 5.93661 2.99503 
0.141047 2.99503 6.15747 
3.44819 0.154498 1.94861 
0.154498 3.62833 3.04355 
1.94861 3.04355 3.66854 
3.58845 -0.0682795 1.72275 
-0.0682795 3.55547 2.85244 
1.72275 2.85244 3.60115 
3.73275 -0.082638 2.19635 
-0.082638 3.75837 3.14415 
2.19635 3.14415 3.25394 
3.64043 0.00460313 1.50597 
0.00460313 3.18669 2.98193 
1.50597 2.98193 3.91794 
7.61404 -0.0861647 -4.10171 
-0.0861647 7.44723 -1.79963 
-4.10171 -1.79963 7.35324 
7.35801 -0.151944 -4.13253 
-0.151944 7.75727 -2.11766 
-4.13253 -2.11766 7.29923 
7.17337 -0.157472 -4.15175 
-0.157472 7.47219 -1.46314 
-4.15175 -1.46314 7.76895 
7.68303 -0.0324511 -3.84116 
-0.0324511 7.68605 -2.15628 
-3.84116 -2.15628 7.04543 
8.86587 0.159557 -0.351944 
0.159557 8.91779 3.18039 
-0.351944 3.18039 8.90854 
8.90942 -0.0694933 -0.275831 
-0.0694933 9.05128 3.18299 
-0.275831 3.18299 8.7315 
8.47425 -0.447949 -0.32253 
-0.447949 8.884 3.27804 
-0.32253 3.27804 9.33395 
8.96452 0.0697737 -0.312409 
0.0697737 8.89558 3.25403 
-0.312409 3.25403 8.8321 
6.73771 -0.12137 3.90095 
-0.12137 6.04548 -2.27804 
3.90095 -2.27804 6.05412 
6.68769 0.386703 3.57858 
0.386703 5.82067 -2.13079 
3.57858 -2.13079 6.32896 
6.14491 0.185099 3.26614 
0.185099 6.25574 -2.66213 
3.26614 -2.66213 6.43668 
6.3561 -0.0704445 3.21634 
-0.0704445 6.35253 -2.7109 
3.21634 -2.7109 6.12869 
4.66068 0.0190257 -1.56242 
0.0190257 4.40943 3.12086 
-1.56242 3.12086 4.02134 
4.37796 -0.00483154 -1.75406 
-0.00483154 4.39298 2.93437 
-1.75406 2.93437 4.32051 
4.4757 0.103896 -1.54625 
0.103896 4.38092 3.01611 
-1.54625 3.01611 4.23484 
4.49712 0.039906 -1.74043 
0.039906 4.43711 2.99687 
-1.74043 2.99687 4.15723 
6.6116 0.0969854 -3.17722 
0.0969854 6.62204 3.25875 
-3.17722 3.25875 6.75834 
6.55003 0.209005 -3.11312 
0.209005 6.94287 3.23503 
-3.11312 3.23503 6.49909 
7.02675 -0.0932135 -2.9346 
-0.0932135 8.11556 3.21799 
-2.9346 3.21799 4.84967 
5.78614 -0.442963 -2.39816 
-0.442963 6.26218 2.74477 
-2.39816 2.74477 7.94366 
4.71384 -0.0660025 2.98111 
-0.0660025 5.00163 -2.06641 
2.98111 -2.06641 5.34053 
5.16857 0.130997 2.87163 
0.130997 4.99596 -1.75618 
2.87163 -1.75618 4.89147 
5.07193 0.0645707 3.08537 
0.0645707 4.99971 -2.1163 
3.08537 -2.1163 4.98436 
5.13199 0.086858 3.07886 
0.086858 4.81234 -2.09065 
3.07886 -2.09065 5.11167 
9.53364 0.0108495 -0.570177 
0.0108495 9.62712 0.287702 
-0.570177 0.287702 9.52717 
9.31336 -0.188978 -0.720503 
-0.188978 9.17644 0.318188 
-0.720503 0.318188 10.1981 
9.31001 -0.117175 -0.519485 
-0.117175 9.52338 0.183193 
-0.519485 0.183193 9.85454 
9.65614 0.0891594 -0.5496 
0.0891594 9.67507 0.23573 
-0.5496 0.23573 9.35672 
1.54134 0.176196 -3.94379 
0.176196 1.80321 1.1917 
-3.94379 1.1917 1.21618 
1.5938 0.0593979 -4.16127 
0.0593979 1.46539 0.823936 
-4.16127 0.823936 1.50155 
1.57167 0.09188 -4.05108 
0.09188 1.49048 1.00961 
-4.05108 1.00961 1.49858 
1.38154 0.192832 -4.28502 
0.192832 1.52003 0.77058 
-4.28502 0.77058 1.65916 
0.661641 -0.00699422 -2.43525 
-0.00699422 0.69408 0.604612 
-2.43525 0.604612 0.0568494 
0.832644 -0.00337228 -2.466 
-0.00337228 0.48375 0.380882 
-2.466 0.380882 0.0961765 
0.484955 -0.0474353 -2.44927 
-0.0474353 0.504795 0.47898 
-2.44927 0.47898 0.422821 
0.372002 -0.00738134 -2.50618 
-0.00738134 0.442028 0.518703 
-2.50618 0.518703 0.59854 
6.56491 0.192977 -3.83071 
0.192977 6.92782 2.67715 
-3.83071 2.67715 7.3885 
7.43318 -0.297718 -3.92681 
-0.297718 7.16052 2.5103 
-3.92681 2.5103 6.28752 
6.93055 0.062036 -3.77591 
0.062036 6.9647 2.51684 
-3.77591 2.51684 6.98598 
6.83498 -0.00517107 -3.1764 
-0.00517107 7.1263 2.53335 
-3.1764 2.53335 6.91995 
1.26538 -0.363359 0.453837 
-0.363359 1.37753 -1.17469 
0.453837 -1.17469 0.405284 
1.12153 0.166169 0.232936 
0.166169 1.07741 -1.47688 
0.232936 -1.47688 0.849253 
1.00295 0.098069 0.0877672 
0.098069 1.19509 -1.38705 
0.0877672 -1.38705 0.850153 
0.977165 -0.316575 -0.373561 
-0.316575 0.748314 -1.6132 
-0.373561 -1.6132 1.32271 
6.387 0.115796 1.87145 
0.115796 6.59247 4.15167 
1.87145 4.15167 6.62042 
7.45463 0.178092 1.63736 
0.178092 6.69628 3.7354 
1.63736 3.7354 5.44898 
6.64304 -0.24691 2.14492 
-0.24691 6.54135 4.29115 
2.14492 4.29115 6.41549 
6.24563 0.12742 1.68269 
0.12742 5.95983 3.59427 
1.68269 3.59427 7.39443 
7.27469 -0.105078 -2.61289 
-0.105078 7.07512 -3.64622 
-2.61289 -3.64622 7.17616 
6.76331 -0.137606 -3.2689 
-0.137606 6.68044 -3.34952 
-3.2689 -3.34952 8.08222 
6.85589 0.19813 -3.05676 
0.19813 7.31788 -3.58372 
-3.05676 -3.58372 7.3522 
7.32312 -0.409461 -2.00464 
-0.409461 7.73478 -3.33012 
-2.00464 -3.33012 6.46807 
8.05945 -0.0544102 -2.53184 
-0.0544102 8.18196 -1.53613 
-2.53184 -1.53613 8.51629 
8.46394 -0.265071 -2.61877 
-0.265071 7.98323 -1.79408 
-2.61877 -1.79408 8.31053 
8.62788 0.0401945 -2.73856 
0.0401945 8.47192 -1.96321 
-2.73856 -1.96321 7.6579 
8.31486 -0.00265308 -2.63809 
-0.00265308 8.0841 -1.76356 
-2.63809 -1.76356 8.35874 
5.1604 0.234612 1.56427 
0.234612 5.32484 0.725566 
1.56427 0.725566 4.98626 
5.3653 0.167594 1.49455 
0.167594 5.31933 0.278826 
1.49455 0.278826 4.78688 
5.02159 0.218572 1.63252 
0.218572 5.25222 1.05327 
1.63252 1.05327 5.19769 
5.14965 0.17755 1.55368 
0.17755 5.30513 0.561392 
1.55368 0.561392 5.01673 
2.73223 0.198817 -3.62498 
0.198817 2.65132 -2.1999 
-3.62498 -2.1999 2.16524 
2.30422 -0.0900177 -3.48702 
-0.0900177 2.48153 -1.92147 
-3.48702 -1.92147 2.76303 
2.35822 0.00783079 -3.68227 
0.00783079 2.40667 -1.97177 
-3.68227 -1.97177 2.78389 
2.95406 0.162671 -3.77303 
0.162671 2.45447 -1.87422 
-3.77303 -1.87422 2.14025 
6.44156 -0.0400687 1.40786 
-0.0400687 6.68885 3.08857 
1.40786 3.08857 6.57486 
6.71995 0.0763645 1.46135 
0.0763645 6.67198 3.21358 
1.46135 3.21358 6.31334 
6.556 -0.0626087 1.58279 
-0.0626087 6.62595 3.21502 
1.58279 3.21502 6.52332 
6.46762 0.0680104 1.45428 
0.0680104 6.48675 3.10918 
1.45428 3.10918 6.7509 
3.555 -0.0911916 0.453248 
-0.0911916 3.37529 3.05967 
0.453248 3.05967 3.25837 
3.36311 0.0235445 0.424938 
0.0235445 3.33243 3.09042 
0.424938 3.09042 3.49312 
3.45644 -0.0236923 0.6025 
-0.0236923 3.38175 2.96415 
0.6025 2.96415 3.35047 
3.66053 0.165777 0.560957 
0.165777 3.55028 2.71993 
0.560957 2.71993 2.97785 
6.2113 0.0259281 -3.37134 
0.0259281 6.13545 -2.25972 
-3.37134 -2.25972 6.3449 
6.28309 -0.0484031 -3.19832 
-0.0484031 6.33387 -2.53524 
-3.19832 -2.53524 6.0747 
5.99154 0.217804 -3.73361 
0.217804 6.44003 -2.49496 
-3.73361 -2.49496 6.26009 
6.01376 -0.052321 -3.43065 
-0.052321 6.5691 -2.78709 
-3.43065 -2.78709 6.10881 
6.62757 -0.0586803 -4.26763 
-0.0586803 6.3942 1.89064 
-4.26763 1.89064 6.78002 
6.38213 -0.00123406 -4.08685 
-0.00123406 6.21178 1.44759 
-4.08685 1.44759 7.20788 
6.56356 0.106275 -4.11773 
0.106275 6.65602 1.88681 
-4.11773 1.88681 6.58222 
6.85515 -0.0660053 -3.69045 
-0.0660053 7.22524 2.02609 
-3.69045 2.02609 5.72141 
8.80278 0.233119 1.819 
0.233119 8.5521 0.812547 
1.819 0.812547 9.29632 
8.8595 0.403618 2.57924 
0.403618 9.3065 1.06177 
2.57924 1.06177 8.48521 
8.85939 0.0661239 2.21576 
0.0661239 8.78569 0.848337 
2.21576 0.848337 9.00613 
8.95943 -0.101772 2.06624 
-0.101772 8.90887 0.951262 
2.06624 0.951262 8.78291 
8.43731 -0.017263 -0.575187 
-0.017263 8.60742 -4.34912 
-0.575187 -4.34912 8.50221 
8.57247 0.0800608 -0.387676 
0.0800608 8.42086 -4.44536 
-0.387676 -4.44536 8.5536 
8.30444 0.0711631 -0.691795 
0.0711631 8.42385 -4.22116 
-0.691795 -4.22116 8.81864 
8.5561 0.165089 -0.227752 
0.165089 8.76409 -4.51492 
-0.227752 -4.51492 8.22674 
2.93307 -0.0987666 4.70782 
-0.0987666 2.25726 0.752956 
4.70782 0.752956 1.1395 
2.20512 -0.0641856 4.4325 
-0.0641856 2.01132 0.343475 
4.4325 0.343475 2.11339 
1.53942 0.0216439 4.72982 
0.0216439 2.16246 0.567571 
4.72982 0.567571 2.62795 
1.96941 -0.099077 3.82088 
-0.099077 2.15616 0.493174 
3.82088 0.493174 2.20426 
8.8076 -0.0786082 -0.656419 
-0.0786082 8.95687 4.0442 
-0.656419 4.0442 9.44909 
9.16364 0.0211865 -0.639922 
0.0211865 8.84808 4.22701 
-0.639922 4.22701 9.20183 
9.08581 -0.017482 -0.698533 
-0.017482 9.02676 4.17854 
-0.698533 4.17854 9.10099 
9.10594 -0.0440416 -0.747599 
-0.0440416 9.16331 4.33582 
-0.747599 4.33582 8.9443 
8.75293 0.178121 3.1518 
0.178121 8.39295 3.11166 
3.1518 3.11166 8.72372 
8.58101 -0.0295407 3.20868 
-0.0295407 8.48669 3.31165 
3.20868 3.31165 8.80191 
9.04074 -0.136439 2.97675 
-0.136439 8.61422 2.81942 
2.97675 2.81942 8.21464 
8.77398 0.0101969 3.20692 
0.0101969 8.27182 3.19271 
3.20692 3.19271 8.82381 
5.55917 -0.164082 2.84779 
-0.164082 5.43466 -1.42303 
2.84779 -1.42303 5.23269 
5.61507 -0.0972324 2.9081 
-0.0972324 5.09402 -1.61189 
2.9081 -1.61189 5.51743 
5.4952 -0.115889 2.80725 
-0.115889 5.40562 -1.31429 
2.80725 -1.31429 5.3257 
5.43801 -0.104535 2.55922 
-0.104535 5.12073 -1.52581 
2.55922 -1.52581 5.66777 
0.588603 0.294973 -2.76595 
0.294973 0.444266 1.23819 
-2.76595 1.23819 0.247227 
0.359916 0.139682 -2.81726 
0.139682 0.546329 1.27445 
-2.81726 1.27445 0.37385 
1.17996 0.290658 -2.66735 
0.290658 0.688692 1.55134 
-2.66735 1.55134 -0.58856 
0.338451 -0.0242598 -2.76353 
-0.0242598 0.321244 1.24907 
-2.76353 1.24907 0.620401 
4.07235 -0.0307043 -2.07072 
-0.0307043 4.49233 2.91334 
-2.07072 2.91334 5.24672 
4.36771 0.056204 -1.77141 
0.056204 4.57773 2.7154 
-1.77141 2.7154 4.86597 
4.95771 0.107414 -1.60189 
0.107414 4.93877 2.65882 
-1.60189 2.65882 3.91493 
4.40605 0.31515 -1.70052 
0.31515 4.60944 2.64694 
-1.70052 2.64694 4.79591 
7.57131 -0.00140735 -2.7746 
-0.00140735 7.53815 -0.653805 
-2.7746 -0.653805 7.17234 
7.81061 0.0288913 -2.55167 
0.0288913 7.38684 -0.725074 
-2.55167 -0.725074 7.08435 
7.46942 0.00347228 -2.82121 
0.00347228 7.58409 -0.712171 
-2.82121 -0.712171 7.22829 
7.42206 0.0565434 -2.81263 
0.0565434 7.47379 -0.640338 
-2.81263 -0.640338 7.38594 
7.0915 0.0268023 -0.309154 
0.0268023 6.89472 3.08755 
-0.309154 3.08755 7.00246 
7.26696 0.066613 -0.102094 
0.066613 7.11797 3.08123 
-0.102094 3.08123 6.60375 
7.05789 0.0307794 -0.361915 
0.0307794 6.93815 3.07206 
-0.361915 3.07206 6.99264 
6.96926 0.154899 -0.180822 
0.154899 6.50451 2.75924 
-0.180822 2.75924 7.51491 
4.40393 0.0162002 -4.42343 
0.0162002 4.55276 -0.680819 
-4.42343 -0.680819 5.26529 
4.46413 -0.319417 -4.32113 
-0.319417 4.65469 -0.184718 
-4.32113 -0.184718 5.10316 
5.45129 -0.293391 -4.66591 
-0.293391 4.47221 0.168753 
-4.66591 0.168753 4.29847 
4.74129 -0.0443095 -4.54447 
-0.0443095 4.62763 -0.532244 
-4.54447 -0.532244 4.85305 
3.02816 -0.155447 -2.16735 
-0.155447 3.14733 3.89437 
-2.16735 3.89437 2.91916 
2.67499 -0.129979 -2.63532 
-0.129979 3.46592 3.43433 
-2.63532 3.43433 2.95373 
2.85151 0.198242 -2.71772 
0.198242 2.99992 3.40223 
-2.71772 3.40223 3.24322 
2.88489 0.114738 -2.17533 
0.114738 3.10766 3.69648 
-2.17533 3.69648 3.10209 
6.46529 0.207591 2.224 
0.207591 6.52862 0.703366 
2.224 0.703366 5.12172 
6.36457 -0.0212017 1.88196 
-0.0212017 5.79522 0.906282 
1.88196 0.906282 5.95583 
5.47557 0.357915 1.65913 
0.357915 5.94715 0.38791 
1.65913 0.38791 6.6929 
6.09801 0.00575882 1.77382 
0.00575882 6.00118 0.691519 
1.77382 0.691519 6.01643 
7.59428 0.258887 -2.3348 
0.258887 7.25158 3.89508 
-2.3348 3.89508 7.15247 
7.45699 -0.489169 -2.5482 
-0.489169 7.98 3.25586 
-2.5482 3.25586 6.56134 
7.34711 0.244158 -2.34867 
0.244158 7.19591 3.36538 
-2.34867 3.36538 7.45531 
7.36577 0.129213 -2.07119 
0.129213 6.87535 3.52042 
-2.07119 3.52042 7.75721 
1.74923 -0.049482 -4.03945 
-0.049482 1.61141 -0.707304 
-4.03945 -0.707304 1.59619 
1.7405 -0.0344571 -4.27816 
-0.0344571 1.54978 -0.628913 
-4.27816 -0.628913 1.66655 
1.91737 0.0317409 -4.08481 
0.0317409 1.66679 -0.820194 
-4.08481 -0.820194 1.37267 
1.82934 0.0371369 -4.26233 
0.0371369 1.63247 -0.753034 
-4.26233 -0.753034 1.49502 
3.35421 -1.28656 3.87717 
-1.28656 3.34895 -2.29793 
3.87717 -2.29793 2.02012 
2.59852 0.436657 4.43881 
0.436657 2.42313 -1.81575 
4.43881 -1.81575 3.70163 
2.51811 0.34616 4.14495 
0.34616 2.90606 -2.12681 
4.14495 -2.12681 3.2991 
2.58861 0.58488 3.65512 
0.58488 3.32224 -1.23575 
3.65512 -1.23575 2.81243 
3.45659 -0.0476711 0.362758 
-0.0476711 3.40707 3.40898 
0.362758 3.40898 3.40433 
3.31396 -0.00404675 0.297958 
-0.00404675 3.34531 3.48126 
0.297958 3.48126 3.60872 
3.46991 -0.0388361 0.245583 
-0.0388361 3.43478 3.43577 
0.245583 3.43577 3.36331 
3.8275 -0.183687 0.21559 
-0.183687 3.57388 3.62625 
0.21559 3.62625 2.86662 
3.08483 -0.0155217 -0.163871 
-0.0155217 3.11678 3.68079 
-0.163871 3.68079 3.26337 
3.66327 -0.124357 -0.363654 
-0.124357 3.27311 3.87372 
-0.363654 3.87372 2.5286 
3.13561 -0.0330169 -0.30215 
-0.0330169 3.20239 3.67736 
-0.30215 3.67736 3.12698 
3.13488 -0.0378882 -0.268523 
-0.0378882 3.25079 3.66724 
-0.268523 3.66724 3.07932 
7.4646 -0.241486 -2.42727 
-0.241486 7.64875 3.74007 
-2.42727 3.74007 7.58033 
7.61321 -0.119192 -2.35187 
-0.119192 7.6015 3.64323 
-2.35187 3.64323 7.47897 
7.97079 0.535705 -2.08375 
0.535705 8.32761 3.03406 
-2.08375 3.03406 6.39528 
6.38859 0.144807 -2.52838 
0.144807 7.27359 3.42883 
-2.52838 3.42883 9.0315 
4.28982 0.18002 1.36754 
0.18002 4.41187 2.80103 
1.36754 2.80103 4.31403 
4.08164 0.122686 1.07166 
0.122686 3.97202 2.90573 
1.07166 2.90573 4.96207 
4.51986 0.0719067 1.65763 
0.0719067 4.59634 2.87463 
1.65763 2.87463 3.89952 
4.27525 0.234174 1.47337 
0.234174 4.38508 2.8285 
1.47337 2.8285 4.3554 
6.51574 0.119907 -2.03138 
0.119907 6.61145 -4.19576 
-2.03138 -4.19576 6.28994 
6.72084 -0.0906978 -1.97853 
-0.0906978 6.48151 -3.96439 
-1.97853 -3.96439 6.21478 
6.32232 0.156529 -2.25642 
0.156529 5.91969 -4.07399 
-2.25642 -4.07399 7.17512 
7.10586 -0.296453 -1.49018 
-0.296453 6.92666 -3.22541 
-1.49018 -3.22541 5.38461 
1.61678 0.167894 1.82897 
0.167894 1.71812 -0.806594 
1.82897 -0.806594 1.98175 
1.3079 0.0183051 1.8835 
0.0183051 1.59354 -1.25008 
1.8835 -1.25008 2.4152 
1.64124 0.191995 1.74919 
0.191995 1.87424 -0.622847 
1.74919 -0.622847 1.80116 
1.70954 0.120816 1.84957 
0.120816 1.67358 -0.976261 
1.84957 -0.976261 1.93352 
9.76582 -0.0329336 3.03693 
-0.0329336 9.69918 -1.78208 
3.03693 -1.78208 9.47414 
9.65736 -0.271287 3.24546 
-0.271287 9.42687 -1.68617 
3.24546 -1.68617 9.8549 
9.33626 -0.0732971 3.13222 
-0.0732971 9.45572 -1.538 
3.13222 -1.538 10.1472 
9.79697 0.0952721 3.14605 
0.0952721 9.86531 -1.81057 
3.14605 -1.81057 9.27685 
7.34491 0.170988 3.17174 
0.170988 7.23667 -1.93124 
3.17174 -1.93124 7.07283 
7.03759 -0.122658 3.15284 
-0.122658 7.18197 -1.74594 
3.15284 -1.74594 7.43484 
7.53926 -0.0861836 2.71558 
-0.0861836 6.79715 -1.34915 
2.71558 -1.34915 7.318 
7.29113 -0.243819 2.95705 
-0.243819 6.9981 -1.11712 
2.95705 -1.11712 7.36517 
9.79343 -0.00428346 0.697103 
-0.00428346 9.44209 -0.940045 
0.697103 -0.940045 9.74289 
9.8335 -0.092518 0.809057 
-0.092518 9.59897 -0.947488 
0.809057 -0.947488 9.54593 
9.56757 0.161009 0.890239 
0.161009 9.17033 -0.752428 
0.890239 -0.752428 10.2405 
9.82032 -0.0302168 0.713788 
-0.0302168 9.79504 -0.987461 
0.713788 -0.987461 9.36305 
0.52923 -0.0682416 -2.30978 
-0.0682416 0.627075 0.490926 
-2.30978 0.490926 0.133952 
0.483373 0.00607746 -2.23397 
0.00607746 0.557294 0.410328 
-2.23397 0.410328 0.249591 
0.544169 -0.0294995 -2.16983 
-0.0294995 0.685026 0.574248 
-2.16983 0.574248 0.061062 
0.387472 -0.00514249 -2.20583 
-0.00514249 0.40573 0.479259 
-2.20583 0.479259 0.497055 
8.58096 -0.00943903 0.0240618 
-0.00943903 8.64086 -0.465742 
0.0240618 -0.465742 7.529 
8.16907 0.123073 -0.251032 
0.123073 8.33462 -0.447848 
-0.251032 -0.447848 8.24713 
7.97287 -0.0719708 -0.456522 
-0.0719708 8.18913 -0.283286 
-0.456522 -0.283286 8.58882 
8.26463 0.104368 -0.154726 
0.104368 8.24954 -0.399509 
-0.154726 -0.399509 8.23665 
3.09375 -0.329917 -4.00827 
-0.329917 2.59137 -1.71669 
-4.00827 -1.71669 3.72501 
3.81381 -0.249088 -3.6806 
-0.249088 2.98852 -2.90326 
-3.6806 -2.90326 2.60781 
3.14312 0.0637641 -3.68635 
0.0637641 3.12016 -2.52055 
-3.68635 -2.52055 3.14685 
3.23523 0.216166 -3.7331 
0.216166 3.0151 -2.21005 
-3.7331 -2.21005 3.15981 
7.77576 -0.00456772 -1.79984 
-0.00456772 7.7083 2.71099 
-1.79984 2.71099 7.35226 
7.75596 0.158445 -1.92194 
0.158445 7.49573 2.69764 
-1.92194 2.69764 7.58463 
7.68622 -0.110081 -1.92682 
-0.110081 7.84814 2.86386 
-1.92682 2.86386 7.30196 
7.42158 0.131395 -1.79215 
0.131395 7.47688 2.87194 
-1.79215 2.87194 7.93787 
1.90263 0.0368506 -2.99386 
0.0368506 2.1161 -1.8203 
-2.99386 -1.8203 2.40788 
1.96024 -0.0287388 -2.83846 
-0.0287388 2.19478 -1.81369 
-2.83846 -1.81369 2.27158 
2.18142 -0.0458492 -2.97528 
-0.0458492 2.18427 -1.8425 
-2.97528 -1.8425 2.06091 
1.93997 0.0225356 -2.83152 
0.0225356 2.04716 -1.53905 
-2.83152 -1.53905 2.43947 
7.03881 0.0357676 2.00366 
0.0357676 7.1709 1.19683 
2.00366 1.19683 6.99174 
7.06833 0.00928361 2.05348 
0.00928361 7.32812 1.31676 
2.05348 1.31676 6.80499 
7.08736 0.0890905 2.05403 
0.0890905 7.11351 1.09274 
2.05403 1.09274 7.00057 
7.10267 0.0233991 2.07882 
0.0233991 6.64748 1.05858 
2.07882 1.05858 7.4513 
4.92953 -0.0599337 1.36838 
-0.0599337 4.61224 4.42596 
1.36838 4.42596 5.44281 
5.37228 0.0510254 1.41795 
0.0510254 4.72433 4.35355 
1.41795 4.35355 4.88797 
4.8908 0.105086 1.54281 
0.105086 5.52578 4.47674 
1.54281 4.47674 4.568 
5.26939 0.0268623 1.47434 
0.0268623 5.14202 3.84334 
1.47434 3.84334 4.57318 
4.66603 0.0453443 -1.67735 
0.0453443 4.34979 -3.97914 
-1.67735 -3.97914 4.41152 
4.21231 -0.0637697 -1.6686 
-0.0637697 4.1759 -3.65223 
-1.6686 -3.65223 5.03912 
4.41386 0.142087 -1.45406 
0.142087 5.00403 -3.82411 
-1.45406 -3.82411 4.00945 
4.61478 0.000112536 -1.51074 
0.000112536 4.21578 -3.83443 
-1.51074 -3.83443 4.59678 
4.28795 0.060413 1.81348 
0.060413 4.09798 1.46419 
1.81348 1.46419 4.23996 
4.29019 -0.0914458 1.87272 
-0.0914458 3.9501 1.44719 
1.87272 1.44719 4.3856 
4.22301 0.000200454 1.81575 
0.000200454 4.33878 1.51337 
1.81575 1.51337 4.0641 
3.97309 0.00352007 1.82447 
0.00352007 3.94968 1.27581 
1.82447 1.27581 4.70311 
1.40535 0.499291 -2.25273 
0.499291 1.33652 2.26908 
-2.25273 2.26908 0.738877 
1.11503 -0.173438 -2.3543 
-0.173438 1.19191 2.25736 
-2.3543 2.25736 1.1738 
1.08871 0.0487079 -2.35029 
0.0487079 1.08978 2.14455 
-2.35029 2.14455 1.30225 
1.14473 -0.00301872 -2.50916 
-0.00301872 1.04856 2.26101 
-2.50916 2.26101 1.28746 
2.61938 0.000948631 -0.298643 
0.000948631 2.65358 4.29796 
-0.298643 4.29796 3.02347 
2.7212 0.133779 -0.157742 
0.133779 2.94251 4.40884 
-0.157742 4.40884 2.63271 
2.92381 0.283006 -0.175333 
0.283006 2.88112 4.6075 
-0.175333 4.6075 2.4915 
2.75234 0.0526792 -0.295201 
0.0526792 2.66704 4.42862 
-0.295201 4.42862 2.87704 
8.6901 0.0657107 -1.88112 
0.0657107 8.73274 -2.87012 
-1.88112 -2.87012 8.94575 
8.51037 -0.0145988 -1.73529 
-0.0145988 9.4732 -2.85187 
-1.73529 -2.85187 8.38501 
8.64626 0.0064072 -1.76632 
0.0064072 8.81077 -2.80892 
-1.76632 -2.80892 8.91155 
8.96598 0.0231765 -1.83998 
0.0231765 8.63868 -2.57931 
-1.83998 -2.57931 8.76392 
5.43035 0.0695628 -0.116902 
0.0695628 5.36729 0.837293 
-0.116902 0.837293 5.25609 
5.30173 -0.0272611 -0.01804 
-0.0272611 5.29899 0.850147 
-0.01804 0.850147 5.45302 
5.40431 0.00727004 0.00603431 
0.00727004 5.45877 0.923986 
0.00603431 0.923986 5.19067 
5.63171 -0.0389061 -0.0670878 
-0.0389061 5.66365 0.891904 
-0.0670878 0.891904 4.75839 
1.04483 -0.0587562 4.30809 
-0.0587562 0.979737 -0.436825 
4.30809 -0.436825 0.754139 
1.18958 0.0208068 4.30003 
0.0208068 0.748044 -0.424427 
4.30003 -0.424427 0.841085 
1.08609 -0.120266 3.89388 
-0.120266 1.61445 -0.621296 
3.89388 -0.621296 0.0781654 
0.792805 -0.0519463 4.33019 
-0.0519463 0.872826 -0.602839 
4.33019 -0.602839 1.11308 
5.39686 0.0725029 -3.14044 
0.0725029 4.98963 -1.49577 
-3.14044 -1.49577 6.13981 
5.3747 0.0644012 -2.52505 
0.0644012 5.77423 -1.58989 
-2.52505 -1.58989 5.37737 
5.22309 0.0307299 -2.66521 
0.0307299 5.69268 -1.3915 
-2.66521 -1.3915 5.61053 
5.36632 0.0769971 -2.75891 
0.0769971 5.54537 -1.44988 
-2.75891 -1.44988 5.6146 
3.66318 0.267524 4.20581 
0.267524 3.32302 2.23465 
4.20581 2.23465 2.83463 
3.16644 -0.082817 4.07166 
-0.082817 3.44674 2.02858 
4.07166 2.02858 3.20765 
2.794 -0.290545 4.16715 
-0.290545 3.10529 1.75874 
4.16715 1.75874 3.92154 
3.26579 0.197905 3.69755 
0.197905 3.82018 1.81145 
3.69755 1.81145 2.73486 
9.52463 0.104935 -3.43728 
0.104935 9.32917 -1.80796 
-3.43728 -1.80796 10.1311 
9.70072 0.0271882 -3.5838 
0.0271882 9.69364 -1.75282 
-3.5838 -1.75282 9.59054 
9.63503 0.0782663 -3.59787 
0.0782663 9.59321 -1.81232 
-3.59787 -1.81232 9.75667 
9.77042 -0.0259674 -3.65396 
-0.0259674 9.74729 -1.78522 
-3.65396 -1.78522 9.4672 
3.26751 -0.00271318 -0.00363073 
-0.00271318 3.09007 -2.158 
-0.00363073 -2.158 3.09602 
3.43827 0.0111389 -0.371937 
0.0111389 3.11117 -1.90072 
-0.371937 -1.90072 2.90416 
3.19371 -0.152153 0.15166 
-0.152153 3.03058 -2.13414 
0.15166 -2.13414 3.22932 
3.24598 0.224207 0.0785441 
0.224207 3.15748 -2.06039 
0.0785441 -2.06039 3.05014 
5.38216 -0.00239365 -0.557307 
-0.00239365 5.32937 3.06864 
-0.557307 3.06864 5.73919 
5.37087 -0.0524892 -0.64091 
-0.0524892 5.43954 2.97204 
-0.64091 2.97204 5.64032 
5.2747 0.0155669 -0.754373 
0.0155669 5.24215 2.74405 
-0.754373 2.74405 5.93388 
5.38299 0.00463244 -0.689762 
0.00463244 5.89455 2.87113 
-0.689762 2.87113 5.17318 
1.80682 0.00885069 -1.56918 
0.00885069 1.81951 3.95846 
-1.56918 3.95846 1.75841 
1.65818 0.0608985 -1.58099 
0.0608985 1.58949 4.04238 
-1.58099 4.04238 2.13707 
1.88552 -0.219 -1.49691 
-0.219 1.94824 3.814 
-1.49691 3.814 1.55099 
1.66275 0.0895357 -1.74515 
0.0895357 1.75518 3.93167 
-1.74515 3.93167 1.96681 
0.952882 -0.355156 1.79156 
-0.355156 1.44697 -0.627983 
1.79156 -0.627983 0.764337 
1.1927 0.041382 1.85182 
0.041382 0.939014 -0.558043 
1.85182 -0.558043 1.03248 
0.876452 -0.14634 1.76493 
-0.14634 1.05074 -0.605543 
1.76493 -0.605543 1.237 
0.925572 -0.00709004 1.94516 
-0.00709004 1.01754 -0.448386 
1.94516 -0.448386 1.22108 
8.69152 0.320426 -4.69539 
0.320426 8.55968 0.620164 
-4.69539 0.620164 6.64197 
8.21782 -0.0126195 -3.4104 
-0.0126195 7.86235 1.10395 
-3.4104 1.10395 7.81301 
7.21874 -0.178658 -4.46491 
-0.178658 7.18859 0.941527 
-4.46491 0.941527 9.48585 
8.13263 -0.119596 -3.89375 
-0.119596 7.90258 0.575585 
-3.89375 0.575585 7.85797 
3.68978 -0.122366 -0.46818 
-0.122366 3.94144 3.90171 
-0.46818 3.90171 4.43968 
3.94192 -0.00354715 -0.617895 
-0.00354715 3.98901 3.57852 
-0.617895 3.57852 4.13998 
4.05431 -0.0408357 -0.550729 
-0.0408357 3.95852 3.72511 
-0.550729 3.72511 4.05807 
4.09112 -0.0389424 -0.69238 
-0.0389424 4.07612 3.57113 
-0.69238 3.57113 3.90367 
7.93939 -0.257594 2.07069 
-0.257594 8.13867 1.11297 
2.07069 1.11297 7.76217 
7.9928 0.0561528 2.05693 
0.0561528 7.87384 1.12792 
2.05693 1.12792 7.97359 
8.13008 -0.00935382 1.85112 
-0.00935382 7.99677 1.24181 
1.85112 1.24181 7.71337 
8.24897 -0.0353495 1.63697 
-0.0353495 7.91379 0.948098 
1.63697 0.948098 7.67747 
1.37804 0.0799305 3.7249 
0.0799305 1.35932 -0.406788 
3.7249 -0.406788 1.26555 
1.51714 0.182208 3.44538 
0.182208 1.37064 -0.264852 
3.44538 -0.264852 1.11514 
1.38549 0.154019 3.805 
0.154019 1.07751 -0.352281 
3.805 -0.352281 1.53991 
1.38172 0.0560483 3.51315 
0.0560483 1.21212 -0.290054 
3.51315 -0.290054 1.40907 
3.82387 0.0579964 -1.7055 
0.0579964 3.91828 -3.86337 
-1.7055 -3.86337 3.71172 
3.7972 -0.152036 -1.97641 
-0.152036 3.81176 -3.90508 
-1.97641 -3.90508 3.8449 
3.66559 -0.0810023 -2.18251 
-0.0810023 4.29765 -3.75372 
-2.18251 -3.75372 3.49062 
3.72114 -0.0290683 -1.43088 
-0.0290683 3.65576 -3.81627 
-1.43088 -3.81627 4.07696 
6.6817 -0.0460004 3.97947 
-0.0460004 6.67607 1.9865 
3.97947 1.9865 6.6574 
7.24843 -0.00314818 3.48749 
-0.00314818 6.41093 2.03319 
3.48749 2.03319 6.35581 
6.511 -0.0630049 3.6607 
-0.0630049 6.73296 2.0589 
3.6607 2.0589 6.77121 
5.79126 -0.0517303 3.33448 
-0.0517303 6.76752 2.19395 
3.33448 2.19395 7.4564 
4.55656 -0.0155876 -3.46904 
-0.0155876 5.02956 -2.79561 
-3.46904 -2.79561 5.0431 
5.21004 -0.147165 -3.37522 
-0.147165 5.39501 -2.87896 
-3.37522 -2.87896 4.02417 
4.62546 0.119635 -3.47469 
0.119635 4.82523 -2.59904 
-3.47469 -2.59904 5.17853 
4.50778 -0.175395 -2.71798 
-0.175395 4.51584 -2.70373 
-2.71798 -2.70373 5.6056 
1.16329 0.0254343 3.30527 
0.0254343 0.646473 1.48359 
3.30527 1.48359 -0.700599 
0.648984 0.263981 2.94283 
0.263981 0.273357 1.31557 
2.94283 1.31557 0.186825 
0.525868 0.143222 2.96706 
0.143222 0.429184 1.2801 
2.96706 1.2801 0.154114 
0.515626 0.0922678 2.91732 
0.0922678 0.0847267 0.883679 
2.91732 0.883679 0.508814 
1.4789 -0.118206 -3.09461 
-0.118206 1.5653 3.13553 
-3.09461 3.13553 1.60256 
1.72061 0.0268462 -3.16649 
0.0268462 1.86811 2.66548 
-3.16649 2.66548 1.05803 
1.50327 0.0239573 -3.23982 
0.0239573 1.62218 3.05357 
-3.23982 3.05357 1.5213 
1.13986 0.0464128 -2.94589 
0.0464128 1.15993 3.3047 
-2.94589 3.3047 2.34696 
9.509 -0.159772 -0.479345 
-0.159772 9.65599 -1.54432 
-0.479345 -1.54432 9.58998 
9.41249 -0.0415265 -0.44636 
-0.0415265 9.77124 -1.57343 
-0.44636 -1.57343 9.57124 
9.2292 -0.132013 -0.283001 
-0.132013 9.17488 -1.51473 
-0.283001 -1.51473 10.3509 
9.69495 -0.0372303 -0.559482 
-0.0372303 9.72732 -1.48683 
-0.559482 -1.48683 9.3327 
8.73814 0.00586216 -0.988645 
0.00586216 8.87869 3.56754 
-0.988645 3.56754 8.87295 
8.87245 0.11939 -1.10314 
0.11939 8.53901 3.43451 
-1.10314 3.43451 9.07832 
8.74629 -0.0324252 -1.00244 
-0.0324252 8.90785 3.48082 
-1.00244 3.48082 8.83564 
9.25396 0.100583 -0.747885 
0.100583 8.67442 3.63865 
-0.747885 3.63865 8.5614 
8.4789 0.0127154 -4.25069 
0.0127154 8.41948 -0.979155 
-4.25069 -0.979155 8.44084 
8.36083 -0.0452824 -4.2996 
-0.0452824 8.52724 -1.12435 
-4.2996 -1.12435 8.45116 
8.24311 0.0969915 -3.96017 
0.0969915 8.16383 -0.824423 
-3.96017 -0.824423 8.93228 
8.72828 -0.143837 -4.35876 
-0.143837 8.61916 -1.22534 
-4.35876 -1.22534 7.99178 
7.9954 0.0453661 2.16583 
0.0453661 7.71032 4.15553 
2.16583 4.15553 7.31189 
7.10293 -0.0756371 2.39785 
-0.0756371 7.06776 3.65026 
2.39785 3.65026 8.84692 
7.55287 0.177924 2.06097 
0.177924 7.75673 3.79721 
2.06097 3.79721 7.70801 
7.38274 0.0402613 2.18512 
0.0402613 7.77606 3.89353 
2.18512 3.89353 7.85881 
8.82818 -0.103296 0.382993 
-0.103296 8.71916 2.34763 
0.382993 2.34763 9.0235 
9.48541 0.0649218 0.749478 
0.0649218 8.55376 1.95022 
0.749478 1.95022 8.53167 
9.17978 -0.0286227 0.728406 
-0.0286227 8.43903 2.04604 
0.728406 2.04604 8.95202 
8.93744 0.095365 0.463716 
0.095365 8.91872 2.33135 
0.463716 2.33135 8.71468 
0.732817 -0.314888 -3.11499 
-0.314888 2.46088 -2.96107 
-3.11499 -2.96107 0.416857 
0.518193 -0.218108 -2.50863 
-0.218108 1.22056 -2.70502 
-2.50863 -2.70502 1.8718 
1.44743 0.0675882 -2.6559 
0.0675882 1.04196 -3.12486 
-2.6559 -3.12486 1.12116 
1.34515 -0.0784042 -2.68859 
-0.0784042 1.01433 -2.90728 
-2.68859 -2.90728 1.25107 
8.8247 -0.191034 -3.06816 
-0.191034 8.65174 -1.78562 
-3.06816 -1.78562 9.37658 
9.4519 -0.025651 -2.41382 
-0.025651 8.78857 -2.41113 
-2.41382 -2.41113 8.61255 
8.80436 -0.0733948 -2.58354 
-0.0733948 8.99635 -2.15783 
-2.58354 -2.15783 9.0523 
8.79841 0.177832 -2.71651 
0.177832 8.9936 -1.81412 
-2.71651 -1.81412 9.06102 
4.67234 -0.0989516 -2.24183 
-0.0989516 4.94833 -1.85058 
-2.24183 -1.85058 3.60506 
4.63786 0.0476176 -2.53453 
0.0476176 4.30609 -1.93026 
-2.53453 -1.93026 4.28178 
4.7674 -0.0533288 -2.61709 
-0.0533288 4.30067 -2.16715 
-2.61709 -2.16715 4.15767 
4.4059 -0.0582677 -2.77547 
-0.0582677 4.01012 -1.78326 
-2.77547 -1.78326 4.80972 
8.6936 0.0994582 -3.9506 
0.0994582 8.89244 -0.754061 
-3.9506 -0.754061 9.18532 
8.88483 -0.0332959 -3.51886 
-0.0332959 9.27631 -0.359162 
-3.51886 -0.359162 8.61023 
8.73353 0.0883715 -3.63853 
0.0883715 9.0516 -0.346412 
-3.63853 -0.346412 8.98623 
8.9734 -0.0840314 -3.92176 
-0.0840314 8.96443 -0.627762 
-3.92176 -0.627762 8.83353 
0.762357 -0.0687589 0.293802 
-0.0687589 0.51404 -2.07607 
0.293802 -2.07607 -0.135036 
0.470487 -0.0908967 0.307001 
-0.0908967 0.35865 -2.19089 
0.307001 -2.19089 0.312224 
0.681713 -0.277256 0.240926 
-0.277256 0.397464 -2.25328 
0.240926 -2.25328 0.0621851 
0.314273 -0.0392532 0.372101 
-0.0392532 0.260354 -2.2822 
0.372101 -2.2822 0.566735 
6.99331 0.0646468 2.32116 
0.0646468 7.0648 1.15627 
2.32116 1.15627 6.89885 
7.07771 0.0556204 2.39827 
0.0556204 7.12178 1.21028 
2.39827 1.21028 6.75747 
6.8933 -0.000839662 2.43681 
-0.000839662 7.12056 1.19099 
2.43681 1.19099 6.94309 
7.15352 -0.0590453 2.42666 
-0.0590453 6.57403 1.07671 
2.42666 1.07671 7.22941 
6.73165 0.00216618 2.97717 
0.00216618 6.60634 -1.41771 
2.97717 -1.41771 6.605 
6.75492 0.0239123 2.98796 
0.0239123 6.58724 -1.39271 
2.98796 -1.39271 6.60083 
7.09829 0.194524 3.31962 
0.194524 6.71833 -1.40272 
3.31962 -1.40272 6.12637 
6.5306 -0.0574605 3.16261 
-0.0574605 6.52408 -1.48499 
3.16261 -1.48499 6.8883 
1.55546 -0.0770827 1.61753 
-0.0770827 1.40618 -4.14743 
1.61753 -4.14743 1.4132 
2.16167 0.102488 1.0413 
0.102488 1.5154 -3.75657 
1.0413 -3.75657 0.697769 
1.34236 -0.215532 1.74423 
-0.215532 1.48925 -4.15156 
1.74423 -4.15156 1.54323 
1.19351 -0.0621729 1.89104 
-0.0621729 0.669123 -4.07403 
1.89104 -4.07403 2.51221 
7.49459 -0.0293709 0.646508 
-0.0293709 7.3256 0.228437 
0.646508 0.228437 7.22638 
7.40601 0.003002 0.674188 
0.003002 7.25874 0.171542 
0.674188 0.171542 7.38181 
7.38058 0.0828034 0.656289 
0.0828034 7.21334 0.278743 
0.656289 0.278743 7.45266 
7.20852 -0.0646639 0.730888 
-0.0646639 7.01395 0.145859 
0.730888 0.145859 7.8241 
6.70403 -0.050523 -2.9282 
-0.050523 6.91148 1.241 
-2.9282 1.241 6.84908 
6.7582 -0.0498555 -3.06291 
-0.0498555 6.8399 1.11881 
-3.06291 1.11881 6.86648 
6.47218 -0.192292 -3.54382 
-0.192292 6.66099 1.1399 
-3.54382 1.1399 7.33142 
7.15006 0.0917684 -3.31562 
0.0917684 7.06165 1.26138 
-3.31562 1.26138 6.25288 
7.85546 -0.102867 -3.87043 
-0.102867 7.714 -1.48348 
-3.87043 -1.48348 7.48168 
7.22518 0.0432441 -4.11526 
0.0432441 7.82197 -1.41908 
-4.11526 -1.41908 8.00399 
8.01127 -0.149248 -4.1217 
-0.149248 7.78769 -1.37787 
-4.1217 -1.37787 7.25217 
7.95858 0.0717136 -3.59389 
0.0717136 7.90628 -1.87123 
-3.59389 -1.87123 7.18627 
1.8879 0.0452124 0.0027128 
0.0452124 1.92603 3.20584 
0.0027128 3.20584 1.74714 
1.79818 0.0542396 0.0618564 
0.0542396 1.81812 3.26609 
0.0618564 3.26609 1.94478 
1.68397 -0.0658219 -0.296163 
-0.0658219 1.54357 3.23076 
-0.296163 3.23076 2.33353 
1.80761 0.00145289 -0.0981984 
0.00145289 1.82914 3.30411 
-0.0981984 3.30411 1.92433 
6.67933 0.0260727 0.0894733 
0.0260727 6.87032 3.05108 
0.0894733 3.05108 6.93761 
6.71164 -0.0868372 0.108209 
-0.0868372 6.79836 3.15339 
0.108209 3.15339 6.97726 
6.92993 0.108121 -0.0458706 
0.108121 6.92521 2.93699 
-0.0458706 2.93699 6.63212 
6.72672 0.302941 0.227703 
0.302941 6.62064 3.00793 
0.227703 3.00793 7.1399 
1.32152 -0.0171336 1.15011 
-0.0171336 1.36787 3.94762 
1.15011 3.94762 0.891749 
1.22515 0.0501407 1.20643 
0.0501407 1.20077 4.00581 
1.20643 4.00581 1.15522 
1.29202 0.10156 1.24549 
0.10156 1.32085 3.9054 
1.24549 3.9054 0.968262 
1.21346 -0.121551 1.24503 
-0.121551 1.00067 4.12153 
1.24503 4.12153 1.36701 
4.53304 0.0362676 1.41401 
0.0362676 4.4932 -1.23219 
1.41401 -1.23219 4.66965 
4.61254 -0.0326623 1.44469 
-0.0326623 4.65408 -1.32322 
1.44469 -1.32322 4.42927 
4.53611 -0.0133677 1.45819 
-0.0133677 4.51435 -1.39882 
1.45819 -1.39882 4.64543 
4.38637 -0.0446735 1.25836 
-0.0446735 4.38446 -1.38575 
1.25836 -1.38575 4.92506 
8.73874 0.0609638 -1.39065 
0.0609638 9.03754 -2.39329 
-1.39065 -2.39329 8.80842 
8.93116 -0.184491 -1.21332 
-0.184491 8.3385 -2.52159 
-1.21332 -2.52159 9.31504 
9.41201 -0.14657 -1.38519 
-0.14657 8.80116 -2.20182 
-1.38519 -2.20182 8.37152 
8.77874 0.0377738 -1.39998 
0.0377738 8.9874 -2.39158 
-1.39998 -2.39158 8.81855 
8.5235 0.102084 -1.02063 
0.102084 8.52048 4.17042 
-1.02063 4.17042 8.5013 
8.38048 0.115516 -0.657829 
0.115516 8.44254 4.15606 
-0.657829 4.15606 8.72227 
8.57271 0.0273835 -0.792944 
0.0273835 8.58622 4.06732 
-0.792944 4.06732 8.38635 
8.35986 0.207292 -1.11875 
0.207292 8.82551 4.19893 
-1.11875 4.19893 8.35991 
5.40183 -0.070444 -0.239751 
-0.070444 5.11257 3.05181 
-0.239751 3.05181 4.62769 
5.11515 0.00529537 -0.489249 
0.00529537 5.1215 3.07514 
-0.489249 3.07514 4.90543 
5.2126 0.0880641 -0.448871 
0.0880641 5.19005 3.20292 
-0.448871 3.20292 4.73943 
4.95499 0.0719862 -0.493933 
0.0719862 5.11186 3.3338 
-0.493933 3.3338 5.07524 
2.54118 0.0193653 -1.71074 
0.0193653 2.61628 0.843861 
-1.71074 0.843861 2.99281 
2.5734 -0.0474452 -1.56424 
-0.0474452 2.50461 0.798459 
-1.56424 0.798459 3.07226 
2.61531 0.00743392 -1.71132 
0.00743392 2.5701 0.781298 
-1.71132 0.781298 2.96486 
2.07915 0.0886311 -1.99779 
0.0886311 2.85156 0.851674 
-1.99779 0.851674 3.21956 
4.20105 -0.0624903 -0.464223 
-0.0624903 4.51976 4.59995 
-0.464223 4.59995 4.30947 
4.33409 0.472269 -0.575083 
0.472269 3.32649 4.27426 
-0.575083 4.27426 5.36969 
4.44309 -0.14543 -0.626594 
-0.14543 4.75331 4.82933 
-0.626594 4.82933 3.83388 
4.31781 -0.28156 -0.128345 
-0.28156 4.63371 4.34929 
-0.128345 4.34929 4.07875 
6.04944 0.0188767 -0.713911 
0.0188767 6.11484 4.36042 
-0.713911 4.36042 4.34663 
5.1323 -0.020046 -0.772931 
-0.020046 5.16837 4.61146 
-0.772931 4.61146 6.21024 
5.58274 -0.0170866 -0.739964 
-0.0170866 5.26412 4.11321 
-0.739964 4.11321 5.66405 
5.56707 0.162046 -0.585765 
0.162046 5.32382 4.14501 
-0.585765 4.14501 5.62002 
5.93329 -0.0773261 -4.39777 
-0.0773261 5.93123 0.411799 
-4.39777 0.411799 4.81903 
5.35248 0.181094 -4.23284 
0.181094 5.79083 0.950753 
-4.23284 0.950753 5.54024 
5.2553 -0.147249 -4.53697 
-0.147249 5.5095 1.147 
-4.53697 1.147 5.91875 
5.47471 0.193641 -4.38731 
0.193641 5.64678 0.971258 
-4.38731 0.971258 5.56206 
7.44759 -0.0309473 -2.59401 
-0.0309473 7.06857 3.80894 
-2.59401 3.80894 6.78146 
7.29407 -0.305307 -3.40869 
-0.305307 6.78815 3.08942 
-3.40869 3.08942 7.21542 
7.17084 -0.0468441 -3.30618 
-0.0468441 6.65322 3.20974 
-3.30618 3.20974 7.47357 
7.44144 0.209677 -2.44852 
0.209677 6.84829 3.87193 
-2.44852 3.87193 7.0079 
2.68987 -0.020808 -4.51395 
-0.020808 2.25651 1.40619 
-4.51395 1.40619 2.93924 
2.24459 -0.0611484 -4.41393 
-0.0611484 3.02764 1.04624 
-4.41393 1.04624 2.61338 
3.81606 -0.0867832 -4.40934 
-0.0867832 2.45985 1.57811 
-4.40934 1.57811 1.6097 
2.35723 0.168279 -4.17231 
0.168279 2.9795 1.25584 
-4.17231 1.25584 2.54888 
3.04881 0.100472 1.41724 
0.100472 3.31966 -2.06327 
1.41724 -2.06327 3.6469 
3.49691 0.025617 1.52568 
0.025617 3.39641 -1.91881 
1.52568 -1.91881 3.12207 
3.42247 -0.032428 1.49864 
-0.032428 3.36257 -2.10209 
1.49864 -2.10209 3.23033 
3.44208 -0.0305215 1.73199 
-0.0305215 3.12106 -2.03481 
1.73199 -2.03481 3.45224 
9.49244 -0.183818 -2.10356 
-0.183818 9.41709 -0.84082 
-2.10356 -0.84082 9.89746 
9.35192 -0.0976633 -1.94043 
-0.0976633 9.45233 -1.06829 
-1.94043 -1.06829 10.0027 
9.66189 -0.0553716 -1.94677 
-0.0553716 9.63473 -0.87683 
-1.94677 -0.87683 9.51036 
9.72941 0.0199742 -1.9344 
0.0199742 9.71955 -0.84165 
-1.9344 -0.84165 9.35803 
1.15716 0.167738 -2.72262 
0.167738 1.04217 -3.346 
-2.72262 -3.346 0.707387 
1.03073 0.228592 -2.72569 
0.228592 1.08875 -3.29448 
-2.72569 -3.29448 0.787223 
1.82569 -0.369763 -2.57951 
-0.369763 1.13061 -2.77852 
-2.57951 -2.77852 -0.049587 
0.948398 -0.220509 -2.96216 
-0.220509 0.585824 -3.29373 
-2.96216 -3.29373 1.37249 
0.547908 0.0162797 2.00159 
0.0162797 0.784019 0.672269 
2.00159 0.672269 0.00664621 
0.492492 0.0285857 1.95683 
0.0285857 0.564283 0.771869 
1.95683 0.771869 0.281799 
0.516004 0.0425737 1.84306 
0.0425737 0.679204 0.696956 
1.84306 0.696956 0.143366 
0.372935 -0.0149782 1.83878 
-0.0149782 0.469706 0.769071 
1.83878 0.769071 0.495932 
8.6609 -0.276815 0.577055 
-0.276815 8.84374 1.0993 
0.577055 1.0993 9.47449 
9.07232 -0.360315 0.284669 
-0.360315 9.28407 0.494386 
0.284669 0.494386 8.62273 
9.0099 -0.0232403 0.528374 
-0.0232403 8.98042 0.676683 
0.528374 0.676683 8.98881 
9.08526 0.0425617 0.615058 
0.0425617 8.96362 0.674189 
0.615058 0.674189 8.93025 
0.903181 -0.110222 1.7086 
-0.110222 1.48349 -0.120993 
1.7086 -0.120993 0.693625 
1.00543 0.0292411 1.67647 
0.0292411 1.04036 -0.144271 
1.67647 -0.144271 1.03451 
1.13408 0.0957989 1.69852 
0.0957989 0.968017 -0.0990758 
1.69852 -0.0990758 0.978194 
0.919968 -0.0277944 1.83901 
-0.0277944 1.10835 -0.117206 
1.83901 -0.117206 1.05198 
0.885303 -0.00924167 1.30441 
-0.00924167 0.946093 -2.08694 
1.30441 -2.08694 -0.518513 
0.451641 -0.0654667 1.25735 
-0.0654667 0.389045 -2.01073 
1.25735 -2.01073 0.472197 
0.708543 -0.0751904 1.26208 
-0.0751904 0.247499 -2.00491 
1.26208 -2.00491 0.35684 
0.30934 -0.028995 1.12135 
-0.028995 0.420664 -2.09677 
1.12135 -2.09677 0.582879 
5.04594 -0.0343107 -0.421472 
-0.0343107 5.0614 2.81846 
-0.421472 2.81846 4.4407 
4.73145 -0.000940534 -0.645122 
-0.000940534 4.71421 3.20871 
-0.645122 3.20871 5.10238 
4.93202 -0.127687 -0.513625 
-0.127687 4.81073 2.91596 
-0.513625 2.91596 4.80529 
4.91342 -0.151244 -0.630941 
-0.151244 4.92865 2.97667 
-0.630941 2.97667 4.70597 
9.45846 -0.119046 0.800789 
-0.119046 9.63543 2.17746 
0.800789 2.17746 9.75065 
9.541 -0.0325526 0.833526 
-0.0325526 9.82137 2.04393 
0.833526 2.04393 9.48218 
9.3541 -0.241597 1.09782 
-0.241597 9.26517 2.09321 
1.09782 2.09321 10.2253 
9.7289 0.0447125 0.763053 
0.0447125 9.80085 2.11244 
0.763053 2.11244 9.31479 
1.09115 0.167414 3.79525 
0.167414 1.03128 1.93099 
3.79525 1.93099 0.845537 
1.29341 -0.564223 3.58374 
-0.564223 1.55081 1.51448 
3.58374 1.51448 0.123746 
1.07119 0.0613066 3.75571 
0.0613066 1.051 1.8675 
3.75571 1.8675 0.845771 
0.590599 -0.261525 3.97198 
-0.261525 0.8636 1.84405 
3.97198 1.84405 1.51377 
7.66385 -0.16601 0.787802 
-0.16601 9.32095 4.57782 
0.787802 4.57782 7.22273 
8.12043 -0.0513129 1.04718 
-0.0513129 7.74538 4.51187 
1.04718 4.51187 8.34172 
7.90786 0.158103 1.248 
0.158103 7.11548 4.65407 
1.248 4.65407 9.18419 
8.46687 -0.193223 1.63769 
-0.193223 7.75247 3.68185 
1.63769 3.68185 7.98819 
4.7893 -0.0134046 -2.58208 
-0.0134046 4.90094 -1.84215 
-2.58208 -1.84215 5.04212 
4.88514 -0.02154 -2.44653 
-0.02154 5.05849 -1.95697 
-2.44653 -1.95697 4.78872 
4.68906 -0.161613 -2.74661 
-0.161613 4.88851 -2.00242 
-2.74661 -2.00242 5.15478 
4.72261 0.0279845 -2.62482 
0.0279845 4.98525 -1.95063 
-2.62482 -1.95063 5.02448 
1.06483 -0.154568 2.68715 
-0.154568 0.967068 -3.2933 
2.68715 -3.2933 0.778493 
1.4984 0.31577 2.5046 
0.31577 1.21565 -2.94418 
2.5046 -2.94418 0.0963428 
1.00212 -0.248768 2.6909 
-0.248768 1.02715 -3.22518 
2.6909 -3.22518 0.781125 
0.881319 0.139251 2.86089 
0.139251 0.709071 -3.23919 
2.86089 -3.23919 1.22 
5.09145 -0.132901 1.36248 
-0.132901 5.54447 -4.39534 
1.36248 -4.39534 5.26652 
5.21003 0.148694 1.65957 
0.148694 4.90866 -4.60746 
1.65957 -4.60746 5.78374 
5.43713 -0.296677 1.13665 
-0.296677 5.79798 -4.34468 
1.13665 -4.34468 4.66731 
4.83682 0.167779 1.14613 
0.167779 5.16481 -4.19575 
1.14613 -4.19575 5.9008 
2.92692 -0.13175 -3.12058 
-0.13175 3.06803 1.72012 
-3.12058 1.72012 3.13124 
3.01615 0.216782 -3.03665 
0.216782 2.7749 1.83304 
-3.03665 1.83304 3.33514 
3.10528 0.00322623 -3.35526 
0.00322623 3.23448 1.60274 
-3.35526 1.60274 2.78643 
3.09252 -0.0716686 -3.10825 
-0.0716686 3.18892 1.78058 
-3.10825 1.78058 2.84476 
3.80471 -0.0413299 -3.37647 
-0.0413299 3.64951 -2.82616 
-3.37647 -2.82616 3.33659 
3.68458 -0.0454842 -3.19812 
-0.0454842 3.57914 -2.77491 
-3.19812 -2.77491 3.52709 
3.47396 -0.125791 -3.30103 
-0.125791 3.64247 -2.63106 
-3.30103 -2.63106 3.67438 
3.89173 0.69777 -3.01835 
0.69777 3.94469 -2.47798 
-3.01835 -2.47798 2.95439 
6.92031 0.00544728 -1.06213 
0.00544728 6.84677 3.31856 
-1.06213 3.31856 7.00782 
6.94759 -0.00202688 -1.09024 
-0.00202688 7.09809 3.39836 
-1.09024 3.39836 6.72921 
6.9395 -0.00917897 -0.980601 
-0.00917897 6.8963 3.41322 
-0.980601 3.41322 6.9391 
6.64705 -0.0248563 -0.892384 
-0.0248563 6.82534 3.39864 
-0.892384 3.39864 7.30251 
1.02805 0.0267016 2.39832 
0.0267016 1.00584 2.39389 
2.39832 2.39389 1.1029 
0.233656 -0.331659 2.3292 
-0.331659 1.05158 2.7688 
2.3292 2.7688 1.85155 
1.27696 -0.533788 2.82484 
-0.533788 1.68938 2.59021 
2.82484 2.59021 0.17045 
1.11291 -0.0276804 2.46469 
-0.0276804 0.982243 2.34587 
2.46469 2.34587 1.04164 
7.19834 0.0619805 1.01502 
0.0619805 7.28843 -0.224454 
1.01502 -0.224454 7.26784 
7.4695 -0.209463 1.10153 
-0.209463 7.43227 0.0814442 
1.10153 0.0814442 6.85284 
7.17318 0.0880203 1.03512 
0.0880203 7.24836 -0.153341 
1.03512 -0.153341 7.33307 
6.92922 -0.106595 0.867897 
-0.106595 6.89603 -0.0983423 
0.867897 -0.0983423 7.92936 
9.07428 -0.255938 3.54353 
-0.255938 8.2099 3.21122 
3.54353 3.21122 9.63651 
9.07284 5.47576e-05 2.78779 
5.47576e-05 8.87093 2.96181 
2.78779 2.96181 8.97691 
9.59249 -0.172685 2.55359 
-0.172685 8.85011 2.67641 
2.55359 2.67641 8.47808 
8.84312 -0.0607549 2.95676 
-0.0607549 9.04412 3.163 
2.95676 3.163 9.03345 
4.31911 -0.0815002 -1.80314 
-0.0815002 4.24414 2.62747 
-1.80314 2.62747 3.64616 
4.28973 -0.0703638 -1.48509 
-0.0703638 3.71122 2.78991 
-1.48509 2.78991 4.20847 
4.33632 -0.102259 -1.8725 
-0.102259 4.01608 2.69742 
-1.8725 2.69742 3.85701 
4.1353 -0.288322 -1.91375 
-0.288322 3.81105 2.94696 
-1.91375 2.94696 4.26306 
1.93351 0.100494 0.779294 
0.100494 2.04601 4.10751 
0.779294 4.10751 1.7365 
1.95322 -0.0366338 0.848088 
-0.0366338 1.85458 4.26779 
0.848088 4.26779 1.90822 
2.00232 0.068045 0.818748 
0.068045 1.74588 4.04294 
0.818748 4.04294 1.96782 
1.80563 0.00895592 1.08743 
0.00895592 1.7421 4.16711 
1.08743 4.16711 2.16829 
5.05493 0.00380598 -0.828007 
0.00380598 5.34046 2.28087 
-0.828007 2.28087 5.84225 
5.46311 0.0200253 -0.446054 
0.0200253 5.45494 2.01142 
-0.446054 2.01142 5.31959 
5.4932 -0.000836954 -0.54344 
-0.000836954 5.34415 1.90481 
-0.54344 1.90481 5.40029 
5.52209 0.0552012 -0.750595 
0.0552012 6.26037 2.26194 
-0.750595 2.26194 4.45518 
9.68559 0.109856 0.343977 
0.109856 9.61487 -2.95487 
0.343977 -2.95487 9.58134 
9.25055 0.010662 0.472916 
0.010662 9.40263 -3.06523 
0.472916 -3.06523 10.2286 
9.48292 0.164952 0.384787 
0.164952 9.71686 -2.92101 
0.384787 -2.92101 9.68203 
9.73578 0.00155978 0.344146 
0.00155978 9.75254 -2.86407 
0.344146 -2.86407 9.39349 
8.945 -0.0815758 1.23863 
-0.0815758 8.83332 -2.23579 
1.23863 -2.23579 8.99154 
9.08125 0.25676 1.08028 
0.25676 9.08439 -2.1875 
1.08028 -2.1875 8.60423 
8.85902 0.102726 1.12033 
0.102726 8.83135 -2.149 
1.12033 -2.149 9.0795 
8.97491 -0.100722 1.16135 
-0.100722 8.95457 -2.20547 
1.16135 -2.20547 8.84038 
0.704674 0.0405679 -1.36782 
0.0405679 1.11169 -2.97554 
-1.36782 -2.97554 -0.254627 
0.55867 0.143324 -1.19852 
0.143324 0.598634 -2.95056 
-1.19852 -2.95056 0.404435 
0.517732 0.123215 -1.06669 
0.123215 0.784632 -2.98839 
-1.06669 -2.98839 0.259375 
0.342416 0.0396191 -1.02712 
0.0396191 0.638714 -2.91579 
-1.02712 -2.91579 0.580609 
2.26432 -0.493421 2.48041 
-0.493421 1.28383 3.88604 
2.48041 3.88604 2.59372 
1.78501 0.314001 2.73391 
0.314001 2.58955 3.92884 
2.73391 3.92884 1.76732 
2.08158 -0.0511292 2.50793 
-0.0511292 1.96803 3.80514 
2.50793 3.80514 2.09226 
1.95144 0.416327 2.50582 
0.416327 2.20296 3.12543 
2.50582 3.12543 1.98748 
3.68728 0.0369273 -1.16304 
0.0369273 3.45465 4.42707 
-1.16304 4.42707 3.35768 
3.30792 0.0917381 -1.07701 
0.0917381 3.32367 4.26872 
-1.07701 4.26872 3.86801 
3.51182 0.00833328 -1.16446 
0.00833328 3.53607 4.41279 
-1.16446 4.41279 3.45171 
3.97383 0.237543 -1.10429 
0.237543 4.03297 3.8845 
-1.10429 3.8845 2.4928 
2.04082 -0.0273446 -0.34592 
-0.0273446 2.06946 3.61819 
-0.34592 3.61819 2.04526 
1.88792 -0.0673408 -0.408872 
-0.0673408 1.91126 3.50876 
-0.408872 3.50876 2.35637 
2.01895 -0.0537544 -0.455667 
-0.0537544 1.95196 3.3824 
-0.455667 3.3824 2.18463 
1.87176 -0.0518266 -0.29815 
-0.0518266 2.0263 3.38371 
-0.29815 3.38371 2.25747 
2.04799 -0.0594159 -0.116097 
-0.0594159 1.85167 0.252579 
-0.116097 0.252579 2.43786 
2.07042 -0.255352 0.0988212 
-0.255352 2.10177 0.178035 
0.0988212 0.178035 2.16533 
2.10584 0.148446 -0.0851863 
0.148446 1.90234 0.288884 
-0.0851863 0.288884 2.32934 
1.96934 0.25048 -0.115162 
0.25048 2.16985 0.272511 
-0.115162 0.272511 2.19834 
4.1368 -0.0611051 1.36807 
-0.0611051 4.36312 1.93997 
1.36807 1.93997 4.02739 
3.78144 -0.032259 1.20901 
-0.032259 4.14911 1.69612 
1.20901 1.69612 4.59676 
4.48148 0.13702 1.16029 
0.13702 4.22729 1.91832 
1.16029 1.91832 3.81855 
3.93957 -0.213554 1.16575 
-0.213554 4.19082 2.00235 
1.16575 2.00235 4.39692 
9.53815 0.0056214 -3.66815 
0.0056214 9.41709 -0.882334 
-3.66815 -0.882334 9.71502 
9.39243 0.0980153 -3.80671 
0.0980153 9.38937 -0.856594 
-3.80671 -0.856594 9.88846 
9.41584 -0.00456312 -3.66082 
-0.00456312 9.36679 -0.755716 
-3.66082 -0.755716 9.88763 
9.63326 -0.0244939 -3.76185 
-0.0244939 9.55988 -0.887537 
-3.76185 -0.887537 9.47713 
8.75062 0.407087 4.74829 
0.407087 7.91131 0.822037 
4.74829 0.822037 7.24563 
7.30664 -0.173038 4.66049 
-0.173038 7.75083 0.895686 
4.66049 0.895686 8.85009 
7.8354 -0.324677 4.35404 
-0.324677 8.12905 0.996896 
4.35404 0.996896 7.94311 
8.03461 -0.0991715 3.75633 
-0.0991715 8.17203 0.6581 
3.75633 0.6581 7.70092 
3.31113 0.139331 -0.45278 
0.139331 3.62254 -0.65997 
-0.45278 -0.65997 3.4735 
3.74263 0.161252 -0.361757 
0.161252 3.76551 -0.904393 
-0.361757 -0.904393 2.89903 
3.3122 0.0565359 -0.800587 
0.0565359 3.17323 -0.58988 
-0.800587 -0.58988 3.92174 
3.31859 0.0345585 -0.34246 
0.0345585 3.54535 -0.674229 
-0.34246 -0.674229 3.54323 
3.66865 -0.0550502 -0.371606 
-0.0550502 3.63657 -4.59768 
-0.371606 -4.59768 3.64221 
3.54551 -0.0224974 -0.305542 
-0.0224974 3.70311 -4.53794 
-0.305542 -4.53794 3.6988 
4.13175 0.220281 -0.39079 
0.220281 3.90375 -4.26027 
-0.39079 -4.26027 2.91193 
3.36627 0.0619828 -0.189581 
0.0619828 3.37664 -4.19393 
-0.189581 -4.19393 4.20452 
0.350329 0.15679 -2.04267 
0.15679 0.738525 1.98532 
-2.04267 1.98532 0.0653291 
0.483112 0.0286232 -2.27694 
0.0286232 0.956866 1.91907 
-2.27694 1.91907 -0.285796 
0.390906 0.114877 -2.15141 
0.114877 0.403018 2.05016 
-2.15141 2.05016 0.360258 
0.36799 -0.0279127 -2.19252 
-0.0279127 0.226236 2.02571 
-2.19252 2.02571 0.559957 
7.00499 0.0121209 -0.860154 
0.0121209 6.72244 -0.697565 
-0.860154 -0.697565 6.72807 
6.67397 0.135216 -0.488369 
0.135216 6.95227 -0.415219 
-0.488369 -0.415219 6.82926 
6.93951 0.145847 -0.730166 
0.145847 6.44498 -0.716046 
-0.730166 -0.716046 7.07101 
6.86242 -0.0173347 -0.567346 
-0.0173347 6.97168 -0.310776 
-0.567346 -0.310776 6.6214 
6.326 0.00873638 -1.88791 
0.00873638 6.37301 4.17161 
-1.88791 4.17161 6.50299 
6.37744 0.148982 -1.75537 
0.148982 6.45088 4.06551 
-1.75537 4.06551 6.37367 
6.65407 0.115292 -1.68553 
0.115292 6.93664 3.93647 
-1.68553 3.93647 5.61128 
5.61408 0.00247251 -1.63182 
0.00247251 6.25068 3.56002 
-1.63182 3.56002 7.33723 
4.99511 0.0706229 -4.79254 
0.0706229 4.106 -0.860011 
-4.79254 -0.860011 3.02454 
3.98835 0.0165056 -4.42221 
0.0165056 4.12676 -0.184425 
-4.42221 -0.184425 4.01055 
2.86109 -0.285427 -4.56109 
-0.285427 4.02697 -0.501591 
-4.56109 -0.501591 5.2376 
4.30702 0.0288829 -3.64503 
0.0288829 4.14627 -0.0252945 
-3.64503 -0.0252945 3.67237 
1.77229 0.30218 -2.48667 
0.30218 1.21285 -3.05942 
-2.48667 -3.05942 2.02486 
1.83796 0.0314933 -2.71886 
0.0314933 1.80548 -3.18476 
-2.71886 -3.18476 1.36655 
1.63807 0.1532 -2.67792 
0.1532 1.81336 -3.2425 
-2.67792 -3.2425 1.55857 
1.57758 0.135071 -2.8432 
0.135071 1.52572 -3.37222 
-2.8432 -3.37222 1.90669 
0.321876 0.0174934 0.0983035 
0.0174934 0.681865 -3.16406 
0.0983035 -3.16406 0.381028 
0.755996 0.17017 0.32157 
0.17017 1.27842 -3.603 
0.32157 -3.603 -0.649644 
0.211958 -0.0554388 0.096059 
-0.0554388 0.924028 -3.23765 
0.096059 -3.23765 0.248783 
0.212132 0.0721986 -0.251913 
0.0721986 0.532342 -3.07727 
-0.251913 -3.07727 0.640296 
1.59543 -0.0288696 -1.52926 
-0.0288696 1.32109 4.0567 
-1.52926 4.0567 1.48861 
1.50194 -0.154193 -1.43817 
-0.154193 1.31144 4.06412 
-1.43817 4.06412 1.59175 
1.76456 -0.0831761 -1.29466 
-0.0831761 1.37822 4.17933 
-1.29466 4.17933 1.26234 
1.36284 0.00404091 -1.82299 
0.00404091 1.03873 3.97 
-1.82299 3.97 2.00356 
2.03504 0.031958 0.413523 
0.031958 2.0464 -3.51006 
0.413523 -3.51006 1.97057 
1.82012 -0.0089627 0.224492 
-0.0089627 1.85504 -3.20895 
0.224492 -3.20895 2.37685 
1.91163 -0.109155 0.428234 
-0.109155 1.84541 -3.44754 
0.428234 -3.44754 2.29497 
2.02447 -0.0394659 0.397795 
-0.0394659 1.91733 -3.40468 
0.397795 -3.40468 2.11021 
3.62778 -0.233959 4.38009 
-0.233959 3.25669 -1.05259 
4.38009 -1.05259 3.11803 
3.00102 0.0570995 4.8434 
0.0570995 3.33303 -1.12335 
4.8434 -1.12335 3.66845 
4.10612 -0.0136898 4.29998 
-0.0136898 3.48769 -0.931484 
4.29998 -0.931484 2.40869 
3.04298 0.0315904 4.39421 
0.0315904 3.33291 -1.23563 
4.39421 -1.23563 3.6266 
0.604453 -0.179474 1.96939 
-0.179474 0.576168 -0.0414704 
1.96939 -0.0414704 0.0946477 
0.462094 -0.0380016 2.07019 
-0.0380016 0.50995 -0.0436953 
2.07019 -0.0436953 0.303225 
0.717273 -0.0129392 2.16682 
-0.0129392 0.671126 0.0475969 
2.16682 0.0475969 -0.113131 
0.39489 0.000139746 1.99236 
0.000139746 0.388199 -0.0698137 
1.99236 -0.0698137 0.492179 
4.70277 -0.0210286 1.87385 
-0.0210286 4.57304 0.898319 
1.87385 0.898319 4.37071 
4.56444 0.0588869 1.71613 
0.0588869 4.60677 0.806565 
1.71613 0.806565 4.4753 
4.45953 0.0596663 1.66388 
0.0596663 4.5949 0.92356 
1.66388 0.92356 4.59208 
4.39562 0.0061888 1.69285 
0.0061888 4.32653 0.755657 
1.69285 0.755657 4.92436 
4.46386 -0.0329084 0.841249 
-0.0329084 4.45579 1.74189 
0.841249 1.74189 4.30737 
4.50662 -0.0201815 0.793093 
-0.0201815 4.49827 1.82344 
0.793093 1.82344 4.22213 
4.25065 0.0167106 0.756749 
0.0167106 4.32393 1.54669 
0.756749 1.54669 4.65245 
4.18851 -0.0088323 0.688192 
-0.0088323 4.53193 1.80303 
0.688192 1.80303 4.50658 
7.28488 -0.251446 1.9807 
-0.251446 7.05394 -2.88574 
1.9807 -2.88574 6.86063 
6.97703 -0.396496 1.74385 
-0.396496 7.16973 -2.5644 
1.74385 -2.5644 7.05269 
7.13924 -0.228227 1.94501 
-0.228227 6.99779 -2.37277 
1.94501 -2.37277 7.06242 
6.80945 0.0629716 1.86042 
0.0629716 6.94488 -2.11354 
1.86042 -2.11354 7.44512 
7.05864 0.176178 1.42745 
0.176178 7.3434 3.08859 
1.42745 3.08859 7.22929 
7.00156 0.0935751 1.50959 
0.0935751 7.42317 2.98542 
1.50959 2.98542 7.20661 
7.34889 0.0604254 1.55966 
0.0604254 7.29975 2.83736 
1.55966 2.83736 6.9827 
7.00388 -0.0757495 1.10241 
-0.0757495 7.03986 3.3182 
1.10241 3.3182 7.5876 
1.21498 -0.0331329 -3.81951 
-0.0331329 1.30804 0.694937 
-3.81951 0.694937 0.903142 
1.24445 0.0236205 -3.68024 
0.0236205 1.2774 0.687533 
-3.68024 0.687533 0.904314 
1.23821 -0.0171525 -3.62878 
-0.0171525 0.898482 0.996197 
-3.62878 0.996197 1.28947 
1.09891 0.00730146 -3.72047 
0.00730146 1.21606 0.708706 
-3.72047 0.708706 1.11119 
8.18566 0.0988266 -2.7708 
0.0988266 8.07276 3.33333 
-2.7708 3.33333 7.38879 
8.12881 -0.157852 -2.50538 
-0.157852 7.45808 3.81131 
-2.50538 3.81131 8.06032 
7.98493 0.023999 -2.10169 
0.023999 7.27141 3.95736 
-2.10169 3.95736 8.39088 
8.16093 0.0134708 -2.38919 
0.0134708 7.7219 3.42977 
-2.38919 3.42977 7.76439 
0.233936 -0.128514 1.15552 
-0.128514 0.474489 0.357866 
1.15552 0.357866 0.338365 
0.308875 0.221358 1.19898 
0.221358 0.765761 0.533164 
1.19898 0.533164 -0.0278465 
0.501955 -0.00699612 1.32565 
-0.00699612 0.70852 0.494203 
1.32565 0.494203 -0.163685 
0.25226 0.00197121 1.14789 
0.00197121 0.325228 0.323935 
1.14789 0.323935 0.469302 
2.92926 0.0522571 0.380062 
0.0522571 3.04631 -3.53871 
0.380062 -3.53871 2.95579 
3.58012 0.21655 0.405493 
0.21655 3.24017 -3.76477 
0.405493 -3.76477 2.11107 
2.83008 0.00983891 0.631451 
0.00983891 2.77648 -3.51926 
0.631451 -3.51926 3.3248 
2.88681 -0.0503914 0.373107 
-0.0503914 3.00382 -3.48733 
0.373107 -3.48733 3.04072 
7.63347 -0.380387 -1.41722 
-0.380387 7.60215 -4.42569 
-1.41722 -4.42569 8.10622 
7.61745 -0.141607 -1.66639 
-0.141607 7.36277 -4.38914 
-1.66639 -4.38914 8.36163 
7.76779 0.553044 -1.74603 
0.553044 8.2434 -4.45541 
-1.74603 -4.45541 7.33066 
8.02485 -0.118851 -1.32444 
-0.118851 7.77533 -4.05483 
-1.32444 -4.05483 7.54167 
6.39609 0.0778761 -1.17295 
0.0778761 6.5496 -4.43468 
-1.17295 -4.43468 6.68999 
6.42756 0.0261005 -1.1536 
0.0261005 6.55755 -4.44562 
-1.1536 -4.44562 6.65056 
7.01072 0.157866 -1.0875 
0.157866 6.95444 -4.13894 
-1.0875 -4.13894 5.67052 
5.87758 0.284275 -0.972849 
0.284275 5.82048 -3.81391 
-0.972849 -3.81391 7.93761 
5.87223 -0.0404801 -0.535802 
-0.0404801 6.13892 -0.0279523 
-0.535802 -0.0279523 6.01547 
5.92078 0.0910478 -0.675178 
0.0910478 5.95929 -0.144142 
-0.675178 -0.144142 6.14655 
6.00889 -0.140732 -0.56543 
-0.140732 6.0524 -0.0958058 
-0.56543 -0.0958058 5.96532 
6.19547 0.0291178 -0.396463 
0.0291178 6.28099 0.178134 
-0.396463 0.178134 5.55016 
7.40694 -0.118152 -3.18921 
-0.118152 7.20647 1.03993 
-3.18921 1.03993 7.26618 
7.33776 -0.0764791 -2.93966 
-0.0764791 7.09525 1.16826 
-2.93966 1.16826 7.44658 
7.41703 -0.0930616 -3.00744 
-0.0930616 7.20065 1.36636 
-3.00744 1.36636 7.2619 
7.31299 -0.0408214 -3.28963 
-0.0408214 7.12547 1.21637 
-3.28963 1.21637 7.44112 
3.96949 0.421007 -3.56425 
0.421007 3.72509 2.90097 
-3.56425 2.90097 5.24585 
4.30067 -0.0096828 -3.69829 
-0.0096828 4.30218 2.73785 
-3.69829 2.73785 4.33757 
4.62985 -0.299138 -3.8386 
-0.299138 4.84064 2.98931 
-3.8386 2.98931 3.46994 
4.34209 -0.14449 -3.62893 
-0.14449 4.40034 2.09941 
-3.62893 2.09941 4.19799 
0.412714 0.0531024 -1.15301 
0.0531024 0.73242 2.95055 
-1.15301 2.95055 0.324118 
0.409611 -0.0844419 -1.20438 
-0.0844419 0.72296 2.87478 
-1.20438 2.87478 0.336681 
0.923469 -0.194357 -1.08894 
-0.194357 1.00011 3.11237 
-1.08894 3.11237 -0.454325 
0.397568 -0.12882 -1.30181 
-0.12882 0.500528 2.74198 
-1.30181 2.74198 0.571156 
7.1477 -0.118477 1.51901 
-0.118477 7.18633 0.0600299 
1.51901 0.0600299 7.17236 
7.12229 -0.0112654 1.39613 
-0.0112654 7.23898 0.0453034 
1.39613 0.0453034 7.14512 
7.28645 -0.0320708 1.29868 
-0.0320708 7.46723 0.161167 
1.29868 0.161167 6.75272 
6.80835 -0.0415264 1.34539 
-0.0415264 6.98331 0.153882 
1.34539 0.153882 7.71473 
8.22395 -0.0499075 -2.19316 
-0.0499075 8.07974 -2.71764 
-2.19316 -2.71764 8.27685 
8.13046 -0.0130007 -2.15851 
-0.0130007 8.60419 -2.7258 
-2.15851 -2.7258 7.8459 
8.30093 -0.0575364 -1.87625 
-0.0575364 8.30925 -2.74268 
-1.87625 -2.74268 7.97037 
8.1978 -0.0180938 -2.15939 
-0.0180938 8.20805 -2.6572 
-2.15939 -2.6572 8.17469 
6.7752 -0.0853531 2.80468 
-0.0853531 6.55476 -3.73559 
2.80468 -3.73559 8.22928 
7.63468 -0.231832 1.93355 
-0.231832 7.48537 -4.12488 
1.93355 -4.12488 6.43919 
6.80303 -0.0693215 2.34779 
-0.0693215 7.37309 -3.51086 
2.34779 -3.51086 7.38312 
7.31824 0.115191 2.10153 
0.115191 7.11739 -3.64585 
2.10153 -3.64585 7.12361 
3.52354 -0.273222 3.85494 
-0.273222 2.21901 -2.85735 
3.85494 -2.85735 1.27251 
2.56809 -0.295955 3.83748 
-0.295955 2.2242 -2.53806 
3.83748 -2.53806 2.22277 
0.897397 0.686562 4.22028 
0.686562 2.5654 -2.21026 
4.22028 -2.21026 3.55227 
2.29298 -0.299936 2.4751 
-0.299936 1.9717 -2.61331 
2.4751 -2.61331 2.75038 
5.32833 -0.246699 -1.47971 
-0.246699 5.35558 -3.10685 
-1.47971 -3.10685 5.53869 
5.33143 -0.0765564 -1.47784 
-0.0765564 5.36271 -3.06324 
-1.47784 -3.06324 5.52846 
5.26928 0.0735929 -1.57186 
0.0735929 5.23923 -3.04529 
-1.57186 -3.04529 5.7141 
5.56374 -0.0166491 -1.3155 
-0.0166491 5.53553 -2.85748 
-1.3155 -2.85748 5.12334 
6.9578 -0.00354061 1.06099 
-0.00354061 6.99035 0.760992 
1.06099 0.760992 7.02791 
6.99079 0.137075 0.955633 
0.137075 7.27843 0.748407 
0.955633 0.748407 6.70683 
6.884 -0.0195378 0.92419 
-0.0195378 7.04591 0.864098 
0.92419 0.864098 7.04614 
6.86814 -0.141195 0.936505 
-0.141195 6.68816 0.521644 
0.936505 0.521644 7.41975 
1.79942 0.0191156 1.47148 
0.0191156 1.23256 1.30286 
1.47148 1.30286 2.18795 
1.75756 0.00254477 1.45089 
0.00254477 1.67853 1.3024 
1.45089 1.3024 1.78384 
1.71041 -0.00514982 1.47854 
-0.00514982 1.867 1.25606 
1.47854 1.25606 1.64251 
1.64572 0.00134369 1.68854 
0.00134369 1.63489 1.34247 
1.68854 1.34247 1.93932 
7.33187 -0.192168 -4.58805 
-0.192168 6.9758 -0.576999 
-4.58805 -0.576999 8.9413 
7.58752 0.157883 -4.08185 
0.157883 7.70005 -0.511603 
-4.08185 -0.511603 7.96142 
8.27284 -0.109938 -4.50327 
-0.109938 8.19532 -0.701008 
-4.50327 -0.701008 6.78081 
7.58027 0.139345 -4.07843 
0.139345 7.84411 -0.344591 
-4.07843 -0.344591 7.82459 
2.20851 -0.266029 3.56879 
-0.266029 2.70565 3.28002 
3.56879 3.28002 3.62419 
2.74114 -0.181015 3.33424 
-0.181015 2.84047 3.15369 
3.33424 3.15369 2.95675 
3.7948 0.612329 3.36821 
0.612329 2.89233 2.98336 
3.36821 2.98336 1.85123 
2.58826 -0.210222 2.62678 
-0.210222 2.94489 3.24806 
2.62678 3.24806 3.00521 
2.16563 0.0404238 -4.46188 
0.0404238 2.03619 -0.956018 
-4.46188 -0.956018 1.88573 
2.81806 -0.0886045 -4.68439 
-0.0886045 2.09554 -1.14282 
-4.68439 -1.14282 1.17395 
0.909622 0.101273 -4.47568 
0.101273 2.41871 -0.78561 
-4.47568 -0.78561 2.75922 
2.46474 0.167571 -3.72999 
0.167571 1.68636 -1.42477 
-3.72999 -1.42477 1.93645 
6.27727 -0.0828203 2.59942 
-0.0828203 6.27443 1.70815 
2.59942 1.70815 6.18084 
6.32551 0.191745 2.56072 
0.191745 6.60892 1.92073 
2.56072 1.92073 5.79812 
6.31611 -0.0274384 2.57194 
-0.0274384 6.16404 1.69121 
2.57194 1.69121 6.2524 
6.20787 -0.0288002 2.56308 
-0.0288002 6.16864 1.62686 
2.56308 1.62686 6.35604 
7.54365 0.252854 -3.14598 
0.252854 7.56555 -1.3436 
-3.14598 -1.3436 7.32458 
7.39511 0.0810012 -2.75933 
0.0810012 7.40365 -1.42967 
-2.75933 -1.42967 7.63502 
7.647 -0.191759 -3.0194 
-0.191759 7.74834 -1.44218 
-3.0194 -1.44218 7.03843 
7.38187 0.194622 -3.04134 
0.194622 7.53394 -1.65684 
-3.04134 -1.65684 7.51797 
9.55551 -0.0117893 -0.854101 
-0.0117893 9.5526 2.29378 
-0.854101 2.29378 9.63381 
9.52483 0.105899 -0.904741 
0.105899 9.35816 2.23047 
-0.904741 2.23047 9.85894 
9.49849 -0.0480276 -0.7217 
-0.0480276 9.24952 2.21405 
-0.7217 2.21405 9.99392 
9.62374 -0.0168754 -0.907776 
-0.0168754 9.63621 2.41223 
-0.907776 2.41223 9.48198 
5.54624 0.0425605 3.28234 
0.0425605 5.49518 -3.43271 
3.28234 -3.43271 5.78992 
5.74483 -0.0511262 3.19707 
-0.0511262 5.57255 -3.24061 
3.19707 -3.24061 5.51396 
5.8659 -0.281492 2.99467 
-0.281492 5.99752 -3.28041 
2.99467 -3.28041 4.96792 
5.63 0.161917 3.21133 
0.161917 5.45329 -3.19265 
3.21133 -3.19265 5.74806 
6.62019 0.162788 -2.60948 
0.162788 6.56584 -3.62787 
-2.60948 -3.62787 6.1355 
6.52891 0.134117 -2.46273 
0.134117 6.61584 -3.4551 
-2.46273 -3.4551 6.17678 
6.63709 -0.176277 -2.56578 
-0.176277 6.14556 -3.61495 
-2.56578 -3.61495 6.53888 
6.71653 0.0150959 -2.20939 
0.0150959 6.69234 -3.30145 
-2.20939 -3.30145 5.91266 
8.24372 0.264965 -2.97832 
0.264965 9.16417 -1.03153 
-2.97832 -1.03153 9.50718 
8.8866 0.13171 -3.04512 
0.13171 8.96328 -1.22195 
-3.04512 -1.22195 9.06519 
8.75932 -0.0864353 -2.93031 
-0.0864353 9.05144 -1.76494 
-2.93031 -1.76494 9.10432 
8.99649 0.131244 -2.79327 
0.131244 9.16977 -1.92817 
-2.79327 -1.92817 8.74882 
7.51933 0.0456584 -1.63647 
0.0456584 7.29368 -0.372059 
-1.63647 -0.372059 6.93362 
6.77888 0.0855182 -1.57643 
0.0855182 7.06709 -0.371543 
-1.57643 -0.371543 7.90066 
7.33112 0.163906 -1.4857 
0.163906 7.28656 -0.401837 
-1.4857 -0.401837 7.12895 
7.57286 -0.120039 -1.03642 
-0.120039 7.42565 -0.200138 
-1.03642 -0.200138 6.74812 
0.619366 0.06369 -2.15546 
0.06369 0.462927 2.94197 
-2.15546 2.94197 0.427507 
0.79851 0.128563 -2.1659 
0.128563 0.595298 3.02702 
-2.1659 3.02702 0.115992 
0.855581 0.236106 -1.99514 
0.236106 0.776305 2.89096 
-1.99514 2.89096 -0.122086 
0.502123 0.066123 -2.20599 
0.066123 0.452937 2.9469 
-2.20599 2.9469 0.55474 
3.55584 -0.0880646 0.389175 
-0.0880646 3.41366 2.59633 
0.389175 2.59633 3.47647 
3.6157 -0.121951 0.385667 
-0.121951 3.6057 2.59221 
0.385667 2.59221 3.22456 
3.48144 -0.0378194 0.171101 
-0.0378194 3.41337 2.67711 
0.171101 2.67711 3.55115 
3.555 -0.118442 0.212989 
-0.118442 3.51024 2.66124 
0.212989 2.66124 3.38072 
6.77962 0.0304072 -2.06308 
0.0304072 6.53843 -1.93484 
-2.06308 -1.93484 7.33806 
6.87986 0.0448468 -1.98486 
0.0448468 6.92622 -1.53161 
-1.98486 -1.53161 6.85002 
7.29726 -0.134385 -1.93818 
-0.134385 6.74725 -1.24758 
-1.93818 -1.24758 6.6116 
6.68916 0.108291 -2.08752 
0.108291 7.08347 -1.53336 
-2.08752 -1.53336 6.88348 
2.82798 -0.248822 -0.932212 
-0.248822 2.68289 0.0661176 
-0.932212 0.0661176 2.94586 
2.45535 -0.483869 -1.00573 
-0.483869 2.75669 0.365203 
-1.00573 0.365203 3.24468 
3.00094 -0.214176 -1.27943 
-0.214176 2.96356 -0.217348 
-1.27943 -0.217348 2.49222 
2.93977 0.415591 -0.846283 
0.415591 3.24579 0.178819 
-0.846283 0.178819 2.27117 
4.37301 0.0663694 -0.880169 
0.0663694 3.74695 1.86005 
-0.880169 1.86005 3.61427 
3.83121 0.0271689 -0.567054 
0.0271689 3.97757 1.96061 
-0.567054 1.96061 3.92546 
3.87194 0.00302432 -0.587206 
0.00302432 3.74944 2.04841 
-0.587206 2.04841 4.11286 
3.94481 -0.0915642 -0.40761 
-0.0915642 4.05987 2.00781 
-0.40761 2.00781 3.72955 
2.0925 -0.093807 0.341429 
-0.093807 2.52159 -4.58641 
0.341429 -4.58641 1.96498 
2.13396 0.529846 0.452865 
0.529846 1.24822 -4.71605 
0.452865 -4.71605 3.1969 
2.51516 -0.27851 0.639725 
-0.27851 3.09967 -4.66169 
0.639725 -4.66169 0.964237 
2.04864 -0.0137989 -0.450441 
-0.0137989 2.41554 -4.03631 
-0.450441 -4.03631 2.1149 
9.21449 0.0303301 1.81534 
0.0303301 9.37924 -1.88329 
1.81534 -1.88329 10.1535 
9.3678 0.166572 1.74952 
0.166572 9.5207 -2.12291 
1.74952 -2.12291 9.85869 
9.60527 0.0404514 1.80261 
0.0404514 9.61437 -2.02404 
1.80261 -2.02404 9.52756 
9.70351 -0.031501 1.7501 
-0.031501 9.66289 -2.06431 
1.7501 -2.06431 9.38079 
1.8853 -0.0226963 4.60682 
-0.0226963 2.16763 -0.552165 
4.60682 -0.552165 2.32406 
2.20017 -0.0371542 4.49936 
-0.0371542 2.18803 -0.464567 
4.49936 -0.464567 1.98878 
2.27101 -0.0140577 4.59907 
-0.0140577 2.38238 -0.631721 
4.59907 -0.631721 1.7236 
2.26984 0.0102882 4.3056 
0.0102882 2.19621 -0.467304 
4.3056 -0.467304 1.91094 
6.75038 0.110066 4.58417 
0.110066 7.34561 -0.110307 
4.58417 -0.110307 7.98303 
7.49238 0.048554 4.69134 
0.048554 7.52803 -0.220574 
4.69134 -0.220574 7.05861 
7.32399 0.0997158 4.49654 
0.0997158 7.39061 -0.34389 
4.49654 -0.34389 7.36442 
7.50355 0.0133222 4.36581 
0.0133222 7.37444 -0.355793 
4.36581 -0.355793 7.20103 
9.36687 0.0540076 1.06748 
0.0540076 9.54469 3.73806 
1.06748 3.73806 9.97135 
9.41795 0.173104 1.15661 
0.173104 9.51112 3.91667 
1.15661 3.91667 9.95384 
9.63729 0.025723 1.03881 
0.025723 9.68771 3.86871 
1.03881 3.86871 9.5579 
9.742 -0.0283763 1.02776 
-0.0283763 9.72136 3.87733 
1.02776 3.87733 9.41954 
8.83562 0.250045 -4.372 
0.250045 7.58727 -2.04499 
-4.372 -2.04499 7.52079 
7.54693 -0.0272093 -4.14487 
-0.0272093 8.29488 -1.96218 
-4.14487 -1.96218 8.10187 
7.74153 -0.086794 -4.24522 
-0.086794 7.79983 -1.97729 
-4.24522 -1.97729 8.40232 
8.06674 -0.194171 -3.54913 
-0.194171 8.19202 -1.87329 
-3.54913 -1.87329 7.68492 
8.78782 -0.496367 2.85647 
-0.496367 8.64415 -0.793486 
2.85647 -0.793486 9.25101 
9.08801 -0.100088 3.07645 
-0.100088 9.03487 -1.48104 
3.07645 -1.48104 8.56009 
8.75054 -0.0974929 3.13442 
-0.0974929 9.04928 -1.39079 
3.13442 -1.39079 8.88316 
9.00238 -0.196252 2.93812 
-0.196252 8.79863 -0.860432 
2.93812 -0.860432 8.88196 
1.96617 0.0372756 -0.886297 
0.0372756 1.71426 -4.04905 
-0.886297 -4.04905 1.84456 
1.86697 0.109213 -0.766169 
0.109213 2.02628 -4.04746 
-0.766169 -4.04746 1.63173 
1.91805 -0.0652802 -0.9031 
-0.0652802 1.76446 -4.22977 
-0.9031 -4.22977 1.84248 
1.72322 0.0198416 -1.1463 
0.0198416 1.6601 -4.12675 
-1.1463 -4.12675 2.14166 
5.28406 0.245791 2.59822 
0.245791 5.37375 3.98325 
2.59822 3.98325 4.48129 
5.08673 0.0703936 2.66725 
0.0703936 5.02742 3.57304 
2.66725 3.57304 5.02494 
4.7315 -0.366084 2.58917 
-0.366084 4.61064 3.99438 
2.58917 3.99438 5.79695 
4.98048 0.0399719 2.3255 
0.0399719 5.10005 3.27448 
2.3255 3.27448 5.05856 
8.30093 -0.121365 -1.00213 
-0.121365 8.11821 4.13054 
-1.00213 4.13054 8.35601 
8.04657 -0.126307 -1.10721 
-0.126307 8.28454 4.20086 
-1.10721 4.20086 8.44404 
8.21126 0.109486 -1.15914 
0.109486 8.02103 3.94734 
-1.15914 3.94734 8.54287 
8.50972 0.00418371 -0.821629 
0.00418371 8.3956 4.27126 
-0.821629 4.27126 7.86983 
0.626027 0.212819 3.23579 
0.212819 0.57079 -2.21057 
3.23579 -2.21057 -0.0639016 
0.530584 0.219101 3.05088 
0.219101 0.735223 -2.12634 
3.05088 -2.12634 -0.132891 
0.432721 0.120247 3.20577 
0.120247 0.347871 -2.06135 
3.20577 -2.06135 0.352324 
0.340792 0.0588641 3.2784 
0.0588641 0.282725 -2.07823 
3.2784 -2.07823 0.509399 
2.08194 0.0711494 0.798726 
0.0711494 2.15964 -3.16801 
0.798726 -3.16801 1.99035 
1.99273 -0.0504889 0.849519 
-0.0504889 2.11456 -3.11927 
0.849519 -3.11927 2.12464 
1.85588 -0.0838225 0.872886 
-0.0838225 1.96725 -3.13208 
0.872886 -3.13208 2.4088 
1.94473 -0.0657603 0.724895 
-0.0657603 1.93199 -2.95938 
0.724895 -2.95938 2.35521 
0.752546 0.258898 -3.15449 
0.258898 0.560425 -1.08825 
-3.15449 -1.08825 0.148306 
0.529331 0.175844 -3.01101 
0.175844 0.484605 -1.1908 
-3.01101 -1.1908 0.447341 
1.03712 0.118112 -3.15946 
0.118112 0.671341 -1.41562 
-3.15946 -1.41562 -0.247186 
0.479618 0.0901873 -2.99425 
0.0901873 0.367643 -1.08618 
-2.99425 -1.08618 0.614017 
1.17607 -0.047571 1.52508 
-0.047571 0.868244 0.679332 
1.52508 0.679332 1.02626 
0.887016 -0.0104774 1.48319 
-0.0104774 1.02203 0.803816 
1.48319 0.803816 1.16152 
0.828724 -0.00143026 1.62981 
-0.00143026 1.62005 0.677077 
1.62981 0.677077 0.621802 
1.12897 0.0509248 1.44415 
0.0509248 0.920645 0.783695 
1.44415 0.783695 1.02096 
1.22859 0.15617 1.0753 
0.15617 1.14568 3.06474 
1.0753 3.06474 1.16871 
1.11938 -0.0719119 1.07141 
-0.0719119 1.10331 2.93019 
1.07141 2.93019 1.32029 
1.57992 -0.500327 1.09493 
-0.500327 1.1082 2.79093 
1.09493 2.79093 0.854872 
0.967498 -0.00537579 1.03637 
-0.00537579 1.21057 3.25948 
1.03637 3.25948 1.36492 
4.78626 0.174669 -0.548338 
0.174669 5.04392 2.09774 
-0.548338 2.09774 5.16056 
4.82392 0.111611 -0.755946 
0.111611 4.86126 1.94818 
-0.755946 1.94818 5.30556 
5.06095 0.207024 -0.51405 
0.207024 4.92443 2.16644 
-0.51405 2.16644 5.00535 
4.9847 0.159662 -0.279335 
0.159662 5.04547 1.89033 
-0.279335 1.89033 4.96057 
3.67126 -0.0352797 -4.142 
-0.0352797 3.46236 -1.92578 
-4.142 -1.92578 3.6847 
4.25524 -0.217225 -3.52895 
-0.217225 3.97135 -1.87239 
-3.52895 -1.87239 2.59172 
3.76703 -0.00585996 -3.9455 
-0.00585996 3.19026 -1.78873 
-3.9455 -1.78873 3.86102 
3.44002 -0.142694 -3.68582 
-0.142694 2.42039 -1.33208 
-3.68582 -1.33208 4.9579 
8.9095 0.0142409 -2.36469 
0.0142409 8.82006 0.348053 
-2.36469 0.348053 8.947 
8.67207 -0.0341696 -2.4792 
-0.0341696 8.92045 0.258739 
-2.4792 0.258739 9.08404 
8.84451 -0.107498 -2.43479 
-0.107498 9.2351 0.485252 
-2.43479 0.485252 8.59694 
8.98972 0.0419855 -2.44068 
0.0419855 8.85261 0.353454 
-2.44068 0.353454 8.83423 
2.46906 -0.0524194 -0.382571 
-0.0524194 3.02973 -4.61212 
-0.382571 -4.61212 1.98451 
2.36569 -0.311317 -0.906485 
-0.311317 2.68893 -3.87108 
-0.906485 -3.87108 2.42868 
2.33351 -0.118747 -1.74854 
-0.118747 2.09038 -4.07131 
-1.74854 -4.07131 3.05942 
2.25126 -0.0945846 -1.04776 
-0.0945846 2.68278 -4.00973 
-1.04776 -4.00973 2.54927 
1.98089 0.0652813 -2.07862 
0.0652813 1.80707 3.61793 
-2.07862 3.61793 1.39922 
1.75201 -0.0671707 -2.39873 
-0.0671707 1.67367 3.64849 
-2.39873 3.64849 1.7615 
1.7483 0.0487574 -2.19255 
0.0487574 1.6621 3.71408 
-2.19255 3.71408 1.77679 
1.7326 -0.00729076 -2.52616 
-0.00729076 1.44155 3.79132 
-2.52616 3.79132 2.01303 
2.42484 -0.120339 3.79655 
-0.120339 2.84298 2.19959 
3.79655 2.19959 3.00253 
2.87469 -0.296133 4.13463 
-0.296133 2.62111 1.35785 
4.13463 1.35785 2.77455 
3.13017 0.116193 4.38343 
0.116193 2.7058 1.4023 
4.38343 1.4023 2.43437 
2.83761 0.195896 3.7364 
0.195896 2.8245 2.01859 
3.7364 2.01859 2.60824 
4.45795 0.322888 -3.74076 
0.322888 4.68748 -2.94639 
-3.74076 -2.94639 3.48518 
4.26121 0.145733 -3.65014 
0.145733 4.23791 -2.74624 
-3.65014 -2.74624 4.1315 
3.888 -0.575183 -3.62099 
-0.575183 3.53976 -2.77507 
-3.62099 -2.77507 5.20285 
4.15249 0.112856 -3.63841 
0.112856 4.45949 -2.03004 
-3.63841 -2.03004 4.01863 
1.39842 -0.193408 4.04457 
-0.193408 1.4733 -1.49684 
4.04457 -1.49684 1.6427 
1.37156 -0.0521622 4.10543 
-0.0521622 1.66271 -1.57239 
4.10543 -1.57239 1.48015 
1.61326 -0.106512 4.06343 
-0.106512 1.78454 -1.31567 
4.06343 -1.31567 1.11661 
1.06567 -0.0565458 3.93612 
-0.0565458 1.24644 -1.84047 
3.93612 -1.84047 2.2023 
9.51529 -0.0415141 -2.64461 
-0.0415141 9.65204 1.53741 
-2.64461 1.53741 9.38528 
9.26777 -0.0972406 -2.60253 
-0.0972406 9.76748 1.52887 
-2.60253 1.52887 9.51737 
8.99457 -0.0927054 -2.54928 
-0.0927054 9.08248 1.42869 
-2.54928 1.42869 10.4756 
9.59123 -0.081532 -2.52682 
-0.081532 9.70847 1.3979 
-2.52682 1.3979 9.25292 
9.72793 -0.062853 2.2973 
-0.062853 9.29581 1.1642 
2.2973 1.1642 9.84222 
9.77742 -0.0982422 2.45713 
-0.0982422 9.55963 1.11131 
2.45713 1.11131 9.52892 
9.61844 0.157404 2.53126 
0.157404 9.15211 1.35495 
2.53126 1.35495 10.0954 
9.759 -0.0788221 2.49804 
-0.0788221 9.77953 1.05543 
2.49804 1.05543 9.32744 
7.27922 0.0757532 -1.73722 
0.0757532 7.24481 1.25976 
-1.73722 1.25976 7.0184 
7.24834 0.0604266 -1.79006 
0.0604266 7.24872 1.24272 
-1.79006 1.24272 7.04537 
7.56418 -0.165091 -2.12176 
-0.165091 7.31885 1.063 
-2.12176 1.063 6.6594 
6.94849 -0.055078 -1.79467 
-0.055078 6.79294 1.46145 
-1.79467 1.46145 7.801 
3.60213 -0.0403859 -3.06899 
-0.0403859 3.9331 -1.26845 
-3.06899 -1.26845 3.71653 
4.06565 -0.0556223 -3.09971 
-0.0556223 3.81184 -1.34755 
-3.09971 -1.34755 3.37427 
3.62979 0.0400131 -3.02369 
0.0400131 3.96514 -1.1141 
-3.02369 -1.1141 3.65684 
3.60788 -0.087957 -3.20352 
-0.087957 3.67769 -1.04149 
-3.20352 -1.04149 3.96619 
4.21578 -0.199064 -0.524312 
-0.199064 4.34023 2.44213 
-0.524312 2.44213 5.32191 
4.7271 -0.0809812 -0.527931 
-0.0809812 4.77368 2.04421 
-0.527931 2.04421 4.37714 
4.84146 -0.215782 -0.569787 
-0.215782 4.54543 2.08643 
-0.569787 2.08643 4.49103 
4.85771 -0.0969815 -0.168877 
-0.0969815 5.15624 1.59914 
-0.168877 1.59914 3.86398 
2.83411 0.267616 1.72216 
0.267616 3.3596 4.3183 
1.72216 4.3183 2.70926 
2.99218 -0.25192 1.60942 
-0.25192 2.67813 4.20878 
1.60942 4.20878 3.23266 
2.8586 0.0984808 1.59749 
0.0984808 2.92596 4.22278 
1.59749 4.22278 3.11841 
3.27828 0.253442 1.73301 
0.253442 2.66214 3.99628 
1.73301 3.99628 2.96255 
9.69268 -0.0571061 0.243047 
-0.0571061 9.76503 -3.95176 
0.243047 -3.95176 9.53635 
9.43991 -0.220071 0.33766 
-0.220071 9.69979 -3.98578 
0.33766 -3.98578 9.85436 
9.41652 -0.0596074 0.335489 
-0.0596074 9.47972 -3.76308 
0.335489 -3.76308 10.0978 
9.84056 -0.0210874 0.273833 
-0.0210874 9.75079 -3.98123 
0.273833 -3.98123 9.40271 
7.91053 -0.0194161 -2.4128 
-0.0194161 7.75357 -1.72205 
-2.4128 -1.72205 7.69549 
7.8673 -0.0836703 -2.95329 
-0.0836703 8.21101 -2.03625 
-2.95329 -2.03625 7.28129 
8.03225 -0.0843011 -2.56769 
-0.0843011 8.0251 -1.72459 
-2.56769 -1.72459 7.30225 
8.05786 0.0390716 -2.59389 
0.0390716 7.83209 -1.7697 
-2.59389 -1.7697 7.46964 
6.68251 0.0653505 -2.57069 
0.0653505 6.7659 3.72045 
-2.57069 3.72045 6.74946 
6.50537 0.168764 -2.84726 
0.168764 6.53452 3.81361 
-2.84726 3.81361 7.15798 
7.15526 -0.518325 -2.7708 
-0.518325 7.33641 3.55134 
-2.7708 3.55134 5.70621 
6.51164 0.234253 -2.33798 
0.234253 6.74922 3.56291 
-2.33798 3.56291 6.93701 
1.87051 0.0876222 -2.36845 
0.0876222 1.90559 -0.194712 
-2.36845 -0.194712 1.83855 
1.56596 -0.147918 -2.64524 
-0.147918 1.73021 -0.26244 
-2.64524 -0.26244 2.31849 
1.69866 0.0774299 -2.41139 
0.0774299 1.8251 -0.0945188 
-2.41139 -0.0945188 2.0909 
1.90602 0.0547722 -2.42983 
0.0547722 1.77068 -0.0881552 
-2.42983 -0.0881552 1.93795 
4.17524 0.1862 4.12136 
0.1862 3.65746 1.89522 
4.12136 1.89522 3.80351 
3.50301 -0.239981 4.16719 
-0.239981 3.77839 2.20429 
4.16719 2.20429 4.3548 
4.2553 0.0193249 4.11564 
0.0193249 4.27489 1.99136 
4.11564 1.99136 3.10602 
3.73853 0.0100524 3.75617 
0.0100524 3.7316 1.65115 
3.75617 1.65115 4.16607 
7.24805 -0.0402673 -0.268916 
-0.0402673 7.33963 2.5034 
-0.268916 2.5034 6.9555 
7.1252 0.0268754 -0.211066 
0.0268754 7.07863 2.71414 
-0.211066 2.71414 7.33935 
7.77383 -0.022794 0.017973 
-0.022794 7.02631 2.38305 
0.017973 2.38305 6.74305 
7.12597 0.0173658 -0.267287 
0.0173658 7.3712 2.43487 
-0.267287 2.43487 7.04603 
2.85493 0.104817 1.14743 
0.104817 2.81172 1.29151 
1.14743 1.29151 2.64614 
2.66875 0.0463726 1.30289 
0.0463726 2.7622 1.31466 
1.30289 1.31466 2.88185 
2.84098 0.0595569 1.3638 
0.0595569 2.84261 1.13466 
1.3638 1.13466 2.62921 
2.92115 0.074075 1.30693 
0.074075 2.91365 1.29458 
1.30693 1.29458 2.478 
7.38057 0.135133 3.07391 
0.135133 7.63156 3.26041 
3.07391 3.26041 7.19005 
7.36944 -0.326315 2.79755 
-0.326315 7.29039 2.91297 
2.79755 2.91297 7.54236 
7.16611 -0.363682 2.87411 
-0.363682 7.56522 3.14508 
2.87411 3.14508 7.47085 
7.16672 0.0854357 2.81154 
0.0854357 7.22116 2.95856 
2.81154 2.95856 7.81431 
6.49235 0.0977956 4.50543 
0.0977956 6.58629 0.377221 
4.50543 0.377221 6.59619 
7.11558 -0.101111 4.27718 
-0.101111 6.90409 -0.19775 
4.27718 -0.19775 5.65516 
6.47902 0.097584 4.49712 
0.097584 6.56471 0.33042 
4.49712 0.33042 6.6311 
6.15249 -0.195766 3.9417 
-0.195766 6.16622 0.704808 
3.9417 0.704808 7.35613 
2.64121 -0.137784 -0.805046 
-0.137784 3.31915 -0.621446 
-0.805046 -0.621446 2.732 
2.69779 0.0228739 -0.279556 
0.0228739 2.93742 -0.943782 
-0.279556 -0.943782 3.05716 
2.31055 0.0715938 -0.227717 
0.0715938 3.32084 -0.582397 
-0.227717 -0.582397 3.06098 
3.423 0.104884 -0.578854 
0.104884 2.91485 -0.87782 
-0.578854 -0.87782 2.35452 
4.50414 0.0195244 4.00236 
0.0195244 4.47886 -2.12524 
4.00236 -2.12524 4.53884 
4.81395 -0.230609 4.45079 
-0.230609 4.6533 -2.23065 
4.45079 -2.23065 4.05459 
3.91633 0.78652 3.75668 
0.78652 4.28803 -2.084 
3.75668 -2.084 5.31748 
4.95894 -0.314204 4.0757 
-0.314204 4.39887 -1.75746 
4.0757 -1.75746 4.16404 
8.04724 0.0210008 2.88528 
0.0210008 7.97316 1.816 
2.88528 1.816 8.04095 
8.12079 0.0492194 2.92382 
0.0492194 8.10444 1.66799 
2.92382 1.66799 7.83612 
8.12466 0.104825 2.9523 
0.104825 8.37859 1.70665 
2.9523 1.70665 7.5581 
8.07951 0.0160498 2.97722 
0.0160498 8.05277 1.80017 
2.97722 1.80017 7.92907 
7.39897 -0.146612 -4.45197 
-0.146612 7.50696 2.06878 
-4.45197 2.06878 6.8409 
6.72579 0.620311 -3.96034 
0.620311 6.94306 2.12493 
-3.96034 2.12493 8.07796 
7.25622 -0.0349667 -4.23199 
-0.0349667 7.23539 1.97548 
-4.23199 1.97548 7.25521 
7.26298 -0.18285 -4.1778 
-0.18285 7.31167 1.6948 
-4.1778 1.6948 7.17218 
2.07876 0.0561828 -2.78736 
0.0561828 1.8983 1.73256 
-2.78736 1.73256 1.6807 
1.76922 -0.0821975 -3.0384 
-0.0821975 1.85803 1.75018 
-3.0384 1.75018 2.03051 
1.74855 -0.0348122 -2.84927 
-0.0348122 1.66207 1.53379 
-2.84927 1.53379 2.24714 
1.90915 -0.0351279 -2.82243 
-0.0351279 1.88743 1.66698 
-2.82243 1.66698 1.86117 
4.74948 0.085728 0.741262 
0.085728 4.96392 4.94077 
0.741262 4.94077 3.69596 
4.39541 -0.435543 0.568683 
-0.435543 3.51029 4.36639 
0.568683 4.36639 5.50367 
4.49609 0.0531248 0.416657 
0.0531248 4.49442 4.61164 
0.416657 4.61164 4.41886 
4.4613 0.117706 0.088073 
0.117706 4.80858 4.49788 
0.088073 4.49788 4.13949 
6.46676 -0.220873 -0.906696 
-0.220873 6.23035 0.355038 
-0.906696 0.355038 6.38191 
6.45647 0.0243439 -1.03591 
0.0243439 6.40256 0.278317 
-1.03591 0.278317 6.21998 
6.36957 0.345093 -1.10204 
0.345093 6.02373 0.225657 
-1.10204 0.225657 6.68572 
6.4099 -0.0883417 -0.766084 
-0.0883417 6.54731 0.31347 
-0.766084 0.31347 6.12181 
6.23877 -0.0857609 -3.22919 
-0.0857609 5.50907 -1.49575 
-3.22919 -1.49575 6.14431 
6.37054 -0.00480525 -2.998 
-0.00480525 5.86031 -1.248 
-2.998 -1.248 5.6613 
6.02166 0.22125 -3.36311 
0.22125 6.44419 -1.56104 
-3.36311 -1.56104 5.4263 
5.91943 -0.152731 -2.9366 
-0.152731 5.59111 -1.55766 
-2.9366 -1.55766 6.38161 
2.90724 0.222856 0.267629 
0.222856 2.23829 -0.048375 
0.267629 -0.048375 2.87027 
2.6402 0.0177856 0.494129 
0.0177856 2.406 0.124748 
0.494129 0.124748 2.96958 
2.94069 0.071453 0.254831 
0.071453 2.31691 0.259732 
0.254831 0.259732 2.75819 
2.75284 0.0237748 0.254818 
0.0237748 2.77134 0.53146 
0.254818 0.53146 2.4916 
1.19732 0.0638129 -1.28602 
0.0638129 1.27995 -3.92002 
-1.28602 -3.92002 0.866642 
1.22364 -0.0295483 -1.15701 
-0.0295483 1.36193 -3.90219 
-1.15701 -3.90219 0.758342 
1.17143 0.0492185 -1.18367 
0.0492185 1.1366 -3.99856 
-1.18367 -3.99856 1.03589 
1.13722 -0.15259 -1.27755 
-0.15259 0.926579 -4.10559 
-1.27755 -4.10559 1.28011 
7.40909 -0.0523124 -3.14585 
-0.0523124 7.50223 3.42891 
-3.14585 3.42891 7.0903 
7.07064 0.458156 -2.9963 
0.458156 6.90119 3.37918 
-2.9963 3.37918 8.02979 
7.30074 -0.0361289 -3.06421 
-0.0361289 7.34967 3.33464 
-3.06421 3.33464 7.35121 
7.27913 -0.138404 -3.05381 
-0.138404 7.48001 3.08517 
-3.05381 3.08517 7.24248 
0.661259 -0.0373228 -1.21133 
-0.0373228 0.750523 -0.830742 
-1.21133 -0.830742 0.103307 
0.676329 -0.043525 -1.0058 
-0.043525 0.59733 -0.70953 
-1.0058 -0.70953 0.24143 
0.533909 0.019503 -1.10221 
0.019503 0.53574 -0.718337 
-1.10221 -0.718337 0.44544 
0.471894 0.0141375 -1.067 
0.0141375 0.393487 -0.763273 
-1.067 -0.763273 0.649708 
2.52052 -0.313789 -2.6218 
-0.313789 2.95116 3.95348 
-2.6218 3.95348 1.76659 
2.21059 0.875376 -2.35562 
0.875376 1.73631 4.12627 
-2.35562 4.12627 3.29137 
2.46436 -0.417095 -2.49948 
-0.417095 2.39605 3.80984 
-2.49948 3.80984 2.37786 
2.27692 -0.285111 -1.8318 
-0.285111 2.37387 3.00125 
-1.8318 3.00125 2.58748 
7.09362 -0.0895005 -0.882131 
-0.0895005 7.40701 -0.649509 
-0.882131 -0.649509 7.31952 
6.6924 0.23817 -0.871333 
0.23817 6.92828 -0.737457 
-0.871333 -0.737457 8.19946 
7.18229 -0.206208 -0.910393 
-0.206208 7.47143 -0.733127 
-0.910393 -0.733127 7.16642 
7.42748 -0.0838917 -0.868881 
-0.0838917 7.47321 -0.379921 
-0.868881 -0.379921 6.91945 
8.18305 -0.149731 -1.71848 
-0.149731 7.8814 4.28675 
-1.71848 4.28675 6.82681 
7.62917 -0.193358 -0.872153 
-0.193358 7.58506 3.94496 
-0.872153 3.94496 7.67703 
7.16319 -0.209589 -0.345297 
-0.209589 7.12447 4.55915 
-0.345297 4.55915 8.6036 
7.65077 -0.139371 -1.01734 
-0.139371 7.59576 3.98916 
-1.01734 3.98916 7.64474 
3.04693 0.166827 -2.92807 
0.166827 2.75619 3.3302 
-2.92807 3.3302 3.07104 
3.2089 -0.269993 -2.70697 
-0.269993 2.97165 3.44224 
-2.70697 3.44224 2.6936 
3.00637 -0.158628 -3.33069 
-0.158628 2.85724 2.9968 
-3.33069 2.9968 3.01055 
2.84988 0.0832829 -3.22653 
0.0832829 2.84559 2.65962 
-3.22653 2.65962 3.17868 
0.79872 -0.0624236 1.50415 
-0.0624236 0.762078 3.26516 
1.50415 3.26516 -0.083359 
0.642093 0.00510831 1.23611 
0.00510831 0.56778 3.31377 
1.23611 3.31377 0.267566 
0.520493 -0.095547 1.30396 
-0.095547 0.698416 3.17815 
1.30396 3.17815 0.25853 
0.489333 0.0301197 1.23759 
0.0301197 0.404413 3.18602 
1.23759 3.18602 0.583693 
7.16434 0.0115275 1.32635 
0.0115275 7.43774 0.601425 
1.32635 0.601425 6.69901 
7.17332 -0.0151464 1.46894 
-0.0151464 6.91851 0.626843 
1.46894 0.626843 7.20927 
7.11238 -0.0380784 1.52806 
-0.0380784 7.03036 0.685752 
1.52806 0.685752 7.15835 
6.63452 0.00443846 1.30713 
0.00443846 6.88299 0.405687 
1.30713 0.405687 7.78359 
4.48788 0.0835785 -0.395774 
0.0835785 4.79947 2.22112 
-0.395774 2.22112 4.85495 
4.58773 -0.0638901 -0.515674 
-0.0638901 4.94776 2.02515 
-0.515674 2.02515 4.60681 
4.47371 -0.0400233 -0.3091 
-0.0400233 4.64176 2.03083 
-0.3091 2.03083 5.02683 
5.25113 -0.117129 -0.246383 
-0.117129 4.51684 2.01094 
-0.246383 2.01094 4.37434 
8.49804 0.0491697 -0.389432 
0.0491697 8.46235 4.42039 
-0.389432 4.42039 8.44737 
8.30547 0.0345149 -0.398906 
0.0345149 8.33867 4.17441 
-0.398906 4.17441 8.76362 
8.54797 0.0446775 -0.260303 
0.0446775 8.44371 4.34377 
-0.260303 4.34377 8.41608 
8.67166 0.0905767 -0.314255 
0.0905767 8.52932 4.57964 
-0.314255 4.57964 8.20678 
8.88225 -0.116569 -2.26659 
-0.116569 8.93865 1.5897 
-2.26659 1.5897 8.85327 
8.81066 -0.0360064 -2.38962 
-0.0360064 8.92773 1.64483 
-2.38962 1.64483 8.93578 
9.00358 0.517143 -3.04462 
0.517143 7.95705 1.61836 
-3.04462 1.61836 9.71353 
9.89169 0.305242 -1.7802 
0.305242 8.72054 1.09655 
-1.7802 1.09655 8.06194 
0.660532 0.0657025 3.43706 
0.0657025 0.781625 -0.128069 
3.43706 -0.128069 0.173658 
0.616759 0.00622514 3.41994 
0.00622514 0.684629 0.105741 
3.41994 0.105741 0.314427 
0.730945 0.0630239 3.26789 
0.0630239 0.756821 0.0133517 
3.26789 0.0133517 0.12805 
0.496457 0.00437831 3.41846 
0.00437831 0.49391 0.0178908 
3.41846 0.0178908 0.625448 
3.96279 -0.0766477 -4.43533 
-0.0766477 4.2456 -0.291178 
-4.43533 -0.291178 3.81249 
3.62082 -0.0935108 -4.3271 
-0.0935108 4.18561 -0.132453 
-4.3271 -0.132453 4.21444 
4.58835 0.27887 -3.92218 
0.27887 3.84222 -0.320503 
-3.92218 -0.320503 3.59032 
3.47174 -0.296492 -4.1144 
-0.296492 3.9401 -0.339578 
-4.1144 -0.339578 4.60903 
8.6456 -0.0372128 -4.35876 
-0.0372128 8.70165 1.17312 
-4.35876 1.17312 8.73474 
8.6737 -0.0373245 -4.3506 
-0.0373245 8.70473 1.09509 
-4.3506 1.09509 8.70355 
8.68623 -0.146189 -3.95636 
-0.146189 8.26894 1.17324 
-3.95636 1.17324 9.12682 
8.8669 0.0195643 -4.55742 
0.0195643 8.89127 1.08909 
-4.55742 1.08909 8.32382 
8.93004 -0.088311 3.354 
-0.088311 9.07066 3.11904 
3.354 3.11904 9.05524 
8.73904 0.502431 2.97287 
0.502431 8.41393 2.80041 
2.97287 2.80041 9.90298 
8.84483 -0.125014 3.21201 
-0.125014 9.1866 3.09887 
3.21201 3.09887 9.02451 
9.30868 0.250756 3.31262 
0.250756 9.15722 2.89274 
3.31262 2.89274 8.59004 
6.96785 0.113849 -2.05222 
0.113849 6.86177 -1.41475 
-2.05222 -1.41475 6.9306 
6.65974 0.217341 -2.38532 
0.217341 6.68817 -1.25239 
-2.38532 -1.25239 7.41231 
6.70201 0.278385 -1.80128 
0.278385 7.34789 -1.50164 
-1.80128 -1.50164 6.71032 
7.00321 0.0164097 -2.07558 
0.0164097 6.7612 -1.50694 
-2.07558 -1.50694 6.99581 
5.63631 -0.0501875 -1.46384 
-0.0501875 5.73692 -0.895652 
-1.46384 -0.895652 5.48874 
5.64375 0.00081363 -1.16559 
0.00081363 5.75684 -0.788362 
-1.16559 -0.788362 5.46138 
5.63699 0.0720687 -1.55577 
0.0720687 5.26764 -0.984041 
-1.55577 -0.984041 5.95734 
5.48561 -0.0489403 -1.41616 
-0.0489403 5.62187 -0.92166 
-1.41616 -0.92166 5.75449 
2.40822 -0.0170571 0.433678 
-0.0170571 2.95982 4.50868 
0.433678 4.50868 2.13667 
2.37143 -0.359379 0.733861 
-0.359379 2.69704 3.92079 
0.733861 3.92079 2.43623 
2.34557 -0.114796 1.56387 
-0.114796 2.19544 4.06086 
1.56387 4.06086 2.96369 
2.14397 0.000811969 1.07345 
0.000811969 2.75979 3.92974 
1.07345 3.92974 2.60095 
7.29567 0.0678902 -1.73213 
0.0678902 7.44228 -1.59226 
-1.73213 -1.59226 7.23736 
7.03703 -0.150055 -2.05648 
-0.150055 7.47687 -1.48584 
-2.05648 -1.48584 7.46141 
7.0199 -0.145136 -2.11062 
-0.145136 7.30387 -1.68443 
-2.11062 -1.68443 7.65154 
7.06346 -0.310348 -2.28913 
-0.310348 7.22587 -1.55792 
-2.28913 -1.55792 7.68598 
8.50336 -0.21969 1.71646 
-0.21969 9.05113 1.63395 
1.71646 1.63395 9.38277 
8.74028 0.019138 1.72578 
0.019138 9.10517 2.25873 
1.72578 2.25873 9.09182 
9.051 0.0253142 1.6239 
0.0253142 8.92811 1.78943 
1.6239 1.78943 8.95816 
9.11663 -0.165663 1.76697 
-0.165663 9.15317 2.48061 
1.76697 2.48061 8.66747 
0.156973 0.0435481 -1.9446 
0.0435481 0.486187 -1.14527 
-1.9446 -1.14527 0.251639 
0.242578 0.0434498 -2.03879 
0.0434498 0.634007 -1.09223 
-2.03879 -1.09223 0.0182138 
0.261166 -0.0375162 -1.84643 
-0.0375162 0.847618 -1.01446 
-1.84643 -1.01446 -0.213986 
0.139389 0.074039 -2.08602 
0.074039 0.313511 -1.23283 
-2.08602 -1.23283 0.441899 
1.02999 -0.126824 -1.47557 
-0.126824 1.29851 -0.699207 
-1.47557 -0.699207 1.00177 
1.17364 -0.0613134 -1.52536 
-0.0613134 0.98981 -0.631887 
-1.52536 -0.631887 1.16681 
1.19951 -0.0902125 -1.49632 
-0.0902125 0.962069 -0.560397 
-1.49632 -0.560397 1.16869 
0.875154 -0.0867846 -1.18337 
-0.0867846 1.21594 -0.618137 
-1.18337 -0.618137 1.23917 
1.64373 0.0151617 3.10851 
0.0151617 1.49975 3.11341 
3.10851 3.11341 1.60967 
1.86699 0.0219316 2.79142 
0.0219316 1.70401 3.20138 
2.79142 3.20138 1.18214 
1.67091 0.0723752 3.11031 
0.0723752 1.45593 3.22898 
3.11031 3.22898 1.6263 
1.17587 0.0176289 3.33051 
0.0176289 1.22766 2.97146 
3.33051 2.97146 2.34961 
2.02636 -0.975456 -1.9492 
-0.975456 1.45222 -4.08963 
-1.9492 -4.08963 3.59411 
2.36264 0.0570085 -1.77005 
0.0570085 2.40872 -4.19536 
-1.77005 -4.19536 2.30133 
2.80807 0.433004 -2.15968 
0.433004 3.13478 -4.53958 
-2.15968 -4.53958 1.12984 
2.2929 0.29778 -0.798895 
0.29778 2.90697 -3.64517 
-0.798895 -3.64517 1.87283 
6.14649 -0.0480108 -0.64102 
-0.0480108 6.21263 -4.44906 
-0.64102 -4.44906 4.35185 
5.61086 -0.0715752 -0.714431 
-0.0715752 5.3736 -4.11164 
-0.714431 -4.11164 5.72652 
5.28096 0.0744221 -0.851187 
0.0744221 5.16778 -4.62598 
-0.851187 -4.62598 6.26222 
5.59878 -0.176362 -0.632373 
-0.176362 5.48587 -4.26919 
-0.632373 -4.26919 5.62632 
3.25998 -0.0890698 -1.5559 
-0.0890698 3.30626 3.97423 
-1.5559 3.97423 3.46324 
3.23738 0.285918 -1.43423 
0.285918 3.04943 3.83311 
-1.43423 3.83311 3.74267 
3.33368 -0.0681368 -1.3355 
-0.0681368 3.54121 4.00602 
-1.3355 4.00602 3.15459 
3.5355 -0.123079 -1.45138 
-0.123079 3.51016 3.78999 
-1.45138 3.78999 2.98382 
3.35321 0.151445 -3.28649 
0.151445 3.52978 -3.32931 
-3.28649 -3.32931 3.3812 
3.55473 -0.155079 -3.2317 
-0.155079 3.56074 -3.17092 
-3.2317 -3.17092 3.14872 
3.22633 0.289993 -3.04525 
0.289993 2.11444 -2.72903 
-3.04525 -2.72903 4.92342 
4.5279 -0.159476 -2.44386 
-0.159476 3.69904 -2.66819 
-2.44386 -2.66819 2.03725 
0.764555 -0.366875 2.28279 
-0.366875 1.87836 1.29122 
2.28279 1.29122 0.284417 
0.909021 0.0790156 1.48342 
0.0790156 1.0823 1.39125 
1.48342 1.39125 0.936013 
0.3094 -0.250741 1.11998 
-0.250741 1.1733 1.66074 
1.11998 1.66074 1.44463 
1.10293 0.00276476 1.74768 
0.00276476 0.965363 1.23409 
1.74768 1.23409 0.859041 
3.4693 0.641014 -3.94639 
0.641014 3.15403 -2.22958 
-3.94639 -2.22958 1.91442 
2.6281 -0.221388 -4.16153 
-0.221388 2.91613 -1.99155 
-4.16153 -1.99155 2.99353 
2.62551 -0.174261 -4.2676 
-0.174261 2.49488 -2.05805 
-4.2676 -2.05805 3.41737 
2.94771 -0.200172 -3.93572 
-0.200172 2.73404 -1.5495 
-3.93572 -1.5495 2.856 
2.97021 0.275771 -3.00694 
0.275771 3.31568 0.283767 
-3.00694 0.283767 3.20373 
3.22365 -0.204068 -3.06042 
-0.204068 2.66708 0.104578 
-3.06042 0.104578 3.5989 
3.34341 0.147692 -3.0438 
0.147692 3.44038 -0.251035 
-3.0438 -0.251035 2.70583 
2.98345 0.132754 -3.18344 
0.132754 3.54733 -0.0216328 
-3.18344 -0.0216328 2.95885 
9.46704 -0.0287641 1.1668 
-0.0287641 9.16246 -2.5706 
1.1668 -2.5706 10.3278 
9.75182 0.121489 1.025 
0.121489 9.69069 -2.40867 
1.025 -2.40867 9.51481 
9.80396 0.0763109 0.945647 
0.0763109 9.50657 -2.44926 
0.945647 -2.44926 9.64679 
9.83088 -0.00933839 0.887682 
-0.00933839 9.80558 -2.43173 
0.887682 -2.43173 9.32085 
9.14584 -0.0583061 -0.722668 
-0.0583061 9.13585 3.72924 
-0.722668 3.72924 10.3741 
9.65791 0.0669796 -0.645337 
0.0669796 9.48199 3.57513 
-0.645337 3.57513 9.51587 
9.63431 -0.033317 -0.578025 
-0.033317 9.38871 3.54953 
-0.578025 3.54953 9.63276 
9.64013 0.0260509 -0.502327 
0.0260509 9.68464 3.54634 
-0.502327 3.54634 9.331 
9.17537 -0.0781802 -0.550257 
-0.0781802 9.20902 -2.28628 
-0.550257 -2.28628 10.3884 
9.68383 -0.0522311 -0.647218 
-0.0522311 9.49811 -2.22175 
-0.647218 -2.22175 9.59084 
9.64412 -0.15347 -0.62213 
-0.15347 9.52628 -2.17266 
-0.62213 -2.17266 9.60237 
9.71272 -0.0236039 -0.737179 
-0.0236039 9.70268 -2.1174 
-0.737179 -2.1174 9.35738 
7.52081 -0.134597 1.52753 
-0.134597 7.55756 1.94699 
1.52753 1.94699 7.2393 
7.58594 -0.168806 1.87992 
-0.168806 7.28402 2.14304 
1.87992 2.14304 7.44771 
7.54296 -0.237061 1.81985 
-0.237061 7.47371 2.14465 
1.81985 2.14465 7.301 
7.44141 -0.0540866 1.45767 
-0.0540866 7.35301 2.12035 
1.45767 2.12035 7.52325 
0.837414 -0.208345 1.64333 
-0.208345 0.472535 -0.503808 
1.64333 -0.503808 -0.225871 
0.395618 -0.0706644 1.66726 
-0.0706644 0.279986 -0.716732 
1.66726 -0.716732 0.408473 
0.59671 -0.162789 1.4993 
-0.162789 0.49715 -0.721741 
1.4993 -0.721741 -0.00978271 
0.236613 0.0922056 1.51128 
0.0922056 0.282469 -0.832607 
1.51128 -0.832607 0.564996 
1.62911 0.0260175 0.450247 
0.0260175 1.61637 -4.60394 
0.450247 -4.60394 3.56709 
2.27151 -0.027538 0.583031 
-0.027538 2.27368 -3.86957 
0.583031 -3.86957 2.26739 
3.0128 -0.0207686 0.790031 
-0.0207686 2.93841 -4.54131 
0.790031 -4.54131 0.86136 
2.3314 0.00229024 0.207225 
0.00229024 2.24286 -3.81891 
0.207225 -3.81891 2.23831 
7.72539 -0.167677 0.125444 
-0.167677 7.78095 -0.463861 
0.125444 -0.463861 7.33477 
7.50519 -0.00825331 -0.330171 
-0.00825331 7.42217 -0.478861 
-0.330171 -0.478861 7.91375 
7.79624 -0.0301793 -0.104084 
-0.0301793 7.51076 -0.501826 
-0.104084 -0.501826 7.53411 
7.71273 -0.0366269 -0.121454 
-0.0366269 7.59771 -0.41975 
-0.121454 -0.41975 7.53068 
8.84308 -0.0983977 -2.14478 
-0.0983977 8.8938 1.39328 
-2.14478 1.39328 8.87998 
8.13615 8.0429e-05 -1.92068 
8.0429e-05 9.02644 0.862202 
-1.92068 0.862202 9.45427 
8.9099 -0.000244771 -1.9849 
-0.000244771 8.84791 1.26311 
-1.9849 1.26311 8.85904 
8.54434 0.217816 -2.49077 
0.217816 9.73851 1.78619 
-2.49077 1.78619 8.33401 
6.49554 -0.0128308 -3.40799 
-0.0128308 6.30639 -2.08309 
-3.40799 -2.08309 6.8667 
6.77037 0.0232065 -3.02911 
0.0232065 6.79287 -2.47797 
-3.02911 -2.47797 6.10539 
6.56193 0.074984 -3.19752 
0.074984 6.40586 -2.18348 
-3.19752 -2.18348 6.70084 
6.47227 0.153507 -3.1336 
0.153507 6.42703 -2.23497 
-3.1336 -2.23497 6.76932 
3.92892 0.00614213 0.415487 
0.00614213 3.98707 2.04527 
0.415487 2.04527 4.11689 
3.8655 -0.0592222 0.496244 
-0.0592222 3.94466 1.66987 
0.496244 1.66987 4.22272 
4.09245 0.0386321 0.452334 
0.0386321 4.01774 2.07914 
0.452334 2.07914 3.92269 
4.09814 0.0596215 0.460251 
0.0596215 3.94749 1.78507 
0.460251 1.78507 3.98725 
2.52797 -0.209644 -3.25251 
-0.209644 2.13371 -3.57237 
-3.25251 -3.57237 3.39222 
2.83526 0.552971 -2.89941 
0.552971 3.69898 -3.39576 
-2.89941 -3.39576 1.51966 
2.68346 -0.220338 -3.17507 
-0.220338 2.59345 -3.32341 
-3.17507 -3.32341 2.777 
2.7783 -0.167495 -3.25784 
-0.167495 2.475 -2.8212 
-3.25784 -2.8212 2.8006 
0.511497 -0.0785838 -0.678063 
-0.0785838 0.556559 -2.14161 
-0.678063 -2.14161 0.00601636 
0.233155 -0.0299895 -0.679832 
-0.0299895 0.402461 -2.02069 
-0.679832 -2.02069 0.438457 
0.263089 -0.210375 -0.545986 
-0.210375 0.690304 -2.02973 
-0.545986 -2.02973 0.12068 
0.257811 -0.034607 -0.700245 
-0.034607 0.275542 -2.01685 
-0.700245 -2.01685 0.54072 
3.03696 0.142945 -3.00325 
0.142945 3.03392 -1.09883 
-3.00325 -1.09883 3.45105 
3.32305 -0.134997 -2.98813 
-0.134997 3.022 -1.03098 
-2.98813 -1.03098 3.17688 
3.43217 -0.229182 -3.06155 
-0.229182 3.11321 -0.813628 
-3.06155 -0.813628 2.97655 
3.36041 -0.100258 -3.3095 
-0.100258 3.39506 -0.939671 
-3.3095 -0.939671 2.76645 
4.63135 0.203837 2.42364 
0.203837 4.76601 1.99042 
2.42364 1.99042 4.59165 
4.46417 0.180785 2.55421 
0.180785 4.7066 1.75911 
2.55421 1.75911 4.81824 
4.64546 0.134192 2.7046 
0.134192 4.71955 1.80991 
2.7046 1.80991 4.624 
4.57629 0.12273 2.75164 
0.12273 4.55081 2.03235 
2.75164 2.03235 4.86191 
5.44915 -0.140414 -2.56806 
-0.140414 5.31579 3.71069 
-2.56806 3.71069 5.30393 
5.04786 0.0604215 -2.9805 
0.0604215 5.03049 3.48252 
-2.9805 3.48252 5.99052 
5.42424 -0.203182 -2.60772 
-0.203182 5.30825 3.65026 
-2.60772 3.65026 5.33637 
5.44545 0.0489759 -2.04921 
0.0489759 5.86593 3.54429 
-2.04921 3.54429 4.75749 
5.3858 -0.240728 -3.68376 
-0.240728 5.6928 -2.98461 
-3.68376 -2.98461 6.88569 
6.15384 -0.0820247 -3.63546 
-0.0820247 6.26482 -3.05149 
-3.63546 -3.05149 5.54563 
6.02994 0.0579351 -3.67282 
0.0579351 5.94388 -2.4977 
-3.67282 -2.4977 5.99047 
6.00015 0.124089 -3.33331 
0.124089 5.98839 -2.52135 
-3.33331 -2.52135 5.97575 
4.02634 -0.0529297 1.7475 
-0.0529297 4.02938 -1.50335 
1.7475 -1.50335 4.40977 
4.27825 -0.0776106 1.7041 
-0.0776106 4.206 -1.72852 
1.7041 -1.72852 3.98125 
4.14088 0.018669 1.59565 
0.018669 3.97814 -1.70153 
1.59565 -1.70153 4.34648 
4.21617 0.119146 1.78513 
0.119146 4.12128 -1.78806 
1.78513 -1.78806 4.12804 
1.52507 -0.0516973 0.175691 
-0.0516973 1.33198 -4.47376 
0.175691 -4.47376 1.47727 
1.25421 -0.174817 0.13402 
-0.174817 1.51873 -4.60061 
0.13402 -4.60061 1.56137 
2.12897 -0.142752 0.0521916 
-0.142752 1.54731 -3.96644 
0.0521916 -3.96644 0.658035 
0.887265 -0.111885 0.0402563 
-0.111885 0.777785 -4.60491 
0.0402563 -4.60491 2.66927 
3.55904 -0.00573914 1.11768 
-0.00573914 3.45943 -4.35412 
1.11768 -4.35412 3.44623 
3.49213 -0.103577 1.13687 
-0.103577 3.45361 -4.4637 
1.13687 -4.4637 3.51896 
2.80531 0.175614 1.41429 
0.175614 3.0126 -3.85817 
1.41429 -3.85817 4.64679 
3.88424 0.177411 0.689738 
0.177411 4.15789 -3.96852 
0.689738 -3.96852 2.42256 
1.50109 -0.126465 3.18112 
-0.126465 1.54183 -3.20134 
3.18112 -3.20134 1.58148 
1.73378 0.0684635 2.94068 
0.0684635 2.01265 -2.77429 
2.94068 -2.77429 0.877965 
1.48464 -0.0806463 3.22133 
-0.0806463 1.59752 -3.14435 
3.22133 -3.14435 1.54224 
0.89272 -0.00767407 3.21428 
-0.00767407 1.20231 -3.20336 
3.21428 -3.20336 2.52937 
0.379585 0.0934798 1.10037 
0.0934798 0.191736 2.71483 
1.10037 2.71483 0.513393 
1.01672 0.0377267 0.857796 
0.0377267 0.35793 2.5263 
0.857796 2.5263 -0.289932 
0.683231 0.0889083 0.845285 
0.0889083 0.418229 2.87064 
0.845285 2.87064 -0.0167451 
0.0378799 0.00629331 0.947881 
0.00629331 0.320355 2.92347 
0.947881 2.92347 0.72648 
1.03839 0.071707 4.4264 
0.071707 0.900745 0.397954 
4.4264 0.397954 0.600983 
0.905704 0.240193 3.82028 
0.240193 1.72796 0.738658 
3.82028 0.738658 -0.0935486 
1.09931 -0.038237 4.30822 
-0.038237 0.678702 0.389003 
4.30822 0.389003 0.762107 
0.658584 0.0804488 4.42756 
0.0804488 0.850102 0.53951 
4.42756 0.53951 1.03143 
6.41502 -0.124497 -1.37965 
-0.124497 6.39515 3.18921 
-1.37965 3.18921 6.30726 
6.22389 -0.0732914 -1.44552 
-0.0732914 6.45072 3.07967 
-1.44552 3.07967 6.44281 
6.45892 -0.0165585 -1.53514 
-0.0165585 6.5566 3.19449 
-1.53514 3.19449 6.1019 
6.23301 0.197425 -1.41237 
0.197425 6.13105 3.2058 
-1.41237 3.2058 6.75336 
2.53966 -0.144477 -0.441718 
-0.144477 1.8689 1.65074 
-0.441718 1.65074 2.33382 
2.34768 0.0537272 -0.345627 
0.0537272 1.96817 1.19019 
-0.345627 1.19019 2.42654 
2.04212 5.38699e-05 -0.350023 
5.38699e-05 1.75029 0.822045 
-0.350023 0.822045 2.94998 
2.36459 -0.0561272 -0.87276 
-0.0561272 2.84652 1.32859 
-0.87276 1.32859 1.53128 
1.35954 0.0340369 -4.44711 
0.0340369 1.4359 -0.225938 
-4.44711 -0.225938 1.48124 
1.51501 0.0964431 -4.54806 
0.0964431 1.23519 -0.136198 
-4.54806 -0.136198 1.52647 
1.6137 0.15434 -4.0269 
0.15434 1.87688 -0.287279 
-4.0269 -0.287279 0.786097 
0.906417 0.0318774 -4.549 
0.0318774 0.934711 0.0691756 
-4.549 0.0691756 2.43555 
4.42143 -0.00244914 -1.11886 
-0.00244914 4.7169 4.84921 
-1.11886 4.84921 3.56361 
4.45352 0.0107812 -0.805225 
0.0107812 3.05857 4.33391 
-0.805225 4.33391 5.18986 
4.21592 0.021952 -1.09734 
0.021952 4.22889 4.42986 
-1.09734 4.42986 4.25713 
4.11497 -0.10093 -1.33838 
-0.10093 4.64469 4.15223 
-1.33838 4.15223 3.94229 
6.44921 -0.0337432 -0.382422 
-0.0337432 6.42421 4.64955 
-0.382422 4.64955 6.35931 
6.47227 0.00970922 -0.330469 
0.00970922 6.40192 4.53231 
-0.330469 4.53231 6.35855 
5.51703 0.359899 -0.369121 
0.359899 6.01317 4.14598 
-0.369121 4.14598 7.70254 
7.04527 0.308776 -0.199926 
0.308776 7.03408 3.97028 
-0.199926 3.97028 5.15339 
7.27849 -0.0438921 2.75995 
-0.0438921 7.15486 2.4252 
2.75995 2.4252 6.74956 
6.89681 -0.194072 2.53421 
-0.194072 6.56557 2.02838 
2.53421 2.02838 7.72053 
7.23163 0.0296294 2.58402 
0.0296294 6.84691 2.21458 
2.58402 2.21458 7.10436 
7.14949 0.0758691 2.51094 
0.0758691 7.09816 2.37133 
2.51094 2.37133 6.93525 
5.47439 -0.11908 0.747994 
-0.11908 5.17119 4.88164 
0.747994 4.88164 6.43972 
5.63438 -0.0501922 0.370764 
-0.0501922 5.64826 4.64878 
0.370764 4.64878 5.80266 
5.80724 0.392518 0.48759 
0.392518 6.59327 4.48541 
0.48759 4.48541 4.6848 
5.58155 -0.141054 0.0654421 
-0.141054 5.41053 4.42574 
0.0654421 4.42574 6.09322 
0.624499 0.168678 -0.427465 
0.168678 0.488161 2.03407 
-0.427465 2.03407 -0.0859856 
0.486593 0.202221 -0.602171 
0.202221 0.59181 2.20405 
-0.602171 2.20405 -0.0517286 
0.374472 0.0572421 -0.528076 
0.0572421 0.284183 2.13903 
-0.528076 2.13903 0.368018 
0.248515 -0.00981462 -0.548608 
-0.00981462 0.255613 2.13513 
-0.548608 2.13513 0.522546 
1.43475 -0.255313 -1.19921 
-0.255313 1.22169 3.33562 
-1.19921 3.33562 0.958149 
1.12287 -0.0735198 -1.21623 
-0.0735198 1.1141 3.63657 
-1.21623 3.63657 1.37762 
1.29697 0.0114453 -1.17019 
0.0114453 1.16125 3.62433 
-1.17019 3.62433 1.15636 
1.17975 -0.181199 -1.18448 
-0.181199 1.1448 3.34199 
-1.18448 3.34199 1.29004 
6.60524 -0.041675 1.89774 
-0.041675 6.81227 -4.11021 
1.89774 -4.11021 6.89436 
6.54681 0.274609 2.25909 
0.274609 6.25443 -4.22275 
2.25909 -4.22275 7.51062 
7.01909 -0.376577 2.05024 
-0.376577 7.35262 -4.19528 
2.05024 -4.19528 5.94015 
6.52418 0.0477859 1.52476 
0.0477859 6.64264 -3.78863 
1.52476 -3.78863 7.14504 
8.93015 -0.141509 -2.30769 
-0.141509 9.15339 -2.60616 
-2.30769 -2.60616 8.92409 
8.2955 0.169 -2.5677 
0.169 9.22921 -1.81997 
-2.5677 -1.81997 9.48291 
8.89578 0.137234 -2.54867 
0.137234 9.11499 -2.18697 
-2.54867 -2.18697 8.99686 
9.03865 0.117346 -2.03745 
0.117346 9.53847 -2.72021 
-2.03745 -2.72021 8.43051 
6.49892 -0.358888 -4.23531 
-0.358888 5.56634 0.565957 
-4.23531 0.565957 4.6564 
5.38162 -0.104529 -4.86545 
-0.104529 5.39995 0.800134 
-4.86545 0.800134 5.94009 
5.44461 0.0219046 -4.71157 
0.0219046 5.64501 0.50517 
-4.71157 0.50517 5.63204 
5.33431 0.134417 -4.65361 
0.134417 5.62107 0.478401 
-4.65361 0.478401 5.76628 
7.07878 0.271432 4.59523 
0.271432 7.6785 -0.559441 
4.59523 -0.559441 8.91845 
7.61078 0.0797755 4.53713 
0.0797755 7.98647 -0.358872 
4.53713 -0.358872 8.07848 
8.70564 -0.416702 4.73147 
-0.416702 7.90529 -0.454984 
4.73147 -0.454984 7.0648 
7.78371 -0.00156445 4.01788 
-0.00156445 8.01503 0.3178 
4.01788 0.3178 7.87698 
1.81639 0.0729038 1.7587 
0.0729038 0.752525 -0.825273 
1.7587 -0.825273 0.752047 
1.05457 -0.0028916 1.64463 
-0.0028916 1.03089 -0.863206 
1.64463 -0.863206 1.23551 
1.00131 -0.119788 1.6471 
-0.119788 1.19136 -0.980709 
1.6471 -0.980709 1.12829 
0.956638 0.0736528 1.5021 
0.0736528 1.05972 -1.06721 
1.5021 -1.06721 1.3046 
2.682 -0.0815907 1.66344 
-0.0815907 2.69207 -4.17471 
1.66344 -4.17471 2.73758 
2.74178 -0.0921225 1.59303 
-0.0921225 2.8737 -4.27802 
1.59303 -4.27802 2.49617 
2.58065 -0.0736582 1.52992 
-0.0736582 2.68108 -4.29816 
1.52992 -4.29816 2.84992 
2.62119 0.00767178 1.6276 
0.00767178 2.6617 -4.13128 
1.6276 -4.13128 2.82876 
1.34539 -0.277965 -0.272403 
-0.277965 0.965176 1.25763 
-0.272403 1.25763 0.341507 
0.955914 -0.181444 0.0609635 
-0.181444 0.479531 0.724714 
0.0609635 0.724714 1.21663 
0.907838 0.0357651 -0.215793 
0.0357651 0.85364 0.832231 
-0.215793 0.832231 0.890595 
0.919757 -0.0829471 -0.222617 
-0.0829471 0.896231 1.0214 
-0.222617 1.0214 0.836085 
3.97643 0.131413 -4.69257 
0.131413 4.72075 0.0975173 
-4.69257 0.0975173 4.43569 
4.41518 0.173654 -4.07605 
0.173654 4.53036 -0.0425041 
-4.07605 -0.0425041 4.18733 
4.48853 0.0984193 -4.33907 
0.0984193 4.72323 -0.975908 
-4.33907 -0.975908 3.92111 
4.34958 -0.122892 -3.99151 
-0.122892 4.76326 -0.686761 
-3.99151 -0.686761 4.02003 
1.01475 -0.0279477 -0.895813 
-0.0279477 1.15251 -2.06312 
-0.895813 -2.06312 0.904729 
0.752296 0.0505977 -0.746267 
0.0505977 1.06065 -1.90807 
-0.746267 -1.90807 1.25904 
1.03715 0.00252957 -0.876523 
0.00252957 1.11154 -1.89623 
-0.876523 -1.89623 0.923298 
1.01637 -0.05512 -0.837248 
-0.05512 0.959409 -1.92497 
-0.837248 -1.92497 1.0962 
1.77255 -0.00198847 3.50855 
-0.00198847 1.38971 -2.5858 
3.50855 -2.5858 1.83908 
1.85968 0.151457 3.29342 
0.151457 1.82367 -2.47976 
3.29342 -2.47976 1.31799 
1.76869 0.0542893 3.68087 
0.0542893 1.54307 -2.4899 
3.68087 -2.4899 1.68958 
1.56825 0.0852456 3.88816 
0.0852456 1.29398 -2.50965 
3.88816 -2.50965 2.13911 
8.03582 0.016132 1.47778 
0.016132 8.30271 2.73486 
1.47778 2.73486 8.84975 
8.68817 -0.0982318 1.78685 
-0.0982318 8.83703 3.23626 
1.78685 3.23626 7.66308 
8.41705 -0.0722406 1.69654 
-0.0722406 8.33754 2.97579 
1.69654 2.97579 8.43369 
8.42694 -0.171593 1.60859 
-0.171593 8.33558 3.02692 
1.60859 3.02692 8.42577 
6.2412 -0.0729549 -3.22679 
-0.0729549 5.82068 -2.20859 
-3.22679 -2.20859 6.0869 
5.86269 0.0259933 -2.90254 
0.0259933 5.62512 -2.21884 
-2.90254 -2.21884 6.66096 
6.0417 -0.0523568 -3.48999 
-0.0523568 6.47553 -2.0855 
-3.48999 -2.0855 5.63154 
6.30412 -0.129416 -3.12171 
-0.129416 6.03554 -2.32664 
-3.12171 -2.32664 5.80911 
0.808125 -0.164842 2.32378 
-0.164842 0.591993 -2.51314 
2.32378 -2.51314 -0.30136 
0.349175 -0.110004 2.30267 
-0.110004 0.326557 -2.25083 
2.30267 -2.25083 0.423026 
0.394607 -0.27884 2.43017 
-0.27884 0.570789 -2.24687 
2.43017 -2.24687 0.133362 
0.296112 -0.0741411 2.35074 
-0.0741411 0.188732 -2.13419 
2.35074 -2.13419 0.613914 
9.60184 -0.212207 -1.51242 
-0.212207 9.48288 -2.34704 
-1.51242 -2.34704 9.56847 
9.14724 0.0825935 -1.51347 
0.0825935 9.03429 -2.28917 
-1.51347 -2.28917 10.4717 
9.63645 -0.00546051 -1.55854 
-0.00546051 9.43995 -2.34788 
-1.55854 -2.34788 9.5768 
9.65299 -0.0017243 -1.65489 
-0.0017243 9.69685 -2.30919 
-1.65489 -2.30919 9.30335 
7.64132 0.15208 -0.928596 
0.15208 7.09582 4.76578 
-0.928596 4.76578 8.6728 
8.06374 0.301473 -1.0643 
0.301473 7.63711 4.34929 
-1.0643 4.34929 7.70908 
7.67572 -0.440633 -0.727926 
-0.440633 8.96938 4.66627 
-0.727926 4.66627 6.76484 
8.01806 0.215228 -0.725465 
0.215228 7.66769 3.54491 
-0.725465 3.54491 7.72419 
9.37469 0.0114455 -1.943 
0.0114455 9.49732 -0.0203904 
-1.943 -0.0203904 9.99925 
9.41911 0.103187 -2.01088 
0.103187 9.53902 -0.240199 
-2.01088 -0.240199 9.91313 
9.57021 -0.00242455 -2.05536 
-0.00242455 9.61861 -0.123566 
-2.05536 -0.123566 9.68244 
9.69818 -0.0194306 -2.02894 
-0.0194306 9.67916 -0.160116 
-2.02894 -0.160116 9.49393 
9.67265 0.167455 -2.42324 
0.167455 9.66328 -3.91502 
-2.42324 -3.91502 9.70649 
9.76478 0.0960858 -2.52967 
0.0960858 9.7477 -3.86733 
-2.52967 -3.86733 9.52994 
9.51515 0.0991482 -2.22734 
0.0991482 9.39494 -3.98672 
-2.22734 -3.98672 10.1323 
9.6098 0.120986 -2.37112 
0.120986 9.74307 -3.92699 
-2.37112 -3.92699 9.68955 
9.47147 0.039099 -3.84947 
0.039099 9.37339 -0.284438 
-3.84947 -0.284438 10.1308 
9.69067 0.0187273 -3.70834 
0.0187273 9.67717 -0.29034 
-3.70834 -0.29034 9.60784 
9.54191 0.21807 -3.69242 
0.21807 9.59009 -0.226701 
-3.69242 -0.226701 9.84368 
9.78444 -0.0669706 -3.67862 
-0.0669706 9.7532 -0.264718 
-3.67862 -0.264718 9.43805 
5.24664 -0.00832716 2.80904 
-0.00832716 5.14013 1.64771 
2.80904 1.64771 5.50086 
5.24153 -0.0919557 2.75505 
-0.0919557 5.35205 1.61859 
2.75505 1.61859 5.29406 
5.3792 -0.0222181 2.74106 
-0.0222181 5.39935 1.69474 
2.74106 1.69474 5.10908 
5.29246 -0.0187533 2.92972 
-0.0187533 5.3397 1.69973 
2.92972 1.69973 5.25547 
0.3372 -0.090132 0.654669 
-0.090132 0.515722 -2.64232 
0.654669 -2.64232 0.478239 
0.534833 -0.146308 0.694102 
-0.146308 0.434287 -2.60883 
0.694102 -2.60883 0.362042 
0.965707 0.00205249 0.740431 
0.00205249 0.898776 -2.69624 
0.740431 -2.69624 -0.533321 
0.274959 0.0137772 0.771484 
0.0137772 0.378513 -2.5442 
0.771484 -2.5442 0.677691 
1.75675 0.00913184 0.485033 
0.00913184 1.49906 4.22737 
0.485033 4.22737 1.1434 
1.56547 -0.0100657 0.70743 
-0.0100657 1.41002 4.37003 
0.70743 4.37003 1.42371 
1.48976 0.0624364 0.861295 
0.0624364 1.4539 4.26467 
0.861295 4.26467 1.45555 
1.43075 0.0198679 1.09007 
0.0198679 1.15085 4.37321 
1.09007 4.37321 1.8176 
9.59255 -0.0810491 3.77254 
-0.0810491 9.30717 -1.06625 
3.77254 -1.06625 10.1036 
9.59216 -0.141204 3.94458 
-0.141204 9.49793 -1.08222 
3.94458 -1.08222 9.91324 
9.7186 -0.032764 3.92636 
-0.032764 9.72522 -0.96309 
3.92636 -0.96309 9.55951 
9.70235 0.022291 3.96256 
0.022291 9.84817 -1.01087 
3.96256 -1.01087 9.45282 
9.42018 -0.120684 -0.966739 
-0.120684 9.64599 -2.51033 
-0.966739 -2.51033 9.64734 
9.49358 0.0135554 -0.894049 
0.0135554 9.73653 -2.53833 
-0.894049 -2.53833 9.4834 
9.12393 -0.0323141 -0.859138 
-0.0323141 9.16038 -2.66142 
-0.859138 -2.66142 10.4292 
9.67519 0.0547832 -0.927646 
0.0547832 9.73231 -2.38008 
-0.927646 -2.38008 9.30601 
3.33884 -0.0189449 0.572561 
-0.0189449 3.19291 2.57016 
0.572561 2.57016 2.95102 
3.08649 0.00871973 0.538303 
0.00871973 3.09396 2.19927 
0.538303 2.19927 3.30233 
3.26235 0.0507646 0.528071 
0.0507646 3.15182 2.25683 
0.528071 2.25683 3.06861 
3.2211 0.157998 0.421526 
0.157998 3.04052 2.27851 
0.421526 2.27851 3.22116 
2.56227 -0.207342 -0.150821 
-0.207342 2.66012 2.57046 
-0.150821 2.57046 2.77214 
2.6377 0.0412214 -0.449685 
0.0412214 2.67135 2.57797 
-0.449685 2.57797 2.68548 
2.49479 -0.239214 -0.241586 
-0.239214 2.71076 2.50093 
-0.241586 2.50093 2.78899 
2.50454 -0.0617725 -0.0377728 
-0.0617725 2.50204 2.70553 
-0.0377728 2.70553 2.98796 
3.82491 -0.0834257 2.50921 
-0.0834257 4.01173 -1.99131 
2.50921 -1.99131 3.64239 
4.17069 0.0629703 2.6857 
0.0629703 4.25721 -2.48505 
2.6857 -2.48505 3.05113 
3.53275 -0.0193859 2.72013 
-0.0193859 3.54383 -2.05839 
2.72013 -2.05839 4.40246 
3.82696 -0.213733 2.44457 
-0.213733 3.96007 -1.92339 
2.44457 -1.92339 3.692 
9.19044 -0.0350003 -2.7749 
-0.0350003 9.19029 -0.996427 
-2.7749 -0.996427 10.3089 
9.71325 -0.0406428 -2.9131 
-0.0406428 9.38695 -1.14168 
-2.9131 -1.14168 9.58939 
9.69055 -0.203514 -2.93948 
-0.203514 9.46776 -1.11942 
-2.93948 -1.11942 9.53128 
9.64456 -0.0949004 -2.88305 
-0.0949004 9.67734 -1.28154 
-2.88305 -1.28154 9.36769 
4.09862 0.0377312 -2.60293 
0.0377312 4.11635 2.44694 
-2.60293 2.44694 3.85789 
4.21919 -0.0996793 -2.89493 
-0.0996793 4.17972 2.28486 
-2.89493 2.28486 3.67395 
3.82172 0.104271 -2.54386 
0.104271 4.00679 2.52674 
-2.54386 2.52674 4.24435 
4.01542 0.0464211 -2.70398 
0.0464211 3.99386 2.28691 
-2.70398 2.28691 4.06359 
9.44856 0.0234016 -3.60734 
0.0234016 9.45534 -0.994619 
-3.60734 -0.994619 9.74774 
9.45359 0.042705 -3.52528 
0.042705 9.45492 -1.04508 
-3.52528 -1.04508 9.74313 
9.3792 0.0336306 -3.64361 
0.0336306 9.33199 -1.12677 
-3.64361 -1.12677 9.94045 
9.58493 0.0219592 -3.53224 
0.0219592 9.56253 -1.06573 
-3.53224 -1.06573 9.50418 
0.777 0.0156349 0.151626 
0.0156349 0.656012 0.609982 
0.151626 0.609982 -0.0107328 
0.765341 -0.0422661 0.248325 
-0.0422661 0.451143 0.777284 
0.248325 0.777284 0.205795 
0.591878 0.0260378 0.134228 
0.0260378 0.414274 0.712276 
0.134228 0.712276 0.416127 
0.458609 0.0260416 0.156287 
0.0260416 0.368037 0.729397 
0.156287 0.729397 0.595633 
3.14826 0.146056 1.44818 
0.146056 3.50465 4.45791 
1.44818 4.45791 2.26742 
3.03951 -0.172649 1.28913 
-0.172649 2.4223 4.5449 
1.28913 4.5449 3.45853 
3.10839 0.0267874 1.11231 
0.0267874 3.03317 4.35323 
1.11231 4.35323 2.77877 
3.1721 0.0480481 0.910549 
0.0480481 2.97774 3.974 
0.910549 3.974 2.7705 
9.14588 0.110666 -4.62079 
0.110666 7.80047 0.666556 
-4.62079 0.666556 7.2798 
7.69969 0.0550168 -4.51329 
0.0550168 8.23615 1.06421 
-4.51329 1.06421 8.29031 
7.26557 -0.111629 -4.6326 
-0.111629 7.75835 1.15629 
-4.6326 1.15629 9.20224 
7.87691 0.154781 -3.85174 
0.154781 8.38234 1.4453 
-3.85174 1.4453 7.9669 
8.77398 -0.438134 0.133005 
-0.438134 8.68782 3.70029 
0.133005 3.70029 9.3098 
9.086 -0.115752 0.172937 
-0.115752 9.02095 3.54015 
0.172937 3.54015 8.66465 
9.01094 0.166608 0.182999 
0.166608 8.87521 3.61041 
0.182999 3.61041 8.88544 
8.9544 0.113711 0.166964 
0.113711 8.97634 3.5612 
0.166964 3.5612 8.84085 
0.615019 -0.0708245 -1.17424 
-0.0708245 0.600701 -0.483533 
-1.17424 -0.483533 0.285925 
0.709506 0.0297296 -1.34132 
0.0297296 0.645922 -0.58808 
-1.34132 -0.58808 0.146216 
0.825104 -0.0420351 -1.12592 
-0.0420351 0.442689 -0.598727 
-1.12592 -0.598727 0.233851 
0.540678 -0.0600758 -1.23548 
-0.0600758 0.397444 -0.468875 
-1.23548 -0.468875 0.563522 
4.49428 -0.162932 0.801048 
-0.162932 4.11291 0.436395 
0.801048 0.436395 4.90307 
4.51602 0.00356352 0.840084 
0.00356352 4.42412 0.63195 
0.840084 0.63195 4.57012 
4.56605 0.137483 0.887277 
0.137483 4.66032 0.602413 
0.887277 0.602413 4.28389 
4.50396 0.0209696 0.994345 
0.0209696 4.42662 0.558019 
0.994345 0.558019 4.57969 
9.68822 0.000313993 -1.04034 
0.000313993 9.64838 -3.62851 
-1.04034 -3.62851 9.57757 
9.38555 0.127265 -1.10654 
0.127265 9.43969 -3.70616 
-1.10654 -3.70616 10.0889 
9.55161 0.0789028 -0.968178 
0.0789028 9.45618 -3.56364 
-0.968178 -3.56364 9.90638 
9.69879 -0.0573539 -0.943892 
-0.0573539 9.76167 -3.63003 
-0.943892 -3.63003 9.45371 
0.745681 0.0784616 0.528222 
0.0784616 1.21851 -4.28287 
0.528222 -4.28287 0.693708 
0.796512 -0.0476119 0.341463 
-0.0476119 1.14121 -4.23361 
0.341463 -4.23361 0.720178 
1.58903 0.151476 0.282728 
0.151476 1.14097 -3.81384 
0.282728 -3.81384 -0.0720984 
0.920143 0.166756 0.209227 
0.166756 0.378363 -4.39295 
0.209227 -4.39295 1.3594 
6.49269 0.242617 2.06056 
0.242617 5.67599 -4.10322 
2.06056 -4.10322 6.83165 
6.45917 0.133306 1.99836 
0.133306 6.27482 -4.08642 
1.99836 -4.08642 6.26635 
6.53938 -0.192412 1.91539 
-0.192412 6.83902 -4.37584 
1.91539 -4.37584 5.62194 
6.56126 -0.0670286 2.02242 
-0.0670286 6.58233 -3.40521 
2.02242 -3.40521 5.85674 
9.21812 0.170597 2.15333 
0.170597 9.49562 -2.96406 
2.15333 -2.96406 10.097 
9.55915 0.131537 2.23739 
0.131537 9.40475 -2.69502 
2.23739 -2.69502 9.8468 
9.69172 0.0382473 2.10932 
0.0382473 9.59712 -2.73561 
2.10932 -2.73561 9.52186 
9.80401 -0.0153012 2.09485 
-0.0153012 9.65482 -2.64956 
2.09485 -2.64956 9.35187 
1.10962 0.0395465 -2.24674 
0.0395465 1.05135 0.10132 
-2.24674 0.10132 0.760847 
1.01082 0.116906 -2.02819 
0.116906 0.667068 0.108817 
-2.02819 0.108817 1.24393 
1.02799 0.0320972 -2.06367 
0.0320972 0.951184 0.012114 
-2.06367 0.012114 0.942642 
0.948075 -0.0811326 -2.17434 
-0.0811326 0.933675 0.0190739 
-2.17434 0.0190739 1.04007 
9.4642 -0.164129 2.59727 
-0.164129 9.63253 -0.885378 
2.59727 -0.885378 9.7165 
9.47712 -0.0577488 2.51903 
-0.0577488 9.74257 -0.836005 
2.51903 -0.836005 9.59355 
9.31026 -0.116699 2.40707 
-0.116699 9.30667 -0.785848 
2.40707 -0.785848 10.1963 
9.69817 -0.044958 2.62293 
-0.044958 9.73414 -0.86929 
2.62293 -0.86929 9.38092 
1.51879 0.029277 -4.18358 
0.029277 1.53317 -1.69379 
-4.18358 -1.69379 1.40534 
1.71438 0.0398792 -3.95065 
0.0398792 1.79894 -1.47016 
-3.95065 -1.47016 0.943974 
1.57406 0.100463 -4.08899 
0.100463 1.39333 -1.79366 
-4.08899 -1.79366 1.4899 
1.18882 -0.00908282 -4.09352 
-0.00908282 1.0938 -1.88346 
-4.09352 -1.88346 2.17468 
1.03409 -0.041519 -1.91837 
-0.041519 1.24461 3.78463 
-1.91837 3.78463 0.945534 
1.35222 -0.0233682 -1.94856 
-0.0233682 1.23661 3.49506 
-1.94856 3.49506 0.635405 
1.01052 0.0371609 -1.99718 
0.0371609 1.1821 3.74317 
-1.99718 3.74317 1.03161 
1.09345 0.181211 -1.84258 
0.181211 0.817412 3.92411 
-1.84258 3.92411 1.31337 
8.81392 0.0786239 -0.157568 
0.0786239 8.84172 2.18369 
-0.157568 2.18369 9.19406 
8.85186 0.0260448 -0.185044 
0.0260448 8.95668 1.94445 
-0.185044 1.94445 9.04117 
9.12462 0.124037 -0.131736 
0.124037 8.99441 1.89125 
-0.131736 1.89125 8.73067 
8.95496 -0.041309 -0.108582 
-0.041309 8.98358 2.11714 
-0.108582 2.11714 8.91116 
3.64561 -0.0518297 2.01813 
-0.0518297 3.8481 -1.57835 
2.01813 -1.57835 3.72969 
3.42241 -0.14518 1.75917 
-0.14518 3.54914 -1.46976 
1.75917 -1.46976 4.25185 
3.83727 -0.10347 2.24313 
-0.10347 3.97363 -1.48868 
2.24313 -1.48868 3.4125 
3.62319 -0.00888572 2.26898 
-0.00888572 3.83027 -1.66999 
2.26898 -1.66999 3.76993 
9.27494 -0.0531193 -0.190806 
-0.0531193 9.29148 4.03251 
-0.190806 4.03251 10.1759 
9.3577 -0.00480638 -0.124606 
-0.00480638 9.56799 3.83123 
-0.124606 3.83123 9.81663 
9.60908 0.00897934 -0.153503 
0.00897934 9.56768 3.88866 
-0.153503 3.88866 9.56556 
9.7235 0.0471931 -0.186643 
0.0471931 9.57942 3.80733 
-0.186643 3.80733 9.4394 
9.60319 0.165758 -0.236703 
0.165758 9.63866 2.90571 
-0.236703 2.90571 9.58585 
9.14335 0.0177117 -0.028521 
0.0177117 9.45378 2.75907 
-0.028521 2.75907 10.2306 
9.51272 0.102273 -0.243001 
0.102273 9.69175 2.99188 
-0.243001 2.99188 9.62322 
9.68025 0.0646448 -0.323688 
0.0646448 9.76816 3.10359 
-0.323688 3.10359 9.37928 
8.56059 0.0661412 3.5953 
0.0661412 8.83816 2.46041 
3.5953 2.46041 8.52175 
8.46062 0.0746029 3.63657 
0.0746029 8.56849 2.50454 
3.63657 2.50454 8.89139 
8.52418 0.0424742 3.84378 
0.0424742 8.79791 2.47462 
3.84378 2.47462 8.59841 
8.49539 0.170745 3.84449 
0.170745 9.09197 2.34459 
3.84449 2.34459 8.33314 
7.03397 0.114336 0.745927 
0.114336 7.40375 -3.17399 
0.745927 -3.17399 7.20851 
7.30784 0.101235 1.07049 
0.101235 7.22078 -3.44353 
1.07049 -3.44353 7.11761 
6.9179 -0.055361 0.673118 
-0.055361 7.36736 -3.19816 
0.673118 -3.19816 7.36097 
7.14312 -0.0356254 0.932353 
-0.0356254 7.01181 -3.45193 
0.932353 -3.45193 7.4913 
0.75995 0.227628 -2.18469 
0.227628 2.08181 -3.38516 
-2.18469 -3.38516 0.960813 
1.14927 -0.0888844 -1.45253 
-0.0888844 1.35658 -3.09861 
-1.45253 -3.09861 1.29672 
1.03655 0.0912281 -1.84894 
0.0912281 1.40579 -3.31796 
-1.84894 -3.31796 1.36023 
0.671723 0.194297 -1.09881 
0.194297 1.47643 -2.8292 
-1.09881 -2.8292 1.65442 
1.81678 -0.100969 -0.419453 
-0.100969 1.43347 4.43443 
-0.419453 4.43443 1.51224 
1.5992 -0.156461 0.0205273 
-0.156461 2.1351 4.22158 
0.0205273 4.22158 1.02819 
1.169 -0.0121842 -0.488241 
-0.0121842 1.16891 4.23244 
-0.488241 4.23244 2.42459 
1.74408 -0.0291869 -0.256202 
-0.0291869 1.30164 4.3506 
-0.256202 4.3506 1.71677 
9.30398 -0.193622 -2.11175 
-0.193622 9.48971 1.78913 
-2.11175 1.78913 9.97729 
9.66911 -0.0516357 -2.09084 
-0.0516357 9.57277 1.64046 
-2.09084 1.64046 9.52909 
9.46504 -0.188056 -1.93176 
-0.188056 9.28755 1.55664 
-1.93176 1.55664 10.0184 
9.75513 0.0391143 -2.14316 
0.0391143 9.67775 1.66489 
-2.14316 1.66489 9.3381 
6.55965 -0.217448 3.41372 
-0.217448 6.5481 3.15499 
3.41372 3.15499 6.39041 
7.04671 0.0264832 3.52274 
0.0264832 7.00339 2.61991 
3.52274 2.61991 5.44806 
6.46268 -0.0527047 3.31766 
-0.0527047 6.53811 3.09074 
3.31766 3.09074 6.49737 
6.35375 0.131678 2.6637 
0.131678 5.68969 2.92983 
2.6637 2.92983 7.45471 
7.26746 -0.0768948 -2.38084 
-0.0768948 7.27778 1.40994 
-2.38084 1.40994 6.75393 
7.01365 0.167762 -2.27508 
0.167762 7.21099 1.59853 
-2.27508 1.59853 7.07453 
7.12561 0.106537 -2.31811 
0.106537 7.14014 1.60433 
-2.31811 1.60433 7.03342 
6.85114 -0.135048 -2.03712 
-0.135048 6.82896 1.61775 
-2.03712 1.61775 7.61907 
8.68241 -0.018911 0.351985 
-0.018911 8.50693 -4.46091 
0.351985 -4.46091 8.57304 
8.52007 0.0202479 0.513943 
0.0202479 8.61998 -4.50006 
0.513943 -4.50006 8.62232 
8.4151 -0.020839 0.61919 
-0.020839 8.5032 -4.26434 
0.61919 -4.26434 8.84407 
8.75263 -0.0537185 0.229286 
-0.0537185 8.74688 -4.63682 
0.229286 -4.63682 8.26286 
0.853378 0.0153781 -2.54688 
0.0153781 0.413973 2.32201 
-2.54688 2.32201 0.0389225 
0.842014 0.124602 -2.56624 
0.124602 0.576867 2.57781 
-2.56624 2.57781 -0.112607 
0.445288 0.069943 -2.57851 
0.069943 0.481392 2.36619 
-2.57851 2.36619 0.379595 
0.302009 -0.0152269 -2.54666 
-0.0152269 0.435488 2.27009 
-2.54666 2.27009 0.568777 
1.40249 -0.00565568 -4.45428 
-0.00565568 1.421 0.259242 
-4.45428 0.259242 1.4815 
1.69971 -0.0956335 -4.04162 
-0.0956335 1.75868 0.35093 
-4.04162 0.35093 0.846596 
1.5503 -0.0765405 -4.51451 
-0.0765405 1.20086 0.137576 
-4.51451 0.137576 1.55383 
0.975919 0.0166689 -4.52937 
0.0166689 0.910345 -0.0584845 
-4.52937 -0.0584845 2.41873 
1.22158 -0.00412479 2.37289 
-0.00412479 1.04974 2.60331 
2.37289 2.60331 1.04688 
1.36903 0.0616871 2.15586 
0.0616871 1.08851 2.80603 
2.15586 2.80603 0.860664 
1.27459 -0.164813 2.45793 
-0.164813 0.538258 2.43721 
2.45793 2.43721 1.50536 
0.966293 0.022334 2.2321 
0.022334 1.13634 2.62186 
2.2321 2.62186 1.21557 
0.570612 -0.00558631 -1.20569 
-0.00558631 0.529941 -3.37733 
-1.20569 -3.37733 0.344209 
0.591336 -0.0401371 -1.23065 
-0.0401371 0.673453 -3.22825 
-1.23065 -3.22825 0.179974 
0.692016 -0.113018 -1.44675 
-0.113018 0.684646 -3.32885 
-1.44675 -3.32885 0.0681013 
0.421172 0.025975 -1.26312 
0.025975 0.40602 -3.33261 
-1.26312 -3.33261 0.61757 
1.38178 -0.0270009 -0.3005 
-0.0270009 1.65432 4.51471 
-0.3005 4.51471 1.35477 
2.03787 -0.160756 -0.105613 
-0.160756 1.5956 4.07216 
-0.105613 4.07216 0.757399 
1.23728 -0.0567744 -0.233219 
-0.0567744 1.56868 4.3273 
-0.233219 4.3273 1.5849 
0.974633 -0.0499188 -0.174933 
-0.0499188 0.996027 4.50411 
-0.174933 4.50411 2.42021 
0.912292 0.0147012 2.44955 
0.0147012 0.953148 -2.77771 
2.44955 -2.77771 -0.478042 
0.299514 -0.023414 2.42216 
-0.023414 0.62114 -2.9414 
2.42216 -2.9414 0.466743 
0.453957 -0.14269 2.44668 
-0.14269 0.569 -2.91998 
2.44668 -2.91998 0.364441 
0.278686 0.0530369 2.58496 
0.0530369 0.502246 -2.99349 
2.58496 -2.99349 0.606465 
5.62334 -0.218079 3.39818 
-0.218079 5.2382 3.46387 
3.39818 3.46387 6.55851 
6.02412 0.585815 3.05929 
0.585815 6.65783 3.36748 
3.05929 3.36748 4.73809 
5.77813 -0.105382 3.32528 
-0.105382 5.72793 3.18893 
3.32528 3.18893 5.91398 
5.8857 -0.0970637 3.28447 
-0.0970637 5.51397 2.59421 
3.28447 2.59421 6.02038 
8.94239 -0.0889468 -0.012933 
-0.0889468 9.0407 -0.711467 
-0.012933 -0.711467 9.02682 
9.15033 0.0481367 -0.0862131 
0.0481367 9.05832 -0.791886 
-0.0862131 -0.791886 8.80127 
8.92359 0.295999 0.0280342 
0.295999 8.78343 -0.494319 
0.0280342 -0.494319 9.3029 
9.02295 -0.0572787 0.00545093 
-0.0572787 9.04262 -0.618868 
0.00545093 -0.618868 8.94435 
7.15652 0.0501855 2.12276 
0.0501855 7.27822 4.12831 
2.12276 4.12831 7.223 
7.36158 0.135157 2.09036 
0.135157 7.34311 4.2963 
2.09036 4.2963 6.95306 
6.95587 -0.530475 2.15644 
-0.530475 6.75836 4.00266 
2.15644 4.00266 7.94352 
7.23864 0.194304 1.81951 
0.194304 7.20709 4.0802 
1.81951 4.0802 7.21202 
7.09603 0.0695839 -1.2852 
0.0695839 7.41136 4.33817 
-1.2852 4.33817 7.36578 
7.4299 0.1388 -1.47721 
0.1388 6.36853 4.39719 
-1.47721 4.39719 8.07473 
7.34222 0.0127933 -1.34754 
0.0127933 7.39177 4.47411 
-1.34754 4.47411 7.13917 
7.08216 -0.0609941 -1.21466 
-0.0609941 7.40775 4.15528 
-1.21466 4.15528 7.38325 
5.45745 0.0963208 -4.02831 
0.0963208 4.97262 2.21177 
-4.02831 2.21177 4.47775 
5.03675 -0.495874 -3.80671 
-0.495874 4.8911 1.70065 
-3.80671 1.70065 4.97996 
4.60731 0.0430788 -4.17176 
0.0430788 4.81549 1.31185 
-4.17176 1.31185 5.48501 
4.87949 -0.293643 -4.05418 
-0.293643 5.1112 1.79816 
-4.05418 1.79816 4.91712 
3.73864 -0.106697 3.31706 
-0.106697 3.43772 -3.09533 
3.31706 -3.09533 3.73473 
3.93988 -0.110208 2.89682 
-0.110208 3.91937 -3.25872 
2.89682 -3.25872 3.05183 
3.7296 0.0567107 3.19075 
0.0567107 3.53158 -3.12704 
3.19075 -3.12704 3.6499 
3.01456 -0.00951164 3.27267 
-0.00951164 3.36055 -2.56438 
3.27267 -2.56438 4.53597 
5.84542 -0.142806 2.02846 
-0.142806 5.35308 4.39913 
2.02846 4.39913 6.11048 
5.78168 0.230823 1.56973 
0.230823 6.61186 4.19213 
1.56973 4.19213 4.91544 
5.8384 0.103047 1.99078 
0.103047 5.84933 4.06897 
1.99078 4.06897 5.62125 
5.92629 -0.134024 1.90252 
-0.134024 5.31781 3.62102 
1.90252 3.62102 6.06488 
6.01371 -0.350858 0.448133 
-0.350858 6.54409 -4.41581 
0.448133 -4.41581 4.83691 
5.86617 0.0294855 0.557964 
0.0294855 5.70216 -4.60196 
0.557964 -4.60196 5.82638 
5.58396 0.126884 0.777458 
0.126884 5.26962 -4.84862 
0.777458 -4.84862 6.54114 
5.75959 0.186436 0.0790114 
0.186436 5.53569 -4.49034 
0.0790114 -4.49034 6.09944 
4.808 -0.0652613 -3.15641 
-0.0652613 4.5933 -3.19946 
-3.15641 -3.19946 5.01085 
5.08731 -0.0222585 -3.05583 
-0.0222585 5.31632 -3.57106 
-3.05583 -3.57106 4.00851 
4.80379 -0.0861096 -3.11762 
-0.0861096 4.69148 -3.17965 
-3.11762 -3.17965 4.91688 
4.24546 0.168176 -2.72825 
0.168176 4.70632 -2.66626 
-2.72825 -2.66626 5.46037 
1.22365 -0.101252 3.75982 
-0.101252 1.13195 0.478935 
3.75982 0.478935 1.07235 
1.14561 -0.0752812 3.78221 
-0.0752812 0.973588 0.403274 
3.78221 0.403274 1.30875 
1.26907 -0.0699351 3.50279 
-0.0699351 1.2155 0.398065 
3.50279 0.398065 0.943374 
1.18612 0.0285503 3.55551 
0.0285503 1.0395 0.39704 
3.55551 0.39704 1.20233 
1.56276 0.0263882 -0.749859 
0.0263882 1.40188 -4.397 
-0.749859 -4.397 1.45047 
1.46595 0.0790259 -0.883932 
0.0790259 1.43982 -4.27689 
-0.883932 -4.27689 1.50934 
1.80347 0.007149 -0.447709 
0.007149 1.4897 -4.18366 
-0.447709 -4.18366 1.12195 
1.39784 0.0304848 -1.09286 
0.0304848 1.1325 -4.39426 
-1.09286 -4.39426 1.88478 
8.84023 -0.0584646 4.27589 
-0.0584646 9.08906 0.110059 
4.27589 0.110059 9.17319 
8.93593 0.0259312 4.20412 
0.0259312 8.93238 -0.00588895 
4.20412 -0.00588895 9.23419 
8.86404 0.0341521 4.46607 
0.0341521 9.18813 -0.00611536 
4.46607 -0.00611536 9.05032 
9.58741 -0.184487 4.58543 
-0.184487 8.84619 -0.0611953 
4.58543 -0.0611953 8.66889 
1.4983 -0.137596 -4.00955 
-0.137596 1.64553 -1.14507 
-4.00955 -1.14507 0.925899 
1.39735 -0.121868 -4.13344 
-0.121868 1.2942 -1.10327 
-4.13344 -1.10327 1.37819 
1.41993 -0.114864 -4.33378 
-0.114864 1.35878 -1.01143 
-4.33378 -1.01143 1.29102 
1.27621 -0.235004 -4.38915 
-0.235004 1.28705 -0.937424 
-4.38915 -0.937424 1.50647 
0.571454 0.0525993 1.41749 
0.0525993 0.513227 -1.26456 
1.41749 -1.26456 0.229656 
0.587698 0.0312425 1.54316 
0.0312425 0.592002 -1.43904 
1.54316 -1.43904 0.134636 
0.42502 0.0572319 1.51757 
0.0572319 0.579586 -1.28237 
1.51757 -1.28237 0.309731 
0.371426 0.0484655 1.43022 
0.0484655 0.393148 -1.33101 
1.43022 -1.33101 0.549763 
4.40113 -0.057234 -4.73071 
-0.057234 4.66191 -0.237594 
-4.73071 -0.237594 5.1739 
4.77182 0.102927 -4.36955 
0.102927 4.7119 -0.397204 
-4.36955 -0.397204 4.75322 
5.48553 0.175166 -4.70204 
0.175166 4.9323 -0.134685 
-4.70204 -0.134685 3.81911 
4.58912 0.0044416 -4.18586 
0.0044416 4.79022 -0.299498 
-4.18586 -0.299498 4.85759 
2.85441 0.260427 -1.44117 
0.260427 3.8824 -4.53868 
-1.44117 -4.53868 2.1234 
3.04021 -0.23803 -1.3138 
-0.23803 2.3132 -4.55926 
-1.3138 -4.55926 3.50681 
3.09 -0.0226434 -1.14732 
-0.0226434 2.90692 -4.30567 
-1.14732 -4.30567 2.86329 
3.14432 -0.0975783 -0.907903 
-0.0975783 2.89589 -3.84897 
-0.907903 -3.84897 2.82001 
2.21069 0.0276478 -2.35577 
0.0276478 2.12025 4.02484 
-2.35577 4.02484 3.30433 
2.33237 0.0882879 -1.60818 
0.0882879 2.71391 3.91719 
-1.60818 3.91719 2.58898 
2.76437 -0.0920831 -1.27906 
-0.0920831 3.14811 4.45927 
-1.27906 4.45927 1.72279 
2.32544 0.0169027 -1.65027 
0.0169027 2.69424 3.97052 
-1.65027 3.97052 2.61558 
2.08591 -0.035074 -3.39886 
-0.035074 2.12726 -0.659001 
-3.39886 -0.659001 2.01971 
1.98362 -0.0218244 -3.31994 
-0.0218244 1.95884 -0.739828 
-3.31994 -0.739828 2.29042 
1.93217 0.0413859 -3.3331 
0.0413859 1.92224 -0.48936 
-3.3331 -0.48936 2.37847 
1.80066 0.0287219 -3.49002 
0.0287219 1.88846 -0.66342 
-3.49002 -0.66342 2.54376 
4.09844 0.190643 -3.2286 
0.190643 4.13059 -3.10156 
-3.2286 -3.10156 4.07608 
4.68963 0.51521 -3.48206 
0.51521 4.22662 -3.25292 
-3.48206 -3.25292 3.38885 
3.28389 -0.790589 -3.46596 
-0.790589 3.81433 -3.1267 
-3.46596 -3.1267 5.20688 
4.30734 0.116109 -2.32901 
0.116109 3.8926 -2.89135 
-2.32901 -2.89135 4.10516 
7.62471 0.0705321 4.44064 
0.0705321 8.35328 -1.11345 
4.44064 -1.11345 8.27324 
7.15507 -0.132019 4.50486 
-0.132019 7.81953 -1.04216 
4.50486 -1.04216 9.27664 
9.10855 0.0698495 4.68968 
0.0698495 8.02889 -0.683967 
4.68968 -0.683967 7.11379 
8.07915 0.0670866 3.82971 
0.0670866 8.32776 -1.49155 
3.82971 -1.49155 7.84432 
7.13344 -0.0148735 2.95754 
-0.0148735 7.27855 3.5351 
2.95754 3.5351 9.45646 
8.13055 -0.22755 3.21544 
-0.22755 8.91952 3.51585 
3.21544 3.51585 6.81837 
8.00038 0.252236 2.80396 
0.252236 7.86271 2.59781 
2.80396 2.59781 8.00536 
8.1261 0.198386 2.7308 
0.198386 7.81383 3.14225 
2.7308 3.14225 7.92852 
3.27881 0.158132 -2.71186 
0.158132 2.58431 0.871295 
-2.71186 0.871295 2.94943 
3.12936 0.0700867 -2.42502 
0.0700867 2.75304 0.943548 
-2.42502 0.943548 2.93016 
3.06691 0.0835408 -2.40621 
0.0835408 2.96511 0.752455 
-2.40621 0.752455 2.78052 
2.42851 0.0519197 -2.56017 
0.0519197 2.96844 1.05999 
-2.56017 1.05999 3.4156 
4.96905 0.0344321 -1.44064 
0.0344321 5.61857 2.777 
-1.44064 2.777 6.36068 
5.84596 0.0428334 -1.57844 
0.0428334 5.53554 3.17939 
-1.57844 3.17939 5.5668 
5.69673 -0.0791038 -1.44664 
-0.0791038 5.5797 3.00877 
-1.44664 3.00877 5.67186 
5.96964 -0.0553181 -1.07324 
-0.0553181 6.04214 2.98898 
-1.07324 2.98898 4.93652 
0.602094 -0.242586 2.01564 
-0.242586 0.636135 3.24201 
2.01564 3.24201 0.115845 
0.911777 -0.104112 1.98096 
-0.104112 0.778303 3.02874 
1.98096 3.02874 -0.336006 
0.484539 -0.0695909 1.95938 
-0.0695909 0.525694 3.206 
1.95938 3.206 0.343842 
0.431619 -0.0316103 1.96909 
-0.0316103 0.405525 3.287 
1.96909 3.287 0.51693 
1.68871 -0.155835 -3.53017 
-0.155835 1.7592 2.28333 
-3.53017 2.28333 1.43773 
1.55976 2.38144e-05 -3.66463 
2.38144e-05 1.59217 2.43031 
-3.66463 2.43031 1.73371 
1.56638 0.0336868 -3.51416 
0.0336868 1.7004 2.34732 
-3.51416 2.34732 1.61885 
1.59236 0.0526692 -3.53692 
0.0526692 1.54261 2.55736 
-3.53692 2.55736 1.75066 
5.10444 0.291344 -3.01118 
0.291344 5.31404 -3.65893 
-3.01118 -3.65893 4.52378 
4.80931 -0.0375139 -2.48331 
-0.0375139 4.74416 -3.12235 
-2.48331 -3.12235 5.38879 
5.02576 -0.284494 -2.69877 
-0.284494 4.6186 -3.65921 
-2.69877 -3.65921 5.29789 
5.00636 -0.150227 -2.60851 
-0.150227 4.83909 -3.48451 
-2.60851 -3.48451 5.0968 
8.91731 0.0373433 2.17197 
0.0373433 9.06768 -3.52235 
2.17197 -3.52235 9.05968 
9.03883 -0.0563337 2.48175 
-0.0563337 8.88532 -3.73237 
2.48175 -3.73237 9.12052 
8.557 -0.305867 2.06348 
-0.305867 8.96378 -3.39173 
2.06348 -3.39173 9.52389 
8.95963 -0.112174 2.73461 
-0.112174 9.31622 -3.7954 
2.73461 -3.7954 8.76882 
1.08967 -0.231758 0.375253 
-0.231758 1.32446 0.648846 
0.375253 0.648846 0.751504 
0.899948 -0.0733137 0.49347 
-0.0733137 0.996935 1.06047 
0.49347 1.06047 1.26875 
1.17073 -0.00258647 0.549938 
-0.00258647 0.947178 0.926445 
0.549938 0.926445 1.04772 
0.931905 -0.0858605 0.331981 
-0.0858605 1.11398 0.705914 
0.331981 0.705914 1.11975 
2.71375 -0.073127 0.278854 
-0.073127 2.76892 -4.54483 
0.278854 -4.54483 2.80835 
2.75005 -0.108532 0.0900081 
-0.108532 3.35604 -4.6787 
0.0900081 -4.6787 2.18492 
2.55524 -0.0267179 0.184741 
-0.0267179 2.61186 -4.72648 
0.184741 -4.72648 3.12392 
2.74211 0.0158847 0.308693 
0.0158847 2.59149 -4.38947 
0.308693 -4.38947 2.95742 
5.94634 -0.0109583 -1.1655 
-0.0109583 5.81356 -4.40641 
-1.1655 -4.40641 5.90257 
5.6532 -0.0193785 -1.07466 
-0.0193785 5.40845 -4.72695 
-1.07466 -4.72695 6.60081 
5.7408 0.0820564 -0.859836 
0.0820564 6.89321 -4.50592 
-0.859836 -4.50592 5.02846 
5.96695 -0.109858 -1.259 
-0.109858 5.59587 -4.01155 
-1.259 -4.01155 6.09965 
8.23261 -0.0642263 2.39173 
-0.0642263 9.23906 2.25769 
2.39173 2.25769 9.57668 
8.82317 -0.115732 2.9601 
-0.115732 9.54331 3.12219 
2.9601 3.12219 8.68187 
8.95405 0.0421236 2.6937 
0.0421236 9.03411 2.88421 
2.6937 2.88421 9.06018 
9.07796 -0.0278344 2.53554 
-0.0278344 8.92389 2.75763 
2.53554 2.75763 9.04649 
1.48896 0.13321 0.500367 
0.13321 1.674 -4.17573 
0.500367 -4.17573 1.56576 
1.24267 0.0174157 0.475853 
0.0174157 1.49966 -4.3177 
0.475853 -4.3177 1.98639 
1.6306 -0.0302174 0.646613 
-0.0302174 1.81766 -4.07165 
0.646613 -4.07165 1.28046 
1.68558 0.0232544 0.510245 
0.0232544 1.65629 -4.30762 
0.510245 -4.30762 1.38685 
1.95774 0.263431 -0.975431 
0.263431 2.21346 -4.41439 
-0.975431 -4.41439 2.17105 
2.1932 -0.35407 -0.838075 
-0.35407 1.36354 -4.72796 
-0.838075 -4.72796 2.78551 
2.29779 0.139435 -0.899054 
0.139435 2.66226 -4.71112 
-0.899054 -4.71112 1.3822 
1.95958 0.132796 -0.720141 
0.132796 2.08309 -3.89002 
-0.720141 -3.89002 2.29957 
1.97975 0.193807 0.934568 
0.193807 2.15816 4.39094 
0.934568 4.39094 2.05216 
2.16381 -0.356086 0.853058 
-0.356086 1.41854 4.67195 
0.853058 4.67195 2.60774 
2.12694 0.188936 0.91141 
0.188936 2.61018 4.63598 
0.91141 4.63598 1.45295 
1.9298 0.101308 0.722487 
0.101308 2.06926 3.8905 
0.722487 3.8905 2.19102 
0.603891 -0.0851408 2.27966 
-0.0851408 1.00264 1.70941 
2.27966 1.70941 -0.389644 
0.354744 0.152221 2.26287 
0.152221 0.462209 1.57098 
2.26287 1.57098 0.399936 
0.277105 0.115581 2.18503 
0.115581 0.728455 1.60553 
2.18503 1.60553 0.211329 
0.316042 0.0736188 2.15354 
0.0736188 0.281033 1.60664 
2.15354 1.60664 0.619814 
6.72148 -0.247823 -4.43844 
-0.247823 6.43158 -1.23986 
-4.43844 -1.23986 7.71915 
7.40242 -0.103587 -4.37912 
-0.103587 7.40352 -1.54468 
-4.37912 -1.54468 6.06628 
6.72131 0.0573403 -4.01451 
0.0573403 7.21718 -1.33665 
-4.01451 -1.33665 6.93372 
6.89077 0.0497413 -4.25015 
0.0497413 6.98098 -1.31311 
-4.25015 -1.31311 7.00046 
6.54607 -0.0807838 -4.58138 
-0.0807838 7.38954 -0.0336587 
-4.58138 -0.0336587 8.16602 
7.33959 -0.0943076 -4.54897 
-0.0943076 7.43183 -0.354628 
-4.54897 -0.354628 7.3302 
7.54768 -0.00565918 -4.83029 
-0.00565918 7.57113 -0.224159 
-4.83029 -0.224159 6.98281 
7.5678 0.0199797 -4.4939 
0.0199797 7.39598 -0.359681 
-4.4939 -0.359681 7.13785 
0.172738 -0.017977 -3.2638 
-0.017977 0.725897 1.38984 
-3.2638 1.38984 0.343573 
0.771741 -0.0535918 -3.24943 
-0.0535918 0.916683 1.48129 
-3.24943 1.48129 -0.446216 
0.318592 0.122671 -3.22 
0.122671 0.434381 1.33311 
-3.22 1.33311 0.489235 
0.327528 0.0532351 -3.31278 
0.0532351 0.250766 1.45984 
-3.31278 1.45984 0.663913 
6.22415 0.138484 4.62241 
0.138484 6.03264 0.869667 
4.62241 0.869667 5.17613 
5.57367 0.104129 4.56934 
0.104129 5.47959 0.969032 
4.56934 0.969032 6.37966 
5.70646 0.0907108 4.29718 
0.0907108 5.83094 1.26123 
4.29718 1.26123 5.89552 
5.58126 -0.00680772 4.0922 
-0.00680772 5.84903 1.06899 
4.0922 1.06899 6.00262 
9.66371 0.000863093 1.61475 
0.000863093 9.62427 4.00934 
1.61475 4.00934 9.55855 
9.52954 -0.0900306 1.46025 
-0.0900306 9.27822 4.00362 
1.46025 4.00362 10.0388 
9.46267 -0.0820651 1.65588 
-0.0820651 9.44925 3.89785 
1.65588 3.89785 9.93461 
9.67478 0.0574214 1.6362 
0.0574214 9.73757 3.98256 
1.6362 3.98256 9.43419 
9.29615 0.135795 1.33609 
0.135795 9.50177 2.1931 
1.33609 2.1931 10.1326 
9.56462 -0.0579857 1.45166 
-0.0579857 9.78244 2.26377 
1.45166 2.26377 9.58348 
9.37325 0.045472 1.47306 
0.045472 9.73263 2.38714 
1.47306 2.38714 9.82467 
9.74987 -0.00870669 1.48893 
-0.00870669 9.76586 2.31021 
1.48893 2.31021 9.41483 
9.142 0.116803 -2.51889 
0.116803 8.01265 1.56232 
-2.51889 1.56232 9.73427 
8.90847 -0.0703835 -2.99162 
-0.0703835 8.98871 1.41584 
-2.99162 1.41584 8.99174 
8.81651 -0.0863919 -2.94964 
-0.0863919 9.07006 1.40733 
-2.94964 1.40733 9.00236 
9.80885 0.136695 -3.13118 
0.136695 8.70123 1.02389 
-3.13118 1.02389 8.37884 
7.04649 -0.076378 -2.18545 
-0.076378 7.22737 2.23701 
-2.18545 2.23701 7.27246 
7.18482 -0.195618 -2.25026 
-0.195618 7.14829 2.27808 
-2.25026 2.27808 7.21321 
7.30444 -0.0259863 -2.35693 
-0.0259863 7.2884 2.26773 
-2.35693 2.26773 6.95349 
6.96425 0.0545013 -2.03056 
0.0545013 6.9204 2.53471 
-2.03056 2.53471 7.66167 
4.12795 0.0342146 0.0843187 
0.0342146 4.20246 2.55535 
0.0843187 2.55535 4.21588 
3.89731 -0.0238488 0.0798642 
-0.0238488 4.30116 2.60901 
0.0798642 2.60901 4.34781 
4.24602 -0.00242016 0.166254 
-0.00242016 4.18962 2.49362 
0.166254 2.49362 4.11065 
4.04791 -0.0461819 0.158335 
-0.0461819 4.4589 2.63298 
0.158335 2.63298 4.03948 
3.46408 0.152878 -3.77499 
0.152878 3.38112 -2.67856 
-3.77499 -2.67856 3.6084 
2.44302 0.195144 -3.33178 
0.195144 3.33296 -2.46165 
-3.33178 -2.46165 4.67762 
3.39754 0.00140926 -3.65447 
0.00140926 3.60079 -2.57466 
-3.65447 -2.57466 3.45528 
3.56574 -0.166304 -3.29778 
-0.166304 4.40209 -2.12811 
-3.29778 -2.12811 2.48577 
9.77265 0.0811637 1.29788 
0.0811637 9.61054 -2.82315 
1.29788 -2.82315 9.57445 
9.36721 0.00433394 1.20465 
0.00433394 9.37873 -2.67687 
1.20465 -2.67687 10.2117 
9.59808 0.197932 1.22024 
0.197932 9.64504 -2.84555 
1.22024 -2.84555 9.71451 
9.74504 0.013756 1.25404 
0.013756 9.79222 -2.89988 
1.25404 -2.89988 9.42037 
0.809964 -0.00125153 -1.39109 
-0.00125153 0.522067 3.38111 
-1.39109 3.38111 -0.0443506 
0.451989 0.0121582 -1.51763 
0.0121582 0.427391 3.23299 
-1.51763 3.23299 0.4083 
0.707481 -0.0610045 -1.47966 
-0.0610045 0.58564 3.11484 
-1.47966 3.11484 -0.00544039 
0.277344 0.0161145 -1.54058 
0.0161145 0.410921 3.26786 
-1.54058 3.26786 0.599415 
0.585724 -0.195837 -2.07429 
-0.195837 0.552289 1.1594 
-2.07429 1.1594 -0.0406272 
0.629289 -0.106747 -1.89664 
-0.106747 0.454338 1.40807 
-1.89664 1.40807 0.0137595 
0.427846 -0.0529368 -1.99575 
-0.0529368 0.25154 1.26711 
-1.99575 1.26711 0.418 
0.274292 -0.0134344 -1.99129 
-0.0134344 0.246526 1.29281 
-1.99129 1.29281 0.576568 
5.91841 0.0956122 -0.316782 
0.0956122 6.127 -3.61942 
-0.316782 -3.61942 6.09226 
5.80729 -0.151223 -0.551576 
-0.151223 5.92187 -3.46945 
-0.551576 -3.46945 6.40851 
6.3402 -0.13022 -0.323103 
-0.13022 6.35372 -3.98949 
-0.323103 -3.98949 5.44375 
5.95048 0.12342 -0.3762 
0.12342 6.16752 -3.61929 
-0.3762 -3.61929 6.01967 
2.76964 0.22151 3.69184 
0.22151 3.06053 -2.77311 
3.69184 -2.77311 3.08162 
3.40091 -0.399674 3.71156 
-0.399674 2.96437 -2.77662 
3.71156 -2.77662 2.54651 
2.97371 -0.094408 3.61715 
-0.094408 2.78488 -2.80387 
3.61715 -2.80387 3.15321 
3.08635 0.307531 3.51835 
0.307531 2.87848 -2.64581 
3.51835 -2.64581 2.94696 
6.97292 0.0891744 -2.00195 
0.0891744 7.33532 -0.669482 
-2.00195 -0.669482 7.29205 
7.35016 -0.0788882 -1.98828 
-0.0788882 7.28115 -0.77366 
-1.98828 -0.77366 6.96898 
7.10391 0.0327451 -1.94148 
0.0327451 7.24583 -0.653552 
-1.94148 -0.653552 7.25055 
6.82084 -0.0623918 -2.29752 
-0.0623918 6.87169 -0.568778 
-2.29752 -0.568778 7.90776 
8.99928 0.0935604 -2.98394 
0.0935604 9.17497 2.944 
-2.98394 2.944 9.4503 
9.0869 0.192279 -3.13992 
0.192279 9.25878 2.88123 
-3.13992 2.88123 9.27887 
8.8932 0.00652859 -3.06654 
0.00652859 9.1781 2.76533 
-3.06654 2.76533 9.55324 
9.42317 -0.163484 -3.19391 
-0.163484 9.22924 3.20028 
-3.19391 3.20028 8.97214 
6.71736 -0.080857 -2.02318 
-0.080857 6.68467 -1.36465 
-2.02318 -1.36465 6.38707 
6.6556 -0.0461991 -2.04251 
-0.0461991 6.63894 -1.01378 
-2.04251 -1.01378 6.49455 
6.5884 0.0589954 -2.09259 
0.0589954 6.57147 -1.14001 
-2.09259 -1.14001 6.62924 
6.28147 -0.276887 -2.12017 
-0.276887 6.6903 -0.974362 
-2.12017 -0.974362 6.81732 
4.59245 -0.014189 -1.57336 
-0.014189 4.58465 -4.36898 
-1.57336 -4.36898 6.53192 
5.1697 0.0605812 -1.55134 
0.0605812 5.22738 -3.90718 
-1.55134 -3.90718 5.31193 
5.78672 0.0265254 -1.68934 
0.0265254 5.7541 -4.37695 
-1.68934 -4.37695 4.16819 
5.24572 0.0234977 -1.59724 
0.0234977 5.19464 -3.87436 
-1.59724 -3.87436 5.26866 
9.22227 0.164074 2.99222 
0.164074 9.08063 -3.23275 
2.99222 -3.23275 9.21844 
9.18488 0.0876855 3.08292 
0.0876855 9.15457 -3.27755 
3.08292 -3.27755 9.1819 
8.87125 -0.153143 2.89028 
-0.153143 9.01658 -3.04916 
2.89028 -3.04916 9.63353 
9.23515 -0.150401 3.01916 
-0.150401 9.35912 -3.2714 
3.01916 -3.2714 8.92707 
5.779 0.00194145 -2.78653 
0.00194145 5.52212 -3.7063 
-2.78653 -3.7063 5.07265 
5.37509 0.0288459 -2.70583 
0.0288459 5.47522 -3.61275 
-2.70583 -3.61275 5.52346 
5.07239 0.0077086 -2.86937 
0.0077086 5.0801 -3.41414 
-2.86937 -3.41414 6.22129 
5.38516 0.234187 -2.59849 
0.234187 5.4957 -3.44968 
-2.59849 -3.44968 5.49291 
2.37558 0.0387204 -4.56822 
0.0387204 2.14976 -0.380596 
-4.56822 -0.380596 1.99349 
1.22008 -0.453686 -4.67068 
-0.453686 2.28252 -0.413293 
-4.67068 -0.413293 3.01622 
3.03026 0.270411 -4.76008 
0.270411 2.29762 -0.574275 
-4.76008 -0.574275 1.19095 
2.4419 0.0603047 -3.92299 
0.0603047 2.16257 0.332612 
-3.92299 0.332612 1.91436 
9.75705 -0.055533 -2.46041 
-0.055533 9.406 -2.05796 
-2.46041 -2.05796 9.539 
9.60394 -0.219911 -2.43211 
-0.219911 9.47973 -2.06506 
-2.43211 -2.06506 9.61838 
9.10374 -0.0641033 -2.43373 
-0.0641033 9.14225 -2.00606 
-2.43373 -2.00606 10.4561 
9.72843 0.0106077 -2.30803 
0.0106077 9.66545 -2.10607 
-2.30803 -2.10607 9.30816 
7.22492 -0.001801 4.57073 
-0.001801 7.3369 0.208179 
4.57073 0.208179 7.36933 
7.46044 0.0428525 4.73933 
0.0428525 7.39475 0.15893 
4.73933 0.15893 7.07595 
6.71887 0.0625792 4.60319 
0.0625792 7.38019 0.103577 
4.60319 0.103577 7.83208 
7.41923 0.0546006 4.49163 
0.0546006 7.28612 0.296767 
4.49163 0.296767 7.22579 
4.28964 0.0741429 0.654882 
0.0741429 3.63362 -4.63807 
0.654882 -4.63807 4.87547 
4.37863 0.018188 0.75262 
0.018188 4.7902 -4.78475 
0.75262 -4.78475 3.62991 
4.38267 -0.0707418 0.462676 
-0.0707418 4.16227 -4.45752 
0.462676 -4.45752 4.2538 
4.3931 0.112912 0.392492 
0.112912 4.41721 -4.14422 
0.392492 -4.14422 3.98843 
8.93701 0.0117474 -2.06256 
0.0117474 8.94689 3.34561 
-2.06256 3.34561 9.15932 
8.95822 -0.0849069 -1.81227 
-0.0849069 8.82654 3.33015 
-1.81227 3.33015 9.25847 
9.29591 0.427689 -2.31911 
0.427689 9.05527 3.3149 
-2.31911 3.3149 8.69203 
8.89104 -0.118896 -2.05391 
-0.118896 9.10854 3.21749 
-2.05391 3.21749 9.04364 
5.64877 -0.010528 4.76609 
-0.010528 5.26226 0.234882 
4.76609 0.234882 4.73595 
4.65028 0.083603 4.57414 
0.083603 5.09802 0.154301 
4.57414 0.154301 5.89868 
5.08815 -0.0165336 4.51586 
-0.0165336 5.25257 0.358186 
4.51586 0.358186 5.30627 
5.34839 0.0715082 4.28314 
0.0715082 5.19282 0.52907 
4.28314 0.52907 5.10578 
9.1391 -0.0576709 0.774108 
-0.0576709 8.94767 -0.23583 
0.774108 -0.23583 9.11858 
9.07726 0.222898 1.10491 
0.222898 9.28254 -0.209142 
1.10491 -0.209142 8.84556 
8.95629 0.208679 1.00409 
0.208679 9.02905 -0.234653 
1.00409 -0.234653 9.22002 
9.10417 -0.119917 0.85222 
-0.119917 9.14497 -0.201385 
0.85222 -0.201385 8.95621 
1.7126 -0.0337052 -3.09391 
-0.0337052 1.04036 -1.43942 
-3.09391 -1.43942 0.618181 
1.21093 -0.0981266 -3.38113 
-0.0981266 1.11866 -2.00061 
-3.38113 -2.00061 1.04155 
1.24044 0.0961206 -3.60275 
0.0961206 0.696234 -2.05726 
-3.60275 -2.05726 1.43447 
1.19107 0.121541 -3.124 
0.121541 1.07456 -1.60889 
-3.124 -1.60889 1.10551 
9.08623 -0.0916689 1.39522 
-0.0916689 9.02319 4.33162 
1.39522 4.33162 9.261 
8.99025 -0.115577 1.62917 
-0.115577 9.0771 4.20795 
1.62917 4.20795 9.30307 
8.9928 -0.0565771 1.70865 
-0.0565771 9.28125 4.1683 
1.70865 4.1683 9.09638 
9.23462 0.0310091 1.46293 
0.0310091 9.03223 4.37162 
1.46293 4.37162 9.10358 
0.904811 0.205087 -0.672801 
0.205087 1.12968 0.00289518 
-0.672801 0.00289518 0.425896 
0.802532 0.163201 0.0938465 
0.163201 0.565224 -0.104478 
0.0938465 -0.104478 1.09263 
0.764542 -0.14585 -0.149719 
-0.14585 0.918377 -0.137557 
-0.149719 -0.137557 0.777469 
1.02808 -0.243401 -0.419129 
-0.243401 0.740083 -0.179388 
-0.419129 -0.179388 0.692225 
4.7403 0.0434459 -3.66171 
0.0434459 4.86043 -2.6662 
-3.66171 -2.6662 4.82041 
5.16976 0.233706 -3.90991 
0.233706 5.0738 -2.5676 
-3.90991 -2.5676 4.17759 
4.56517 -0.0657937 -3.90703 
-0.0657937 4.65359 -2.64351 
-3.90703 -2.64351 5.20238 
4.67117 -0.0775743 -3.44715 
-0.0775743 4.79846 -2.52575 
-3.44715 -2.52575 4.95151 
0.598267 0.154869 1.69083 
0.154869 0.568513 -1.12213 
1.69083 -1.12213 0.194853 
0.548407 0.00598847 1.645 
0.00598847 0.442603 -1.22728 
1.645 -1.22728 0.370623 
0.803046 0.0618034 1.8497 
0.0618034 0.671342 -1.34147 
1.8497 -1.34147 -0.112756 
0.401453 -0.019467 1.63495 
-0.019467 0.37238 -1.13759 
1.63495 -1.13759 0.587799 
9.43167 0.192213 -2.8312 
0.192213 9.60283 0.765513 
-2.8312 0.765513 9.61661 
9.57933 0.0774566 -2.81319 
0.0774566 9.49356 0.753369 
-2.81319 0.753369 9.57822 
9.19075 0.00349796 -2.79651 
0.00349796 9.08887 0.683404 
-2.79651 0.683404 10.3715 
9.63989 0.00830505 -2.77934 
0.00830505 9.65495 0.844284 
-2.77934 0.844284 9.35627 
6.46264 0.398034 3.4469 
0.398034 7.01476 -2.919 
3.4469 -2.919 8.30412 
7.69394 -0.0767733 3.61963 
-0.0767733 7.44942 -3.27447 
3.61963 -3.27447 6.63816 
7.36936 -0.091759 3.24109 
-0.091759 7.18446 -3.34607 
3.24109 -3.34607 7.2277 
7.38452 -0.0928625 3.10387 
-0.0928625 7.22384 -3.32574 
3.10387 -3.32574 7.17315 
9.59329 0.00446577 -2.25724 
0.00446577 9.63867 -0.0676373 
-2.25724 -0.0676373 9.6332 
9.38846 0.0153512 -2.36842 
0.0153512 9.48237 -0.180602 
-2.36842 -0.180602 9.99433 
9.41617 0.0826081 -2.29013 
0.0826081 9.50791 0.0665611 
-2.29013 0.0665611 9.94108 
9.71546 -0.0182695 -2.23662 
-0.0182695 9.67641 -0.0571832 
-2.23662 -0.0571832 9.4733 
9.41067 -0.0653531 -1.80445 
-0.0653531 9.66124 -2.6365 
-1.80445 -2.6365 9.44298 
9.31391 0.0555603 -1.83276 
0.0555603 9.68427 -2.62264 
-1.83276 -2.62264 9.51671 
8.93993 0.025681 -1.81315 
0.025681 9.01115 -2.54229 
-1.81315 -2.54229 10.5638 
9.60199 -0.0251049 -1.84213 
-0.0251049 9.6556 -2.46859 
-1.84213 -2.46859 9.2573 
0.207327 4.89097e-05 1.33167 
4.89097e-05 0.246047 1.32378 
1.33167 1.32378 0.405241 
0.546125 0.198951 1.37198 
0.198951 0.589606 1.11712 
1.37198 1.11712 -0.277115 
0.236634 0.0617904 1.27006 
0.0617904 0.409788 1.30141 
1.27006 1.30141 0.212194 
0.176569 -0.072867 1.22445 
-0.072867 0.159853 1.39239 
1.22445 1.39239 0.522194 
8.23909 -0.168735 -2.84388 
-0.168735 8.5836 2.73954 
-2.84388 2.73954 9.3093 
8.73659 0.123475 -3.24688 
0.123475 8.57358 3.26464 
-3.24688 3.26464 8.82183 
8.83131 0.145165 -3.093 
0.145165 8.6421 3.2039 
-3.093 3.2039 8.65859 
9.22027 0.0310423 -3.11122 
0.0310423 8.84438 3.54218 
-3.11122 3.54218 8.06734 
9.75641 0.0216746 -1.79839 
0.0216746 9.80791 -4.22082 
-1.79839 -4.22082 9.4329 
9.59178 0.0827254 -1.86955 
0.0827254 9.76523 -4.08091 
-1.86955 -4.08091 9.64022 
9.46296 0.0246905 -1.87536 
0.0246905 9.81123 -4.1243 
-1.87536 -4.1243 9.72303 
9.24658 -0.0772162 -2.04332 
-0.0772162 9.46486 -4.01211 
-2.04332 -4.01211 10.2858 
7.14964 0.534502 -1.98953 
0.534502 7.17422 -2.45036 
-1.98953 -2.45036 5.86778 
6.72506 0.262836 -2.30798 
0.262836 6.81487 -2.40571 
-2.30798 -2.40571 6.6517 
6.12387 0.0919397 -2.47035 
0.0919397 6.75809 -2.32045 
-2.47035 -2.32045 7.30968 
6.82741 -0.0160149 -2.16589 
-0.0160149 6.56105 -2.82177 
-2.16589 -2.82177 6.80318 
4.48532 -0.0397957 2.57073 
-0.0397957 4.30213 -3.73433 
2.57073 -3.73433 4.37782 
4.14923 -0.0348692 3.01937 
-0.0348692 4.09353 -3.61006 
3.01937 -3.61006 4.92251 
4.71628 0.193407 2.91402 
0.193407 4.47621 -3.64581 
2.91402 -3.64581 3.97278 
4.44383 -0.105487 2.63547 
-0.105487 4.42522 -3.55251 
2.63547 -3.55251 4.29622 
1.24584 -0.0985033 -3.75582 
-0.0985033 1.46833 2.49764 
-3.75582 2.49764 1.37529 
1.35807 0.0726524 -3.76181 
0.0726524 1.68289 2.07107 
-3.76181 2.07107 1.0485 
1.19132 -0.0341051 -3.74699 
-0.0341051 1.46057 2.25976 
-3.74699 2.25976 1.43757 
0.982827 0.0662761 -3.67126 
0.0662761 1.33392 2.63639 
-3.67126 2.63639 1.7727 
7.86429 0.0819562 -2.47073 
0.0819562 7.42181 -2.24197 
-2.47073 -2.24197 7.99169 
7.95798 0.0331156 -2.67297 
0.0331156 7.74804 -2.27152 
-2.67297 -2.27152 7.57178 
7.92033 -0.00458945 -2.65951 
-0.00458945 7.92439 -2.23118 
-2.65951 -2.23118 7.43308 
7.92996 -0.0739017 -2.85953 
-0.0739017 7.45475 -2.26528 
-2.85953 -2.26528 7.89308 
9.53182 -0.0142215 3.75303 
-0.0142215 9.39106 0.490952 
3.75303 0.490952 10.0359 
9.7054 -0.115799 3.99252 
-0.115799 9.32975 0.487542 
3.99252 0.487542 9.92364 
9.78072 -0.000796595 3.91761 
-0.000796595 9.65269 0.567117 
3.91761 0.567117 9.52539 
9.76288 -0.00823043 3.95229 
-0.00823043 9.79511 0.5408 
3.95229 0.5408 9.40081 
2.04652 -0.270542 -1.2566 
-0.270542 0.871506 -3.00667 
-1.2566 -3.00667 0.655939 
1.15367 0.0248503 -1.48021 
0.0248503 1.16455 -2.35487 
-1.48021 -2.35487 1.25575 
1.18714 -0.0524255 -1.40227 
-0.0524255 1.16312 -2.49964 
-1.40227 -2.49964 1.22371 
1.38624 -0.0951728 -1.90474 
-0.0951728 0.377359 -2.06125 
-1.90474 -2.06125 1.81037 
9.18088 -0.0547911 -0.832046 
-0.0547911 8.97271 -4.22201 
-0.832046 -4.22201 9.24749 
9.24479 -0.0745741 -0.759651 
-0.0745741 9.03389 -4.31473 
-0.759651 -4.31473 9.12239 
8.96789 0.0824165 -0.628203 
0.0824165 8.91737 -4.07022 
-0.628203 -4.07022 9.51582 
9.02573 0.0101157 -1.00206 
0.0101157 9.56761 -4.33308 
-1.00206 -4.33308 8.80774 
5.60349 0.150382 -0.608269 
0.150382 5.26457 4.80443 
-0.608269 4.80443 6.34102 
5.81359 -0.376879 -0.594587 
-0.376879 6.60373 4.48154 
-0.594587 4.48154 4.79175 
5.79299 0.0398182 -0.436329 
0.0398182 5.65009 4.58243 
-0.436329 4.58243 5.76599 
5.76952 0.145076 -0.0787586 
0.145076 5.50278 4.35237 
-0.0787586 4.35237 5.93678 
9.57888 -0.044764 -0.430661 
-0.044764 9.58285 3.81143 
-0.430661 3.81143 9.659 
9.46602 -0.04411 -0.49707 
-0.04411 9.54931 3.73734 
-0.49707 3.73734 9.8054 
9.27547 0.00329953 -0.563507 
0.00329953 9.4233 3.93903 
-0.563507 3.93903 10.122 
9.71136 0.00455209 -0.429071 
0.00455209 9.63033 3.77217 
-0.429071 3.77217 9.47904 
1.08694 -0.101905 -4.2622 
-0.101905 0.720273 -0.505524 
-4.2622 -0.505524 0.713653 
1.12004 -0.0152671 -4.21218 
-0.0152671 0.781974 -0.3547 
-4.21218 -0.3547 0.618849 
1.08945 -0.0289882 -3.99827 
-0.0289882 1.26409 -0.450227 
-3.99827 -0.450227 0.167333 
0.499935 -0.116816 -4.3489 
-0.116816 0.893402 -0.304445 
-4.3489 -0.304445 1.12753 
3.38597 -0.00643314 -0.82489 
-0.00643314 3.35969 3.6512 
-0.82489 3.6512 2.91141 
3.11635 0.119173 -1.08449 
0.119173 3.14325 3.37402 
-1.08449 3.37402 3.39747 
3.15045 -0.0425106 -1.02242 
-0.0425106 3.27191 3.50688 
-1.02242 3.50688 3.23471 
3.27293 -0.0433221 -1.00435 
-0.0433221 3.33702 3.41639 
-1.00435 3.41639 3.04712 
9.07257 -0.137849 1.60697 
-0.137849 8.62659 0.613584 
1.60697 0.613584 9.24254 
8.83856 -0.0473631 1.67301 
-0.0473631 9.03641 0.455113 
1.67301 0.455113 9.06672 
9.02013 -0.00604435 1.56819 
-0.00604435 9.01689 0.606703 
1.56819 0.606703 8.90468 
9.04418 0.0148484 1.75166 
0.0148484 9.01513 0.454283 
1.75166 0.454283 8.88238 
3.05756 -0.482653 -3.59068 
-0.482653 2.79228 3.09129 
-3.59068 3.09129 1.85838 
2.26143 0.372228 -3.70768 
0.372228 2.31608 2.86178 
-3.70768 2.86178 3.13071 
2.57987 0.114061 -3.64087 
0.114061 2.70427 2.59288 
-3.64087 2.59288 2.42408 
2.63846 0.119619 -3.24901 
0.119619 2.72993 2.24965 
-3.24901 2.24965 2.33984 
4.88637 -0.256739 0.403852 
-0.256739 4.55277 -4.53325 
0.403852 -4.53325 4.80734 
4.80504 -0.228267 0.459427 
-0.228267 4.73042 -4.47674 
0.459427 -4.47674 4.71102 
4.89111 -0.102267 0.597391 
-0.102267 4.79905 -4.23916 
0.597391 -4.23916 4.55632 
4.67816 -0.0796717 0.676939 
-0.0796717 4.63812 -4.72693 
0.676939 -4.72693 4.93021 
7.27949 -0.000437456 4.36906 
-0.000437456 7.50551 -1.24458 
4.36906 -1.24458 7.40426 
6.93556 0.0507227 4.41646 
0.0507227 7.48493 -1.29413 
4.41646 -1.29413 7.76877 
7.37865 -0.0295531 4.41359 
-0.0295531 7.36419 -1.35264 
4.41359 -1.35264 7.44642 
7.42938 -0.142428 4.39463 
-0.142428 7.29161 -1.24651 
4.39463 -1.24651 7.46827 
8.1934 -0.492909 -2.43637 
-0.492909 8.46563 4.17844 
-2.43637 4.17844 7.1617 
7.5326 0.378256 -2.52129 
0.378256 7.43681 4.18733 
-2.52129 4.18733 8.85132 
7.94013 0.221193 -2.5124 
0.221193 8.12467 3.72301 
-2.5124 3.72301 7.75592 
7.86761 0.0674624 -2.03706 
0.0674624 8.22187 3.33822 
-2.03706 3.33822 7.73124 
5.24045 -0.117106 4.02469 
-0.117106 5.68709 2.61995 
4.02469 2.61995 6.47426 
5.69846 -0.111181 3.80886 
-0.111181 5.80021 2.5624 
3.80886 2.5624 5.90312 
6.79174 0.405744 3.90066 
0.405744 5.77347 2.38586 
3.90066 2.38586 4.83659 
5.54529 -0.0207065 3.25418 
-0.0207065 5.90787 2.67816 
3.25418 2.67816 5.94864 
0.577486 0.0903684 -1.32003 
0.0903684 0.713621 -2.26032 
-1.32003 -2.26032 -0.00102034 
0.424874 -0.0120861 -1.44359 
-0.0120861 0.421195 -2.19501 
-1.44359 -2.19501 0.444018 
0.725765 0.167408 -1.53503 
0.167408 0.596704 -2.11023 
-1.53503 -2.11023 -0.032382 
0.416332 -0.0667082 -1.41562 
-0.0667082 0.268924 -2.19187 
-1.41562 -2.19187 0.604832 
9.35967 0.00185936 1.42431 
0.00185936 9.32987 -1.70604 
1.42431 -1.70604 10.1287 
9.61037 -0.0806025 1.48898 
-0.0806025 9.60387 -1.88428 
1.48898 -1.88428 9.60401 
9.44709 -0.0327489 1.35728 
-0.0327489 9.54303 -1.96403 
1.35728 -1.96403 9.82813 
9.75954 -0.0729384 1.52873 
-0.0729384 9.61271 -1.96146 
1.52873 -1.96146 9.44599 
6.7245 -0.116642 -3.08577 
-0.116642 7.41296 -1.62441 
-3.08577 -1.62441 6.90694 
7.13767 0.0212816 -3.13811 
0.0212816 6.59505 -1.46228 
-3.13811 -1.46228 7.31168 
6.78099 0.0148332 -3.14372 
0.0148332 7.2917 -1.38733 
-3.14372 -1.38733 6.97172 
7.34279 0.0358247 -3.02196 
0.0358247 7.25912 -1.87569 
-3.02196 -1.87569 6.4425 
6.6284 -0.173994 -4.45994 
-0.173994 7.11841 -1.28781 
-4.45994 -1.28781 7.60834 
7.2283 0.0795149 -4.47641 
0.0795149 7.16538 -1.17999 
-4.47641 -1.17999 6.96147 
7.29504 0.0302327 -4.40374 
0.0302327 7.00471 -1.34455 
-4.40374 -1.34455 7.0554 
7.04574 0.17048 -4.19228 
0.17048 7.08676 -0.972133 
-4.19228 -0.972133 7.22265 
1.19921 -0.0394878 -3.15521 
-0.0394878 1.41749 -3.07705 
-3.15521 -3.07705 1.28888 
1.12417 0.0936561 -3.22803 
0.0936561 1.43949 -3.13707 
-3.22803 -3.13707 1.34191 
1.43587 0.0260139 -3.22317 
0.0260139 1.61106 -2.76727 
-3.22317 -2.76727 0.858637 
0.956454 0.0220437 -2.97039 
0.0220437 0.925173 -3.32212 
-2.97039 -3.32212 2.02395 
9.66393 0.0660363 -3.17715 
0.0660363 9.61157 1.29579 
-3.17715 1.29579 9.53814 
9.1947 0.0804542 -3.29076 
0.0804542 9.45175 1.47835 
-3.29076 1.47835 10.1672 
9.51818 0.142017 -3.26809 
0.142017 9.53231 1.24208 
-3.26809 1.24208 9.76316 
9.75847 0.0162184 -3.17662 
0.0162184 9.67496 1.20518 
-3.17662 1.20518 9.38022 
8.01108 0.0987391 1.62284 
0.0987391 7.87472 3.0028 
1.62284 3.0028 7.62449 
8.08576 0.170368 1.73322 
0.170368 7.68997 3.0381 
1.73322 3.0381 7.73455 
8.05907 0.0869352 1.76768 
0.0869352 8.05242 3.2077 
1.76768 3.2077 7.39879 
7.72543 0.0615021 1.54415 
0.0615021 7.73991 2.76928 
1.54415 2.76928 8.04495 
2.74062 -0.00525047 -0.317313 
-0.00525047 2.72424 4.4647 
-0.317313 4.4647 2.79048 
2.68193 -0.121237 -0.074619 
-0.121237 3.63311 4.60777 
-0.074619 4.60777 1.9403 
2.6041 0.0190116 -0.190377 
0.0190116 2.50486 4.71165 
-0.190377 4.71165 3.14638 
2.76908 0.0207463 -0.325701 
0.0207463 2.55517 4.24678 
-0.325701 4.24678 2.93109 
8.93668 -0.299774 -1.87822 
-0.299774 8.80232 2.54395 
-1.87822 2.54395 9.2015 
8.98694 0.100568 -2.1335 
0.100568 9.00441 2.52816 
-2.1335 2.52816 8.94914 
8.99784 0.094448 -2.17718 
0.094448 9.11542 2.5207 
-2.17718 2.5207 8.82724 
9.0841 -0.110599 -1.96973 
-0.110599 9.08237 2.46491 
-1.96973 2.46491 8.77403 
9.12232 -0.52927 3.74779 
-0.52927 8.88529 2.53343 
3.74779 2.53343 9.6639 
9.30444 -0.206916 3.68528 
-0.206916 9.17341 2.64369 
3.68528 2.64369 9.19367 
9.2295 0.159606 3.82191 
0.159606 9.19807 2.41507 
3.82191 2.41507 9.24394 
9.18874 0.201539 3.92073 
0.201539 9.22411 2.54211 
3.92073 2.54211 9.25866 
3.27433 0.141954 -1.90603 
0.141954 2.89326 4.06613 
-1.90603 4.06613 2.81561 
2.68901 0.394094 -1.73944 
0.394094 2.40404 4.438 
-1.73944 4.438 3.89015 
2.91573 -0.660516 -2.33997 
-0.660516 3.8807 4.14031 
-2.33997 4.14031 2.18677 
3.6369 -0.104087 -1.49402 
-0.104087 2.60783 3.42208 
-1.49402 3.42208 2.73847 
8.50684 -0.0891901 4.36515 
-0.0891901 8.83702 -1.21019 
4.36515 -1.21019 8.64894 
8.62901 -0.0693199 4.35722 
-0.0693199 8.67772 -1.1087 
4.35722 -1.1087 8.68608 
8.62936 -0.179704 3.9489 
-0.179704 8.28398 -1.15022 
3.9489 -1.15022 9.07947 
8.8631 -0.0335051 4.60901 
-0.0335051 8.96635 -1.14082 
4.60901 -1.14082 8.16336 
9.6761 0.0560065 -2.37049 
0.0560065 9.80011 -3.23584 
-2.37049 -3.23584 9.54858 
9.57228 0.102022 -2.35208 
0.102022 9.61646 -3.12455 
-2.35208 -3.12455 9.83604 
9.53593 0.136428 -2.5606 
0.136428 9.36964 -3.1498 
-2.5606 -3.1498 10.1192 
9.73926 -0.0296977 -2.32527 
-0.0296977 9.84378 -3.17057 
-2.32527 -3.17057 9.44176 
2.68467 -0.311484 -3.45341 
-0.311484 2.55971 3.28494 
-3.45341 3.28494 1.65566 
2.20671 -0.207813 -3.24077 
-0.207813 2.42276 3.17693 
-3.24077 3.17693 2.27058 
1.99932 0.647053 -3.59813 
0.647053 1.90206 3.16824 
-3.59813 3.16824 2.99866 
2.23305 -0.151174 -2.8037 
-0.151174 2.26205 2.72605 
-2.8037 2.72605 2.40494 
0.535178 0.144571 2.57256 
0.144571 0.289108 -0.49482 
2.57256 -0.49482 0.345481 
0.965724 -0.174607 2.4833 
-0.174607 0.5309 -0.574172 
2.4833 -0.574172 -0.326857 
0.638728 0.023 2.61465 
0.023 0.409543 -0.358293 
2.61465 -0.358293 0.121495 
0.330378 0.045954 2.60447 
0.045954 0.292069 -0.412946 
2.60447 -0.412946 0.54732 
3.57575 -0.144865 -2.77252 
-0.144865 3.60139 -2.01314 
-2.77252 -2.01314 3.61434 
3.53153 -0.0510168 -2.91949 
-0.0510168 3.38457 -1.98461 
-2.91949 -1.98461 3.87538 
3.48211 -0.0941819 -2.71557 
-0.0941819 3.47713 -2.14348 
-2.71557 -2.14348 3.83225 
3.67053 0.198832 -2.67772 
0.198832 3.776 -2.10915 
-2.67772 -2.10915 3.34495 
2.40847 -0.00157183 -1.70729 
-0.00157183 2.50251 4.32231 
-1.70729 4.32231 1.71171 
2.1759 0.340145 -1.72756 
0.340145 1.97156 4.36769 
-1.72756 4.36769 2.47524 
2.34415 -0.273071 -1.48241 
-0.273071 2.352 4.37108 
-1.48241 4.37108 1.92655 
2.0499 -0.0787139 -1.50134 
-0.0787139 2.24626 4.17009 
-1.50134 4.17009 2.32654 
6.91414 0.101958 2.74669 
0.101958 7.04109 1.91904 
2.74669 1.91904 7.00022 
6.60694 -0.116863 2.4518 
-0.116863 6.75502 2.07154 
2.4518 2.07154 7.59349 
7.09742 -0.0274026 3.02586 
-0.0274026 7.18047 2.04225 
3.02586 2.04225 6.67757 
7.07523 0.0577679 2.88454 
0.0577679 6.94283 1.88876 
2.88454 1.88876 6.93739 
9.48293 0.0323006 -1.96439 
0.0323006 9.36981 2.2948 
-1.96439 2.2948 9.97154 
9.63607 -0.104988 -1.64874 
-0.104988 9.12407 2.27754 
-1.64874 2.27754 10.0641 
9.71482 0.0510438 -1.80511 
0.0510438 9.62391 2.35256 
-1.80511 2.35256 9.48555 
9.68077 0.0181256 -1.83825 
0.0181256 9.78902 2.30685 
-1.83825 2.30685 9.35449 
6.34023 0.0987387 -2.4326 
0.0987387 6.44554 -1.35919 
-2.4326 -1.35919 6.31107 
6.37218 0.11594 -2.47452 
0.11594 6.48098 -1.37014 
-2.47452 -1.37014 6.24368 
6.49532 -7.79833e-05 -2.22638 
-7.79833e-05 6.49522 -1.49007 
-2.22638 -1.49007 6.1063 
6.30183 -0.039466 -2.41614 
-0.039466 6.34433 -1.29147 
-2.41614 -1.29147 6.45068 
7.96697 0.0253503 -0.403353 
0.0253503 7.70614 -4.54396 
-0.403353 -4.54396 7.9502 
7.85236 0.00220255 -0.53749 
0.00220255 8.18856 -4.66317 
-0.53749 -4.66317 7.58239 
7.55376 -0.000661278 -0.672611 
-0.000661278 7.66541 -4.66021 
-0.672611 -4.66021 8.40415 
7.93095 -0.0174373 -0.427695 
-0.0174373 7.77289 -4.27007 
-0.427695 -4.27007 7.91946 
7.29189 -0.0960597 -0.151879 
-0.0960597 6.28238 4.66466 
-0.151879 4.66466 7.92738 
7.14904 0.0110701 -0.284978 
0.0110701 7.15723 4.53889 
-0.284978 4.53889 7.19538 
7.19938 0.0269485 -0.193901 
0.0269485 7.63947 4.76897 
-0.193901 4.76897 6.66279 
7.09529 0.0208813 -0.49687 
0.0208813 7.34238 4.2052 
-0.49687 4.2052 7.06398 
4.93058 0.0226419 -2.89041 
0.0226419 4.88601 3.65052 
-2.89041 3.65052 4.28279 
4.661 -0.0117451 -2.6672 
-0.0117451 4.75498 3.75924 
-2.6672 3.75924 4.68342 
4.56396 -0.220701 -2.8334 
-0.220701 4.68849 3.65276 
-2.8334 3.65276 4.84693 
4.70139 0.0382645 -2.7396 
0.0382645 4.69818 3.74424 
-2.7396 3.74424 4.69982 
9.7603 0.00332549 -2.25483 
0.00332549 9.38223 3.14418 
-2.25483 3.14418 9.67386 
9.36398 -0.0411292 -2.15088 
-0.0411292 9.25965 2.97564 
-2.15088 2.97564 10.1927 
9.68059 0.0199658 -2.23043 
0.0199658 9.5536 3.1546 
-2.23043 3.1546 9.58219 
9.73902 -0.0145471 -2.29793 
-0.0145471 9.65527 3.2402 
-2.29793 3.2402 9.4221 
9.1733 -2.87238e-05 4.5239 
-2.87238e-05 9.1478 -0.00614359 
4.5239 -0.00614359 10.4253 
9.69874 0.00928242 4.51848 
0.00928242 9.47096 -0.00825027 
4.51848 -0.00825027 9.57671 
9.64386 -0.0904669 4.54847 
-0.0904669 9.44657 -0.0205979 
4.54847 -0.0205979 9.65599 
9.69928 0.0285001 4.65492 
0.0285001 9.66449 -0.0157532 
4.65492 -0.0157532 9.38264 
4.24294 -0.341756 -2.22052 
-0.341756 3.84431 -3.89352 
-2.22052 -3.89352 5.25279 
4.66053 -0.0675706 -2.54766 
-0.0675706 4.60196 -4.06215 
-2.54766 -4.06215 4.07755 
4.3848 -0.0301611 -2.59752 
-0.0301611 4.54515 -3.78809 
-2.59752 -3.78809 4.41009 
4.42443 0.120812 -2.53551 
0.120812 4.65721 -3.79321 
-2.53551 -3.79321 4.2584 
0.462381 -0.044213 -1.18454 
-0.044213 0.75904 -1.53579 
-1.18454 -1.53579 -0.168981 
0.400691 -0.165877 -1.40804 
-0.165877 0.60899 -1.59685 
-1.40804 -1.59685 0.0427587 
0.296311 -0.0476864 -1.3307 
-0.0476864 0.476106 -1.55174 
-1.3307 -1.55174 0.280023 
0.210355 -0.0376459 -1.39884 
-0.0376459 0.424028 -1.49824 
-1.39884 -1.49824 0.418057 
2.90423 0.0938533 -2.97767 
0.0938533 2.9326 -1.78451 
-2.97767 -1.78451 3.09669 
2.67442 -0.184084 -3.1305 
-0.184084 2.93877 -1.75818 
-3.1305 -1.75818 3.32034 
3.13519 0.00846653 -2.98148 
0.00846653 2.98443 -1.92088 
-2.98148 -1.92088 2.81391 
3.03388 0.0806052 -3.06686 
0.0806052 3.00471 -1.67924 
-3.06686 -1.67924 2.89493 
8.58498 -0.148603 -3.22965 
-0.148603 8.52132 -3.26286 
-3.22965 -3.26286 8.64012 
8.26707 0.0490373 -3.03583 
0.0490373 8.57795 -3.03149 
-3.03583 -3.03149 8.90139 
8.7378 -0.259898 -3.13936 
-0.259898 8.58983 -3.23589 
-3.13936 -3.23589 8.41878 
8.84514 -0.0904952 -3.24679 
-0.0904952 8.74986 -3.5466 
-3.24679 -3.5466 8.15142 
7.55957 -0.0849182 -4.44867 
-0.0849182 7.9413 -1.07044 
-4.44867 -1.07044 7.88735 
8.77745 0.110927 -4.54473 
0.110927 7.57015 -0.797744 
-4.54473 -0.797744 7.04062 
7.21797 0.00970065 -4.64208 
0.00970065 7.74164 -1.04523 
-4.64208 -1.04523 8.42861 
7.46907 -0.0114128 -3.7974 
-0.0114128 8.01078 -1.16251 
-3.7974 -1.16251 7.90837 
6.98232 0.0940756 -4.43445 
0.0940756 7.00682 1.21922 
-4.43445 1.21922 6.85159 
6.97996 0.157042 -4.43192 
0.157042 7.03064 1.25447 
-4.43192 1.25447 6.83013 
6.56128 -0.059705 -4.20528 
-0.059705 6.58806 1.02731 
-4.20528 1.02731 7.6914 
7.41623 0.107737 -3.94923 
0.107737 7.41998 1.34022 
-3.94923 1.34022 6.00451 
0.811325 -0.0651325 0.852262 
-0.0651325 0.793643 3.58536 
0.852262 3.58536 0.0718027 
0.583522 0.0477557 0.968765 
0.0477557 0.704689 3.57217 
0.968765 3.57217 0.388559 
0.663639 -0.0250192 1.01667 
-0.0250192 0.683636 3.68028 
1.01667 3.68028 0.329496 
0.539133 -0.0450669 0.951076 
-0.0450669 0.541811 3.71844 
0.951076 3.71844 0.595828 
3.64808 0.069744 -2.83799 
0.069744 3.58668 3.72463 
-2.83799 3.72463 3.24691 
3.65671 0.0856439 -2.67342 
0.0856439 3.35237 3.72827 
-2.67342 3.72827 3.47258 
3.24577 -0.0379326 -2.85671 
-0.0379326 3.25557 3.6364 
-2.85671 3.6364 3.98032 
3.57148 -0.03728 -2.6777 
-0.03728 3.58462 3.7404 
-2.6777 3.7404 3.32557 
8.57268 -0.0860716 -4.26368 
-0.0860716 9.34105 -1.65369 
-4.26368 -1.65369 9.51763 
9.01524 -0.0642465 -4.22695 
-0.0642465 9.22822 -1.83085 
-4.22695 -1.83085 9.18789 
9.25972 -0.00705533 -4.37057 
-0.00705533 9.12276 -2.01734 
-4.37057 -2.01734 9.04888 
9.19878 0.051438 -4.27486 
0.051438 9.05777 -1.9834 
-4.27486 -1.9834 9.1748 
1.51202 0.0297573 -0.436341 
0.0297573 1.69327 -4.27197 
-0.436341 -4.27197 1.0474 
1.2216 0.0384923 -0.140178 
0.0384923 1.50997 -4.48648 
-0.140178 -4.48648 1.52113 
1.3387 0.0121861 -0.287869 
0.0121861 1.39422 -4.44411 
-0.287869 -4.44411 1.51978 
1.00951 -0.0140238 0.0678438 
-0.0140238 1.07477 -4.53742 
0.0678438 -4.53742 2.16841 
5.76645 -0.00712495 -1.1963 
-0.00712495 5.60591 4.44052 
-1.1963 4.44052 5.74312 
5.66865 -0.0327809 -0.843538 
-0.0327809 6.75719 4.41373 
-0.843538 4.41373 4.68963 
5.58459 -0.0257861 -1.0816 
-0.0257861 5.2242 4.73308 
-1.0816 4.73308 6.30668 
5.8113 -0.0682533 -1.32517 
-0.0682533 5.37582 4.09167 
-1.32517 4.09167 5.92835 
8.7712 0.0747595 2.96557 
0.0747595 8.95165 -3.05745 
2.96557 -3.05745 8.42954 
8.56517 -0.0152884 3.19375 
-0.0152884 8.87864 -3.13968 
3.19375 -3.13968 8.70857 
8.54017 0.0243769 3.18913 
0.0243769 8.74143 -3.28586 
3.18913 -3.28586 8.87079 
8.53686 -0.016131 3.3047 
-0.016131 9.01573 -3.18087 
3.3047 -3.18087 8.5998 
6.3885 -0.254431 -3.11515 
-0.254431 6.48707 -1.44879 
-3.11515 -1.44879 6.54399 
6.25303 -0.0439447 -2.77645 
-0.0439447 6.34202 -1.40078 
-2.77645 -1.40078 6.82452 
6.34003 -0.342005 -3.32547 
-0.342005 6.75401 -1.29967 
-3.32547 -1.29967 6.32552 
6.46399 -0.171305 -2.91518 
-0.171305 6.57825 -1.10745 
-2.91518 -1.10745 6.37732 
9.74258 0.0284521 -4.29414 
0.0284521 9.70207 -1.75831 
-4.29414 -1.75831 9.40007 
9.69314 0.142184 -4.23881 
0.142184 9.53734 -1.63341 
-4.23881 -1.63341 9.61424 
9.18084 0.105106 -4.32903 
0.105106 9.2862 -1.42189 
-4.32903 -1.42189 10.3777 
9.76926 0.0400042 -4.22765 
0.0400042 9.46439 -1.61151 
-4.22765 -1.61151 9.61107 
7.42985 0.0778214 -3.95982 
0.0778214 6.93807 -2.17003 
-3.95982 -2.17003 7.38086 
6.987 -0.0637847 -3.94135 
-0.0637847 6.79184 -1.91541 
-3.94135 -1.91541 7.96993 
7.3973 -0.307804 -3.88211 
-0.307804 7.29196 -2.25716 
-3.88211 -2.25716 7.05952 
7.67034 -0.0890747 -3.56185 
-0.0890747 7.55615 -2.30476 
-3.56185 -2.30476 6.52228 
9.41828 0.0188843 -1.94669 
0.0188843 9.8698 4.19293 
-1.94669 4.19293 9.85178 
9.87697 -0.075097 -1.76396 
-0.075097 9.83739 4.21351 
-1.76396 4.21351 9.4255 
9.43887 0.0554963 -2.03965 
0.0554963 9.63643 4.02262 
-2.03965 4.02262 10.0646 
9.70292 0.0132856 -1.78417 
0.0132856 9.84989 4.08813 
-1.78417 4.08813 9.58705 
2.3486 -0.146593 1.49597 
-0.146593 2.32775 1.25145 
1.49597 1.25145 2.31326 
2.45934 -0.19827 1.43035 
-0.19827 2.31966 1.44621 
1.43035 1.44621 2.2106 
2.39941 -0.132684 1.28804 
-0.132684 2.31539 1.53009 
1.28804 1.53009 2.27481 
2.48293 -0.0555724 1.52211 
-0.0555724 2.42663 1.60926 
1.52211 1.60926 2.08005 
0.519292 0.00487874 -1.24392 
0.00487874 0.603584 -1.78432 
-1.24392 -1.78432 0.00162388 
0.441537 -0.00116049 -1.2201 
-0.00116049 0.453042 -1.99955 
-1.2201 -1.99955 0.229921 
0.458978 0.0448133 -1.05198 
0.0448133 0.492929 -1.93441 
-1.05198 -1.93441 0.172592 
0.283628 -0.0324382 -1.15047 
-0.0324382 0.344214 -1.97163 
-1.15047 -1.97163 0.496657 
8.09943 0.00682887 -3.15085 
0.00682887 8.14711 3.25983 
-3.15085 3.25983 8.05501 
7.27097 0.464347 -3.35436 
0.464347 7.74868 3.29941 
-3.35436 3.29941 9.28189 
8.74999 -0.467123 -3.61284 
-0.467123 8.34728 3.16943 
-3.61284 3.16943 7.20427 
8.38547 0.14391 -2.34762 
0.14391 7.968 3.02377 
-2.34762 3.02377 7.94808 
5.50346 -0.174124 -3.76019 
-0.174124 5.59036 2.18715 
-3.76019 2.18715 5.41897 
5.21181 -0.175634 -3.95707 
-0.175634 5.78961 1.53178 
-3.95707 1.53178 5.51138 
5.32811 0.0591519 -4.07985 
0.0591519 5.65712 1.68517 
-4.07985 1.68517 5.52757 
5.1382 0.16358 -3.6225 
0.16358 5.74533 2.08377 
-3.6225 2.08377 5.62927 
4.63077 -0.0486799 -2.1387 
-0.0486799 4.56315 -4.20034 
-2.1387 -4.20034 4.30239 
4.32945 -0.0935084 -2.13923 
-0.0935084 4.17092 -4.04574 
-2.13923 -4.04574 4.99594 
4.61238 0.00182809 -1.99798 
0.00182809 4.36078 -4.11459 
-1.99798 -4.11459 4.52316 
4.51463 0.047686 -1.98368 
0.047686 4.61476 -4.15555 
-1.98368 -4.15555 4.36693 
1.38711 -0.022376 2.54922 
-0.022376 1.57692 3.73646 
2.54922 3.73646 1.49727 
1.36707 -0.0313004 2.59258 
-0.0313004 1.54651 3.56844 
2.59258 3.56844 1.54772 
1.65807 -0.122291 2.5222 
-0.122291 1.74628 3.34061 
2.5222 3.34061 1.05695 
1.17894 -0.093569 2.50414 
-0.093569 1.3757 3.81307 
2.50414 3.81307 1.90666 
2.93973 -0.0949918 -4.30092 
-0.0949918 2.43213 1.77443 
-4.30092 1.77443 2.16343 
2.39264 0.0506354 -4.34034 
0.0506354 2.49913 1.89319 
-4.34034 1.89319 2.64351 
2.42383 -0.0161784 -4.39833 
-0.0161784 2.41549 1.78772 
-4.39833 1.78772 2.69597 
2.46539 -0.0638147 -4.27526 
-0.0638147 2.48792 1.87723 
-4.27526 1.87723 2.58198 
8.91583 -0.237453 -3.44812 
-0.237453 9.34443 -3.03195 
-3.44812 -3.03195 9.29762 
9.03964 -0.121536 -3.0079 
-0.121536 9.04397 -3.0715 
-3.0079 -3.0715 9.47426 
8.81046 -0.0930818 -3.00457 
-0.0930818 9.33457 -2.90557 
-3.00457 -2.90557 9.41284 
9.89595 0.286257 -3.37035 
0.286257 8.93719 -3.03919 
-3.37035 -3.03919 8.72474 
9.66964 -0.00244131 2.11335 
-0.00244131 9.58444 0.151412 
2.11335 0.151412 9.57357 
9.55936 0.108302 2.25122 
0.108302 9.31464 0.132944 
2.25122 0.132944 9.95365 
9.50203 -0.00448778 1.98854 
-0.00448778 9.29692 0.0841367 
1.98854 0.0841367 10.0287 
9.6843 -0.0155899 2.11201 
-0.0155899 9.72525 0.179866 
2.11201 0.179866 9.4181 
6.4158 -0.136029 3.78187 
-0.136029 6.4302 2.65684 
3.78187 2.65684 6.46737 
6.84251 0.127172 3.39615 
0.127172 7.14958 2.66213 
3.39615 2.66213 5.32129 
6.39384 -0.103447 3.78459 
-0.103447 6.5037 2.589 
3.78459 2.589 6.41584 
5.58373 0.332203 3.26818 
0.332203 6.11261 2.03463 
3.26818 2.03463 7.61704 
7.26939 -0.158482 -2.94387 
-0.158482 6.72681 -1.4415 
-2.94387 -1.4415 6.83398 
7.19487 0.0253122 -2.60252 
0.0253122 7.37833 -1.41695 
-2.60252 -1.41695 6.25698 
7.24489 -0.044451 -3.08424 
-0.044451 6.74366 -1.30506 
-3.08424 -1.30506 6.84164 
6.49297 0.0054784 -2.99075 
0.0054784 6.95902 -1.06121 
-2.99075 -1.06121 7.37819 
1.16168 -0.0280314 -2.60904 
-0.0280314 1.06258 -2.4219 
-2.60904 -2.4219 1.15462 
0.664915 0.0734075 -2.47842 
0.0734075 1.23228 -2.44584 
-2.47842 -2.44584 1.48168 
1.0049 0.0663111 -2.5994 
0.0663111 1.38666 -2.29385 
-2.5994 -2.29385 0.987322 
1.18242 -0.0251026 -2.59366 
-0.0251026 0.980705 -2.38762 
-2.59366 -2.38762 1.21575 
8.65972 0.0423438 2.64952 
0.0423438 8.62578 -3.69572 
2.64952 -3.69572 8.61589 
8.57315 -0.0217554 2.74221 
-0.0217554 8.58163 -3.81544 
2.74221 -3.81544 8.74662 
8.35497 -0.106309 2.62404 
-0.106309 8.3833 -3.25494 
2.62404 -3.25494 9.16312 
8.89425 0.178163 2.57058 
0.178163 9.12781 -3.80142 
2.57058 -3.80142 7.87933 
7.3932 0.0665236 -4.61677 
0.0665236 7.462 0.27557 
-4.61677 0.27557 7.46819 
6.70937 -0.00952146 -4.59402 
-0.00952146 7.45493 0.0868919 
-4.59402 0.0868919 8.15909 
7.61168 -0.00274322 -4.81539 
-0.00274322 7.51657 0.210721 
-4.81539 0.210721 7.19514 
7.61264 0.0185985 -4.58975 
0.0185985 7.3916 0.323882 
-4.58975 0.323882 7.31915 
2.4323 -0.131879 -0.651417 
-0.131879 2.51293 4.37001 
-0.651417 4.37001 2.04498 
2.20753 -0.0947799 -0.249404 
-0.0947799 2.40516 4.37303 
-0.249404 4.37303 2.37752 
2.18794 0.0246963 -0.00709483 
0.0246963 2.21077 4.35774 
-0.00709483 4.35774 2.5915 
2.45101 -0.115846 -0.359467 
-0.115846 2.31083 4.46914 
-0.359467 4.46914 2.22837 
7.04903 -0.205686 -2.50064 
-0.205686 6.7144 -2.59942 
-2.50064 -2.59942 7.9869 
7.1087 0.169398 -2.17961 
0.169398 7.33272 -2.52879 
-2.17961 -2.52879 7.30892 
7.13804 0.099346 -2.33017 
0.099346 7.27439 -2.5404 
-2.33017 -2.5404 7.33791 
7.2827 0.126259 -2.29266 
0.126259 7.45174 -2.63061 
-2.29266 -2.63061 7.01589 
9.38568 -0.0351589 0.137723 
-0.0351589 9.46504 2.277 
0.137723 2.277 9.90357 
9.45029 -0.0702274 0.241428 
-0.0702274 9.55574 2.13536 
0.241428 2.13536 9.74825 
9.39608 -0.048006 0.0617077 
-0.048006 9.45875 2.05964 
0.0617077 2.05964 9.89947 
9.60044 -0.0663051 0.194785 
-0.0663051 9.65469 2.18737 
0.194785 2.18737 9.49916 
9.42576 -0.111834 -2.85106 
-0.111834 9.39023 2.52921 
-2.85106 2.52921 10.0707 
9.6407 -0.00126402 -2.7883 
-0.00126402 9.59279 2.38646 
-2.7883 2.38646 9.65319 
9.70047 -0.052044 -2.72087 
-0.052044 9.34047 2.40156 
-2.72087 2.40156 9.84574 
9.69216 -0.00674436 -2.78348 
-0.00674436 9.70127 2.2736 
-2.78348 2.2736 9.49325 
3.83768 -0.0479932 -1.12067 
-0.0479932 4.00726 2.98894 
-1.12067 2.98894 3.97301 
3.69135 0.0847079 -1.30169 
0.0847079 3.81575 2.96594 
-1.30169 2.96594 4.31085 
4.00161 -0.0447262 -0.881732 
-0.0447262 4.09308 3.27617 
-0.881732 3.27617 3.72326 
3.82151 0.0521085 -0.990297 
0.0521085 3.93897 3.18049 
-0.990297 3.18049 4.05747 
1.31739 -0.00850317 0.716655 
-0.00850317 1.27902 3.70406 
0.716655 3.70406 1.26247 
1.22435 0.11293 0.870378 
0.11293 1.54273 3.76221 
0.870378 3.76221 1.09179 
1.14585 0.0889283 0.670008 
0.0889283 1.28015 3.65152 
0.670008 3.65152 1.43287 
1.17968 0.0727733 0.833003 
0.0727733 1.32545 3.68937 
0.833003 3.68937 1.35374 
9.23757 0.150727 3.27013 
0.150727 9.06811 3.33127 
3.27013 3.33127 9.36052 
9.21463 0.148685 3.19299 
0.148685 9.12538 3.34026 
3.19299 3.34026 9.32619 
8.85215 -0.232077 3.21091 
-0.232077 9.24884 3.34325 
3.21091 3.34325 9.56521 
9.04051 -0.232811 3.3608 
-0.232811 9.38798 3.05751 
3.3608 3.05751 9.23771 
5.22588 -0.196958 -3.92506 
-0.196958 5.12553 2.58087 
-3.92506 2.58087 4.37374 
4.83115 -0.0322361 -3.66824 
-0.0322361 4.98596 2.70855 
-3.66824 2.70855 4.90803 
4.71423 -0.036368 -3.91108 
-0.036368 4.74158 2.59877 
-3.91108 2.59877 5.26934 
4.79806 0.0722982 -3.55737 
0.0722982 4.91386 2.57937 
-3.55737 2.57937 5.01323 
4.9215 0.056526 4.32563 
0.056526 5.44046 -1.4586 
4.32563 -1.4586 4.91649 
4.74823 0.00599421 4.45888 
0.00599421 5.01338 -1.52296 
4.45888 -1.52296 5.51684 
5.23192 -0.021885 4.39733 
-0.021885 5.03786 -1.34459 
4.39733 -1.34459 5.00866 
5.17543 -0.16603 4.39502 
-0.16603 5.00651 -1.35053 
4.39502 -1.35053 5.09651 
5.5067 -0.0774013 -3.11606 
-0.0774013 5.18867 -2.35582 
-3.11606 -2.35582 5.46148 
5.25992 -0.0802451 -2.58583 
-0.0802451 5.61511 -2.19252 
-2.58583 -2.19252 5.28182 
5.62437 -0.298555 -3.14249 
-0.298555 5.43156 -2.52701 
-3.14249 -2.52701 5.10092 
5.34779 0.0727639 -2.45789 
0.0727639 5.17984 -2.24401 
-2.45789 -2.24401 5.62921 
9.40515 0.0365657 -1.85882 
0.0365657 9.11072 3.94566 
-1.85882 3.94566 9.18519 
9.07546 0.125469 -1.91496 
0.125469 9.11212 3.77288 
-1.91496 3.77288 9.51348 
9.14557 -0.048493 -1.76013 
-0.048493 9.16563 3.97718 
-1.76013 3.97718 9.38986 
9.20044 -0.281841 -1.67488 
-0.281841 9.51009 4.16806 
-1.67488 4.16806 8.99053 
2.90553 0.20253 -1.73925 
0.20253 3.45743 -4.39839 
-1.73925 -4.39839 2.48279 
2.89685 -0.0851123 -1.78855 
-0.0851123 2.8384 -4.16834 
-1.78855 -4.16834 3.1105 
2.64618 -0.0160832 -1.55249 
-0.0160832 2.6535 -4.42377 
-1.55249 -4.42377 3.54606 
2.91817 0.0126396 -1.74353 
0.0126396 2.85457 -3.90554 
-1.74353 -3.90554 3.073 
0.77064 -0.139079 3.40521 
-0.139079 0.639505 1.05777 
3.40521 1.05777 -0.395527 
0.194647 -0.0924641 3.26586 
-0.0924641 0.321689 1.33531 
3.26586 1.33531 0.498282 
0.443199 -0.338395 3.41571 
-0.338395 0.432792 1.32986 
3.41571 1.32986 0.138627 
0.0981704 0.091493 3.36445 
0.091493 0.256648 1.26417 
3.36445 1.26417 0.6598 
8.54966 -0.430327 -3.00519 
-0.430327 8.87397 0.593639 
-3.00519 0.593639 9.38625 
8.78383 -0.10444 -3.05799 
-0.10444 9.04321 1.22491 
-3.05799 1.22491 8.98285 
8.9903 -0.0573058 -3.08824 
-0.0573058 8.89473 0.814068 
-3.08824 0.814068 8.92485 
9.05348 -0.391902 -3.01159 
-0.391902 9.19275 1.52734 
-3.01159 1.52734 8.56366 
4.99888 0.0471509 -1.68252 
0.0471509 4.38924 1.64944 
-1.68252 1.64944 4.60805 
4.9036 0.0877306 -1.61677 
0.0877306 4.48291 1.55186 
-1.61677 1.55186 4.60967 
4.46663 -0.026875 -1.5959 
-0.026875 4.42541 1.28388 
-1.5959 1.28388 5.10413 
4.92148 -0.0298546 -1.94302 
-0.0298546 5.12232 1.5413 
-1.94302 1.5413 3.95238 
5.22593 -0.282694 -2.97745 
-0.282694 4.98063 -3.41826 
-2.97745 -3.41826 5.94719 
5.47107 0.00523919 -3.19204 
0.00523919 5.481 -3.5199 
-3.19204 -3.5199 5.20168 
5.33223 -0.0302694 -3.13123 
-0.0302694 5.39674 -3.38308 
-3.13123 -3.38308 5.42479 
5.36529 0.0625127 -3.17629 
0.0625127 5.44706 -3.34954 
-3.17629 -3.34954 5.34141 
2.67981 0.0846474 -2.47485 
0.0846474 3.00845 -1.94939 
-2.47485 -1.94939 3.03581 
2.98923 -0.0662728 -2.35708 
-0.0662728 2.4062 -2.20067 
-2.35708 -2.20067 3.32864 
2.81758 0.12077 -2.4268 
0.12077 3.1348 -2.21479 
-2.4268 -2.21479 2.7717 
2.97948 -0.0241206 -2.69574 
-0.0241206 3.12111 -2.18657 
-2.69574 -2.18657 2.62348 
8.51984 0.103713 3.98697 
0.103713 8.10709 -0.0360641 
3.98697 -0.0360641 9.20478 
8.55272 0.121501 4.55707 
0.121501 8.6372 -0.284396 
4.55707 -0.284396 8.64179 
8.63591 0.194124 4.4233 
0.194124 8.70331 -0.186586 
4.4233 -0.186586 8.49249 
9.15424 0.339213 4.55769 
0.339213 9.00383 -0.344594 
4.55769 -0.344594 7.67363 
0.300165 -0.0335104 -3.244 
-0.0335104 0.570074 -1.22464 
-3.244 -1.22464 0.428047 
0.508678 -0.196905 -3.25294 
-0.196905 0.531343 -1.34158 
-3.25294 -1.34158 0.258265 
0.881 -0.0692134 -3.15344 
-0.0692134 0.777336 -1.13989 
-3.15344 -1.13989 -0.36005 
0.346398 0.0095919 -3.34017 
0.0095919 0.339543 -1.32695 
-3.34017 -1.32695 0.612345 
1.15444 0.0134338 0.15001 
0.0134338 1.52232 4.49674 
0.15001 4.49674 1.44673 
1.35112 -0.012756 0.291662 
-0.012756 1.33567 4.39259 
0.291662 4.39259 1.43671 
1.4995 0.00788825 0.40539 
0.00788825 1.65356 4.23488 
0.40539 4.23488 0.970438 
0.961713 -0.0709729 -0.0720907 
-0.0709729 1.04644 4.49161 
-0.0720907 4.49161 2.11534 
9.30611 -0.203008 -2.49321 
-0.203008 8.86671 -3.7919 
-2.49321 -3.7919 9.08075 
9.18538 -0.130705 -2.55236 
-0.130705 8.72616 -3.87742 
-2.55236 -3.87742 9.34203 
9.05797 0.00477975 -2.73846 
0.00477975 9.10826 -3.9046 
-2.73846 -3.9046 9.08735 
9.05401 0.0873541 -2.75789 
0.0873541 8.96297 -3.90793 
-2.75789 -3.90793 9.23659 
1.29893 -0.0268588 -3.78386 
-0.0268588 1.22613 -0.759937 
-3.78386 -0.759937 1.07029 
1.36689 0.026005 -3.67483 
0.026005 1.19273 -0.687371 
-3.67483 -0.687371 1.03573 
1.30247 0.0615198 -3.76611 
0.0615198 0.914913 -0.535489 
-3.76611 -0.535489 1.37798 
1.2079 0.0164036 -3.75632 
0.0164036 1.12245 -0.770049 
-3.75632 -0.770049 1.26501 
9.02996 -0.105092 3.63786 
-0.105092 9.02401 2.5751 
3.63786 2.5751 8.99572 
9.08749 -0.208852 3.59526 
-0.208852 8.90902 2.51105 
3.59526 2.51105 9.05318 
8.74955 0.251379 3.56703 
0.251379 8.80654 2.39279 
3.56703 2.39279 9.4936 
9.16821 0.287234 3.55196 
0.287234 9.20342 2.56483 
3.55196 2.56483 8.67807 
2.64082 0.0259237 -4.64586 
0.0259237 2.63945 -0.238719 
-4.64586 -0.238719 2.91674 
2.80722 0.0665505 -4.55029 
0.0665505 2.70645 -0.262442 
-4.55029 -0.262442 2.68333 
3.19768 0.049204 -4.63517 
0.049204 2.79327 -0.164461 
-4.63517 -0.164461 2.20605 
2.65048 0.0347582 -4.41114 
0.0347582 2.75279 -0.3486 
-4.41114 -0.3486 2.79373 
5.39178 -0.125559 -4.23359 
-0.125559 4.42319 2.29608 
-4.23359 2.29608 3.45741 
4.37969 -0.0419878 -4.06964 
-0.0419878 4.30388 2.013 
-4.06964 2.013 4.58881 
3.22153 0.327132 -4.4374 
0.327132 4.63512 1.52674 
-4.4374 1.52674 5.41573 
4.44814 -0.399224 -3.09167 
-0.399224 4.16601 2.09716 
-3.09167 2.09716 4.65823 
1.09426 0.0125123 -1.61312 
0.0125123 1.19153 -2.25658 
-1.61312 -2.25658 1.10719 
0.968239 -0.269431 -2.17477 
-0.269431 1.73886 -2.11095 
-2.17477 -2.11095 0.685886 
1.11203 -0.0567831 -1.81816 
-0.0567831 1.11524 -2.16777 
-1.81816 -2.16777 1.16572 
0.595048 -0.373927 -1.27817 
-0.373927 1.24208 -2.48844 
-1.27817 -2.48844 1.55586 
4.69868 0.0535745 2.16306 
0.0535745 4.96826 4.33071 
2.16306 4.33071 4.132 
4.47969 -0.188389 1.97182 
-0.188389 4.40717 4.01505 
1.97182 4.01505 4.91206 
4.53434 -0.0550485 1.56367 
-0.0550485 4.20478 4.32113 
1.56367 4.32113 5.05981 
4.60015 0.272333 2.00956 
0.272333 4.65135 3.87104 
2.00956 3.87104 4.54743 
5.67405 -0.0265068 3.71464 
-0.0265068 5.88075 -2.55956 
3.71464 -2.55956 5.88936 
5.6137 -0.260396 3.93794 
-0.260396 5.66008 -2.40108 
3.93794 -2.40108 6.17038 
5.97754 -0.0531107 4.05177 
-0.0531107 6.09955 -2.38326 
4.05177 -2.38326 5.36708 
5.64788 0.0671513 3.70362 
0.0671513 5.85781 -2.4316 
3.70362 -2.4316 5.93846 
9.64198 -0.129225 -0.912653 
-0.129225 9.47909 -0.127408 
-0.912653 -0.127408 9.7407 
9.49905 0.0653205 -1.07936 
0.0653205 9.31974 0.0195628 
-1.07936 0.0195628 10.043 
9.52535 -0.00197798 -0.821637 
-0.00197798 9.56559 0.0263321 
-0.821637 0.0263321 9.77083 
9.70493 0.00133985 -0.865523 
0.00133985 9.68296 -0.0518064 
-0.865523 -0.0518064 9.47387 
9.03584 0.0795456 -1.61017 
0.0795456 9.22042 -4.36344 
-1.61017 -4.36344 9.12356 
9.20872 0.0684235 -1.65989 
0.0684235 9.20144 -4.47597 
-1.65989 -4.47597 8.96965 
9.17486 -0.0895002 -1.69605 
-0.0895002 9.08541 -4.25682 
-1.69605 -4.25682 9.11955 
9.08597 -0.413065 -1.8331 
-0.413065 8.82592 -4.17522 
-1.8331 -4.17522 9.46793 
3.5664 -0.125418 -0.433949 
-0.125418 3.35338 2.48136 
-0.433949 2.48136 3.37559 
3.48239 -0.208363 -0.55476 
-0.208363 3.15575 2.2087 
-0.55476 2.2087 3.65724 
3.62455 -0.0345081 -0.567445 
-0.0345081 3.55599 2.55867 
-0.567445 2.55867 3.11484 
3.54705 -0.0722535 -0.644971 
-0.0722535 3.32778 2.48541 
-0.644971 2.48541 3.42054 
9.40586 0.190934 0.683441 
0.190934 9.59452 0.623278 
0.683441 0.623278 9.95383 
9.69461 0.0355949 0.521507 
0.0355949 9.72526 0.555475 
0.521507 0.555475 9.53434 
9.19223 0.0494327 0.64049 
0.0494327 9.64036 0.356109 
0.64049 0.356109 10.1216 
9.87513 -0.0615548 0.586595 
-0.0615548 9.69587 0.574108 
0.586595 0.574108 9.3832 
6.54696 0.00932472 -2.78275 
0.00932472 6.5841 -3.66048 
-2.78275 -3.66048 6.69303 
6.52414 0.0706825 -2.71522 
0.0706825 6.79876 -3.59312 
-2.71522 -3.59312 6.5012 
6.84335 -0.0175596 -2.83922 
-0.0175596 6.84637 -3.60038 
-2.83922 -3.60038 6.13437 
6.58981 0.00048772 -2.65926 
0.00048772 6.613 -3.60749 
-2.65926 -3.60749 6.62128 
7.9395 -0.307891 3.33119 
-0.307891 7.75325 3.20414 
3.33119 3.20414 7.93861 
7.45695 -0.181451 3.4123 
-0.181451 7.00562 3.51185 
3.4123 3.51185 9.1688 
8.10155 0.494654 2.85525 
0.494654 8.8985 3.52333 
2.85525 3.52333 6.63131 
7.97694 -0.314266 3.29352 
-0.314266 7.77262 2.4882 
3.29352 2.4882 7.8818 
9.67576 0.114058 -1.63438 
0.114058 9.43158 -1.94126 
-1.63438 -1.94126 9.62777 
9.09697 0.0210339 -1.5796 
0.0210339 9.2846 -1.89918 
-1.5796 -1.89918 10.3535 
9.50267 0.145318 -1.60859 
0.145318 9.56116 -1.99794 
-1.60859 -1.99794 9.67128 
9.73034 -0.0102449 -1.69509 
-0.0102449 9.62696 -2.02278 
-1.69509 -2.02278 9.3778 
4.66711 -0.0710085 -3.07934 
-0.0710085 4.66331 3.45203 
-3.07934 3.45203 4.81869 
4.74765 0.0596965 -3.13071 
0.0596965 4.70962 3.38167 
-3.13071 3.38167 4.69183 
4.91805 -0.266108 -3.05924 
-0.266108 4.97959 3.45489 
-3.05924 3.45489 4.25147 
4.80171 0.0912025 -3.10398 
0.0912025 4.6543 3.35607 
-3.10398 3.35607 4.6931 
9.83462 0.0166634 1.10836 
0.0166634 9.66456 -0.0755242 
1.10836 -0.0755242 9.5441 
9.71145 0.147429 1.22876 
0.147429 9.33196 0.06788 
1.22876 0.06788 9.99989 
9.74618 -0.00345173 0.955939 
-0.00345173 9.31978 0.00158345 
0.955939 0.00158345 9.97733 
9.80083 -0.0296452 1.10868 
-0.0296452 9.85782 -0.0584576 
1.10868 -0.0584576 9.38464 
7.83717 -0.0477087 -4.57632 
-0.0477087 8.00767 -0.388723 
-4.57632 -0.388723 8.05034 
7.26237 -0.1797 -4.5368 
-0.1797 7.69782 -0.63617 
-4.5368 -0.63617 8.93498 
8.41091 0.22493 -4.76408 
0.22493 8.1113 -0.447647 
-4.76408 -0.447647 7.37296 
7.86173 0.0827543 -4.30737 
0.0827543 8.11073 0.0278968 
-4.30737 0.0278968 7.92271 
8.66184 -0.0470915 -1.10287 
-0.0470915 8.64228 -4.23053 
-1.10287 -4.23053 8.57565 
8.74972 -0.0864243 -1.01812 
-0.0864243 8.5677 -4.35624 
-1.01812 -4.35624 8.56235 
8.52237 -0.0493536 -0.819314 
-0.0493536 8.40596 -4.17727 
-0.819314 -4.17727 8.95144 
8.89338 -0.100174 -1.21672 
-0.100174 8.84958 -4.40173 
-1.21672 -4.40173 8.13681 
1.73677 0.103675 0.42555 
0.103675 1.85056 3.31641 
0.42555 3.31641 2.19917 
1.86315 0.00498216 0.507837 
0.00498216 1.90893 3.28154 
0.507837 3.28154 2.01441 
1.9344 -0.0354142 0.546297 
-0.0354142 2.00479 3.32255 
0.546297 3.32255 1.8473 
1.86342 -0.00698021 0.499917 
-0.00698021 1.91168 3.40494 
0.499917 3.40494 2.01139 
0.969938 0.0214148 -2.68504 
0.0214148 0.963704 -0.516989 
-2.68504 -0.516989 1.03471 
0.67659 0.296457 -2.88384 
0.296457 0.922309 -0.679036 
-2.88384 -0.679036 1.36945 
1.10569 0.206752 -2.72341 
0.206752 1.28983 -0.238034 
-2.72341 -0.238034 0.572831 
0.901509 -0.024651 -2.67203 
-0.024651 0.972558 -0.42488 
-2.67203 -0.42488 1.09428 
3.22458 0.112267 -3.01081 
0.112267 3.17068 3.46857 
-3.01081 3.46857 4.05136 
3.36855 0.149794 -3.11733 
0.149794 3.55266 3.34372 
-3.11733 3.34372 3.52542 
3.60137 -0.0434598 -3.19111 
-0.0434598 3.60228 3.50859 
-3.19111 3.50859 3.24297 
3.55652 -0.0625479 -3.14738 
-0.0625479 3.57371 3.29838 
-3.14738 3.29838 3.31639 
6.16094 -0.184658 -2.44936 
-0.184658 6.54875 4.02976 
-2.44936 4.02976 5.25781 
5.90817 0.347654 -2.53251 
0.347654 5.27579 3.99256 
-2.53251 3.99256 6.78354 
6.00083 -0.101939 -2.49878 
-0.101939 6.07662 3.79331 
-2.49878 3.79331 5.89005 
5.9001 0.0457391 -2.54059 
0.0457391 6.14235 3.22007 
-2.54059 3.22007 5.92506 
9.66414 0.0332682 2.27188 
0.0332682 9.579 -3.3055 
2.27188 -3.3055 9.52803 
9.59628 0.0112416 2.40227 
0.0112416 9.34463 -3.26548 
2.40227 -3.26548 9.83025 
9.3406 -0.0158456 2.22876 
-0.0158456 9.28873 -3.19838 
2.22876 -3.19838 10.1418 
9.64203 0.0345656 2.31236 
0.0345656 9.71526 -3.24556 
2.31236 -3.24556 9.41387 
1.23658 -0.0299245 -0.665585 
-0.0299245 1.35845 -3.6491 
-0.665585 -3.6491 1.20388 
1.24536 0.0152262 -0.837608 
0.0152262 1.38183 -3.71437 
-0.837608 -3.71437 1.17172 
1.22287 -0.0060169 -0.717696 
-0.0060169 1.20914 -3.62646 
-0.717696 -3.62646 1.36689 
0.992266 0.153955 -1.02603 
0.153955 1.35695 -3.66273 
-1.02603 -3.66273 1.44969 
0.895129 -0.0635078 -3.31066 
-0.0635078 1.01932 2.68371 
-3.31066 2.68371 0.896031 
1.11789 0.08553 -3.16987 
0.08553 1.07775 2.7728 
-3.16987 2.7728 0.614837 
1.11921 -0.173029 -3.26388 
-0.173029 0.98089 2.65168 
-3.26388 2.65168 0.71038 
0.867756 0.228739 -3.3096 
0.228739 0.788136 2.78928 
-3.3096 2.78928 1.15458 
1.15671 0.0328061 -4.22979 
0.0328061 0.704427 0.39309 
-4.22979 0.39309 0.730332 
1.09363 0.0996437 -4.35505 
0.0996437 0.678045 0.529638 
-4.35505 0.529638 0.819793 
1.11201 0.0264579 -3.9405 
0.0264579 1.32275 0.502616 
-3.9405 0.502616 0.156706 
0.396882 0.160254 -4.40525 
0.160254 0.927277 0.24573 
-4.40525 0.24573 1.26731 
1.0209 -0.292821 -2.76193 
-0.292821 1.42863 -1.14329 
-2.76193 -1.14329 0.356323 
0.663716 -0.441456 -2.84532 
-0.441456 0.860475 -0.345064 
-2.84532 -0.345064 1.28166 
0.888609 -0.0959408 -2.64807 
-0.0959408 0.959636 -0.576828 
-2.64807 -0.576828 0.957611 
0.831354 0.0241906 -2.65208 
0.0241906 1.06799 -0.799995 
-2.65208 -0.799995 0.906515 
9.39976 -0.107413 3.2608 
-0.107413 9.6946 2.13472 
3.2608 2.13472 9.62064 
9.18727 -0.108227 3.26533 
-0.108227 9.11857 1.96532 
3.26533 1.96532 10.4092 
9.55657 -0.140301 3.23432 
-0.140301 9.63247 2.06524 
3.23432 2.06524 9.52596 
9.68734 -0.0303675 3.13382 
-0.0303675 9.69345 2.20905 
3.13382 2.20905 9.33421 
4.56096 0.080762 -0.602524 
0.080762 4.77772 -4.89759 
-0.602524 -4.89759 3.93867 
4.34771 -0.368702 -0.58921 
-0.368702 3.65159 -4.35666 
-0.58921 -4.35666 5.27805 
4.43858 0.00111183 -0.484753 
0.00111183 4.38667 -4.57575 
-0.484753 -4.57575 4.4521 
4.38396 0.105696 -0.224548 
0.105696 4.67635 -4.56451 
-0.224548 -4.56451 4.21705 
8.92472 -0.0362483 -1.38575 
-0.0362483 9.00143 1.88849 
-1.38575 1.88849 9.03617 
9.29951 -0.0875976 -1.28063 
-0.0875976 8.98312 1.69032 
-1.28063 1.69032 8.67969 
9.06624 -0.100557 -1.40762 
-0.100557 8.75989 1.66937 
-1.40762 1.66937 9.13618 
8.95833 0.0753648 -1.35187 
0.0753648 9.14316 1.80192 
-1.35187 1.80192 8.86083 
0.455918 0.0216489 0.00117536 
0.0216489 0.258899 -3.60886 
0.00117536 -3.60886 0.462616 
0.713031 0.211229 0.104366 
0.211229 0.281846 -3.69722 
0.104366 -3.69722 0.182557 
0.666775 0.0802637 -0.0434312 
0.0802637 0.5734 -3.5417 
-0.0434312 -3.5417 -0.0627413 
0.272183 -0.116954 -0.106155 
-0.116954 0.252624 -3.5946 
-0.106155 -3.5946 0.652627 
9.38025 0.145579 0.361264 
0.145579 9.55538 -0.299025 
0.361264 -0.299025 10.0771 
9.67854 -0.00708313 0.268403 
-0.00708313 9.78922 -0.432836 
0.268403 -0.432836 9.545 
9.41285 0.029443 0.249322 
0.029443 9.644 -0.578494 
0.249322 -0.578494 9.9559 
9.82096 -0.0343694 0.317799 
-0.0343694 9.7473 -0.48197 
0.317799 -0.48197 9.4445 
9.18085 -0.00693092 0.0175926 
-0.00693092 9.25342 4.52699 
0.0175926 4.52699 10.3811 
9.6553 -0.0465819 -0.00355255 
-0.0465819 9.72662 4.63201 
-0.00355255 4.63201 9.43341 
9.47466 -0.0536749 0.0275599 
-0.0536749 9.76373 4.5083 
0.0275599 4.5083 9.57694 
9.4784 0.0230802 0.0455231 
0.0230802 9.65439 4.5814 
0.0455231 4.5814 9.68254 
0.604059 0.111255 2.48419 
0.111255 0.360565 -2.54975 
2.48419 -2.54975 0.107418 
0.307698 0.0744782 2.55106 
0.0744782 0.407973 -2.38285 
2.55106 -2.38285 0.356371 
0.735347 -0.00496247 2.47301 
-0.00496247 0.476068 -2.30621 
2.47301 -2.30621 -0.139373 
0.218365 -0.0253325 2.54461 
-0.0253325 0.289072 -2.43176 
2.54461 -2.43176 0.564605 
0.431343 -0.0252773 2.24554 
-0.0252773 0.624803 -0.49607 
2.24554 -0.49607 0.090772 
0.525855 -0.0101089 2.42384 
-0.0101089 0.553909 -0.405588 
2.42384 -0.405588 0.0671547 
0.456781 -0.0214448 2.29392 
-0.0214448 0.454792 -0.320335 
2.29392 -0.320335 0.235346 
0.325203 0.00771666 2.30817 
0.00771666 0.325279 -0.39872 
2.30817 -0.39872 0.496436 
8.94955 0.0875177 1.43403 
0.0875177 8.81812 3.14081 
1.43403 3.14081 9.06114 
8.95768 0.00914318 1.07706 
0.00914318 9.03937 3.04104 
1.07706 3.04104 8.83176 
8.87638 0.155495 1.0665 
0.155495 8.81257 3.00494 
1.0665 3.00494 9.13986 
8.95138 0.105614 1.52831 
0.105614 9.15114 3.18657 
1.52831 3.18657 8.72629 
8.45215 -0.0769535 -0.0600573 
-0.0769535 9.22943 2.63045 
-0.0600573 2.63045 9.20909 
9.0234 0.0603753 0.0629754 
0.0603753 9.02817 2.52034 
0.0629754 2.52034 8.8391 
9.09587 -0.00882737 0.141656 
-0.00882737 8.85517 2.38365 
0.141656 2.38365 8.93963 
8.97084 0.144133 0.31868 
0.144133 9.14082 2.28542 
0.31868 2.28542 8.77902 
7.30652 0.127271 -2.39316 
0.127271 6.99852 -2.47774 
-2.39316 -2.47774 7.21225 
7.34852 0.107926 -2.45546 
0.107926 6.9484 -2.44221 
-2.45546 -2.44221 7.22038 
6.69968 -0.12811 -2.39374 
-0.12811 7.04439 -2.72237 
-2.39374 -2.72237 7.77322 
7.41975 -0.0529372 -2.58724 
-0.0529372 7.44759 -2.46923 
-2.58724 -2.46923 6.64995 
3.84422 -0.049673 -3.47737 
-0.049673 3.95899 0.322037 
-3.47737 0.322037 3.71847 
4.03897 0.345981 -3.44577 
0.345981 3.96207 0.080211 
-3.44577 0.080211 3.52065 
3.80229 -0.086141 -3.62354 
-0.086141 3.7273 0.371835 
-3.62354 0.371835 3.99211 
3.73812 0.00927747 -3.49591 
0.00927747 3.82677 0.203308 
-3.49591 0.203308 3.95679 
0.592431 -0.0629564 -1.11796 
-0.0629564 0.714944 -3.62658 
-1.11796 -3.62658 0.300153 
0.822468 -0.101199 -0.942527 
-0.101199 0.842865 -3.51429 
-0.942527 -3.51429 -0.057804 
0.525924 -0.00095476 -1.05747 
-0.00095476 0.643631 -3.54618 
-1.05747 -3.54618 0.437973 
0.50227 -0.0394952 -1.12359 
-0.0394952 0.479703 -3.60423 
-1.12359 -3.60423 0.625555 
1.34254 0.0786051 3.21499 
0.0786051 1.23411 -2.44068 
3.21499 -2.44068 0.660784 
1.00106 -0.174581 3.44867 
-0.174581 1.12596 -2.78667 
3.44867 -2.78667 1.11041 
1.03257 -0.171669 3.26294 
-0.171669 1.17224 -2.70799 
3.26294 -2.70799 1.03262 
0.755462 0.466186 3.33708 
0.466186 0.895931 -2.97599 
3.33708 -2.97599 1.58604 
3.29713 0.0798536 0.127281 
0.0798536 3.19915 0.338059 
0.127281 0.338059 3.26305 
3.31673 0.104828 0.28727 
0.104828 3.42833 0.282165 
0.28727 0.282165 3.01426 
3.12632 0.0511608 0.21455 
0.0511608 3.23821 0.227035 
0.21455 0.227035 3.3948 
2.9543 -0.167116 0.207901 
-0.167116 3.08589 0.547908 
0.207901 0.547908 3.71913 
8.86136 -0.0349547 -4.01358 
-0.0349547 9.17514 1.37651 
-4.01358 1.37651 9.32259 
9.13788 -0.0858147 -4.12839 
-0.0858147 8.92087 1.62836 
-4.12839 1.62836 9.30035 
9.088 0.143901 -4.15582 
0.143901 9.20931 1.48366 
-4.15582 1.48366 9.06178 
9.56084 -0.16226 -4.25606 
-0.16226 8.9302 1.79893 
-4.25606 1.79893 8.86805 
9.21677 0.177771 -2.52798 
0.177771 9.1588 3.8053 
-2.52798 3.8053 9.28815 
9.1938 -0.0861436 -2.44702 
-0.0861436 9.16724 3.94951 
-2.44702 3.94951 9.30268 
8.98803 0.373873 -2.60183 
0.373873 9.05978 3.7486 
-2.60183 3.7486 9.61591 
9.23544 -0.124061 -2.48876 
-0.124061 9.16385 4.02932 
-2.48876 4.02932 9.26444 
9.67122 0.0365166 2.69589 
0.0365166 9.67243 3.02661 
2.69589 3.02661 9.62269 
9.44951 0.151701 2.67791 
0.151701 9.55783 3.14243 
2.67791 3.14243 9.959 
9.53569 0.179188 2.56345 
0.179188 9.42636 3.03861 
2.56345 3.03861 10.0043 
9.74787 -0.067032 2.72168 
-0.067032 9.74731 3.03878 
2.72168 3.03878 9.47117 
9.00264 0.107496 3.33966 
0.107496 8.34526 1.886 
3.33966 1.886 9.54326 
9.67021 0.208805 2.69173 
0.208805 8.92177 2.46862 
2.69173 2.46862 8.29917 
9.1003 -0.0988672 2.73905 
-0.0988672 8.93038 2.09928 
2.73905 2.09928 8.86048 
8.90923 0.0504364 2.98224 
0.0504364 9.05664 1.92252 
2.98224 1.92252 8.92529 
8.4309 -0.114751 0.802615 
-0.114751 8.66847 3.06136 
0.802615 3.06136 7.90648 
8.22929 -0.03919 0.94282 
-0.03919 8.40803 3.20274 
0.94282 3.20274 8.36853 
8.23428 0.0100868 1.00854 
0.0100868 8.21596 3.31459 
1.00854 3.31459 8.55561 
8.42574 -0.194955 1.13352 
-0.194955 8.50853 3.23223 
1.13352 3.23223 8.07158 
1.26588 0.104647 4.11711 
0.104647 1.45764 1.62574 
4.11711 1.62574 1.46656 
1.28804 0.234994 4.20232 
0.234994 1.43379 1.63938 
4.20232 1.63938 1.46825 
1.4499 0.116382 4.08972 
0.116382 1.69783 1.28205 
4.08972 1.28205 1.04235 
0.876293 0.0792533 4.04722 
0.0792533 1.06642 1.93409 
4.04722 1.93409 2.24737 
9.67791 0.107287 -0.398065 
0.107287 9.66858 1.90101 
-0.398065 1.90101 9.56934 
9.22259 0.0320341 -0.40162 
0.0320341 9.45122 2.03907 
-0.40162 2.03907 10.242 
9.45309 0.175217 -0.431342 
0.175217 9.69428 1.80773 
-0.431342 1.80773 9.76846 
9.76717 -0.00990164 -0.458424 
-0.00990164 9.77337 1.79382 
-0.458424 1.79382 9.37529 
0.409551 0.0366625 1.45709 
0.0366625 0.539024 -0.134127 
1.45709 -0.134127 0.0648274 
0.302666 0.0419284 1.30499 
0.0419284 0.748955 -0.122532 
1.30499 -0.122532 -0.0382183 
0.318925 0.0770703 1.39747 
0.0770703 0.401882 -0.114177 
1.39747 -0.114177 0.292595 
0.253794 0.0194065 1.41429 
0.0194065 0.351252 -0.0716725 
1.41429 -0.0716725 0.408357 
0.591405 0.0166713 1.17531 
0.0166713 0.262325 -2.68785 
1.17531 -2.68785 0.255811 
0.378739 0.105407 1.06341 
0.105407 0.40739 -2.745 
1.06341 -2.745 0.323412 
0.603758 0.0588131 1.1662 
0.0588131 0.754232 -2.81234 
1.1662 -2.81234 -0.248449 
0.273566 -0.0218281 1.09849 
-0.0218281 0.296181 -2.66825 
1.09849 -2.66825 0.539795 
8.58407 -0.0623744 4.49191 
-0.0623744 8.54318 0.353765 
4.49191 0.353765 8.61786 
8.45934 -0.0306603 4.21396 
-0.0306603 8.39537 0.295311 
4.21396 0.295311 8.89039 
8.54828 -0.0953416 4.40124 
-0.0953416 8.73838 0.201308 
4.40124 0.201308 8.45845 
8.736 -0.16698 4.65339 
-0.16698 8.84688 0.305264 
4.65339 0.305264 8.16223 
0.887222 -0.0418442 -0.433612 
-0.0418442 1.0388 4.44264 
-0.433612 4.44264 0.769662 
1.41841 -0.0650358 -0.555223 
-0.0650358 1.02237 4.06673 
-0.555223 4.06673 0.254908 
0.812209 -0.0151769 -0.492983 
-0.0151769 1.09513 4.32942 
-0.492983 4.32942 0.788339 
1.02796 -0.0779065 -0.548458 
-0.0779065 0.559062 4.30448 
-0.548458 4.30448 1.10866 
2.21137 -0.124234 3.19564 
-0.124234 2.1887 -3.23845 
3.19564 -3.23845 2.2675 
2.42862 -0.408277 3.40343 
-0.408277 2.90671 -3.37517 
3.40343 -3.37517 1.33223 
1.97928 0.644521 3.05576 
0.644521 1.42245 -3.66172 
3.05576 -3.66172 3.26584 
2.1611 -0.238849 3.02791 
-0.238849 2.11079 -2.43497 
3.02791 -2.43497 2.39567 
6.54318 0.0241728 4.11465 
0.0241728 6.62585 -1.78106 
4.11465 -1.78106 6.56357 
6.41834 0.0220698 4.24466 
0.0220698 6.747 -1.8322 
4.24466 -1.8322 6.56725 
7.08921 0.116565 4.14524 
0.116565 6.81372 -1.4332 
4.14524 -1.4332 5.82965 
6.36384 0.112802 3.83596 
0.112802 6.37326 -1.93351 
3.83596 -1.93351 6.99549 
0.245092 0.115876 1.36533 
0.115876 0.603885 -2.20018 
1.36533 -2.20018 0.282231 
0.248197 -0.0210149 1.39649 
-0.0210149 0.536738 -2.2802 
1.39649 -2.2802 0.346271 
0.696734 0.0804233 1.49613 
0.0804233 0.783977 -2.28093 
1.49613 -2.28093 -0.349504 
0.234859 0.0337548 1.31422 
0.0337548 0.285643 -2.24513 
1.31422 -2.24513 0.610704 
8.90255 0.0123468 -2.16695 
0.0123468 8.96648 -1.56333 
-2.16695 -1.56333 8.99137 
8.78149 0.0193957 -2.02182 
0.0193957 8.98154 -1.40408 
-2.02182 -1.40408 9.09737 
8.83236 -0.179589 -2.11752 
-0.179589 9.46304 -1.72801 
-2.11752 -1.72801 8.56499 
9.0994 0.0779338 -2.04962 
0.0779338 8.85059 -1.5302 
-2.04962 -1.5302 8.91041 
0.614468 0.0421752 -2.17121 
0.0421752 0.345024 -2.22034 
-2.17121 -2.22034 0.366529 
0.561659 0.188194 -2.15617 
0.188194 0.317063 -2.17105 
-2.15617 -2.17105 0.447298 
1.02741 0.0180116 -2.2584 
0.0180116 0.996544 -2.12124 
-2.2584 -2.12124 -0.697935 
0.193384 0.093213 -1.99494 
0.093213 0.35105 -2.42159 
-1.99494 -2.42159 0.781586 
4.12465 -0.0306401 -2.63937 
-0.0306401 4.12229 3.81453 
-2.63937 3.81453 4.0248 
4.29197 -0.232036 -2.57188 
-0.232036 4.82643 3.99334 
-2.57188 3.99334 3.15335 
4.07667 0.170252 -2.70995 
0.170252 3.44377 3.91679 
-2.70995 3.91679 4.7513 
4.18953 -0.128739 -2.83295 
-0.128739 4.04079 3.14908 
-2.83295 3.14908 4.04141 
9.49216 -0.00997014 -2.47938 
-0.00997014 9.70103 0.648545 
-2.47938 0.648545 9.56908 
9.1868 -0.0388093 -2.43884 
-0.0388093 9.23303 0.551038 
-2.43884 0.551038 10.3424 
9.43521 -0.109389 -2.54708 
-0.109389 9.64538 0.674488 
-2.54708 0.674488 9.68168 
9.66162 0.0178361 -2.51378 
0.0178361 9.72138 0.748436 
-2.51378 0.748436 9.37927 
1.61521 0.0221446 -0.0745623 
0.0221446 0.777338 3.18701 
-0.0745623 3.18701 0.643691 
0.896286 -0.018352 0.0808211 
-0.018352 1.07078 3.27795 
0.0808211 3.27795 1.06917 
0.854517 -0.121414 0.0848795 
-0.121414 1.13911 3.4208 
0.0848795 3.4208 1.04262 
0.922637 0.0806933 0.260709 
0.0806933 0.816512 3.53611 
0.260709 3.53611 1.29709 
6.72754 0.0148883 -4.38851 
0.0148883 6.90675 -1.82634 
-4.38851 -1.82634 7.16993 
6.79171 -0.0253103 -4.2732 
-0.0253103 7.02479 -1.9242 
-4.2732 -1.9242 6.98772 
7.4041 0.104942 -4.35019 
0.104942 6.89965 -1.57693 
-4.35019 -1.57693 6.50048 
6.81613 0.0341882 -4.24531 
0.0341882 7.01217 -1.85486 
-4.24531 -1.85486 6.97592 
2.69421 -0.546336 -4.1363 
-0.546336 4.43509 -1.92138 
-4.1363 -1.92138 5.24122 
4.30335 0.200723 -4.11544 
0.200723 3.8867 -1.99238 
-4.11544 -1.99238 4.18047 
4.84537 0.138235 -4.30137 
0.138235 3.75531 -2.14058 
-4.30137 -2.14058 3.76983 
4.68638 -0.166182 -2.9945 
-0.166182 3.5741 -2.02269 
-2.9945 -2.02269 4.11004 
5.29731 0.0809596 -1.34715 
0.0809596 5.48802 -4.52202 
-1.34715 -4.52202 4.76304 
5.11928 -0.165988 -1.28827 
-0.165988 4.85118 -4.50072 
-1.28827 -4.50072 5.57791 
5.16036 -0.0144076 -1.33408 
-0.0144076 5.23312 -4.40093 
-1.33408 -4.40093 5.15488 
5.16207 -0.0240762 -1.01399 
-0.0240762 5.22089 -4.29063 
-1.01399 -4.29063 5.16541 
2.66984 0.0855792 1.30517 
0.0855792 2.53108 -4.56148 
1.30517 -4.56148 3.13624 
2.79701 -0.344848 1.46878 
-0.344848 3.48349 -4.3562 
1.46878 -4.3562 2.05666 
2.81081 0.0291043 1.1261 
0.0291043 2.79554 -4.39867 
1.1261 -4.39867 2.7308 
2.83315 0.120224 1.03553 
0.120224 2.65587 -4.23519 
1.03553 -4.23519 2.84813 
0.723256 -0.0346451 0.182 
-0.0346451 0.665801 3.5151 
0.182 3.5151 -0.181489 
0.476314 -0.0507903 0.117415 
-0.0507903 0.273871 3.57743 
0.117415 3.57743 0.457382 
0.651672 0.143462 0.0519995 
0.143462 0.286872 3.63655 
0.0519995 3.63655 0.269024 
0.321172 -0.0273228 0.0970802 
-0.0273228 0.285661 3.64931 
0.0970802 3.64931 0.600735 
0.526681 0.123068 3.85457 
0.123068 0.642766 -0.671367 
3.85457 -0.671367 0.225316 
0.704552 0.0178042 3.68847 
0.0178042 0.794611 -0.679382 
3.68847 -0.679382 -0.1044 
0.524635 0.0519043 3.77827 
0.0519043 0.456196 -0.663541 
3.77827 -0.663541 0.413933 
0.447736 -0.000550442 3.85442 
-0.000550442 0.35715 -0.689021 
3.85442 -0.689021 0.589878 
3.0036 0.0376752 3.3525 
0.0376752 2.93349 -3.10387 
3.3525 -3.10387 3.00662 
2.81047 -0.000395502 3.57027 
-0.000395502 2.69996 -3.10276 
3.57027 -3.10276 3.43328 
3.36335 -0.309209 3.5189 
-0.309209 3.10809 -3.01912 
3.5189 -3.01912 2.47226 
2.96483 0.116867 3.15195 
0.116867 2.87577 -3.02841 
3.15195 -3.02841 3.10311 
5.20045 -0.0806017 -1.86749 
-0.0806017 4.60798 -4.32923 
-1.86749 -4.32923 5.71434 
5.25577 0.0139862 -1.96461 
0.0139862 5.66086 -4.38105 
-1.96461 -4.38105 4.60613 
5.22179 -0.00110312 -1.823 
-0.00110312 5.16455 -4.2731 
-1.823 -4.2731 5.13642 
5.16172 0.0160135 -2.11256 
0.0160135 5.1784 -4.05053 
-2.11256 -4.05053 5.18265 
2.67535 0.0389148 0.568366 
0.0389148 2.56458 3.35145 
0.568366 3.35145 2.84374 
3.02948 0.0157382 0.23084 
0.0157382 2.489 3.20957 
0.23084 3.20957 2.5652 
2.86935 0.137441 0.266978 
0.137441 2.5208 3.23423 
0.266978 3.23423 2.69353 
2.83882 -0.0146672 0.280049 
-0.0146672 2.85623 3.50516 
0.280049 3.50516 2.38862 
8.71473 0.304754 -3.76315 
0.304754 9.28398 2.51701 
-3.76315 2.51701 9.59647 
9.14375 0.062441 -3.77616 
0.062441 9.24822 2.53696 
-3.77616 2.53696 9.20322 
9.27894 -0.0790862 -3.68606 
-0.0790862 9.10032 2.65199 
-3.68606 2.65199 9.21593 
9.31348 -0.0923743 -3.78129 
-0.0923743 9.09742 2.71072 
-3.78129 2.71072 9.18428 
2.4732 -0.0456068 -4.57512 
-0.0456068 2.09635 0.303528 
-4.57512 0.303528 2.03923 
3.05713 -0.170525 -4.74272 
-0.170525 2.48431 0.713859 
-4.74272 0.713859 1.06735 
1.27413 0.403983 -4.70846 
0.403983 2.243 0.506893 
-4.70846 0.506893 3.09165 
2.44269 0.0214309 -3.98667 
0.0214309 2.11155 -0.182446 
-3.98667 -0.182446 2.05454 
7.26076 0.270193 2.49233 
0.270193 6.37391 -3.81244 
2.49233 -3.81244 8.34557 
7.31663 -0.116126 2.76369 
-0.116126 7.42942 -3.79652 
2.76369 -3.79652 7.23418 
7.69355 -0.0662463 2.53078 
-0.0662463 7.69668 -4.22604 
2.53078 -4.22604 6.59 
7.34289 -0.075188 2.79469 
-0.075188 7.48037 -3.54233 
2.79469 -3.54233 7.15697 
5.9406 -0.120392 -2.66116 
-0.120392 6.02495 -3.37835 
-2.66116 -3.37835 6.16778 
5.89923 -0.0413186 -2.39163 
-0.0413186 6.27964 -3.71423 
-2.39163 -3.71423 5.95447 
5.91665 -0.320694 -2.40829 
-0.320694 6.09195 -3.59411 
-2.40829 -3.59411 6.12473 
5.87303 -0.147659 -2.71136 
-0.147659 6.20929 -3.4698 
-2.71136 -3.4698 6.05102 
7.70309 -0.0577692 2.63665 
-0.0577692 7.61 4.00862 
2.63665 4.00862 7.36718 
7.53215 0.00812452 2.66156 
0.00812452 7.56755 3.8788 
2.66156 3.8788 7.58057 
7.49831 -0.318752 2.51371 
-0.318752 6.9284 3.73485 
2.51371 3.73485 8.25355 
7.44768 0.0061137 2.70892 
0.0061137 7.68728 3.80469 
2.70892 3.80469 7.54531 
9.11806 -0.0912672 -3.75913 
-0.0912672 9.04221 -2.44223 
-3.75913 -2.44223 9.26501 
9.16327 -0.137222 -4.01711 
-0.137222 8.98592 -2.16408 
-4.01711 -2.16408 9.27609 
9.28716 0.0310188 -3.80266 
0.0310188 9.03818 -2.51965 
-3.80266 -2.51965 9.09996 
9.20353 -0.00045618 -4.035 
-0.00045618 9.20401 -2.24219 
-4.035 -2.24219 9.01775 
1.09963 0.322907 -0.0905442 
0.322907 1.60992 3.49212 
-0.0905442 3.49212 0.732201 
1.23793 0.0669772 -0.418587 
0.0669772 1.05808 3.84554 
-0.418587 3.84554 1.14574 
0.730352 0.161904 -0.434614 
0.161904 1.13997 4.0633 
-0.434614 4.0633 1.57143 
1.04609 0.021452 -0.278337 
0.021452 1.22876 3.57629 
-0.278337 3.57629 1.1669 
6.97785 -0.120463 0.0808068 
-0.120463 6.81016 2.7911 
0.0808068 2.7911 7.03075 
7.06503 0.117406 -0.0834407 
0.117406 7.03799 2.74678 
-0.0834407 2.74678 6.71574 
7.0555 0.0708788 0.487839 
0.0708788 6.90744 2.48694 
0.487839 2.48694 6.85583 
7.21582 0.141411 0.609607 
0.141411 6.48542 2.61264 
0.609607 2.61264 7.11752 
9.53751 -0.0308717 0.00498035 
-0.0308717 9.71726 -4.55211 
0.00498035 -4.55211 9.60239 
9.46971 0.0838765 -0.00928543 
0.0838765 9.68915 -4.58573 
-0.00928543 -4.58573 9.6983 
9.21595 -0.0207599 0.00746302 
-0.0207599 9.21944 -4.55739 
0.00746302 -4.55739 10.4218 
9.70854 -0.0291684 0.0190421 
-0.0291684 9.71363 -4.68115 
0.0190421 -4.68115 9.43499 
6.33325 0.180442 4.62199 
0.180442 5.82276 0.639802 
4.62199 0.639802 5.33776 
5.94981 -0.00224323 4.50945 
-0.00224323 5.71228 0.477846 
4.50945 0.477846 5.83167 
5.41172 -0.0108805 4.68778 
-0.0108805 5.75564 0.633189 
4.68778 0.633189 6.32641 
5.63575 0.0874843 4.29466 
0.0874843 5.81376 0.330525 
4.29466 0.330525 6.04426 
0.751651 0.261156 2.32216 
0.261156 0.637925 2.06246 
2.32216 2.06246 -0.257294 
0.383093 0.229133 2.19259 
0.229133 0.698426 2.35846 
2.19259 2.35846 0.050763 
0.300059 0.120257 2.33915 
0.120257 0.495582 2.31705 
2.33915 2.31705 0.336641 
0.229171 0.0527499 2.30748 
0.0527499 0.36249 2.44325 
2.30748 2.44325 0.540621 
0.293376 0.0606255 -3.58416 
0.0606255 0.48392 0.0924321 
-3.58416 0.0924321 0.238817 
0.290999 -0.118773 -3.59569 
-0.118773 0.535468 -0.0570169 
-3.59569 -0.0570169 0.189646 
0.603121 0.0041983 -3.46572 
0.0041983 0.611754 0.0355803 
-3.46572 0.0355803 -0.198762 
0.274738 -0.0165261 -3.60377 
-0.0165261 0.264955 0.0157567 
-3.60377 0.0157567 0.476419 
2.31154 -0.0868395 -4.11581 
-0.0868395 2.50708 -2.51666 
-4.11581 -2.51666 3.33197 
2.56273 -0.222752 -3.84887 
-0.222752 2.74177 -2.61147 
-3.84887 -2.61147 2.8461 
3.6827 0.365479 -3.7895 
0.365479 2.75317 -2.504 
-3.7895 -2.504 1.71473 
2.49385 -0.0570126 -3.46736 
-0.0570126 2.79069 -2.71803 
-3.46736 -2.71803 2.86606 
9.77523 0.0189334 -3.89005 
0.0189334 9.72212 2.52903 
-3.89005 2.52903 9.39305 
9.6462 -0.0237386 -3.8307 
-0.0237386 9.68023 2.42045 
-3.8307 2.42045 9.56397 
9.26792 -0.00916491 -3.93615 
-0.00916491 9.35721 2.23809 
-3.93615 2.23809 10.2653 
9.47327 -0.201106 -3.92905 
-0.201106 9.61497 2.43415 
-3.92905 2.43415 9.80215 
9.74054 -0.00678051 -2.63714 
-0.00678051 9.72151 3.79648 
-2.63714 3.79648 9.4228 
9.62882 -0.029622 -2.66152 
-0.029622 9.67273 3.70981 
-2.66152 3.70981 9.58329 
9.3359 0.00321705 -2.81626 
0.00321705 9.41732 3.5736 
-2.81626 3.5736 10.1316 
9.38175 -0.171728 -2.76981 
-0.171728 9.68289 3.74707 
-2.76981 3.74707 9.82021 
2.64126 -0.0280749 -3.37897 
-0.0280749 2.61157 -0.542121 
-3.37897 -0.542121 2.91708 
2.66608 0.0102925 -3.33227 
0.0102925 2.81799 -0.724842 
-3.33227 -0.724842 2.68585 
2.61156 -0.085067 -3.44071 
-0.085067 2.53831 -0.464722 
-3.44071 -0.464722 3.02004 
2.71094 0.00239775 -3.52766 
0.00239775 2.69761 -0.598054 
-3.52766 -0.598054 2.76136 
7.3541 -0.111005 -2.82916 
-0.111005 7.24848 -2.36839 
-2.82916 -2.36839 7.23224 
6.95687 0.157358 -3.04293 
0.157358 7.1972 -2.54642 
-3.04293 -2.54642 7.68075 
7.32541 -0.0688865 -2.76506 
-0.0688865 7.23683 -2.38198 
-2.76506 -2.38198 7.27258 
7.35748 0.0627408 -2.58708 
0.0627408 7.6092 -2.37087 
-2.58708 -2.37087 6.86814 
0.234493 -0.0212886 0.462376 
-0.0212886 0.378244 2.39817 
0.462376 2.39817 0.442663 
0.333225 0.137384 0.396139 
0.137384 0.597285 2.49581 
0.396139 2.49581 0.12489 
0.500221 -0.0137876 0.658854 
-0.0137876 0.700751 2.4991 
0.658854 2.4991 -0.145572 
0.230348 -0.0188907 0.402228 
-0.0188907 0.257281 2.42473 
0.402228 2.42473 0.567771 
5.28511 -0.152306 3.43807 
-0.152306 5.32123 3.075 
3.43807 3.075 5.00013 
5.05421 0.0705015 3.47931 
0.0705015 5.04393 3.07558 
3.47931 3.07558 5.50834 
5.22111 -0.00923648 3.35017 
-0.00923648 5.20371 3.14308 
3.35017 3.14308 5.18165 
5.2438 0.02797 3.29217 
0.02797 5.20109 3.13496 
3.29217 3.13496 5.16158 
4.05503 -0.121352 1.12444 
-0.121352 4.3983 -4.48296 
1.12444 -4.48296 4.09287 
4.33186 0.0258967 1.04155 
0.0258967 4.23958 -4.48782 
1.04155 -4.48782 3.97477 
4.24398 0.132692 0.948698 
0.132692 3.60097 -4.60517 
0.948698 -4.60517 4.70125 
3.94674 0.0817408 1.07961 
0.0817408 4.41364 -4.31122 
1.07961 -4.31122 4.18582 
9.73869 0.020292 3.79908 
0.020292 9.69924 2.60045 
3.79908 2.60045 9.3823 
9.63827 0.0668821 3.66496 
0.0668821 9.59888 2.64224 
3.66496 2.64224 9.58309 
9.32056 0.017334 3.50107 
0.017334 9.2848 2.80635 
3.50107 2.80635 10.2149 
9.72033 0.207653 3.65054 
0.207653 9.39517 2.69529 
3.65054 2.69529 9.70474 
7.79406 -0.0625489 1.37448 
-0.0625489 6.94146 4.48366 
1.37448 4.48366 8.06912 
7.41796 0.0647916 1.1211 
0.0647916 7.76359 4.40332 
1.1211 4.40332 7.62308 
7.87074 0.0209013 1.13529 
0.0209013 7.61999 4.4633 
1.13529 4.4633 7.3139 
7.42583 0.115316 1.13838 
0.115316 7.75638 4.12566 
1.13838 4.12566 7.62242 
2.72882 0.0245201 -4.71672 
0.0245201 2.67557 0.170036 
-4.71672 0.170036 3.12849 
3.32883 0.0132782 -4.66009 
0.0132782 2.82698 0.135243 
-4.66009 0.135243 2.37707 
2.92348 -0.0201525 -4.57714 
-0.0201525 2.80236 0.236372 
-4.57714 0.236372 2.80704 
2.76434 0.0395717 -4.44455 
0.0395717 2.84557 0.319983 
-4.44455 0.319983 2.92297 
0.482176 -0.00444392 -0.681122 
-0.00444392 0.4538 1.81627 
-0.681122 1.81627 0.0679941 
0.305458 0.0165853 -0.707948 
0.0165853 0.410689 1.98805 
-0.707948 1.98805 0.287823 
0.422109 0.0575108 -0.828762 
0.0575108 0.39823 1.96942 
-0.828762 1.96942 0.18363 
0.238265 -0.00372588 -0.715949 
-0.00372588 0.26685 1.99805 
-0.715949 1.99805 0.498854 
1.25009 -0.691909 -3.16732 
-0.691909 1.24098 3.25935 
-3.16732 3.25935 0.32718 
0.877358 -0.000674625 -3.23757 
-0.000674625 0.954986 3.30801 
-3.23757 3.30801 0.985903 
0.991705 0.174893 -3.19608 
0.174893 0.897813 3.10341 
-3.19608 3.10341 0.928729 
0.969135 0.122173 -3.37592 
0.122173 0.868988 3.23456 
-3.37592 3.23456 0.980124 
9.12033 -0.00185118 0.813681 
-0.00185118 9.12221 -4.24821 
0.813681 -4.24821 9.35887 
9.25177 -0.0615841 0.611753 
-0.0615841 8.94089 -4.2098 
0.611753 -4.2098 9.40876 
9.34469 0.0884134 0.738453 
0.0884134 9.10286 -4.36782 
0.738453 -4.36782 9.15386 
9.059 -0.106222 0.982406 
-0.106222 9.65324 -4.40087 
0.982406 -4.40087 8.88917 
8.89443 0.0626518 1.71214 
0.0626518 9.26294 3.31109 
1.71214 3.31109 9.02053 
9.08078 0.0344308 1.80265 
0.0344308 9.13289 3.23608 
1.80265 3.23608 8.96422 
9.14911 -0.260963 1.80579 
-0.260963 8.67679 3.19033 
1.80579 3.19033 9.35199 
9.16186 0.0393746 1.66817 
0.0393746 9.13863 3.42676 
1.66817 3.42676 8.8774 
0.167541 0.0111337 -0.549512 
0.0111337 0.2962 -2.60665 
-0.549512 -2.60665 0.408632 
0.474375 0.147278 -0.666743 
0.147278 0.75868 -2.41516 
-0.666743 -2.41516 -0.360682 
0.0957979 0.00159893 -0.459465 
0.00159893 0.6932 -2.53866 
-0.459465 -2.53866 0.0833751 
0.175901 -0.0229199 -0.409468 
-0.0229199 0.103962 -2.58467 
-0.409468 -2.58467 0.59251 
9.11323 0.120655 1.67653 
0.120655 8.92176 4.20358 
1.67653 4.20358 8.9616 
9.12842 0.0574747 1.62077 
0.0574747 8.55599 4.17326 
1.62077 4.17326 9.31218 
8.98348 -0.103043 2.04025 
-0.103043 8.87553 4.05898 
2.04025 4.05898 9.13757 
9.07832 0.0616676 2.13907 
0.0616676 9.03611 3.97433 
2.13907 3.97433 8.88216 
0.864957 -0.105426 -1.85055 
-0.105426 0.857882 -3.22621 
-1.85055 -3.22621 -0.428573 
0.626975 -0.208494 -1.77767 
-0.208494 0.358865 -3.23189 
-1.77767 -3.23189 0.308426 
0.63829 -0.0657516 -1.82286 
-0.0657516 0.394399 -3.16427 
-1.82286 -3.16427 0.261577 
0.373043 -0.122711 -1.6614 
-0.122711 0.344757 -3.16144 
-1.6614 -3.16144 0.576465 
2.41101 -0.233569 4.40195 
-0.233569 2.37124 -1.53307 
4.40195 -1.53307 1.94394 
1.86584 0.419225 4.372 
0.419225 2.30579 -1.82545 
4.372 -1.82545 2.55457 
2.48982 -0.0936978 4.33219 
-0.0936978 2.29546 -1.70274 
4.33219 -1.70274 1.94091 
2.29198 -0.105561 4.10099 
-0.105561 2.10715 -1.51651 
4.10099 -1.51651 2.32706 
8.43405 0.111467 -3.47983 
0.111467 8.55817 -2.7789 
-3.47983 -2.7789 8.78716 
8.60947 0.165772 -3.34734 
0.165772 8.66915 -2.75699 
-3.34734 -2.75699 8.50077 
8.43816 -0.304062 -3.05351 
-0.304062 8.38934 -2.74439 
-3.05351 -2.74439 8.95188 
8.89594 0.207537 -3.53674 
0.207537 8.68982 -2.54032 
-3.53674 -2.54032 8.19362 
9.56115 -0.0120451 -0.794497 
-0.0120451 9.55101 -3.88431 
-0.794497 -3.88431 9.84136 
9.62073 -0.0040086 -0.818427 
-0.0040086 9.56223 -3.77199 
-0.818427 -3.77199 9.77056 
9.44988 0.0689289 -0.656563 
0.0689289 9.50869 -3.78226 
-0.656563 -3.78226 9.99495 
9.69302 -0.0251589 -0.811268 
-0.0251589 9.69683 -3.831 
-0.811268 -3.831 9.56367 
0.595654 0.194358 -2.53077 
0.194358 0.175318 -0.541855 
-2.53077 -0.541855 0.0870355 
0.304584 0.125354 -2.64699 
0.125354 0.226348 -0.482301 
-2.64699 -0.482301 0.327075 
0.844333 0.00579722 -2.4355 
0.00579722 0.385517 -0.322399 
-2.4355 -0.322399 -0.371844 
0.0735578 0.00289103 -2.6086 
0.00289103 0.198235 -0.645875 
-2.6086 -0.645875 0.586214 
2.12139 0.0189424 -0.252092 
0.0189424 2.14735 4.20774 
-0.252092 4.20774 1.73793 
2.00489 0.0620602 -0.374091 
0.0620602 2.1937 4.27896 
-0.374091 4.27896 1.80807 
2.04383 0.142757 -0.562598 
0.142757 1.95962 4.39239 
-0.562598 4.39239 2.00321 
1.9576 0.146848 -0.38649 
0.146848 2.08177 4.53738 
-0.38649 4.53738 1.9673 
5.03529 -0.0469142 -4.41258 
-0.0469142 4.71236 0.854864 
-4.41258 0.854864 4.74029 
5.04323 0.125615 -4.35845 
0.125615 4.62349 0.893855 
-4.35845 0.893855 4.82122 
4.71044 0.0682679 -4.15766 
0.0682679 4.78237 1.39024 
-4.15766 1.39024 4.99513 
5.17916 -0.0766456 -4.20698 
-0.0766456 4.5661 1.26103 
-4.20698 1.26103 4.74269 
7.9824 -0.0179787 -0.38841 
-0.0179787 7.36417 4.57641 
-0.38841 4.57641 7.99221 
7.5754 0.0798541 -0.649106 
0.0798541 7.17917 4.74138 
-0.649106 4.74138 8.58421 
7.50141 -0.29953 -0.482738 
-0.29953 8.80263 4.68551 
-0.482738 4.68551 7.03475 
7.83945 0.124934 -0.0770345 
0.124934 7.61433 3.97415 
-0.0770345 3.97415 7.885 
9.57892 -0.160973 -3.97018 
-0.160973 9.37659 0.395202 
-3.97018 0.395202 10.0531 
9.52028 -0.129532 -3.77469 
-0.129532 9.54022 0.287082 
-3.77469 0.287082 9.94807 
9.68851 -0.0651999 -3.85506 
-0.0651999 9.74726 0.363536 
-3.85506 0.363536 9.57279 
9.73581 0.0220386 -3.85581 
0.0220386 9.81931 0.325302 
-3.85581 0.325302 9.45344 
0.608925 0.0360831 -3.62134 
0.0360831 0.239429 1.03188 
-3.62134 1.03188 0.394565 
1.04428 0.0362067 -3.65063 
0.0362067 0.965179 1.20707 
-3.65063 1.20707 -0.76654 
0.618347 -0.146199 -3.68165 
-0.146199 0.250551 1.02646 
-3.68165 1.02646 0.37402 
0.363416 0.006852 -3.62163 
0.006852 0.242678 1.18925 
-3.62163 1.18925 0.636825 
0.775455 -0.112733 -2.45166 
-0.112733 0.90568 -2.34047 
-2.45166 -2.34047 -0.40948 
0.277373 0.0994251 -2.33098 
0.0994251 0.591836 -2.42708 
-2.33098 -2.42708 0.402445 
0.31823 -0.0597823 -2.2785 
-0.0597823 0.624785 -2.36093 
-2.2785 -2.36093 0.32864 
0.301236 -0.0187394 -2.11963 
-0.0187394 0.18374 -2.48847 
-2.11963 -2.48847 0.786679 
9.13207 -0.175632 -3.14829 
-0.175632 9.20115 3.32834 
-3.14829 3.32834 9.31976 
8.85707 0.308985 -3.19148 
0.308985 9.20224 3.29614 
-3.19148 3.29614 9.59367 
9.13981 0.168696 -3.20018 
0.168696 9.26016 3.18105 
-3.20018 3.18105 9.25301 
9.28604 -0.0674053 -3.21602 
-0.0674053 9.1586 3.41491 
-3.21602 3.41491 9.20834 
9.68562 0.1292 2.48806 
0.1292 9.38221 -1.56084 
2.48806 -1.56084 9.8212 
9.44593 -0.00799126 2.23514 
-0.00799126 9.20406 -1.59577 
2.23514 -1.59577 10.239 
9.71163 0.0253998 2.40192 
0.0253998 9.65324 -1.59066 
2.40192 -1.59066 9.52416 
9.70918 -0.0413985 2.48636 
-0.0413985 9.79075 -1.50568 
2.48636 -1.50568 9.3891 
9.61989 0.0683738 3.32989 
0.0683738 9.55218 3.06419 
3.32989 3.06419 9.60097 
9.50954 0.317302 3.37754 
0.317302 9.54986 3.0015 
3.37754 3.0015 9.71364 
9.63281 0.0327525 3.3231 
0.0327525 9.70306 3.18729 
3.3231 3.18729 9.43716 
9.38315 -0.0060456 3.42316 
-0.0060456 9.21967 2.8773 
3.42316 2.8773 10.1702 
1.17046 -0.562556 3.22274 
-0.562556 1.17342 -3.23871 
3.22274 -3.23871 0.371212 
0.883633 0.157712 3.18698 
0.157712 0.982283 -3.18537 
3.18698 -3.18537 0.849182 
0.933014 -0.0218066 3.37954 
-0.0218066 0.839531 -3.2038 
3.37954 -3.2038 0.942553 
0.918272 0.086655 3.23815 
0.086655 0.945281 -3.30225 
3.23815 -3.30225 0.851544 
9.411 -0.351756 -4.54427 
-0.351756 9.06458 -0.337213 
-4.54427 -0.337213 8.71189 
9.00422 -0.155676 -4.50196 
-0.155676 9.12603 -0.0483732 
-4.50196 -0.0483732 9.05722 
9.037 -0.343421 -4.7796 
-0.343421 8.70179 0.556868 
-4.7796 0.556868 9.44867 
9.11991 -0.049412 -4.66338 
-0.049412 8.96314 0.384695 
-4.66338 0.384695 9.10441 
5.17927 0.0551237 -4.056 
0.0551237 5.37335 -2.1163 
-4.056 -2.1163 5.47504 
5.60238 0.0632042 -4.20689 
0.0632042 5.42751 -1.7637 
-4.20689 -1.7637 4.99777 
5.24613 0.0778431 -4.02707 
0.0778431 5.2711 -2.16523 
-4.02707 -2.16523 5.51044 
5.28408 -0.204767 -3.59252 
-0.204767 4.74863 -2.26885 
-3.59252 -2.26885 5.99496 
9.36562 0.0361364 -2.0492 
0.0361364 9.71064 -1.78523 
-2.0492 -1.78523 9.61877 
9.11972 -0.0141119 -2.02135 
-0.0141119 9.17231 -1.68955 
-2.02135 -1.68955 10.403 
9.44919 -0.0653956 -2.00434 
-0.0653956 9.66233 -1.76933 
-2.00434 -1.76933 9.5835 
9.64544 0.0114811 -2.01116 
0.0114811 9.69683 -1.88414 
-2.01116 -1.88414 9.35276 
7.3962 0.161456 -1.22324 
0.161456 7.59194 -4.59032 
-1.22324 -4.59032 6.96042 
7.34808 -0.413865 -1.4891 
-0.413865 6.60963 -4.45493 
-1.4891 -4.45493 7.99086 
7.28429 -0.00533774 -1.25795 
-0.00533774 7.31047 -4.39351 
-1.25795 -4.39351 7.3538 
7.17516 0.0995764 -0.996746 
0.0995764 7.41238 -4.22413 
-0.996746 -4.22413 7.36102 
0.454727 -0.074859 -3.24062 
-0.074859 0.354278 -2.06797 
-3.24062 -2.06797 0.334582 
0.648809 -0.121597 -3.08603 
-0.121597 0.753322 -2.09982 
-3.08603 -2.09982 -0.258545 
0.539986 -0.227965 -3.28074 
-0.227965 0.470314 -2.12775 
-3.28074 -2.12775 0.133286 
0.32819 -0.0138925 -3.3041 
-0.0138925 0.294573 -2.09177 
-3.3041 -2.09177 0.520823 
3.51662 -0.116969 1.9482 
-0.116969 3.47792 -2.51061 
1.9482 -2.51061 3.55867 
3.07539 -0.101119 2.52593 
-0.101119 3.25476 -2.29815 
2.52593 -2.29815 4.22306 
3.89034 0.0316279 2.32372 
0.0316279 3.85043 -2.85444 
2.32372 -2.85444 2.81245 
3.42254 -0.079359 1.96103 
-0.079359 3.67347 -2.52071 
1.96103 -2.52071 3.4572 
4.95903 -0.0963651 3.74406 
-0.0963651 5.01762 2.76206 
3.74406 2.76206 5.63256 
5.32452 -0.0269245 3.75373 
-0.0269245 5.34428 2.74696 
3.75373 2.74696 4.94041 
5.21402 0.0395381 3.74308 
0.0395381 5.18798 2.61965 
3.74308 2.61965 5.20721 
5.20281 0.0900882 3.67337 
0.0900882 5.22135 2.48749 
3.67337 2.48749 5.18504 
9.24251 -0.0795897 -4.29787 
-0.0795897 9.52718 -0.120952 
-4.29787 -0.120952 10.1841 
9.36801 0.0831231 -4.34367 
0.0831231 9.68668 0.0816721 
-4.34367 0.0816721 9.8991 
9.67377 0.0303031 -4.38941 
0.0303031 9.67712 -0.00330395 
-4.38941 -0.00330395 9.6029 
9.83593 0.000166853 -4.36666 
0.000166853 9.66715 0.0614994 
-4.36666 0.0614994 9.45072 
9.79415 -0.0295887 2.74772 
-0.0295887 9.66371 2.01647 
2.74772 2.01647 9.48572 
9.74621 -0.274122 2.6208 
-0.274122 9.37339 1.99693 
2.6208 1.99693 9.82397 
9.30809 -0.124468 2.7691 
-0.124468 9.36201 1.79516 
2.7691 1.79516 10.2735 
9.78084 0.0772345 2.60666 
0.0772345 9.82748 1.98904 
2.60666 1.98904 9.33525 
8.78772 -0.120115 0.557507 
-0.120115 9.11784 -3.186 
0.557507 -3.186 9.1579 
9.03623 0.029672 0.546847 
0.029672 9.17073 -3.23535 
0.546847 -3.23535 8.8565 
8.93617 -0.117845 0.847756 
-0.117845 9.06884 -3.46413 
0.847756 -3.46413 9.05846 
9.04387 0.00180534 0.856067 
0.00180534 9.26303 -3.46756 
0.856067 -3.46756 8.75657 
8.61668 0.326607 1.67268 
0.326607 8.77048 4.32037 
1.67268 4.32037 8.20236 
8.53621 -0.148301 1.89184 
-0.148301 8.22602 4.48261 
1.89184 4.48261 8.82728 
8.59492 0.0896714 1.95719 
0.0896714 8.77054 4.17449 
1.95719 4.17449 8.22405 
8.4229 0.00975586 1.68921 
0.00975586 8.30283 4.24232 
1.68921 4.24232 8.86379 
7.32741 -0.17664 -4.1058 
-0.17664 7.63451 -2.17984 
-4.1058 -2.17984 7.99613 
7.74269 0.0981077 -3.98692 
0.0981077 7.5228 -2.31842 
-3.98692 -2.31842 7.69256 
7.72971 -0.0405094 -3.99095 
-0.0405094 7.75836 -2.35393 
-3.99095 -2.35393 7.46999 
7.7939 0.0698517 -3.82658 
0.0698517 7.45988 -2.24963 
-3.82658 -2.24963 7.70427 
1.00809 -0.0315927 3.3405 
-0.0315927 0.889274 3.23875 
3.3405 3.23875 1.00095 
0.942274 -0.174888 3.16098 
-0.174888 1.01603 3.18291 
3.16098 3.18291 0.940013 
1.25306 0.592828 3.27166 
0.592828 1.23149 3.18099 
3.27166 3.18099 0.413766 
0.94446 -0.0455823 3.22933 
-0.0455823 0.964895 3.32666 
3.22933 3.32666 0.988958 
9.75379 -0.0698013 -1.14862 
-0.0698013 9.59801 1.72905 
-1.14862 1.72905 9.56721 
9.61482 -0.177763 -1.09072 
-0.177763 9.57262 1.66637 
-1.09072 1.66637 9.73157 
9.2541 -0.10617 -1.18486 
-0.10617 9.38616 1.86864 
-1.18486 1.86864 10.2788 
9.75511 0.0078065 -1.04481 
0.0078065 9.76853 1.65848 
-1.04481 1.65848 9.39537 
1.02989 -0.126688 4.22999 
-0.126688 0.897972 -1.31665 
4.22999 -1.31665 1.0009 
1.10246 0.0142671 3.97126 
0.0142671 1.20714 -1.25666 
3.97126 -1.25666 0.619156 
1.2018 -0.131536 4.09869 
-0.131536 0.889361 -1.18584 
4.09869 -1.18584 0.837592 
0.606285 0.307274 4.11949 
0.307274 0.965056 -1.23145 
4.11949 -1.23145 1.35742 
8.21235 0.0542526 0.606871 
0.0542526 8.17845 2.59164 
0.606871 2.59164 8.26762 
8.33098 0.0648721 0.423232 
0.0648721 8.34866 2.55163 
0.423232 2.55163 7.97878 
8.35406 0.0865986 0.600079 
0.0865986 8.22675 2.64622 
0.600079 2.64622 8.07761 
8.20104 0.133273 0.569525 
0.133273 8.4008 2.45516 
0.569525 2.45516 8.05658 
7.29064 0.0730512 -3.17098 
0.0730512 7.27837 -3.3238 
-3.17098 -3.3238 7.26015 
7.13678 -0.0166782 -2.96068 
-0.0166782 6.7147 -3.42248 
-2.96068 -3.42248 7.97768 
7.27674 -0.0208956 -3.26595 
-0.0208956 7.37656 -3.30724 
-3.26595 -3.30724 7.17587 
8.04454 -0.0816987 -3.08625 
-0.0816987 7.31692 -2.81472 
-3.08625 -2.81472 6.4677 
1.19371 -0.0222968 -3.90035 
-0.0222968 1.15296 -1.10425 
-3.90035 -1.10425 0.395846 
1.03437 0.131231 -4.06645 
0.131231 0.933276 -1.33284 
-4.06645 -1.33284 0.774874 
0.950621 0.17539 -4.21078 
0.17539 0.90553 -1.25121 
-4.21078 -1.25121 0.886368 
0.505011 -0.126953 -4.11317 
-0.126953 0.985947 -1.43754 
-4.11317 -1.43754 1.25156 
4.78304 0.368391 1.22974 
0.368391 4.48911 -4.62817 
1.22974 -4.62817 5.31771 
4.99247 -0.28115 1.58063 
-0.28115 5.40804 -4.37906 
1.58063 -4.37906 4.18935 
4.98674 0.0234863 1.28542 
0.0234863 4.99306 -4.40263 
1.28542 -4.40263 4.61005 
5.24805 0.0628495 0.829219 
0.0628495 4.74307 -3.95458 
0.829219 -3.95458 4.59873 
5.00782 0.101406 -1.76652 
0.101406 4.98007 4.23741 
-1.76652 4.23741 5.08132 
5.1315 0.0402559 -1.78266 
0.0402559 5.05948 4.25528 
-1.78266 4.25528 4.87822 
4.8529 -0.0927585 -1.77499 
-0.0927585 4.98826 4.25642 
-1.77499 4.25642 5.22804 
5.09258 0.0014536 -1.85536 
0.0014536 4.99817 4.147 
-1.85536 4.147 4.97846 
9.2358 0.0470335 1.94311 
0.0470335 9.54553 1.51076 
1.94311 1.51076 10.2059 
9.48904 0.166709 1.95209 
0.166709 9.73872 1.77013 
1.95209 1.77013 9.75949 
9.68674 0.104882 1.90926 
0.104882 9.74304 1.67441 
1.90926 1.67441 9.55747 
9.79465 0.00910832 1.94849 
0.00910832 9.81489 1.77219 
1.94849 1.77219 9.37771 
2.34916 -0.0547332 -4.38973 
-0.0547332 2.85343 -1.10267 
-4.38973 -1.10267 2.61764 
2.36212 -0.0905497 -4.50215 
-0.0905497 2.36467 -1.09041 
-4.50215 -1.09041 3.09344 
3.41916 0.140498 -4.54495 
0.140498 2.3991 -1.39756 
-4.54495 -1.39756 2.00197 
2.55555 -0.113749 -3.91645 
-0.113749 2.83289 -1.01828 
-3.91645 -1.01828 2.43179 
0.903965 0.0700574 0.0497323 
0.0700574 1.21011 0.566136 
0.0497323 0.566136 0.613362 
0.881221 0.0647036 -0.133257 
0.0647036 0.975654 0.784474 
-0.133257 0.784474 0.870565 
0.5856 0.0672328 -0.130043 
0.0672328 1.03098 0.941034 
-0.130043 0.941034 1.11086 
0.806625 -0.0271807 0.0954099 
-0.0271807 1.01125 0.643652 
0.0954099 0.643652 0.909568 
9.73771 -0.0395799 -0.207542 
-0.0395799 9.60005 -1.172 
-0.207542 -1.172 9.59693 
9.49133 0.0681944 -0.0498061 
0.0681944 9.32046 -1.1954 
-0.0498061 -1.1954 10.1229 
9.73015 -0.000871871 -0.320019 
-0.000871871 9.37702 -1.25289 
-0.320019 -1.25289 9.82751 
9.74302 -0.00401679 -0.279793 
-0.00401679 9.7678 -1.16868 
-0.279793 -1.16868 9.42386 
2.57547 -0.340361 -3.94599 
-0.340361 2.26727 2.22942 
-3.94599 2.22942 2.2738 
2.39738 0.0388189 -4.0533 
0.0388189 2.46367 2.24175 
-4.0533 2.24175 2.25549 
2.35162 0.208177 -4.10003 
0.208177 2.3879 2.2474 
-4.10003 2.2474 2.37701 
2.2278 0.0833899 -4.09825 
0.0833899 2.65045 2.18463 
-4.09825 2.18463 2.23829 
9.45187 -0.209293 -3.22982 
-0.209293 9.54318 -1.77577 
-3.22982 -1.77577 10.1261 
9.58345 -0.0242952 -3.0985 
-0.0242952 9.66401 -1.9976 
-3.0985 -1.9976 9.87367 
9.71729 -0.0156443 -3.12806 
-0.0156443 9.77344 -1.89843 
-3.12806 -1.89843 9.63041 
9.8599 0.0608776 -3.06918 
0.0608776 9.80113 -1.99872 
-3.06918 -1.99872 9.46011 
3.557 0.103244 -4.47806 
0.103244 3.26827 0.205776 
-4.47806 0.205776 3.54476 
3.73319 -0.0328429 -4.46782 
-0.0328429 3.55021 0.508748 
-4.46782 0.508748 3.08663 
3.4789 0.110482 -4.54025 
0.110482 3.40779 0.292499 
-4.54025 0.292499 3.48334 
3.11874 -0.162323 -4.25729 
-0.162323 3.17522 -0.115837 
-4.25729 -0.115837 4.07607 
9.37766 -0.0551248 -3.46181 
-0.0551248 9.52229 2.80275 
-3.46181 2.80275 10.2608 
9.75063 -0.119396 -3.2098 
-0.119396 9.82434 3.04211 
-3.2098 3.04211 9.58575 
9.59385 -0.221314 -3.29122 
-0.221314 9.88948 2.9959 
-3.29122 2.9959 9.67739 
9.91325 -0.0582721 -3.23021 
-0.0582721 9.9031 3.29008 
-3.23021 3.29008 9.34436 
3.66917 0.24569 -3.36338 
0.24569 3.97548 3.35083 
-3.36338 3.35083 4.65169 
4.60534 -0.244046 -3.40162 
-0.244046 4.3467 3.32242 
-3.40162 3.32242 3.3443 
4.11079 -0.0503122 -3.26046 
-0.0503122 4.1518 3.2866 
-3.26046 3.2866 4.03375 
4.02586 -0.0296891 -2.77529 
-0.0296891 4.16414 3.33789 
-2.77529 3.33789 4.10634 
7.93365 0.222288 0.665864 
0.222288 8.09097 2.98227 
0.665864 2.98227 7.40464 
8.03334 -0.127438 0.975748 
-0.127438 7.71546 3.20881 
0.975748 3.20881 7.68046 
7.97279 0.0290389 1.01068 
0.0290389 7.97995 3.17107 
1.01068 3.17107 7.47653 
7.6579 -0.0464755 1.10321 
-0.0464755 7.70843 3.1828 
1.10321 3.1828 8.06293 
8.68117 0.260401 -4.14547 
0.260401 8.65303 1.77306 
-4.14547 1.77306 8.42116 
8.40316 0.00932101 -4.07853 
0.00932101 8.46644 1.63077 
-4.07853 1.63077 8.88577 
8.59703 0.169716 -4.21813 
0.169716 8.58398 1.85434 
-4.21813 1.85434 8.57435 
8.99958 0.133211 -4.18861 
0.133211 8.76324 2.10147 
-4.18861 2.10147 7.99255 
7.12308 -0.375584 -3.31132 
-0.375584 7.58959 -3.23416 
-3.31132 -3.23416 9.08767 
7.96708 -0.0934143 -3.22484 
-0.0934143 7.9146 -3.25651 
-3.22484 -3.25651 7.91865 
8.37509 0.324993 -3.84177 
0.324993 8.25224 -3.09557 
-3.84177 -3.09557 7.173 
8.17183 -0.000184778 -2.81877 
-0.000184778 7.99052 -3.09698 
-2.81877 -3.09698 7.63799 
1.05955 0.0776519 2.59878 
0.0776519 1.23668 3.26943 
2.59878 3.26943 0.735897 
1.00108 0.130378 2.83125 
0.130378 0.946585 3.3899 
2.83125 3.3899 1.08446 
1.11375 0.0524951 2.77507 
0.0524951 1.06649 3.19928 
2.77507 3.19928 0.851886 
0.794994 -0.321742 2.8567 
-0.321742 0.824484 3.2419 
2.8567 3.2419 1.41265 
9.69008 -0.020309 -2.21702 
-0.020309 9.49957 0.878637 
-2.21702 0.878637 9.62918 
9.64466 -0.151488 -2.1955 
-0.151488 9.50315 0.943452 
-2.1955 0.943452 9.67103 
9.24368 -0.0363402 -2.10644 
-0.0363402 9.25117 0.842568 
-2.10644 0.842568 10.324 
9.71756 0.010696 -2.28828 
0.010696 9.69191 0.944682 
-2.28828 0.944682 9.40938 
0.855763 0.140621 1.66765 
0.140621 0.805921 -4.34656 
1.66765 -4.34656 0.90122 
1.10254 0.0959405 1.6357 
0.0959405 0.669276 -4.07983 
1.6357 -4.07983 0.791091 
0.70834 -0.486657 1.76636 
-0.486657 1.63217 -4.14558 
1.76636 -4.14558 0.22239 
0.963348 0.0497777 1.76138 
0.0497777 0.809534 -4.20819 
1.76138 -4.20819 0.790023 
0.134858 0.0750461 -2.04509 
0.0750461 0.273567 -0.114476 
-2.04509 -0.114476 0.30231 
0.139806 0.217748 -2.03118 
0.217748 0.433738 -0.190049 
-2.03118 -0.190049 0.13719 
0.365642 0.0292313 -2.24464 
0.0292313 0.728314 -0.287527 
-2.24464 -0.287527 -0.383222 
0.0412349 0.0183436 -1.91007 
0.0183436 0.200452 -0.123813 
-1.91007 -0.123813 0.469048 
8.52729 0.0786531 -4.14575 
0.0786531 8.30431 0.204625 
-4.14575 0.204625 9.00589 
8.59019 0.0749604 -4.61464 
0.0749604 8.6581 0.299421 
-4.61464 0.299421 8.5892 
8.60783 0.154037 -4.54745 
0.154037 8.79513 0.206148 
-4.54745 0.206148 8.43452 
9.04289 0.287328 -4.71721 
0.287328 9.0737 0.228772 
-4.71721 0.228772 7.72089 
9.47918 -0.0198977 2.10616 
-0.0198977 9.31585 0.5342 
2.10616 0.5342 9.97205 
9.54221 -0.00830013 1.98681 
-0.00830013 9.56482 0.411525 
1.98681 0.411525 9.66006 
9.44215 0.0431356 1.85967 
0.0431356 9.38553 0.486191 
1.85967 0.486191 9.93942 
9.60136 -0.0298771 1.95757 
-0.0298771 9.69972 0.425288 
1.95757 0.425288 9.46601 
9.29838 0.0369697 4.56101 
0.0369697 9.07534 -0.352788 
4.56101 -0.352788 9.20106 
8.62667 -0.101952 4.54023 
-0.101952 9.28821 -0.199009 
4.54023 -0.199009 9.6599 
9.25092 -0.00271261 4.61172 
-0.00271261 9.12184 -0.265777 
4.61172 -0.265777 9.20203 
9.27289 -0.00790506 4.70062 
-0.00790506 9.32612 -0.241083 
4.70062 -0.241083 8.97578 
8.6198 0.0568089 4.28284 
0.0568089 8.92895 -1.6542 
4.28284 -1.6542 8.70382 
8.68033 0.0686541 3.96403 
0.0686541 8.52284 -1.69288 
3.96403 -1.69288 9.04941 
8.66069 0.082266 4.18922 
0.082266 9.05669 -1.64111 
4.18922 -1.64111 8.5352 
8.78558 -0.0316064 4.44424 
-0.0316064 9.14863 -1.59057 
4.44424 -1.59057 8.31836 
9.38154 0.0578788 4.2693 
0.0578788 9.07959 1.89778 
4.2693 1.89778 9.23947 
9.07526 -0.0397898 4.21704 
-0.0397898 9.40629 1.67144 
4.21704 1.67144 9.21905 
9.3151 0.0716396 4.16425 
0.0716396 9.12915 1.88349 
4.16425 1.88349 9.25635 
8.61358 -0.109655 4.18843 
-0.109655 9.46608 1.72076 
4.18843 1.72076 9.62094 
9.60755 0.0617372 0.237489 
0.0617372 9.37642 3.40812 
0.237489 3.40812 9.88276 
9.58394 -0.063213 0.576643 
-0.063213 9.23953 3.34863 
0.576643 3.34863 10.0433 
9.75929 0.103851 0.456619 
0.103851 9.63002 3.53514 
0.456619 3.53514 9.47742 
9.73068 0.0385764 0.357866 
0.0385764 9.80922 3.52619 
0.357866 3.52619 9.32684 
0.913213 0.0235795 -4.25988 
0.0235795 0.912049 -1.88654 
-4.25988 -1.88654 0.887303 
0.9293 -0.0870491 -4.29995 
-0.0870491 0.974233 -1.73598 
-4.29995 -1.73598 0.809033 
1.6341 0.401993 -4.2112 
0.401993 0.775738 -1.78633 
-4.2112 -1.78633 0.302729 
0.879414 -0.175354 -4.14318 
-0.175354 1.02164 -1.73229 
-4.14318 -1.73229 0.811515 
5.37489 -0.241412 -4.03452 
-0.241412 5.14864 2.34553 
-4.03452 2.34553 4.57203 
4.77021 -0.120681 -4.09976 
-0.120681 4.68719 2.34355 
-4.09976 2.34355 5.63817 
4.99049 0.0383767 -4.09665 
0.0383767 5.02707 1.92788 
-4.09665 1.92788 5.07801 
4.86349 0.0307136 -3.91201 
0.0307136 5.03355 1.94111 
-3.91201 1.94111 5.19853 
9.54734 0.0188774 -0.151016 
0.0188774 9.32351 -0.75473 
-0.151016 -0.75473 10.0527 
9.64603 0.102399 -0.261076 
0.102399 9.64782 -0.858794 
-0.261076 -0.858794 9.62966 
9.61791 0.0974058 -0.420014 
0.0974058 9.45642 -0.811235 
-0.420014 -0.811235 9.84917 
9.7169 0.00843317 -0.309478 
0.00843317 9.75702 -0.868447 
-0.309478 -0.868447 9.44958 
8.95623 0.0923041 -3.28199 
0.0923041 9.06474 -3.41053 
-3.28199 -3.41053 9.22359 
9.12742 -0.000437446 -3.29715 
-0.000437446 9.04661 -3.44991 
-3.29715 -3.44991 9.07054 
8.98442 -0.225927 -3.30378 
-0.225927 9.23443 -3.2248 
-3.30378 -3.2248 9.02571 
8.70906 -0.297915 -3.25638 
-0.297915 9.10718 -3.35693 
-3.25638 -3.35693 9.42833 
1.2176 -0.292477 -4.16627 
-0.292477 0.673009 1.20261 
-4.16627 1.20261 1.00798 
1.01146 0.134074 -3.63881 
0.134074 2.03829 1.21511 
-3.63881 1.21511 -0.151156 
1.12899 -0.128989 -4.35844 
-0.128989 0.780497 1.32803 
-4.35844 1.32803 0.989113 
-0.115782 0.322325 -4.15812 
0.322325 1.07959 1.69771 
-4.15812 1.69771 1.93479 
9.82558 -8.77597e-05 4.3042 
-8.77597e-05 9.73698 1.75862 
4.3042 1.75862 9.33501 
9.82838 0.0625713 4.17272 
0.0625713 9.54156 1.6362 
4.17272 1.6362 9.52763 
9.70888 0.173266 4.25973 
0.173266 9.53815 1.63366 
4.25973 1.63366 9.65055 
9.21581 0.0824709 4.32143 
0.0824709 9.27032 1.39451 
4.32143 1.39451 10.4114 
6.76203 0.107079 -4.50955 
0.107079 7.72821 1.26848 
-4.50955 1.26848 7.90005 
7.71562 -0.0203548 -4.49143 
-0.0203548 7.26051 1.28887 
-4.49143 1.28887 7.41416 
7.32608 0.0282285 -4.43802 
0.0282285 7.71159 1.20289 
-4.43802 1.20289 7.35261 
7.56224 -0.183814 -4.21191 
-0.183814 7.28878 1.2561 
-4.21191 1.2561 7.53926 
9.3978 -0.105249 -4.39544 
-0.105249 9.54078 1.43962 
-4.39544 1.43962 10.0759 
9.81307 -0.025071 -4.33175 
-0.025071 9.74792 1.72216 
-4.33175 1.72216 9.45347 
9.68822 -0.0696742 -4.34093 
-0.0696742 9.72342 1.63493 
-4.34093 1.63493 9.60282 
9.58984 -0.170688 -4.42508 
-0.170688 9.62303 1.66019 
-4.42508 1.66019 9.8016 
9.65708 -0.0277954 -2.62544 
-0.0277954 9.78776 -0.921768 
-2.62544 -0.921768 9.50835 
9.30606 0.0360284 -2.6272 
0.0360284 9.64827 -1.1132 
-2.6272 -1.1132 9.99886 
9.37326 0.115098 -2.5275 
0.115098 9.53269 -0.828229 
-2.5275 -0.828229 10.0472 
9.81813 -0.0529486 -2.56073 
-0.0529486 9.73258 -0.965457 
-2.56073 -0.965457 9.40249 
9.27075 0.00605893 0.234779 
0.00605893 9.28916 4.68727 
0.234779 4.68727 9.04858 
9.11799 0.0191626 0.214243 
0.0191626 9.28085 4.63861 
0.214243 4.63861 9.20964 
9.26053 0.135655 0.197686 
0.135655 8.70074 4.53843 
0.197686 4.53843 9.64721 
9.06712 -0.05194 0.324615 
-0.05194 9.2987 4.58941 
0.324615 4.58941 9.24266 
0.993368 -0.0592518 1.80852 
-0.0592518 0.804633 4.24069 
1.80852 4.24069 0.91922 
1.08752 -0.107991 1.70069 
-0.107991 0.742807 4.08092 
1.70069 4.08092 0.886897 
0.743809 0.464741 1.73188 
0.464741 1.65405 4.17275 
1.73188 4.17275 0.319366 
0.88555 -0.0890052 1.69078 
-0.0890052 0.878996 4.30018 
1.69078 4.30018 0.952675 
4.20397 0.00536931 -0.43729 
0.00536931 4.14331 2.42714 
-0.43729 2.42714 4.15029 
3.78676 -0.0503515 -0.311612 
-0.0503515 4.19436 2.30172 
-0.311612 2.30172 4.51645 
4.20862 0.112126 -0.4911 
0.112126 4.06724 2.54353 
-0.4911 2.54353 4.22171 
4.42876 -0.050589 -0.2563 
-0.050589 4.38388 2.67342 
-0.2563 2.67342 3.68492 
7.63675 0.026495 0.527196 
0.026495 7.73827 2.66476 
0.527196 2.66476 7.29883 
7.6197 -0.0922283 0.599597 
-0.0922283 7.56377 2.61588 
0.599597 2.61588 7.49037 
7.5483 -0.176011 0.586904 
-0.176011 7.52824 2.69837 
0.586904 2.69837 7.59731 
7.34191 0.0135509 0.787596 
0.0135509 7.37714 2.73599 
0.787596 2.73599 7.9548 
2.73017 0.0382152 -0.24085 
0.0382152 2.85237 -4.57593 
-0.24085 -4.57593 2.72461 
2.7154 -0.00342578 -0.208904 
-0.00342578 2.47843 -4.80121 
-0.208904 -4.80121 3.11332 
2.689 -0.067603 -0.126144 
-0.067603 3.47608 -4.6406 
-0.126144 -4.6406 2.14208 
2.7957 -0.035918 -0.38636 
-0.035918 2.6123 -4.46605 
-0.38636 -4.46605 2.89915 
7.5114 0.557397 1.6078 
0.557397 6.7676 -4.31134 
1.6078 -4.31134 8.27872 
7.79101 -0.217533 1.14657 
-0.217533 7.94337 -4.72236 
1.14657 -4.72236 6.82335 
7.53473 0.0329186 1.13828 
0.0329186 7.36355 -4.34164 
1.13828 -4.34164 7.65944 
7.2454 -0.0725573 0.819956 
-0.0725573 7.82252 -4.18897 
0.819956 -4.18897 7.4898 
9.4568 0.39777 -4.63475 
0.39777 9.19124 0.30638 
-4.63475 0.30638 8.57475 
8.91973 0.448203 -4.75706 
0.448203 8.61085 -0.532985 
-4.75706 -0.532985 9.69221 
8.95684 -0.0859206 -4.51234 
-0.0859206 9.17555 -0.11513 
-4.51234 -0.11513 9.0904 
9.0335 -0.0437436 -4.58982 
-0.0437436 9.06386 -0.23234 
-4.58982 -0.23234 9.12542 
0.251882 0.0622562 -0.195324 
0.0622562 0.230602 0.791598 
-0.195324 0.791598 0.33737 
0.713042 0.193994 -0.285326 
0.193994 0.272098 0.620526 
-0.285326 0.620526 -0.165286 
0.468822 0.137461 -0.358097 
0.137461 0.376041 0.80585 
-0.358097 0.80585 -0.0250093 
0.175938 -0.0944175 -0.288215 
-0.0944175 0.156993 0.837805 
-0.288215 0.837805 0.486923 
8.59185 0.228907 3.80036 
0.228907 9.33517 -2.74885 
3.80036 -2.74885 9.6335 
9.07522 0.0711163 3.98593 
0.0711163 9.46384 -2.42752 
3.98593 -2.42752 9.02146 
9.21734 -0.19024 3.84027 
-0.19024 9.06704 -2.55645 
3.84027 -2.55645 9.27614 
9.25992 -0.045706 3.88059 
-0.045706 9.12715 -2.60281 
3.88059 -2.60281 9.17346 
2.49383 0.0196235 3.25114 
0.0196235 2.5712 3.39656 
3.25114 3.39656 1.80048 
2.4049 0.214411 3.22163 
0.214411 2.22733 3.25989 
3.22163 3.25989 2.23329 
1.96733 -0.443673 3.1996 
-0.443673 2.08309 3.59026 
3.1996 3.59026 2.8151 
2.23962 0.152786 2.92543 
0.152786 2.28645 3.03126 
2.92543 3.03126 2.33944 
9.31415 0.184694 -1.7676 
0.184694 9.16878 4.1819 
-1.7676 4.1819 9.16235 
9.15641 0.338585 -1.70277 
0.338585 8.95 4.28058 
-1.70277 4.28058 9.53887 
9.21572 -0.111575 -1.73144 
-0.111575 9.26278 4.34906 
-1.73144 4.34906 9.16678 
9.03399 -0.101083 -1.66759 
-0.101083 9.365 4.25232 
-1.66759 4.25232 9.24629 
2.47284 0.0863434 4.28092 
0.0863434 2.24521 1.75212 
4.28092 1.75212 1.57546 
1.80921 -0.259261 4.41627 
-0.259261 2.1079 1.7941 
4.41627 1.7941 2.3764 
2.30996 0.314395 4.32838 
0.314395 2.17467 1.54698 
4.32838 1.54698 1.80889 
2.0932 0.0517567 4.14184 
0.0517567 1.94538 1.58465 
4.14184 1.58465 2.25493 
9.15644 0.237916 4.17108 
0.237916 9.3844 -1.97662 
4.17108 -1.97662 9.21311 
9.07671 0.126855 4.05316 
0.126855 9.27758 -1.68599 
4.05316 -1.68599 9.39965 
9.1737 0.198676 3.79505 
0.198676 8.99309 -1.70315 
3.79505 -1.70315 9.58716 
9.39523 -0.485958 4.27968 
-0.485958 9.60013 -1.74573 
4.27968 -1.74573 8.75859 
2.64986 -0.0336894 -0.265436 
-0.0336894 2.67782 0.458453 
-0.265436 0.458453 2.77818 
2.78534 -0.131336 -0.267454 
-0.131336 2.78236 0.604608 
-0.267454 0.604608 2.53817 
2.73889 -0.00709676 -0.325992 
-0.00709676 2.81502 0.635565 
-0.325992 0.635565 2.55195 
2.97565 0.258245 -0.593163 
0.258245 2.82129 0.609566 
-0.593163 0.609566 2.30892 
5.11583 -0.0406753 -2.73306 
-0.0406753 5.1465 -3.73752 
-2.73306 -3.73752 5.18459 
5.45129 0.114648 -2.8222 
0.114648 5.41147 -3.86356 
-2.8222 -3.86356 4.58416 
4.74777 -0.199915 -2.75678 
-0.199915 4.86705 -3.75222 
-2.75678 -3.75222 5.83209 
5.17068 0.0209912 -2.37069 
0.0209912 5.16187 -3.8337 
-2.37069 -3.8337 5.11437 
0.853735 -0.167611 1.1987 
-0.167611 1.19964 -4.04959 
1.1987 -4.04959 0.913743 
1.28593 0.0421197 1.22982 
0.0421197 1.07675 -3.86659 
1.22982 -3.86659 0.604437 
0.905575 -0.161635 1.34107 
-0.161635 1.07647 -4.24368 
1.34107 -4.24368 0.985069 
0.969032 0.410103 1.28794 
0.410103 0.548179 -4.31446 
1.28794 -4.31446 1.44991 
9.46241 -0.0504425 2.8987 
-0.0504425 9.4322 -3.47745 
2.8987 -3.47745 10.1321 
9.78385 -0.22488 3.09158 
-0.22488 9.51908 -3.39356 
3.09158 -3.39356 9.72379 
9.739 -0.100038 3.11854 
-0.100038 9.71301 -3.28108 
3.11854 -3.28108 9.5747 
9.77632 -0.0355889 3.24025 
-0.0355889 9.83732 -3.28737 
3.24025 -3.28737 9.41307 
0.620408 -0.00289162 4.52153 
-0.00289162 0.9114 -0.463471 
4.52153 -0.463471 0.778921 
0.65015 -0.00808747 4.75974 
-0.00808747 0.461777 -0.161288 
4.75974 -0.161288 1.1988 
1.53842 -0.0334646 4.54006 
-0.0334646 0.618599 -0.0914964 
4.54006 -0.0914964 0.153714 
0.601921 0.0263051 4.44363 
0.0263051 0.820298 -0.357967 
4.44363 -0.357967 0.88851 
0.176744 0.0503431 -0.13923 
0.0503431 0.310542 -0.223609 
-0.13923 -0.223609 0.373838 
0.0413017 0.0336039 -0.117096 
0.0336039 0.54176 -0.248374 
-0.117096 -0.248374 0.278062 
0.538525 -0.0835959 -0.234438 
-0.0835959 0.706016 -0.386902 
-0.234438 -0.386902 -0.383417 
0.139395 -0.0227698 -0.00987668 
-0.0227698 0.148994 -0.226994 
-0.00987668 -0.226994 0.572735 
5.8545 0.164739 -4.29203 
0.164739 6.10239 1.9647 
-4.29203 1.9647 6.31518 
6.53845 -0.250878 -4.43527 
-0.250878 6.37351 1.71102 
-4.43527 1.71102 5.36011 
6.15026 -0.00300709 -4.08079 
-0.00300709 6.16875 1.96662 
-4.08079 1.96662 5.95306 
6.04125 0.105628 -3.77167 
0.105628 6.26148 1.68843 
-3.77167 1.68843 5.96935 
0.590429 -0.0489987 4.41175 
-0.0489987 0.810352 0.395357 
4.41175 0.395357 0.984029 
0.628087 0.00632384 4.8149 
0.00632384 0.412918 0.194969 
4.8149 0.194969 1.34381 
1.69938 0.0400713 4.53775 
0.0400713 0.562319 0.0858966 
4.53775 0.0858966 0.123112 
0.631822 -0.00605342 4.52444 
-0.00605342 0.915827 0.471676 
4.52444 0.471676 0.837161 
0.652717 -0.0176993 -4.56115 
-0.0176993 0.939887 -0.367323 
-4.56115 -0.367323 0.805056 
1.39165 0.0294426 -4.55328 
0.0294426 0.687516 -0.0998541 
-4.55328 -0.0998541 0.318494 
0.795172 0.0145278 -4.6691 
0.0145278 0.524801 -0.12556 
-4.6691 -0.12556 1.07769 
0.694429 0.0190967 -4.5115 
0.0190967 0.879953 -0.256372 
-4.5115 -0.256372 0.823278 
8.92232 0.00765278 -1.59517 
0.00765278 8.66065 4.16667 
-1.59517 4.16667 8.64415 
8.98157 -0.00229983 -1.66959 
-0.00229983 8.67812 4.07857 
-1.66959 4.07857 8.56743 
8.71797 0.025583 -1.81443 
0.025583 8.53549 3.93963 
-1.81443 3.93963 8.97366 
9.14402 -0.0992967 -1.42611 
-0.0992967 8.90953 4.2695 
-1.42611 4.2695 8.17356 
0.484839 0.207665 1.64504 
0.207665 0.34489 2.28089 
1.64504 2.28089 0.18871 
0.734301 -0.0448279 1.53037 
-0.0448279 0.46585 2.39977 
1.53037 2.39977 -0.181712 
0.430994 0.0451512 1.48799 
0.0451512 0.233246 2.2527 
1.48799 2.2527 0.354199 
0.260212 0.0157117 1.51027 
0.0157117 0.196414 2.18648 
1.51027 2.18648 0.561813 
2.75394 0.0173719 0.239997 
0.0173719 2.51132 4.74242 
0.239997 4.74242 3.00757 
2.6634 -0.0323881 0.168331 
-0.0323881 3.46079 4.60468 
0.168331 4.60468 2.14863 
2.74304 0.0387686 0.19085 
0.0387686 2.84442 4.55514 
0.19085 4.55514 2.68537 
2.80849 -0.00728086 0.38054 
-0.00728086 2.6321 4.43147 
0.38054 4.43147 2.83224 
0.967729 -0.0251501 -0.242642 
-0.0251501 0.728915 4.50595 
-0.242642 4.50595 0.78959 
0.677001 -0.0286229 -0.118306 
-0.0286229 1.55662 4.55387 
-0.118306 4.55387 0.252617 
1.04444 0.0553856 -0.381058 
0.0553856 0.655925 4.58514 
-0.381058 4.58514 0.785867 
0.493639 -0.0102435 -0.126143 
-0.0102435 0.871176 4.69326 
-0.126143 4.69326 1.12142 
0.453957 0.00118388 -0.123563 
0.00118388 0.904775 -4.70092 
-0.123563 -4.70092 1.17448 
0.906962 0.00533268 -0.257451 
0.00533268 0.758379 -4.54591 
-0.257451 -4.54591 0.867873 
0.755846 0.00789536 -0.0863045 
0.00789536 1.39625 -4.58473 
-0.0863045 -4.58473 0.381117 
0.977383 -0.0393189 -0.384834 
-0.0393189 0.70696 -4.59392 
-0.384834 -4.59392 0.84887 
9.08852 0.293688 4.16124 
0.293688 9.29444 -1.74851 
4.16124 -1.74851 9.15995 
9.16926 -0.0383116 4.38731 
-0.0383116 9.18891 -1.71468 
4.38731 -1.71468 9.18474 
9.03185 0.209515 4.31685 
0.209515 9.08723 -1.71429 
4.31685 -1.71429 9.42384 
9.22347 -0.0282859 4.37018 
-0.0282859 9.01355 -1.71331 
4.37018 -1.71331 9.3059 
8.72321 -0.099746 -4.57634 
-0.099746 9.27178 0.186078 
-4.57634 0.186078 9.62692 
9.31876 0.024536 -4.71947 
0.024536 9.1335 0.377323 
-4.71947 0.377323 9.16965 
9.22506 0.0312827 -4.68795 
0.0312827 9.17739 0.352781 
-4.68795 0.352781 9.21944 
9.23056 -0.0278222 -4.77789 
-0.0278222 9.46179 0.246205 
-4.77789 0.246205 8.92955 
-0.074679 0.223105 0.667016 
0.223105 0.675021 -0.998822 
0.667016 -0.998822 0.387491 
0.730217 -0.0174876 0.74555 
-0.0174876 0.980912 -0.726737 
0.74555 -0.726737 -0.723296 
0.184017 0.136275 0.583191 
0.136275 0.367434 -1.0863 
0.583191 -1.0863 0.436382 
0.0585178 -0.0241043 0.364964 
-0.0241043 0.276047 -1.01972 
0.364964 -1.01972 0.653268 
9.77491 0.170555 -3.30797 
0.170555 9.48823 -2.94533 
-3.30797 -2.94533 9.7017 
9.67886 0.199061 -3.21527 
0.199061 9.76288 -2.92599 
-3.21527 -2.92599 9.5231 
9.66592 0.0809474 -3.32207 
0.0809474 9.89313 -3.30669 
-3.32207 -3.30669 9.40579 
9.22082 0.0312404 -3.53848 
0.0312404 9.35909 -2.77422 
-3.53848 -2.77422 10.3849 
0.730779 0.027352 0.0951395 
0.027352 1.40854 4.56769 
0.0951395 4.56769 0.331942 
0.905141 0.0319773 0.256874 
0.0319773 0.747784 4.53116 
0.256874 4.53116 0.818332 
0.992973 -0.0335795 0.409138 
-0.0335795 0.665985 4.58739 
0.409138 4.58739 0.812298 
0.438635 0.0196927 0.12937 
0.0196927 0.898062 4.68448 
0.12937 4.68448 1.13456 
0.834314 -0.00598469 -4.68086 
-0.00598469 0.514576 0.142424 
-4.68086 0.142424 1.11886 
1.36139 -0.0173726 -4.5647 
-0.0173726 0.717035 0.108108 
-4.5647 0.108108 0.389324 
0.703648 0.0202575 -4.56693 
0.0202575 0.941166 0.354911 
-4.56693 0.354911 0.822933 
0.739997 0.00427253 -4.53224 
0.00427253 0.875866 0.265541 
-4.53224 0.265541 0.851884 
0.961651 0.020586 0.331503 
0.020586 0.672668 -4.57988 
0.331503 -4.57988 0.784167 
0.913017 -0.0282854 0.253794 
-0.0282854 0.718375 -4.52345 
0.253794 -4.52345 0.787094 
0.681293 -0.0399466 0.141244 
-0.0399466 1.39889 -4.55738 
0.141244 -4.55738 0.338307 
0.564476 -0.0236038 0.14971 
-0.0236038 0.816184 -4.66526 
0.14971 -4.66526 1.03783 
5.07299 0.118785 -4.05397 
0.118785 5.00723 -2.28265 
-4.05397 -2.28265 4.26399 
4.84014 0.0386298 -4.04767 
0.0386298 4.7392 -2.13379 
-4.04767 -2.13379 4.76487 
4.58725 -0.0646307 -4.10076 
-0.0646307 4.70194 -2.25596 
-4.10076 -2.25596 5.05503 
4.72774 -0.068407 -3.93987 
-0.068407 4.72376 -1.97436 
-3.93987 -1.97436 4.89272 
4.77046 0.00963455 0.252467 
0.00963455 4.79951 2.1453 
0.252467 2.1453 4.77903 
4.74063 0.0272978 0.233021 
0.0272978 4.64462 2.04985 
0.233021 2.04985 4.96375 
4.77332 0.0229161 0.115138 
0.0229161 4.80392 2.06476 
0.115138 2.06476 4.77176 
4.82032 0.00912726 0.246023 
0.00912726 4.8792 2.12336 
0.246023 2.12336 4.64948 
0.620321 -0.0469795 -0.512118 
-0.0469795 1.03211 -4.4397 
-0.512118 -4.4397 0.923642 
1.11517 0.0330727 -0.598323 
0.0330727 1.09265 -4.09268 
-0.598323 -4.09268 0.368256 
0.696837 -0.0514895 -0.41118 
-0.0514895 1.1222 -4.24946 
-0.41118 -4.24946 0.757042 
0.955456 -0.134836 -0.267933 
-0.134836 0.317376 -4.39495 
-0.267933 -4.39495 1.30325 
0.893533 -0.0608803 4.34567 
-0.0608803 0.902116 1.67825 
4.34567 1.67825 1.07286 
0.821577 -0.124006 4.1317 
-0.124006 1.08762 1.63445 
4.1317 1.63445 0.95931 
1.58914 0.385535 4.16651 
0.385535 0.821935 1.81519 
4.16651 1.81519 0.457429 
0.881534 -0.0254748 4.25679 
-0.0254748 1.01285 1.75246 
4.25679 1.75246 0.974124 
9.22435 -0.0286902 2.69026 
-0.0286902 9.36621 -2.66836 
2.69026 -2.66836 10.417 
9.5494 0.0458086 2.75807 
0.0458086 9.81315 -2.85525 
2.75807 -2.85525 9.64496 
9.64208 0.129655 2.7336 
0.129655 9.77185 -2.80901 
2.7336 -2.80901 9.59358 
9.79985 0.0134312 2.70158 
0.0134312 9.78989 -2.97503 
2.70158 -2.97503 9.41777 
5.12114 -0.0224737 2.00008 
-0.0224737 5.07047 4.13534 
2.00008 4.13534 5.17657 
5.23737 0.0950045 2.2466 
0.0950045 5.30642 4.10286 
2.2466 4.10286 4.82438 
4.84821 0.0428129 2.2242 
0.0428129 4.88144 4.09568 
2.2242 4.09568 5.63854 
5.12966 0.0105631 1.92254 
0.0105631 5.07662 4.02723 
1.92254 4.02723 5.1619 
5.88238 -0.0734711 -0.458459 
-0.0734711 5.53915 -4.62024 
-0.458459 -4.62024 5.77983 
5.84717 0.314147 -0.578538 
0.314147 6.48642 -4.47858 
-0.578538 -4.47858 4.86777 
5.62388 -0.116414 -0.593638 
-0.116414 5.40987 -4.75975 
-0.593638 -4.75975 6.16761 
5.78338 -0.198973 -0.223351 
-0.198973 5.5925 -4.45079 
-0.223351 -4.45079 5.82548 
8.4471 0.0694641 2.10041 
0.0694641 8.34127 3.87061 
2.10041 3.87061 8.499 
8.46945 -0.114764 1.89311 
-0.114764 8.19749 3.69611 
1.89311 3.69611 8.62043 
8.49955 0.208891 2.20034 
0.208891 8.63122 3.92127 
2.20034 3.92127 8.15661 
8.47332 0.0632726 1.983 
0.0632726 8.57981 4.00361 
1.983 4.00361 8.23425 
8.73237 0.245851 -3.90793 
0.245851 8.74765 -2.47653 
-3.90793 -2.47653 8.33054 
8.85692 0.166462 -3.75134 
0.166462 8.68959 -2.68921 
-3.75134 -2.68921 8.26405 
8.43289 -0.118781 -3.99609 
-0.118781 8.55176 -2.73029 
-3.99609 -2.73029 8.82591 
8.46656 -0.00102826 -3.84149 
-0.00102826 8.45657 -2.52775 
-3.84149 -2.52775 8.88743 
2.62895 -0.0113135 2.76191 
-0.0113135 2.64234 3.65625 
2.76191 3.65625 2.45301 
2.65888 -0.114809 2.86904 
-0.114809 2.63318 3.55757 
2.86904 3.55757 2.43223 
2.52857 0.0805165 2.79751 
0.0805165 2.57911 3.64775 
2.79751 3.64775 2.61661 
2.63728 -0.00855095 2.75533 
-0.00855095 2.63115 3.6516 
2.75533 3.6516 2.45586 
0.775995 0.0623458 4.30808 
0.0623458 1.04789 -1.74786 
4.30808 -1.74786 0.936921 
0.788778 0.161323 4.105 
0.161323 1.05725 -1.63925 
4.105 -1.63925 0.914778 
1.69478 -0.473921 4.16867 
-0.473921 0.751593 -1.8131 
4.16867 -1.8131 0.314434 
0.868511 0.050624 4.36487 
0.050624 0.847456 -1.66509 
4.36487 -1.66509 1.04484 
7.93341 -0.0261673 0.471889 
-0.0261673 8.27033 -4.70582 
0.471889 -4.70582 7.72884 
8.02109 -0.013929 0.401363 
-0.013929 7.82975 -4.56536 
0.401363 -4.56536 8.08174 
7.75982 0.00701069 0.648228 
0.00701069 7.62921 -4.67052 
0.648228 -4.67052 8.54356 
7.96736 0.000786351 0.347716 
0.000786351 7.94382 -4.29167 
0.347716 -4.29167 8.0214 
1.469 0.0294499 4.45456 
0.0294499 1.3521 -0.959949 
4.45456 -0.959949 1.37759 
1.47218 0.0269278 4.33125 
0.0269278 1.29731 -1.01378 
4.33125 -1.01378 1.4292 
1.62917 0.0422697 4.12985 
0.0422697 1.61 -0.947624 
4.12985 -0.947624 0.959518 
1.23783 0.094909 4.42522 
0.094909 1.0969 -0.923274 
4.42522 -0.923274 1.86396 
9.6306 -0.0731771 0.847459 
-0.0731771 9.83224 -4.3546 
0.847459 -4.3546 9.5348 
9.81279 0.0608503 0.972967 
0.0608503 9.89146 -4.61698 
0.972967 -4.61698 9.29339 
9.32013 -0.0923584 0.568363 
-0.0923584 9.23512 -4.51374 
0.568363 -4.51374 10.4424 
9.63518 -0.193612 0.770651 
-0.193612 9.71878 -4.45196 
0.770651 -4.45196 9.64368 
9.72794 -0.0553878 1.47064 
-0.0553878 9.67062 3.41738 
1.47064 3.41738 9.51925 
9.58032 0.105153 1.58755 
0.105153 9.37841 3.47714 
1.58755 3.47714 9.95907 
9.51462 -0.0379347 1.26216 
-0.0379347 9.31628 3.409 
1.26216 3.409 10.0869 
9.68542 -0.0620499 1.49357 
-0.0620499 9.81842 3.50356 
1.49357 3.50356 9.41397 
1.07642 0.522243 -3.10725 
0.522243 1.09036 -3.30969 
-3.10725 -3.30969 0.264512 
0.888763 -0.206137 -3.12087 
-0.206137 0.768536 -3.11786 
-3.12087 -3.11786 0.773993 
0.777703 -0.0876887 -3.23925 
-0.0876887 0.86765 -3.28177 
-3.23925 -3.28177 0.785939 
0.821051 -0.0268305 -3.30402 
-0.0268305 0.79156 -3.19921 
-3.30402 -3.19921 0.818681 
0.680358 -0.211942 -0.0230716 
-0.211942 0.295704 2.85222 
-0.0230716 2.85222 -0.1437 
0.237592 -0.0834025 0.00963642 
-0.0834025 0.18405 3.01377 
0.00963642 3.01377 0.41072 
0.497449 -0.136236 0.171065 
-0.136236 0.424922 3.09363 
0.171065 3.09363 -0.0900088 
0.0899702 0.129751 0.220714 
0.129751 0.179611 3.08068 
0.220714 3.08068 0.56278 
0.468836 0.0978521 -3.78843 
0.0978521 0.393039 -0.445802 
-3.78843 -0.445802 0.373391 
0.864244 0.0224056 -3.68935 
0.0224056 0.911151 -0.431121 
-3.68935 -0.431121 -0.540129 
0.671925 0.0200793 -3.75452 
0.0200793 0.303144 -0.41742 
-3.75452 -0.41742 0.260198 
0.312559 0.046745 -3.89359 
0.046745 0.387665 -0.364715 
-3.89359 -0.364715 0.535042 
1.31217 0.154842 -1.21836 
0.154842 1.09008 3.93106 
-1.21836 3.93106 0.383964 
0.850759 -0.0953245 -1.39235 
-0.0953245 1.00607 4.26511 
-1.39235 4.26511 0.929395 
0.803165 -0.158463 -1.29222 
-0.158463 1.06042 4.15855 
-1.29222 4.15855 0.922634 
0.863777 0.343849 -1.17051 
0.343849 0.553678 4.22835 
-1.17051 4.22835 1.36876 
9.37046 0.177888 3.24256 
0.177888 9.16657 -3.35651 
3.24256 -3.35651 9.1332 
9.24419 0.354935 3.40438 
0.354935 8.79753 -3.25472 
3.40438 -3.25472 9.62851 
9.18467 -0.179844 3.37425 
-0.179844 9.17954 -3.26332 
3.37425 -3.26332 9.30602 
9.16551 -0.0636658 3.46163 
-0.0636658 9.30902 -3.30753 
3.46163 -3.30753 9.19571 
7.13738 0.445936 -3.96765 
0.445936 7.05783 -2.4145 
-3.96765 -2.4145 6.1925 
6.81397 -0.0696557 -3.994 
-0.0696557 6.85828 -2.27646 
-3.994 -2.27646 6.71547 
6.66552 -0.302149 -4.22089 
-0.302149 6.62258 -2.25816 
-4.22089 -2.25816 7.09962 
6.72724 -0.268422 -3.90508 
-0.268422 6.97546 -1.91837 
-3.90508 -1.91837 6.68502 
8.70433 0.272499 4.7777 
0.272499 7.90348 0.531843 
4.7777 0.531843 7.26479 
7.53615 -0.0187206 4.55511 
-0.0187206 8.19314 0.341009 
4.55511 0.341009 8.14332 
7.30276 -0.126431 4.63895 
-0.126431 7.71212 0.697517 
4.63895 0.697517 8.85772 
7.9661 -0.029702 4.11827 
-0.029702 8.02678 0.0587292 
4.11827 0.0587292 7.87973 
0.420572 -0.0658945 -1.73517 
-0.0658945 0.58762 3.25423 
-1.73517 3.25423 0.294432 
0.52379 0.00943862 -1.78268 
0.00943862 0.57225 3.3872 
-1.78268 3.3872 0.206584 
0.708602 -0.00581773 -1.84825 
-0.00581773 0.566637 3.19195 
-1.84825 3.19195 0.0273848 
0.350465 0.0230788 -1.75334 
0.0230788 0.412196 3.33188 
-1.75334 3.33188 0.539963 
4.57335 0.195369 3.55936 
0.195369 4.71013 -3.3007 
3.55936 -3.3007 5.4742 
5.36759 -0.20776 3.47836 
-0.20776 5.06693 -3.13027 
3.47836 -3.13027 4.32316 
4.96633 -0.135085 3.3336 
-0.135085 4.94981 -3.16976 
3.3336 -3.16976 4.84155 
4.97492 0.0834492 3.04227 
0.0834492 4.75965 -3.2476 
3.04227 -3.2476 5.02311 
8.96229 -0.0813653 -2.15686 
-0.0813653 9.03315 -2.62079 
-2.15686 -2.62079 8.95013 
9.06863 0.0600024 -2.00388 
0.0600024 8.90123 -2.64041 
-2.00388 -2.64041 8.97571 
9.23807 0.280256 -1.63346 
0.280256 8.17227 -2.69291 
-1.63346 -2.69291 9.53522 
9.53639 0.1431 -2.38865 
0.1431 8.85377 -2.31178 
-2.38865 -2.31178 8.5554 
0.303771 0.0693627 -0.0955042 
0.0693627 0.253712 -1.96393 
-0.0955042 -1.96393 0.332576 
0.554807 0.108851 -0.022499 
0.108851 0.311462 -2.02899 
-0.022499 -2.02899 0.0237891 
0.500833 0.146502 -0.115895 
0.146502 0.39676 -1.78937 
-0.115895 -1.78937 -0.00753445 
0.148869 -0.0233502 -0.0605468 
-0.0233502 0.169748 -2.01454 
-0.0605468 -2.01454 0.571442 
1.16777 0.0227166 0.570845 
0.0227166 1.08216 4.03059 
0.570845 4.03059 0.168803 
0.631907 -0.0435336 0.397929 
-0.0435336 1.12926 4.23587 
0.397929 4.23587 0.657566 
0.600844 -0.0589512 0.498042 
-0.0589512 1.03162 4.41332 
0.498042 4.41332 0.786263 
0.962442 -0.161147 0.187294 
-0.161147 0.22073 4.381 
0.187294 4.381 1.23556 
9.69773 -0.245701 3.78344 
-0.245701 9.61975 -2.20233 
3.78344 -2.20233 9.66399 
9.48333 -0.0156569 3.87275 
-0.0156569 9.37028 -2.05758 
3.87275 -2.05758 10.1279 
9.80972 -0.115451 3.75115 
-0.115451 9.51712 -2.24449 
3.75115 -2.24449 9.65464 
9.77425 -0.0715148 3.83584 
-0.0715148 9.77823 -2.50297 
3.83584 -2.50297 9.42899 
7.31388 0.0427805 4.3311 
0.0427805 7.44155 -1.72686 
4.3311 -1.72686 7.37598 
6.98346 0.0567295 4.36075 
0.0567295 7.36203 -1.67252 
4.36075 -1.67252 7.78592 
7.33572 0.0336072 4.47827 
0.0336072 7.69275 -1.63074 
4.47827 -1.63074 7.10294 
7.33052 -0.0540224 4.3526 
-0.0540224 7.4893 -1.80067 
4.3526 -1.80067 7.3116 
9.53997 -0.22198 1.18166 
-0.22198 9.47852 0.710899 
1.18166 0.710899 10.0202 
9.48116 -0.148918 1.39666 
-0.148918 9.63368 0.508623 
1.39666 0.508623 9.92384 
9.7192 -0.0837872 1.35679 
-0.0837872 9.77128 0.659069 
1.35679 0.659069 9.54821 
9.80418 0.0257293 1.34085 
0.0257293 9.82522 0.637594 
1.34085 0.637594 9.40928 
8.5413 -0.090185 -4.61464 
-0.090185 8.76328 -0.330167 
-4.61464 -0.330167 8.59902 
8.66267 -0.0572975 -4.16834 
-0.0572975 8.21319 -0.0433353 
-4.16834 -0.0433353 9.02774 
8.70358 -0.0971462 -4.51241 
-0.0971462 8.61328 -0.213008 
-4.51241 -0.213008 8.58675 
9.09662 -0.290106 -4.70709 
-0.290106 8.84512 -0.36443 
-4.70709 -0.36443 7.96186 
1.27743 -0.0527231 -3.19306 
-0.0527231 1.09846 2.15111 
-3.19306 2.15111 0.905677 
1.08984 -0.210132 -3.16086 
-0.210132 0.961968 1.94464 
-3.16086 1.94464 1.22975 
1.2422 -0.0690753 -3.15561 
-0.0690753 1.10244 2.00256 
-3.15561 2.00256 0.936929 
1.12708 -0.0366138 -3.15679 
-0.0366138 1.05667 2.11876 
-3.15679 2.11876 1.09781 
9.70581 -0.0791905 3.70122 
-0.0791905 9.80856 0.0146993 
3.70122 0.0146993 9.5614 
9.53037 -0.172529 3.78867 
-0.172529 9.5518 -0.109139 
3.78867 -0.109139 9.99359 
9.43722 -0.147417 3.60002 
-0.147417 9.66883 0.154386 
3.60002 0.154386 9.96972 
9.8271 -0.0259135 3.70414 
-0.0259135 9.84331 0.0193568 
3.70414 0.0193568 9.40536 
1.02883 0.0454893 -1.69576 
0.0454893 0.86175 4.26141 
-1.69576 4.26141 0.922098 
0.852206 0.0699336 -1.64323 
0.0699336 0.858427 4.39199 
-1.64323 4.39199 1.10204 
0.774676 -0.467268 -1.83539 
-0.467268 1.69289 4.14807 
-1.83539 4.14807 0.345114 
1.09073 0.133808 -1.58891 
0.133808 0.77696 4.13154 
-1.58891 4.13154 0.944983 
0.697613 -0.0487928 -4.11224 
-0.0487928 0.919622 2.01184 
-4.11224 2.01184 0.906702 
0.773357 -0.00916786 -4.08192 
-0.00916786 0.888227 1.9492 
-4.08192 1.9492 0.862353 
1.53144 0.191072 -4.30282 
0.191072 0.898326 1.43916 
-4.30282 1.43916 0.0941739 
0.967405 0.0968934 -3.61442 
0.0968934 0.0250212 2.10067 
-3.61442 2.10067 1.53151 
9.54997 0.00661494 0.711839 
0.00661494 9.7284 -0.446466 
0.711839 -0.446466 9.85356 
9.50923 0.0401907 0.640111 
0.0401907 9.56697 -0.710853 
0.640111 -0.710853 10.0557 
9.73467 0.012035 0.592784 
0.012035 9.73122 -0.504991 
0.592784 -0.504991 9.66605 
9.83445 -0.023543 0.589982 
-0.023543 9.76434 -0.467852 
0.589982 -0.467852 9.53315 
9.04245 0.219622 0.994638 
0.219622 8.63389 -4.31258 
0.994638 -4.31258 8.58835 
8.62733 0.07096 0.982621 
0.07096 8.87026 -4.20959 
0.982621 -4.20959 8.7671 
8.72057 0.116528 0.796878 
0.116528 8.52332 -4.32888 
0.796878 -4.32888 9.0208 
9.00811 0.111817 1.17259 
0.111817 8.86204 -4.4672 
1.17259 -4.4672 8.39454 
1.49702 -0.392381 -4.46876 
-0.392381 2.12211 -1.64875 
-4.46876 -1.64875 2.7171 
2.28711 0.275359 -4.21002 
0.275359 1.97529 -1.83124 
-4.21002 -1.83124 2.07383 
2.3843 -0.0797963 -4.29057 
-0.0797963 2.33036 -1.85253 
-4.29057 -1.85253 1.62157 
2.26091 0.0671215 -3.79791 
0.0671215 1.83265 -1.61375 
-3.79791 -1.61375 2.24267 
2.65502 0.00929471 -0.725966 
0.00929471 2.59237 4.74888 
-0.725966 4.74888 1.10249 
2.03192 0.0473986 -0.181806 
0.0473986 2.31053 4.45171 
-0.181806 4.45171 2.00743 
2.11882 0.00110536 -0.537496 
0.00110536 1.54675 4.7372 
-0.537496 4.7372 2.6843 
2.16622 0.0407458 -0.306153 
0.0407458 2.17555 4.01899 
-0.306153 4.01899 2.00811 
7.07463 -0.0920613 3.53212 
-0.0920613 7.04444 3.11704 
3.53212 3.11704 7.58513 
7.25608 0.0394195 3.33458 
0.0394195 7.21858 3.16509 
3.33458 3.16509 7.22953 
7.37564 -0.276244 3.49568 
-0.276244 7.34167 3.04135 
3.49568 3.04135 6.98688 
7.26285 0.0502995 3.38483 
0.0502995 7.19755 3.15747 
3.38483 3.15747 7.24379 
9.48566 0.0444856 3.97599 
0.0444856 9.31066 -2.16499 
3.97599 -2.16499 10.2807 
9.8777 -0.00244212 4.29269 
-0.00244212 9.77495 -1.78402 
4.29269 -1.78402 9.42435 
9.88682 -0.0955279 4.01902 
-0.0955279 9.54035 -1.88684 
4.01902 -1.88684 9.64982 
9.74704 -0.088848 4.07313 
-0.088848 9.65936 -1.8866 
4.07313 -1.8866 9.6706 
8.50677 0.129822 -4.29579 
0.129822 9.33589 1.78693 
-4.29579 1.78693 9.53939 
9.19799 -0.00408391 -4.36989 
-0.00408391 9.10111 1.9907 
-4.36989 1.9907 9.08297 
8.96997 0.0665256 -4.25729 
0.0665256 9.26255 1.74056 
-4.25729 1.74056 9.14953 
9.12732 -0.142669 -4.28679 
-0.142669 9.02588 1.91775 
-4.28679 1.91775 9.22885 
9.4938 -0.0698023 0.601476 
-0.0698023 9.55985 -2.89124 
0.601476 -2.89124 10.0076 
9.6881 -0.0345276 0.699913 
-0.0345276 9.75353 -2.96834 
0.699913 -2.96834 9.61964 
9.57202 -0.165156 0.753416 
-0.165156 9.48418 -3.06636 
0.753416 -3.06636 10.0051 
9.76573 0.0371624 0.727112 
0.0371624 9.79291 -2.94984 
0.727112 -2.94984 9.50262 
9.57414 0.00941969 -1.6352 
0.00941969 9.55979 1.87156 
-1.6352 1.87156 9.83473 
9.54743 -0.0230222 -1.901 
-0.0230222 9.45273 1.83385 
-1.901 1.83385 9.9685 
9.60893 0.0238652 -1.78503 
0.0238652 9.64642 2.01947 
-1.78503 2.01947 9.71331 
9.70557 -0.0142222 -1.75902 
-0.0142222 9.77608 1.97024 
-1.75902 1.97024 9.48701 
1.07136 0.105465 -4.29953 
0.105465 0.925421 1.67182 
-4.29953 1.67182 1.10106 
1.28523 -0.440094 -4.10353 
-0.440094 1.17201 2.31363 
-4.10353 2.31363 0.640605 
1.0574 0.0297689 -4.23648 
0.0297689 0.953651 1.67692 
-4.23648 1.67692 1.0868 
0.623111 -0.503098 -4.24974 
-0.503098 0.931775 1.01449 
-4.24974 1.01449 1.54296 
9.57273 0.209214 -0.750645 
0.209214 9.79783 -4.36377 
-0.750645 -4.36377 9.60646 
9.57108 0.0531808 -0.836184 
0.0531808 9.85545 -4.32239 
-0.836184 -4.32239 9.55049 
9.82374 -0.0192958 -0.953219 
-0.0192958 9.89412 -4.58943 
-0.953219 -4.58943 9.25915 
9.24553 0.0935426 -0.593006 
0.0935426 9.21632 -4.45701 
-0.593006 -4.45701 10.5152 
2.56549 -0.0107493 4.44465 
-0.0107493 2.55703 1.21 
4.44465 1.21 2.53033 
2.44188 -0.0474072 4.58177 
-0.0474072 2.41377 1.22134 
4.58177 1.22134 2.79721 
3.23011 0.267344 4.43595 
0.267344 2.44738 1.49387 
4.43595 1.49387 1.97536 
2.49613 -0.081927 4.34905 
-0.081927 2.60361 1.13427 
4.34905 1.13427 2.55312 
0.276891 -0.140502 2.09074 
-0.140502 0.476644 2.27113 
2.09074 2.27113 0.330893 
0.463294 -0.115519 2.21868 
-0.115519 0.230405 2.16501 
2.21868 2.16501 0.39073 
0.618672 -0.00467714 2.25369 
-0.00467714 0.555174 2.33406 
2.25369 2.33406 -0.0894171 
0.202417 0.0175721 2.11362 
0.0175721 0.26897 2.19591 
2.11362 2.19591 0.613041 
5.17972 -0.0663785 0.429703 
-0.0663785 5.05665 4.62913 
0.429703 4.62913 5.1358 
4.7599 0.010493 0.215345 
0.010493 5.02083 4.74628 
0.215345 4.74628 5.59144 
5.36001 -0.00925477 0.246799 
-0.00925477 5.20189 4.73723 
0.246799 4.73723 4.81027 
5.13146 -0.0180686 0.405181 
-0.0180686 5.14947 4.54792 
0.405181 4.54792 5.09123 
1.34975 0.113127 -4.28826 
0.113127 1.41217 1.7313 
-4.28826 1.7313 1.735 
1.04141 0.0492378 -4.21948 
0.0492378 1.44447 1.90131 
-4.21948 1.90131 2.01103 
1.71168 -0.117532 -4.45084 
-0.117532 1.43764 1.84796 
-4.45084 1.84796 1.34759 
1.60978 -0.0607037 -4.2566 
-0.0607037 1.50786 1.8868 
-4.2566 1.8868 1.37927 
5.15652 0.0203392 4.22383 
0.0203392 5.20733 -1.80459 
4.22383 -1.80459 5.29444 
4.72254 0.0798137 4.27167 
0.0798137 5.1433 -1.83547 
4.27167 -1.83547 5.79246 
5.44091 -0.0860909 4.35067 
-0.0860909 5.26479 -1.89631 
4.35067 -1.89631 4.9526 
5.31108 -0.0322373 4.04748 
-0.0322373 5.19657 -1.97332 
4.04748 -1.97332 5.15065 
2.31303 0.0567074 -3.44516 
0.0567074 2.27289 -3.24137 
-3.44516 -3.24137 1.39109 
1.77872 -0.32728 -3.53974 
-0.32728 1.75801 -3.19926 
-3.53974 -3.19926 2.44028 
1.97126 0.118711 -3.22144 
0.118711 2.0357 -3.22879 
-3.22144 -3.22879 1.97004 
1.94049 0.0643227 -3.01302 
0.0643227 2.07233 -2.96555 
-3.01302 -2.96555 1.96418 
4.78548 0.00122197 -1.42196 
0.00122197 4.76867 4.46902 
-1.42196 4.46902 5.35436 
5.09868 -0.0156059 -1.33469 
-0.0156059 5.11837 4.50687 
-1.33469 4.50687 4.69145 
5.05448 0.013519 -1.30932 
0.013519 4.84272 4.43091 
-1.30932 4.43091 5.01131 
4.99499 -0.00115234 -1.16377 
-0.00115234 4.98586 4.39668 
-1.16377 4.39668 4.92766 
9.549 -0.13147 1.10496 
-0.13147 9.67125 -2.80503 
1.10496 -2.80503 9.92326 
9.77898 -0.0331879 0.985622 
-0.0331879 9.69203 -2.78506 
0.985622 -2.78506 9.6725 
9.57967 -0.0925611 0.965226 
-0.0925611 9.50248 -2.63525 
0.965226 -2.63525 10.0614 
9.85907 0.0307265 0.99466 
0.0307265 9.75036 -2.83079 
0.99466 -2.83079 9.53408 
8.75472 0.127379 4.56591 
0.127379 9.21198 0.174285 
4.56591 0.174285 9.56197 
9.22314 0.00446839 4.67063 
0.00446839 9.13031 0.355557 
4.67063 0.355557 9.17523 
9.15295 -0.000588877 4.6359 
-0.000588877 9.18135 0.295814 
4.6359 0.295814 9.19437 
9.2046 0.065008 4.79337 
0.065008 9.41081 0.244287 
4.79337 0.244287 8.91327 
9.38235 -0.146989 2.04018 
-0.146989 9.6757 3.3243 
2.04018 3.3243 10.0533 
9.79859 -0.0535351 2.00614 
-0.0535351 9.73402 3.17123 
2.00614 3.17123 9.57872 
9.56348 -0.160202 2.13255 
-0.160202 9.5822 3.09426 
2.13255 3.09426 9.96564 
9.86308 0.0692733 2.02738 
0.0692733 9.79326 3.23751 
2.02738 3.23751 9.45499 
9.06432 -0.135283 0.776673 
-0.135283 8.82413 2.98817 
0.776673 2.98817 9.22192 
9.00084 0.0675347 0.72882 
0.0675347 9.05094 2.87494 
0.72882 2.87494 9.05859 
9.04711 0.0534291 0.711699 
0.0534291 9.10499 2.91886 
0.711699 2.91886 8.95826 
9.21757 -0.105136 0.893732 
-0.105136 9.02842 2.85965 
0.893732 2.85965 8.86438 
1.61398 -0.0399867 -3.35979 
-0.0399867 1.54525 -2.65315 
-3.35979 -2.65315 1.08434 
1.47652 -0.0277367 -3.64479 
-0.0277367 1.37128 -2.66555 
-3.64479 -2.66555 1.39578 
1.4692 0.0487624 -3.68015 
0.0487624 1.33505 -2.49195 
-3.68015 -2.49195 1.43933 
1.2498 -0.039246 -3.85723 
-0.039246 1.17411 -2.48737 
-3.85723 -2.48737 1.81967 
4.36896 0.0117573 3.26663 
0.0117573 4.37762 -3.24142 
3.26663 -3.24142 4.28012 
4.61609 0.019689 3.23849 
0.019689 4.52588 -3.46724 
3.23849 -3.46724 3.88472 
4.22675 0.248242 3.20868 
0.248242 4.04031 -3.44147 
3.20868 -3.44147 4.75963 
4.49719 -0.0517919 3.20888 
-0.0517919 4.35423 -3.13206 
3.20888 -3.13206 4.17528 
4.24855 -0.0590774 -4.44539 
-0.0590774 4.14173 1.07237 
-4.44539 1.07237 4.1887 
3.92199 0.126962 -4.63756 
0.126962 4.09714 0.963992 
-4.63756 0.963992 4.55985 
4.27828 0.0632023 -4.55622 
0.0632023 4.34283 1.03737 
-4.55622 1.03737 3.95788 
4.28635 -0.0354781 -4.39158 
-0.0354781 4.0734 1.07004 
-4.39158 1.07004 4.21923 
7.30865 0.216525 -4.67997 
0.216525 7.88721 0.525042 
-4.67997 0.525042 8.73234 
7.65996 0.0403626 -4.6117 
0.0403626 8.1127 0.425547 
-4.6117 0.425547 8.15553 
8.58349 -0.289435 -4.89318 
-0.289435 7.91434 0.362361 
-4.89318 0.362361 7.43037 
7.98604 -0.0434078 -4.28754 
-0.0434078 8.01643 -0.0433345 
-4.28754 -0.0433345 7.92572 
0.213871 0.0548048 -2.96854 
0.0548048 0.431586 3.47153 
-2.96854 3.47153 0.40117 
0.193479 0.0466512 -3.025 
0.0466512 0.518874 3.45598 
-3.025 3.45598 0.334275 
0.548253 -0.060594 -2.76466 
-0.060594 0.873904 3.62073 
-2.76466 3.62073 -0.375529 
0.130536 -0.00780791 -3.17979 
-0.00780791 0.285237 3.40761 
-3.17979 3.40761 0.630854 
9.51332 0.0845769 -1.38227 
0.0845769 9.61951 3.56405 
-1.38227 3.56405 9.94221 
9.53837 0.174463 -1.567 
0.174463 9.4572 3.31929 
-1.567 3.31929 10.0795 
9.74224 0.0443197 -1.4294 
0.0443197 9.80655 3.41024 
-1.4294 3.41024 9.52624 
9.84902 -0.0370179 -1.45664 
-0.0370179 9.80936 3.50339 
-1.45664 3.50339 9.41666 
9.34584 0.00904816 2.34253 
0.00904816 9.37078 -2.83047 
2.34253 -2.83047 10.3024 
9.75413 -0.0720043 2.44173 
-0.0720043 9.63755 -2.94779 
2.44173 -2.94779 9.62733 
9.59357 -0.0827502 2.40358 
-0.0827502 9.7333 -3.03644 
2.40358 -3.03644 9.69214 
9.78104 0.0457749 2.52898 
0.0457749 9.78121 -3.06579 
2.52898 -3.06579 9.45676 
0.362146 0.0478824 -0.327707 
0.0478824 0.343527 -2.18094 
-0.327707 -2.18094 0.227634 
0.499722 0.0455363 -0.565101 
0.0455363 0.302776 -2.12489 
-0.565101 -2.12489 0.130809 
0.348989 0.0224168 -0.478552 
0.0224168 0.323185 -2.3008 
-0.478552 -2.3008 0.261133 
0.19454 0.000183912 -0.421345 
0.000183912 0.198923 -2.25034 
-0.421345 -2.25034 0.539843 
9.57772 -0.217455 0.915634 
-0.217455 9.488 -3.76053 
0.915634 -3.76053 10.0364 
9.90979 0.00731197 0.809934 
0.00731197 9.63032 -3.66814 
0.809934 -3.66814 9.56198 
9.64206 -0.0484013 0.631891 
-0.0484013 9.51561 -3.59179 
0.631891 -3.59179 9.94441 
9.84786 0.00852493 0.75624 
0.00852493 9.81739 -3.68499 
0.75624 -3.68499 9.43684 
2.05937 0.00176415 4.47383 
0.00176415 1.95018 -0.960463 
4.47383 -0.960463 2.02277 
1.44192 0.00025648 4.60374 
0.00025648 2.11531 -0.779033 
4.60374 -0.779033 2.4751 
2.35821 -0.0121238 4.65281 
-0.0121238 2.19514 -1.01003 
4.65281 -1.01003 1.47896 
2.23264 -0.127971 4.26546 
-0.127971 1.857 -1.07134 
4.26546 -1.07134 1.94268 
1.38255 0.0411578 1.01655 
0.0411578 1.51474 -4.27028 
1.01655 -4.27028 1.48502 
1.41265 0.00602333 0.95983 
0.00602333 1.56718 -4.4347 
0.95983 -4.4347 1.40248 
1.7266 0.0728442 0.876974 
0.0728442 1.66842 -4.0049 
0.876974 -4.0049 0.987288 
1.0295 0.180704 1.00128 
0.180704 1.29015 -4.48888 
1.00128 -4.48888 2.06266 
1.03069 0.0671767 -3.60008 
0.0671767 1.25417 2.08516 
-3.60008 2.08516 0.187532 
1.01791 -0.151527 -3.84493 
-0.151527 0.610364 2.03963 
-3.84493 2.03963 0.844119 
0.90057 -0.103811 -3.98939 
-0.103811 0.644319 2.15834 
-3.98939 2.15834 0.927499 
0.154527 0.421116 -3.94505 
0.421116 0.820723 1.74526 
-3.94505 1.74526 1.49714 
0.446427 0.0383622 3.51389 
0.0383622 0.304738 -2.97147 
3.51389 -2.97147 0.383489 
0.933756 -0.0763676 3.66569 
-0.0763676 0.652376 -2.74051 
3.66569 -2.74051 -0.451478 
0.495566 0.0448904 3.46239 
0.0448904 0.239649 -2.98234 
3.46239 -2.98234 0.399439 
0.309289 -0.0221776 3.42425 
-0.0221776 0.18941 -3.19988 
3.42425 -3.19988 0.635955 
9.64392 0.00204267 1.20186 
0.00204267 9.38183 2.76665 
1.20186 2.76665 9.93492 
9.75873 -0.0172568 1.04427 
-0.0172568 9.61794 2.73843 
1.04427 2.73843 9.584 
9.5727 0.088508 0.915435 
0.088508 9.35431 2.70112 
0.915435 2.70112 10.0337 
9.75506 -0.00964901 1.0659 
-0.00964901 9.75774 2.72948 
1.0659 2.72948 9.44787 
9.72389 0.134279 4.47911 
0.134279 9.56836 0.805742 
4.47911 0.805742 9.77154 
9.87668 0.0461294 4.31119 
0.0461294 9.62837 0.824769 
4.31119 0.824769 9.55874 
9.41005 0.066048 4.43536 
0.066048 9.39924 0.628016 
4.43536 0.628016 10.2545 
9.90111 -0.0557279 4.50975 
-0.0557279 9.77812 0.893619 
4.50975 0.893619 9.38456 
0.448935 -0.106888 -3.79441 
-0.106888 0.381163 0.528105 
-3.79441 0.528105 0.41159 
0.658181 -0.0323872 -3.762 
-0.0323872 0.304357 0.492821 
-3.762 0.492821 0.27915 
0.875433 -0.0566725 -3.69174 
-0.0566725 0.964291 0.552908 
-3.69174 0.552908 -0.598036 
0.290678 -0.0571445 -3.92172 
-0.0571445 0.392514 0.406935 
-3.92172 0.406935 0.558496 
0.406242 -0.0720553 3.41549 
-0.0720553 0.259131 2.98464 
3.41549 2.98464 0.387906 
0.883916 0.0398134 3.61233 
0.0398134 0.544719 2.77468 
3.61233 2.77468 -0.375355 
0.452767 -0.197024 3.49813 
-0.197024 0.295404 2.92416 
3.49813 2.92416 0.305108 
0.331553 -0.0420419 3.38215 
-0.0420419 0.180319 3.12693 
3.38215 3.12693 0.541408 
0.681079 0.415489 -1.72825 
0.415489 1.45492 -4.15297 
-1.72825 -4.15297 0.24383 
0.78273 -0.0394758 -1.68681 
-0.0394758 0.788838 -4.25346 
-1.68681 -4.25346 0.808265 
0.927644 -0.0630686 -1.8217 
-0.0630686 0.686979 -4.2071 
-1.8217 -4.2071 0.76521 
0.988153 -0.087611 -1.72419 
-0.087611 0.633511 -4.03911 
-1.72419 -4.03911 0.758168 
9.67983 -0.0358296 2.36358 
-0.0358296 9.68371 -1.17609 
2.36358 -1.17609 9.56709 
9.39985 0.0177476 2.19182 
0.0177476 9.38549 -1.12661 
2.19182 -1.12661 10.1453 
9.6516 -0.0211482 2.47798 
-0.0211482 9.41676 -1.07404 
2.47798 -1.07404 9.86228 
9.67441 -0.0288676 2.43321 
-0.0288676 9.81374 -1.22908 
2.43321 -1.22908 9.44248 
9.00345 0.137134 -1.15859 
0.137134 9.33576 -4.46497 
-1.15859 -4.46497 9.17591 
9.23054 -0.0292485 -1.19637 
-0.0292485 9.35677 -4.6943 
-1.19637 -4.6943 8.92781 
9.40114 0.0544149 -0.907932 
0.0544149 8.57073 -4.47646 
-0.907932 -4.47646 9.54325 
9.28229 -0.0084726 -0.966776 
-0.0084726 9.02902 -4.43581 
-0.966776 -4.43581 9.20381 
9.35086 -0.0779189 -0.570515 
-0.0779189 9.3232 4.44402 
-0.570515 4.44402 10.3893 
9.63499 -0.202649 -0.756517 
-0.202649 9.75052 4.42326 
-0.756517 4.42326 9.67787 
9.66462 -0.0816513 -0.823481 
-0.0816513 9.88726 4.28109 
-0.823481 4.28109 9.5115 
9.83263 0.0477491 -0.931963 
0.0477491 9.94346 4.55466 
-0.931963 4.55466 9.2873 
8.22763 -0.371901 -3.93827 
-0.371901 8.14496 -2.57391 
-3.93827 -2.57391 8.07698 
8.60515 0.467891 -4.19927 
0.467891 8.3431 -2.42343 
-4.19927 -2.42343 7.50131 
7.89828 -0.175406 -3.86694 
-0.175406 8.20097 -2.76359 
-3.86694 -2.76359 8.35032 
8.33147 -0.182638 -3.4264 
-0.182638 8.40506 -2.19213 
-3.4264 -2.19213 7.71303 
0.443959 -0.0398364 -2.34931 
-0.0398364 0.398295 1.40231 
-2.34931 1.40231 0.0957839 
0.337915 -0.0393769 -2.14507 
-0.0393769 0.359707 1.41603 
-2.14507 1.41603 0.240417 
0.402739 -0.0777614 -2.21278 
-0.0777614 0.393954 1.60157 
-2.21278 1.60157 0.141345 
0.238199 -0.0208135 -2.21734 
-0.0208135 0.201736 1.50215 
-2.21734 1.50215 0.498104 
9.18192 -0.0334864 0.351792 
-0.0334864 9.22332 -4.78205 
0.351792 -4.78205 9.17493 
9.1661 0.0520464 0.401528 
0.0520464 9.21798 -4.69533 
0.401528 -4.69533 9.19609 
9.17308 -0.0927566 0.155712 
-0.0927566 8.87181 -4.62955 
0.155712 -4.62955 9.53528 
9.48522 -0.0875688 0.238579 
-0.0875688 9.20465 -4.83933 
0.238579 -4.83933 8.8903 
9.70613 -0.0131508 1.40628 
-0.0131508 9.64309 3.67668 
1.40628 3.67668 9.71914 
9.56501 0.027884 1.22994 
0.027884 9.50263 3.73576 
1.22994 3.73576 10.0007 
9.63628 0.00207521 1.49937 
0.00207521 9.56731 3.78582 
1.49937 3.78582 9.86476 
9.7485 -0.000308122 1.43534 
-0.000308122 9.77053 3.6751 
1.43534 3.6751 9.54933 
5.86735 -0.123082 -1.99716 
-0.123082 5.75916 -4.14551 
-1.99716 -4.14551 5.72176 
5.83372 0.157662 -2.24919 
0.157662 6.11739 -4.11978 
-2.24919 -4.11978 5.39716 
5.50668 0.112586 -2.13382 
0.112586 5.72611 -4.19074 
-2.13382 -4.19074 6.11549 
5.85774 -0.0967031 -2.02261 
-0.0967031 5.66895 -4.04354 
-2.02261 -4.04354 5.82158 
0.509789 -0.0236681 3.63686 
-0.0236681 0.727399 0.662654 
3.63686 0.662654 -0.250769 
0.25848 -0.193613 3.81321 
-0.193613 0.629859 0.635444 
3.81321 0.635444 0.0980809 
0.339047 -0.0846644 3.74885 
-0.0846644 0.409942 0.63659 
3.74885 0.63659 0.237431 
0.22709 -0.0072129 3.79232 
-0.0072129 0.320719 0.566263 
3.79232 0.566263 0.438611 
0.271894 -0.0832212 -2.19543 
-0.0832212 0.666971 -2.95556 
-2.19543 -2.95556 0.240326 
0.279657 -0.0551573 -2.29562 
-0.0551573 0.45962 -2.94841 
-2.29562 -2.94841 0.439915 
0.724141 -0.0301853 -2.38695 
-0.0301853 0.782242 -2.9476 
-2.38695 -2.9476 -0.327192 
0.222772 6.91075e-05 -2.2232 
6.91075e-05 0.334028 -2.89449 
-2.2232 -2.89449 0.622391 
9.60254 0.159389 0.750512 
0.159389 9.91873 4.36161 
0.750512 4.36161 9.72294 
9.63207 0.00138392 0.808211 
0.00138392 9.9223 4.34468 
0.808211 4.34468 9.68984 
9.88073 0.00906923 0.921841 
0.00906923 9.92871 4.5259 
0.921841 4.5259 9.43477 
9.42581 0.111773 0.592801 
0.111773 9.41059 4.44961 
0.592801 4.44961 10.4078 
9.59401 0.0159059 -0.843597 
0.0159059 9.7849 1.91481 
-0.843597 1.91481 9.63841 
9.37057 0.0111919 -0.838671 
0.0111919 9.42404 2.12396 
-0.838671 2.12396 10.2227 
9.55153 -0.0895825 -0.73065 
-0.0895825 9.75459 1.91822 
-0.73065 1.91822 9.71119 
9.7949 0.0301941 -0.794143 
0.0301941 9.77962 1.81367 
-0.794143 1.81367 9.4428 
8.69701 0.104771 -4.56293 
0.104771 9.26982 -0.198422 
-4.56293 -0.198422 9.63432 
9.21792 0.0178497 -4.73881 
0.0178497 9.41482 -0.264748 
-4.73881 -0.264748 8.96841 
9.22545 -0.0436913 -4.67339 
-0.0436913 9.13772 -0.343057 
-4.67339 -0.343057 9.23797 
9.33528 -0.0154753 -4.72247 
-0.0154753 9.10509 -0.337753 
-4.72247 -0.337753 9.16078 
8.44555 0.0506477 -4.48482 
0.0506477 9.40583 -0.877282 
-4.48482 -0.877282 9.51212 
9.23674 -0.0202794 -4.68806 
-0.0202794 9.2684 -1.28293 
-4.68806 -1.28293 8.85835 
9.24984 0.150038 -4.50682 
0.150038 8.98637 -1.14923 
-4.50682 -1.14923 9.12728 
9.08391 0.014478 -4.4759 
0.014478 9.149 -0.999035 
-4.4759 -0.999035 9.13059 
2.24759 -0.245263 -0.5228 
-0.245263 1.40617 -4.77337 
-0.5228 -4.77337 2.78815 
2.03172 0.00630497 -0.33491 
0.00630497 2.46485 -4.59086 
-0.33491 -4.59086 1.94534 
2.47557 0.0868498 -0.683072 
0.0868498 2.75539 -4.71819 
-0.683072 -4.71819 1.21095 
2.14595 0.00804065 -0.0866092 
0.00804065 2.20962 -4.17526 
-0.0866092 -4.17526 2.08634 
9.15797 -0.0590708 -0.422974 
-0.0590708 9.24255 -4.69559 
-0.422974 -4.69559 9.17217 
9.16618 -0.0231397 -0.407204 
-0.0231397 9.2656 -4.72616 
-0.407204 -4.72616 9.14091 
9.23746 0.0904159 -0.160548 
0.0904159 8.68299 -4.61144 
-0.160548 -4.61144 9.65224 
9.53032 0.0421834 -0.282596 
0.0421834 9.22749 -4.86373 
-0.282596 -4.86373 8.81489 
0.627649 0.0200455 0.787186 
0.0200455 0.386244 0.85951 
0.787186 0.85951 -0.129522 
0.292 -0.0332558 0.738299 
-0.0332558 0.217499 1.00601 
0.738299 1.00601 0.374872 
0.544442 -0.112309 0.79042 
-0.112309 0.255872 1.09408 
0.79042 1.09408 0.0840575 
0.185592 0.0304443 0.765837 
0.0304443 0.195761 1.05224 
0.765837 1.05224 0.503019 
7.54744 0.0483812 -1.65558 
0.0483812 7.43639 4.46382 
-1.65558 4.46382 6.93176 
7.35168 0.198149 -1.73263 
0.198149 6.58403 4.32016 
-1.73263 4.32016 7.97988 
7.24542 -0.0978789 -1.86501 
-0.0978789 7.45769 4.29038 
-1.86501 4.29038 7.21248 
7.2135 0.0517544 -1.84858 
0.0517544 7.425 4.17936 
-1.84858 4.17936 7.27709 
2.32027 0.110205 0.87404 
0.110205 1.12762 -4.69998 
0.87404 -4.69998 2.78487 
1.94545 -0.124894 0.934758 
-0.124894 2.32455 -4.4766 
0.934758 -4.4766 1.96276 
2.0824 0.00533725 0.995969 
0.00533725 2.75687 -4.61625 
0.995969 -4.61625 1.39349 
1.86244 -0.00603058 1.13328 
-0.00603058 2.16071 -3.82755 
1.13328 -3.82755 2.20961 
0.413369 0.0808651 -0.646777 
0.0808651 0.538441 3.80121 
-0.646777 3.80121 0.31993 
0.834771 -0.000808739 -0.606916 
-0.000808739 0.765362 3.72983 
-0.606916 3.72983 -0.328393 
0.502121 0.0969042 -0.584619 
0.0969042 0.370055 3.82408 
-0.584619 3.82408 0.399563 
0.360553 -0.00802543 -0.656568 
-0.00802543 0.33542 3.93346 
-0.656568 3.93346 0.575767 
2.12413 -0.217111 0.550689 
-0.217111 1.46142 4.72002 
0.550689 4.72002 2.6897 
1.98707 0.021141 0.330598 
0.021141 2.37751 4.56123 
0.330598 4.56123 1.91066 
2.45488 0.0650639 0.761635 
0.0650639 2.68677 4.6678 
0.761635 4.6678 1.1336 
2.08794 -0.018176 0.140503 
-0.018176 2.17771 4.19352 
0.140503 4.19352 2.0096 
5.71225 -0.051982 -4.66779 
-0.051982 5.3894 1.79618 
-4.66779 1.79618 4.79669 
4.69478 0.230681 -4.34425 
0.230681 5.16514 1.18767 
-4.34425 1.18767 6.03842 
5.15382 -0.0303276 -4.48328 
-0.0303276 5.55063 1.37007 
-4.48328 1.37007 5.19388 
5.56934 -0.181302 -4.35022 
-0.181302 5.55334 1.31388 
-4.35022 1.31388 4.77566 
7.78999 0.0740764 -0.863146 
0.0740764 8.6854 -4.66132 
-0.863146 -4.66132 7.43394 
8.02022 -0.0396574 -1.03258 
-0.0396574 7.89464 -4.44978 
-1.03258 -4.44978 7.99447 
7.77232 -0.0384653 -1.07034 
-0.0384653 7.30654 -4.69361 
-1.07034 -4.69361 8.83047 
8.02877 -0.253397 -1.13856 
-0.253397 7.87354 -3.9838 
-1.13856 -3.9838 8.00702 
9.21791 -0.122151 -0.136322 
-0.122151 8.7769 4.58585 
-0.136322 4.58585 9.55679 
9.51877 -0.102395 -0.210347 
-0.102395 9.1703 4.78066 
-0.210347 4.78066 8.86253 
9.15888 -0.00508444 -0.319489 
-0.00508444 9.23358 4.68621 
-0.319489 4.68621 9.15914 
9.13783 0.013849 -0.367745 
0.013849 9.24695 4.66902 
-0.367745 4.66902 9.16683 
0.788767 -0.027953 -3.63753 
-0.027953 0.696779 -0.924003 
-3.63753 -0.924003 -0.249304 
0.632259 -0.0540485 -3.7207 
-0.0540485 0.345135 -1.0922 
-3.7207 -1.0922 0.258848 
0.541946 0.00317936 -3.63731 
0.00317936 0.383106 -1.06592 
-3.63731 -1.06592 0.31119 
0.38854 -0.0304958 -3.68631 
-0.0304958 0.333291 -1.13258 
-3.68631 -1.13258 0.514412 
2.96503 -0.083742 4.46747 
-0.083742 2.75109 -1.46914 
4.46747 -1.46914 2.26272 
2.47481 0.0556971 4.63084 
0.0556971 2.4935 -1.1899 
4.63084 -1.1899 3.01053 
2.74533 -0.0352269 4.47452 
-0.0352269 2.64187 -1.20747 
4.47452 -1.20747 2.59164 
2.65369 -0.0228744 4.39425 
-0.0228744 2.74371 -1.04741 
4.39425 -1.04741 2.58144 
7.23693 -0.171251 4.09973 
-0.171251 7.75125 2.6576 
4.09973 2.6576 8.80317 
7.88087 -0.107248 3.8426 
-0.107248 8.02428 2.52241 
3.8426 2.52241 7.8862 
8.8195 0.265451 4.05997 
0.265451 7.97825 2.34345 
4.05997 2.34345 6.99359 
7.83033 -0.257848 3.30496 
-0.257848 8.04126 2.63077 
3.30496 2.63077 7.91975 
0.744432 0.142562 -3.40849 
0.142562 0.830929 -2.85087 
-3.40849 -2.85087 0.881435 
0.978025 0.157645 -3.32393 
0.157645 0.871395 -2.66232 
-3.32393 -2.66232 0.607376 
0.876336 0.0521191 -3.2065 
0.0521191 0.98154 -2.78452 
-3.2065 -2.78452 0.598919 
0.645739 -0.287096 -3.30321 
-0.287096 0.620933 -2.82185 
-3.30321 -2.82185 1.19012 
9.7072 -0.0772277 -3.52456 
-0.0772277 9.75547 1.46966 
-3.52456 1.46966 9.62437 
9.48097 -0.146775 -3.54765 
-0.146775 9.64682 1.6402 
-3.54765 1.6402 9.95925 
9.4618 -0.0467534 -3.46242 
-0.0467534 9.65084 1.34175 
-3.46242 1.34175 9.9744 
9.79104 -0.0142406 -3.52455 
-0.0142406 9.82606 1.46619 
-3.52455 1.46619 9.46994 
1.07336 0.0970133 4.13787 
0.0970133 0.772549 1.23227 
4.13787 1.23227 0.717384 
0.925915 0.0516508 4.06551 
0.0516508 0.977098 1.36264 
4.06551 1.36264 0.660279 
0.931664 0.165246 4.31834 
0.165246 0.741801 1.39275 
4.31834 1.39275 0.889827 
0.309811 -0.41947 4.22123 
-0.41947 0.908185 1.396 
4.22123 1.396 1.3453 
9.61785 -0.0447616 3.84821 
-0.0447616 9.65184 0.325326 
3.84821 0.325326 9.85404 
9.62817 -0.0346808 3.97352 
-0.0346808 9.64778 0.145613 
3.97352 0.145613 9.84778 
9.59598 -0.0422972 3.78271 
-0.0422972 9.62134 0.141292 
3.78271 0.141292 9.90641 
9.75994 -0.0530734 3.9136 
-0.0530734 9.80815 0.229706 
3.9136 0.229706 9.55564 
1.04242 -0.207546 0.690864 
-0.207546 0.996953 -0.859204 
0.690864 -0.859204 0.905116 
1.08961 -0.191507 0.954443 
-0.191507 0.895024 -0.279822 
0.954443 -0.279822 0.959853 
0.692313 -0.118405 0.776618 
-0.118405 1.02518 -0.931661 
0.776618 -0.931661 1.22699 
0.760993 -0.0388693 0.905009 
-0.0388693 0.878392 -0.30089 
0.905009 -0.30089 1.3051 
0.164141 0.0743023 -4.22061 
0.0743023 0.263442 -1.96575 
-4.22061 -1.96575 0.555487 
0.218591 0.0807029 -4.13637 
0.0807029 0.452658 -2.06558 
-4.13637 -2.06558 0.311821 
0.586084 0.190517 -3.94814 
0.190517 0.728018 -2.35443 
-3.94814 -2.35443 -0.331032 
0.185266 0.0271215 -4.07126 
0.0271215 0.443213 -2.12445 
-4.07126 -2.12445 0.354591 
6.8156 -0.0111307 -4.59205 
-0.0111307 6.21327 0.912241 
-4.59205 0.912241 5.64341 
6.27217 -0.0510261 -4.46882 
-0.0510261 6.21927 1.16133 
-4.46882 1.16133 6.18085 
5.86215 -0.0379664 -4.71174 
-0.0379664 5.95346 1.31847 
-4.71174 1.31847 6.85667 
6.11035 0.143582 -4.38604 
0.143582 6.32816 1.35293 
-4.38604 1.35293 6.23377 
9.1569 0.0526358 1.14114 
0.0526358 9.4719 -4.68848 
1.14114 -4.68848 9.04187 
9.40973 -0.0293256 0.922147 
-0.0293256 8.66225 -4.49083 
0.922147 -4.49083 9.59869 
9.36894 0.0421729 0.914201 
0.0421729 8.9968 -4.4145 
0.914201 -4.4145 9.30492 
9.01101 -0.148919 1.15168 
-0.148919 9.41117 -4.42567 
1.15168 -4.42567 9.24849 
9.8182 -0.0260437 -4.4395 
-0.0260437 9.66369 0.769449 
-4.4395 0.769449 9.67596 
9.48903 -0.00470605 -4.47047 
-0.00470605 9.44907 0.602695 
-4.47047 0.602695 10.2197 
9.85264 -0.0103112 -4.56417 
-0.0103112 9.8233 0.856482 
-4.56417 0.856482 9.48191 
9.86362 -0.216062 -4.48818 
-0.216062 9.47127 0.701202 
-4.48818 0.701202 9.82296 
9.40318 -0.0834801 4.41522 
-0.0834801 9.3951 -0.586715 
4.41522 -0.586715 10.3935 
9.91813 -0.051465 4.53032 
-0.051465 9.8831 -0.899922 
4.53032 -0.899922 9.39059 
9.88891 0.00159679 4.33087 
0.00159679 9.61865 -0.776696 
4.33087 -0.776696 9.68427 
9.94932 -0.155031 4.29769 
-0.155031 9.56712 -0.704202 
4.29769 -0.704202 9.67539 
9.73776 -0.000489669 0.69215 
-0.000489669 9.60016 -3.77468 
0.69215 -3.77468 9.87305 
9.72682 -0.00902474 0.709063 
-0.00902474 9.6897 -3.93457 
0.709063 -3.93457 9.79444 
9.67685 -0.0545175 0.503234 
-0.0545175 9.59121 -3.8525 
0.503234 -3.8525 9.94291 
9.85356 -0.0221957 0.653628 
-0.0221957 9.77653 -3.881 
0.653628 -3.881 9.58087 
9.56568 0.0226943 0.979034 
0.0226943 9.48309 2.33073 
0.979034 2.33073 10.0431 
9.69702 0.0515622 1.10902 
0.0515622 9.72305 2.48964 
1.10902 2.48964 9.67184 
9.6654 0.0890449 1.24668 
0.0890449 9.5837 2.40143 
1.24668 2.40143 9.84281 
9.75712 0.00447366 1.14742 
0.00447366 9.83393 2.4986 
1.14742 2.4986 9.50087 
6.65174 -0.00857426 -3.18883 
-0.00857426 6.63976 -3.36897 
-3.18883 -3.36897 6.66789 
6.52849 0.0214172 -3.1279 
0.0214172 6.57188 -3.51918 
-3.1279 -3.51918 6.85901 
6.85936 0.181124 -3.05022 
0.181124 7.04577 -3.4895 
-3.05022 -3.4895 6.05425 
6.74469 -0.0283136 -3.1478 
-0.0283136 6.56157 -3.36114 
-3.1478 -3.36114 6.65312 
0.638266 -0.107668 0.930105 
-0.107668 0.158217 -0.455183 
0.930105 -0.455183 0.15581 
0.571275 0.0130343 0.947697 
0.0130343 0.489862 -0.671276 
0.947697 -0.671276 -0.108843 
0.372588 -0.015151 0.990301 
-0.015151 0.253335 -0.549695 
0.990301 -0.549695 0.326371 
0.252914 0.031882 0.958633 
0.031882 0.189619 -0.510254 
0.958633 -0.510254 0.509761 
9.95311 -0.0269572 -4.56857 
-0.0269572 9.835 -0.958338 
-4.56857 -0.958338 9.28939 
9.89582 0.075114 -4.32316 
0.075114 9.63274 -0.831959 
-4.32316 -0.831959 9.54894 
9.79842 0.189825 -4.41903 
0.189825 9.61074 -0.778035 
-4.41903 -0.778035 9.66834 
9.30987 0.125308 -4.46403 
0.125308 9.33799 -0.58421 
-4.46403 -0.58421 10.4296 
2.54713 0.0111767 -3.75548 
0.0111767 2.49275 -3.00105 
-3.75548 -3.00105 1.20074 
2.11163 0.0588213 -3.81596 
0.0588213 2.07804 -2.51824 
-3.81596 -2.51824 2.05094 
1.79712 -0.170609 -3.80103 
-0.170609 1.83428 -2.88537 
-3.80103 -2.88537 2.60922 
2.21969 -0.0126721 -3.50508 
-0.0126721 2.04154 -2.38042 
-3.50508 -2.38042 1.97939 
7.71048 0.204805 4.31389 
0.204805 8.25341 -1.69649 
4.31389 -1.69649 8.26326 
8.60047 -0.337883 4.4111 
-0.337883 8.44501 -2.17064 
4.4111 -2.17064 7.18169 
7.31776 0.160223 4.23287 
0.160223 7.38422 -2.21184 
4.23287 -2.21184 9.52518 
8.0283 -0.0164754 3.98049 
-0.0164754 8.19143 -1.3673 
3.98049 -1.3673 8.00744 
0.408238 0.117368 1.43583 
0.117368 0.347554 -4.30587 
1.43583 -4.30587 0.345495 
0.313786 0.086239 1.47196 
0.086239 0.389837 -4.27037 
1.47196 -4.27037 0.397663 
0.711984 0.0336136 1.19596 
0.0336136 0.937277 -4.3769 
1.19596 -4.3769 -0.547974 
0.18542 0.0105849 1.72777 
0.0105849 0.267602 -4.36524 
1.72777 -4.36524 0.648264 
0.301375 0.0560979 -4.35352 
0.0560979 0.142545 1.62064 
-4.35352 1.62064 0.631667 
0.429917 0.206551 -4.31219 
0.206551 0.281279 1.39478 
-4.31219 1.39478 0.364391 
0.842426 0.067796 -4.375 
0.067796 0.607197 1.16622 
-4.375 1.16622 -0.374037 
0.405141 0.0921323 -4.38316 
0.0921323 0.331075 1.39688 
-4.38316 1.39688 0.33937 
4.92493 0.00430099 -0.212847 
0.00430099 4.7902 4.71211 
-0.212847 4.71211 5.42909 
5.08588 0.0380279 -0.300285 
0.0380279 4.99436 4.60408 
-0.300285 4.60408 5.06398 
5.18287 -0.00502543 -0.245738 
-0.00502543 5.25413 4.73392 
-0.245738 4.73392 4.70723 
5.06657 -0.0145238 -0.392014 
-0.0145238 5.07416 4.44983 
-0.392014 4.44983 5.0035 
9.60655 -0.0176103 -3.77249 
-0.0176103 9.73611 1.47366 
-3.77249 1.47366 9.84287 
9.59137 -0.00469686 -3.61852 
-0.00469686 9.72887 1.41469 
-3.61852 1.41469 9.86529 
9.56943 -0.0425092 -3.71667 
-0.0425092 9.70353 1.25423 
-3.71667 1.25423 9.91257 
9.74435 -0.0270522 -3.74057 
-0.0270522 9.8637 1.39499 
-3.74057 1.39499 9.57748 
2.66332 -0.367998 -1.51871 
-0.367998 3.30289 4.46146 
-1.51871 4.46146 2.02542 
2.70975 0.0153348 -1.25942 
0.0153348 2.63642 4.44099 
-1.25942 4.44099 2.64545 
2.55863 0.109461 -1.22693 
0.109461 2.48513 4.59569 
-1.22693 4.59569 2.94786 
2.75458 0.0912787 -1.10577 
0.0912787 2.62427 4.35785 
-1.10577 4.35785 2.61278 
0.344991 -0.0866293 1.45329 
-0.0866293 0.386672 4.25815 
1.45329 4.25815 0.514344 
0.466896 -0.134692 1.41219 
-0.134692 0.324846 4.2856 
1.41219 4.2856 0.454265 
0.719598 -0.0246637 1.19317 
-0.0246637 0.962969 4.37507 
1.19317 4.37507 -0.43656 
0.21415 0.00135704 1.72126 
0.00135704 0.268671 4.36315 
1.72126 4.36315 0.763187 
7.63815 0.121915 2.9315 
0.121915 7.51297 -3.83732 
2.9315 -3.83732 8.58222 
8.05086 -0.267856 2.86079 
-0.267856 8.14119 -3.88794 
2.86079 -3.88794 7.54129 
7.91605 0.0563245 2.62964 
0.0563245 7.84099 -3.80497 
2.62964 -3.80497 7.97631 
7.9573 -0.0472968 2.46672 
-0.0472968 7.73996 -3.58445 
2.46672 -3.58445 8.03608 
6.98536 -0.224537 3.77257 
-0.224537 7.03239 2.85564 
3.77257 2.85564 7.76811 
7.41131 -0.0968361 3.77293 
-0.0968361 7.41546 2.82173 
3.77293 2.82173 6.95909 
7.24917 0.0121235 3.77286 
0.0121235 7.26164 2.64587 
3.77286 2.64587 7.27504 
7.31061 0.0148228 3.78042 
0.0148228 7.23312 2.6346 
3.78042 2.6346 7.24212 
9.48618 -0.110774 2.35107 
-0.110774 9.45389 1.38491 
2.35107 1.38491 10.1805 
9.68271 -0.0430784 2.23541 
-0.0430784 9.80731 1.61532 
2.23541 1.61532 9.63056 
9.56891 -0.00104244 2.34882 
-0.00104244 9.94604 1.61144 
2.34882 1.61144 9.60562 
9.82618 0.0275855 2.28925 
0.0275855 9.85116 1.72725 
2.28925 1.72725 9.44324 
0.135286 -0.191267 -0.972905 
-0.191267 0.12792 0.71287 
-0.972905 0.71287 0.362711 
0.443317 -0.183093 -0.748154 
-0.183093 0.325054 0.813568 
-0.748154 0.813568 -0.142453 
0.628882 -0.249262 -0.885789 
-0.249262 0.143311 0.553304 
-0.885789 0.553304 -0.146276 
0.0735261 -0.0475126 -0.894439 
-0.0475126 0.070889 0.708157 
-0.894439 0.708157 0.481503 
9.00411 -0.160865 -1.10028 
-0.160865 9.35368 4.4108 
-1.10028 4.4108 9.16964 
9.26229 -0.00942394 -0.9268 
-0.00942394 9.10787 4.44939 
-0.9268 4.44939 9.15728 
9.46304 -0.0305148 -0.922733 
-0.0305148 8.48798 4.45646 
-0.922733 4.45646 9.57643 
9.20449 0.0198058 -1.15524 
0.0198058 9.36112 4.62773 
-1.15524 4.62773 8.96183 
8.23411 0.0964146 0.962596 
0.0964146 8.03554 -4.47847 
0.962596 -4.47847 8.1998 
8.01946 -0.0998856 0.86195 
-0.0998856 8.69327 -4.69221 
0.86195 -4.69221 7.75671 
7.93289 0.044856 1.02905 
0.044856 7.59265 -4.64164 
1.02905 -4.64164 8.9439 
8.20109 0.197394 0.982271 
0.197394 8.16033 -4.1009 
0.982271 -4.1009 8.10802 
1.16593 -0.21638 3.91781 
-0.21638 0.966096 -2.53224 
3.91781 -2.53224 0.624541 
0.945296 -0.0656057 3.82511 
-0.0656057 0.876119 -2.68637 
3.82511 -2.68637 0.935156 
0.954108 0.0894601 3.88506 
0.0894601 0.975204 -2.61734 
3.88506 -2.61734 0.827259 
0.932571 -0.0409149 3.87666 
-0.0409149 0.930663 -2.52908 
3.87666 -2.52908 0.893336 
7.95734 0.110205 3.30702 
0.110205 7.95624 -3.25953 
3.30702 -3.25953 7.96841 
8.17529 -0.0818905 3.17096 
-0.0818905 8.13409 -3.63588 
3.17096 -3.63588 7.57261 
7.64791 -0.123701 3.26256 
-0.123701 7.61721 -3.52477 
3.26256 -3.52477 8.61687 
7.89654 0.0593096 3.10961 
0.0593096 7.97076 -3.19523 
3.10961 -3.19523 8.01469 
0.974789 -0.0993458 3.91147 
-0.0993458 0.990365 2.55571 
3.91147 2.55571 0.890717 
1.25639 0.274147 3.83583 
0.274147 0.992527 2.64564 
3.83583 2.64564 0.606952 
0.960473 0.0419085 3.96875 
0.0419085 0.872947 2.49617 
3.96875 2.49617 1.02245 
0.995226 0.0177982 3.86164 
0.0177982 0.916064 2.58881 
3.86164 2.58881 0.944581 
0.997376 0.112478 -2.54127 
0.112478 0.950122 3.92421 
-2.54127 3.92421 0.90743 
0.918081 -0.0172817 -2.58045 
-0.0172817 0.990348 3.87578 
-2.58045 3.87578 0.9465 
0.999279 -0.287493 -2.67012 
-0.287493 1.25778 3.83549 
-2.67012 3.83549 0.597866 
0.864381 -0.0355858 -2.49875 
-0.0355858 0.946772 4.00239 
-2.49875 4.00239 1.04378 
0.511502 -0.0463844 3.04711 
-0.0463844 0.357494 -2.37291 
3.04711 -2.37291 0.258162 
0.719226 0.00871086 3.04185 
0.00871086 0.616016 -2.15902 
3.04185 -2.15902 -0.208085 
0.446324 -0.118188 2.96202 
-0.118188 0.39364 -2.29367 
2.96202 -2.29367 0.287193 
0.322937 0.00606151 3.01652 
0.00606151 0.281983 -2.38253 
3.01652 -2.38253 0.522237 
5.19562 0.204374 -2.43829 
0.204374 5.47923 -4.1355 
-2.43829 -4.1355 6.45088 
5.89144 0.116428 -2.47932 
0.116428 6.04492 -3.96962 
-2.47932 -3.96962 5.18937 
5.68093 0.0167404 -2.74735 
0.0167404 5.57981 -3.66173 
-2.74735 -3.66173 5.86499 
5.56292 -0.0458258 -2.54492 
-0.0458258 5.57007 -3.63725 
-2.54492 -3.63725 5.99274 
0.435841 -0.0175057 -2.83543 
-0.0175057 0.498499 2.43472 
-2.83543 2.43472 0.254479 
0.459858 -0.0415953 -2.83592 
-0.0415953 0.574505 2.27759 
-2.83592 2.27759 0.154457 
0.545744 -0.0527535 -2.66379 
-0.0527535 0.600776 2.37104 
-2.66379 2.37104 0.0422987 
0.34741 -0.00857742 -2.85603 
-0.00857742 0.362214 2.38012 
-2.85603 2.38012 0.479194 
4.80486 0.028805 0.206369 
0.028805 4.75919 -4.84476 
0.206369 -4.84476 5.81833 
5.15501 0.0418204 0.522048 
0.0418204 5.17206 -4.55013 
0.522048 -4.55013 5.05531 
5.45246 0.0388718 0.199739 
0.0388718 5.29004 -4.76701 
0.199739 -4.76701 4.63989 
5.08568 0.0574402 0.426963 
0.0574402 5.23414 -4.41731 
0.426963 -4.41731 5.06256 
0.638564 0.0227136 2.26555 
0.0227136 0.696167 2.9953 
2.26555 2.9953 0.0107464 
0.497833 0.15054 2.39601 
0.15054 0.500425 2.86953 
2.39601 2.86953 0.347219 
0.519318 0.0345457 2.47298 
0.0345457 0.450709 2.96298 
2.47298 2.96298 0.37545 
0.401455 0.030252 2.47756 
0.030252 0.340048 2.84942 
2.47756 2.84942 0.603974 
9.69809 0.0689574 -1.55409 
0.0689574 9.52789 3.54515 
-1.55409 3.54515 9.90135 
9.57428 0.02881 -1.73271 
0.02881 9.63157 3.52696 
-1.73271 3.52696 9.92148 
9.64032 -0.0474752 -1.60787 
-0.0474752 9.65918 3.68496 
-1.60787 3.68496 9.82782 
9.74762 0.0145844 -1.63701 
0.0145844 9.78147 3.62992 
-1.63701 3.62992 9.59825 
9.35564 0.132627 4.42468 
0.132627 8.98212 1.04622 
4.42468 1.04622 9.15964 
8.41569 0.0496148 4.44994 
0.0496148 9.48614 0.914918 
4.44994 0.914918 9.59557 
9.32205 -0.00794219 4.61088 
-0.00794219 9.23087 1.14524 
4.61088 1.14524 8.94447 
9.17821 0.0450519 4.49017 
0.0450519 9.22256 0.906903 
4.49017 0.906903 9.09662 
0.709574 -0.0560938 3.587 
-0.0560938 0.633354 -1.0145 
3.587 -1.0145 -0.0563805 
0.428688 -0.0487685 3.75877 
-0.0487685 0.550533 -1.00677 
3.75877 -1.00677 0.307327 
0.510795 -0.0326854 3.71607 
-0.0326854 0.485316 -0.88593 
3.71607 -0.88593 0.290437 
0.403343 -0.00607934 3.80563 
-0.00607934 0.336583 -0.901481 
3.80563 -0.901481 0.546622 
2.4633 -0.0236198 4.59001 
-0.0236198 2.1041 1.04477 
4.59001 1.04477 1.10404 
1.25873 -0.0117203 4.6869 
-0.0117203 2.02659 0.865546 
4.6869 0.865546 2.38612 
2.14882 0.0848154 4.49803 
0.0848154 1.76493 1.00943 
4.49803 1.00943 1.75768 
1.96398 0.124447 4.09417 
0.124447 1.7304 1.16152 
4.09417 1.16152 1.97705 
0.0757481 -0.0432184 4.20755 
-0.0432184 0.170453 -1.95169 
4.20755 -1.95169 0.61124 
0.0749776 0.00991833 3.96832 
0.00991833 0.436293 -2.07568 
3.96832 -2.07568 0.34617 
0.56486 -0.141667 3.89553 
-0.141667 0.720953 -2.28511 
3.89553 -2.28511 -0.428372 
0.13519 -0.0699739 4.0354 
-0.0699739 0.405393 -2.04409 
4.0354 -2.04409 0.316859 
0.224338 -0.0122161 3.9705 
-0.0122161 0.438576 1.98264 
3.9705 1.98264 0.494558 
0.205786 -0.0931925 3.98134 
-0.0931925 0.544982 2.04423 
3.98134 2.04423 0.406704 
0.719053 0.150792 3.90224 
0.150792 0.853046 2.25246 
3.90224 2.25246 -0.414628 
0.176622 -0.0138287 4.24018 
-0.0138287 0.25348 1.86054 
4.24018 1.86054 0.727369 
9.57707 -0.198835 -2.35764 
-0.198835 9.57231 -2.7042 
-2.35764 -2.7042 10.0373 
9.78651 -0.0198062 -2.48262 
-0.0198062 9.77832 -2.59907 
-2.48262 -2.59907 9.62182 
9.68036 -0.0409988 -2.59481 
-0.0409988 9.54635 -2.56236 
-2.59481 -2.56236 9.95993 
9.84067 0.0694813 -2.56778 
0.0694813 9.83297 -2.58829 
-2.56778 -2.58829 9.513 
0.439688 -0.135832 1.33164 
-0.135832 0.411434 0.732006 
1.33164 0.732006 0.0856985 
0.380135 -0.0899273 1.19501 
-0.0899273 0.206266 0.648045 
1.19501 0.648045 0.350419 
0.428939 -0.133423 1.03342 
-0.133423 0.65953 0.590522 
1.03342 0.590522 -0.151649 
0.210205 -0.007364 1.31099 
-0.007364 0.217657 0.699384 
1.31099 0.699384 0.508958 
0.408863 -0.0292724 -2.0295 
-0.0292724 0.261473 4.02254 
-2.0295 4.02254 0.454985 
0.22364 -0.0404146 -1.90049 
-0.0404146 0.171669 4.23174 
-1.90049 4.23174 0.730013 
0.813177 -0.126534 -2.26258 
-0.126534 0.699368 3.88807 
-2.26258 3.88807 -0.387224 
0.546241 -0.059303 -2.02743 
-0.059303 0.148778 3.99186 
-2.02743 3.99186 0.430302 
8.15276 -0.24505 1.86428 
-0.24505 7.89746 4.27177 
1.86428 4.27177 7.96891 
7.72852 0.0912813 1.87094 
0.0912813 7.77864 4.34314 
1.87094 4.34314 8.51197 
8.21297 0.131379 1.55425 
0.131379 8.26436 4.54322 
1.55425 4.54322 7.5418 
8.24791 0.0220737 1.71912 
0.0220737 7.99019 4.0987 
1.71912 4.0987 7.78103 
9.08553 -0.0122449 2.61533 
-0.0122449 9.30597 3.81995 
2.61533 3.81995 8.96683 
8.99387 -0.149923 2.15446 
-0.149923 9.04532 4.08127 
2.15446 4.08127 9.31914 
9.00858 -0.186556 2.55916 
-0.186556 9.09224 3.74352 
2.55916 3.74352 9.25751 
9.04331 0.0305198 2.10011 
0.0305198 9.2682 4.04889 
2.10011 4.04889 9.04681 
0.470818 0.0582283 -2.75285 
0.0582283 0.791574 -3.59776 
-2.75285 -3.59776 -0.34255 
0.251826 -0.126857 -2.9096 
-0.126857 0.341013 -3.44101 
-2.9096 -3.44101 0.327004 
0.163516 -0.0444064 -3.11489 
-0.0444064 0.205208 -3.36367 
-3.11489 -3.36367 0.551118 
0.202199 -0.0932555 -2.9308 
-0.0932555 0.360754 -3.39265 
-2.9308 -3.39265 0.356889 
8.26963 -0.203147 -4.59979 
-0.203147 8.06007 1.68063 
-4.59979 1.68063 7.48438 
7.78135 0.229361 -4.26325 
0.229361 8.04 1.87023 
-4.26325 1.87023 7.99272 
7.64459 -0.0505981 -4.3062 
-0.0505981 7.66639 1.91792 
-4.3062 1.91792 8.5031 
7.9058 0.0309785 -4.03095 
0.0309785 8.13693 1.77287 
-4.03095 1.77287 7.77135 
9.45607 0.0125443 -2.12792 
0.0125443 9.57866 -0.958793 
-2.12792 -0.958793 10.0683 
9.61454 0.0422319 -2.23834 
0.0422319 9.66774 -1.19556 
-2.23834 -1.19556 9.82073 
9.7442 0.0602211 -2.29855 
0.0602211 9.67221 -1.04922 
-2.29855 -1.04922 9.68661 
9.79692 -0.0277137 -2.31364 
-0.0277137 9.78877 -1.10667 
-2.31364 -1.10667 9.51733 
9.40243 0.0712788 0.830069 
0.0712788 8.85522 4.46404 
0.830069 4.46404 9.50728 
9.15589 0.0876529 1.17131 
0.0876529 9.33552 4.56229 
1.17131 4.56229 9.27353 
9.3939 -0.0204402 1.24484 
-0.0204402 9.32375 4.66697 
1.24484 4.66697 9.04729 
9.33531 -0.0314308 1.02736 
-0.0314308 9.11073 4.39992 
1.02736 4.39992 9.31891 
5.47026 0.025648 4.24035 
0.025648 5.64246 -2.213 
4.24035 -2.213 6.33407 
5.90376 -0.0740225 4.16474 
-0.0740225 5.73679 -1.90785 
4.16474 -1.90785 5.80625 
6.13044 -0.246483 4.15379 
-0.246483 6.10377 -2.17321 
4.15379 -2.17321 5.21258 
5.60842 -0.0144308 4.09431 
-0.0144308 5.84453 -1.81663 
4.09431 -1.81663 5.99385 
0.404901 -0.104689 4.26766 
-0.104689 0.272155 1.42988 
4.26766 1.42988 0.473276 
0.921121 -0.0508207 4.40396 
-0.0508207 0.599689 1.11952 
4.40396 1.11952 -0.370478 
0.371772 -0.112133 4.30835 
-0.112133 0.344983 1.40199 
4.30835 1.40199 0.433577 
0.247522 -0.0154784 4.3624 
-0.0154784 0.159239 1.74135 
4.3624 1.74135 0.743571 
0.269487 -0.131788 -1.42526 
-0.131788 0.30733 -4.24851 
-1.42526 -4.24851 0.409896 
0.674489 -0.0186627 -1.17144 
-0.0186627 0.886199 -4.37812 
-1.17144 -4.37812 -0.573975 
0.121654 0.0135436 -1.76028 
0.0135436 0.160699 -4.37756 
-1.76028 -4.37756 0.704361 
0.362209 -0.0971956 -1.42646 
-0.0971956 0.253172 -4.27884 
-1.42646 -4.27884 0.371333 
5.98616 0.0170897 -3.23681 
0.0170897 6.01552 -3.33717 
-3.23681 -3.33717 6.05548 
6.2026 0.0716351 -3.41284 
0.0716351 6.16188 -3.33927 
-3.41284 -3.33927 5.69267 
5.63987 -0.134202 -3.40487 
-0.134202 5.76991 -3.27007 
-3.40487 -3.27007 6.64738 
6.08158 0.0232221 -3.09105 
0.0232221 5.92368 -3.30681 
-3.09105 -3.30681 6.0519 
0.0934645 -0.0568647 -0.526493 
-0.0568647 0.465275 0.159559 
-0.526493 0.159559 0.0922636 
-0.00390397 -0.0269147 -0.635114 
-0.0269147 0.191114 0.0422654 
-0.635114 0.0422654 0.463794 
0.120338 0.075692 -0.800194 
0.075692 0.64334 0.169177 
-0.800194 0.169177 -0.112674 
0.151392 0.0226195 -0.424174 
0.0226195 -0.102277 0.21554 
-0.424174 0.21554 0.601889 
0.169302 0.0800599 4.4745 
0.0800599 0.35576 0.473216 
4.4745 0.473216 0.358219 
0.503188 0.20033 4.52009 
0.20033 0.345381 0.628253 
4.52009 0.628253 0.0347119 
0.355438 0.0560132 4.70344 
0.0560132 0.404846 0.339642 
4.70344 0.339642 0.122997 
0.140778 0.0180423 4.47659 
0.0180423 0.224013 0.313132 
4.47659 0.313132 0.51849 
0.525988 -0.154762 0.441506 
-0.154762 0.385834 -0.858939 
0.441506 -0.858939 0.0836045 
0.723404 -0.137436 0.577005 
-0.137436 0.281485 -0.64927 
0.577005 -0.64927 -0.00946188 
0.243607 -0.0208363 0.510147 
-0.0208363 0.188673 -0.77729 
0.510147 -0.77729 0.563147 
0.10305 0.135374 0.325938 
0.135374 0.232971 -0.76363 
0.325938 -0.76363 0.659406 
0.704053 -0.0607237 -0.980128 
-0.0607237 0.739465 3.64888 
-0.980128 3.64888 -0.236286 
0.459359 -0.0898064 -0.882229 
-0.0898064 0.415648 3.75672 
-0.882229 3.75672 0.332225 
0.541064 -0.0607148 -0.971738 
-0.0607148 0.27585 3.76786 
-0.971738 3.76786 0.390318 
0.319606 -0.00563278 -0.903191 
-0.00563278 0.297157 3.87308 
-0.903191 3.87308 0.590469 
0.288389 0.153169 4.28756 
0.153169 0.323784 -1.37063 
4.28756 -1.37063 0.416233 
0.959833 0.0515046 4.4317 
0.0515046 0.591156 -1.07116 
4.4317 -1.07116 -0.522582 
0.339518 0.0907098 4.25951 
0.0907098 0.217749 -1.41722 
4.25951 -1.41722 0.471139 
0.171818 0.00980295 4.3856 
0.00980295 0.0922531 -1.78382 
4.3856 -1.78382 0.764335 
9.52783 -0.136855 -2.37209 
-0.136855 9.65637 2.95674 
-2.37209 2.95674 9.95419 
9.52205 -0.0436469 -2.28682 
-0.0436469 9.65271 2.64817 
-2.28682 2.64817 9.96364 
9.77248 -0.0728525 -2.35645 
-0.0728525 9.77167 2.76901 
-2.35645 2.76901 9.59424 
9.84701 -0.00645975 -2.39495 
-0.00645975 9.79645 2.74821 
-2.39495 2.74821 9.49493 
9.50684 -0.0699146 -4.54259 
-0.0699146 9.59845 -1.25527 
-4.54259 -1.25527 9.94955 
9.35574 -0.0117215 -4.46603 
-0.0117215 9.65124 -1.51593 
-4.46603 -1.51593 10.0479 
9.70243 0.00196031 -4.5299 
0.00196031 9.73437 -1.35957 
-4.5299 -1.35957 9.61804 
9.81148 0.0488404 -4.59083 
0.0488404 9.71703 -1.36383 
-4.59083 -1.36383 9.52633 
0.349826 -0.220258 -0.690673 
-0.220258 0.62939 4.56404 
-0.690673 4.56404 -0.050537 
0.320171 -0.0959855 -0.467034 
-0.0959855 0.237014 4.53566 
-0.467034 4.53566 0.371494 
0.171054 -0.0395199 -0.234295 
-0.0395199 0.20543 4.57511 
-0.234295 4.57511 0.552195 
0.364689 -0.112558 -0.359662 
-0.112558 0.361654 4.68861 
-0.359662 4.68861 0.202335 
9.43256 0.0564983 3.41918 
0.0564983 9.72511 -1.27889 
3.41918 -1.27889 10.0381 
9.81939 0.0563339 3.37659 
0.0563339 9.8221 -1.44002 
3.37659 -1.44002 9.55431 
9.44155 -0.0749385 3.45035 
-0.0749385 9.69385 -1.56475 
3.45035 -1.56475 10.0604 
9.95106 -0.0270928 3.46808 
-0.0270928 9.78755 -1.43892 
3.46808 -1.43892 9.45719 
9.30107 -0.0569079 2.8509 
-0.0569079 9.22674 3.60379 
2.8509 3.60379 9.40791 
9.41209 0.123506 2.54568 
0.123506 9.28395 3.78628 
2.54568 3.78628 9.23969 
9.32347 -0.00843852 2.60099 
-0.00843852 9.18069 3.72032 
2.60099 3.72032 9.43157 
9.24788 -0.0309404 2.83414 
-0.0309404 9.44402 3.63858 
2.83414 3.63858 9.24382 
9.64711 -0.039506 -3.49147 
-0.039506 9.57343 -1.98746 
-3.49147 -1.98746 9.96704 
9.65591 -0.066026 -3.29886 
-0.066026 9.62717 -2.10794 
-3.29886 -2.10794 9.9045 
9.74334 0.00277628 -3.39431 
0.00277628 9.69586 -2.15971 
-3.39431 -2.15971 9.74838 
9.79063 -0.000848977 -3.39002 
-0.000848977 9.82294 -2.15189 
-3.39002 -2.15189 9.57401 
9.69802 -0.00796328 1.13236 
-0.00796328 9.74914 0.457802 
1.13236 0.457802 9.76813 
9.69485 -0.0362184 1.07385 
-0.0362184 9.65813 0.239335 
1.07385 0.239335 9.86231 
9.73277 -0.0080131 0.940442 
-0.0080131 9.70835 0.427444 
0.940442 0.427444 9.77417 
9.85809 -0.00521218 1.03794 
-0.00521218 9.81458 0.414472 
1.03794 0.414472 9.54262 
0.194373 0.00789857 -1.71505 
0.00789857 0.243973 4.35462 
-1.71505 4.35462 0.725568 
0.632173 0.048436 -1.1212 
0.048436 0.911091 4.394 
-1.1212 4.394 -0.379351 
0.319126 0.108002 -1.44441 
0.108002 0.412969 4.27582 
-1.44441 4.27582 0.431819 
0.386043 0.128659 -1.39067 
0.128659 0.341314 4.27132 
-1.39067 4.27132 0.436556 
9.72206 -0.0477545 2.3208 
-0.0477545 9.49055 3.6392 
2.3208 3.6392 9.9813 
9.7196 -0.150516 2.55053 
-0.150516 9.5192 3.57393 
2.55053 3.57393 9.95512 
9.7954 -0.058678 2.43343 
-0.058678 9.73999 3.62422 
2.43343 3.62422 9.65853 
9.83954 0.0161594 2.39201 
0.0161594 9.81886 3.64285 
2.39201 3.64285 9.53551 
5.96357 -0.0328571 -4.29198 
-0.0328571 5.9815 -2.00834 
-4.29198 -2.00834 5.85053 
6.04783 0.079244 -4.5434 
0.079244 6.09132 -1.7723 
-4.5434 -1.7723 5.65644 
5.29339 -0.151315 -4.14881 
-0.151315 5.90974 -2.04469 
-4.14881 -2.04469 6.59246 
6.12479 -0.0480743 -4.16752 
-0.0480743 5.96463 -1.96399 
-4.16752 -1.96399 5.70618 
9.03977 0.023457 4.40696 
0.023457 9.25823 -1.01461 
4.40696 -1.01461 9.2464 
8.75656 -0.0700713 4.47117 
-0.0700713 9.32773 -0.857423 
4.47117 -0.857423 9.46011 
9.19688 0.00780969 4.67937 
0.00780969 9.35877 -1.27077 
4.67937 -1.27077 8.98876 
9.20308 -0.109043 4.57221 
-0.109043 9.11002 -1.17033 
4.57221 -1.17033 9.2313 
9.45991 -0.130876 -0.0341372 
-0.130876 9.61658 3.05246 
-0.0341372 3.05246 10.0798 
9.82691 -0.0481503 0.0686833 
-0.0481503 9.82452 2.8614 
0.0686833 2.8614 9.50486 
9.68178 -0.184346 0.194631 
-0.184346 9.55786 2.78009 
0.194631 2.78009 9.91666 
9.85805 0.0702989 0.180453 
0.0702989 9.87291 2.91486 
0.180453 2.91486 9.42533 
1.34542 0.0211815 -1.01729 
0.0211815 1.42091 4.37947 
-1.01729 4.37947 1.44034 
1.28657 -0.0264975 -0.957566 
-0.0264975 1.45745 4.45094 
-0.957566 4.45094 1.46265 
1.56633 0.0292332 -0.945694 
0.0292332 1.61208 4.23346 
-0.945694 4.23346 1.02826 
1.00536 0.101617 -0.971303 
0.101617 1.1706 4.41958 
-0.971303 4.41958 2.03071 
0.701523 -0.0581419 2.64589 
-0.0581419 0.826309 -3.82941 
2.64589 -3.82941 0.714801 
0.823121 -0.0789131 2.64125 
-0.0789131 0.893806 -3.89249 
2.64125 -3.89249 0.525707 
0.82873 0.155699 2.58097 
0.155699 0.720016 -3.88043 
2.58097 -3.88043 0.693888 
0.744785 -0.078029 2.51102 
-0.078029 0.761338 -3.93163 
2.51102 -3.93163 0.736511 
8.03028 0.137188 -1.74671 
0.137188 7.65656 4.29553 
-1.74671 4.29553 8.13682 
7.31624 0.0114581 -2.22024 
0.0114581 7.40315 4.30579 
-2.22024 4.30579 9.10428 
8.103 -0.319143 -2.13596 
-0.319143 8.46306 4.35157 
-2.13596 4.35157 7.2576 
7.9054 0.0224693 -1.53493 
0.0224693 7.90686 3.95901 
-1.53493 3.95901 8.0114 
0.379959 -0.262634 0.753598 
-0.262634 0.655932 -4.57875 
0.753598 -4.57875 -0.237966 
0.27028 -0.0698448 0.318651 
-0.0698448 0.20136 -4.54994 
0.318651 -4.54994 0.326284 
0.411234 -0.0921757 0.488074 
-0.0921757 0.0426719 -4.46804 
0.488074 -4.46804 0.344019 
0.158792 -0.029442 0.138165 
-0.029442 0.0901334 -4.60803 
0.138165 -4.60803 0.548999 
0.258483 -0.10746 -4.56559 
-0.10746 0.307664 0.362725 
-4.56559 0.362725 0.29989 
0.147704 -0.033905 -4.58415 
-0.033905 0.144145 0.168637 
-4.58415 0.168637 0.574187 
0.634353 -0.226325 -4.52948 
-0.226325 0.361066 0.73236 
-4.52948 0.73236 -0.129382 
0.182223 -0.0858346 -4.4951 
-0.0858346 0.310699 0.465706 
-4.4951 0.465706 0.373114 
0.287573 0.110986 0.47288 
0.110986 0.182043 4.54066 
0.47288 4.54066 0.307672 
0.330469 0.138225 0.377258 
0.138225 0.240941 4.61875 
0.377258 4.61875 0.205877 
0.36576 0.243145 0.739185 
0.243145 0.57781 4.54196 
0.739185 4.54196 -0.166282 
0.156171 0.064192 0.238783 
0.064192 0.11865 4.56032 
0.238783 4.56032 0.502466 
0.0866067 -0.0430831 -2.09514 
-0.0430831 0.149903 -0.416876 
-2.09514 -0.416876 0.416197 
0.250823 -0.100796 -2.01281 
-0.100796 0.354274 -0.266421 
-2.01281 -0.266421 0.0476083 
0.359232 -0.171699 -2.23559 
-0.171699 0.267746 -0.478667 
-2.23559 -0.478667 0.0257283 
0.038797 0.0882536 -2.05556 
0.0882536 0.084181 -0.556517 
-2.05556 -0.556517 0.529728 
0.145155 0.0549435 -0.207507 
0.0549435 0.171097 -4.57907 
-0.207507 -4.57907 0.607061 
0.2147 0.0966841 -0.433885 
0.0966841 0.296119 -4.56132 
-0.433885 -4.56132 0.412495 
0.353817 0.211915 -0.710735 
0.211915 0.582562 -4.5172 
-0.710735 -4.5172 -0.0130651 
0.368078 0.162241 -0.398321 
0.162241 0.292732 -4.63557 
-0.398321 -4.63557 0.262503 
0.282989 -0.0540222 2.00818 
-0.0540222 0.0845228 -4.02876 
2.00818 -4.02876 0.355605 
0.645022 -0.19668 2.35058 
-0.19668 0.518793 -3.90282 
2.35058 -3.90282 -0.440697 
0.403641 -0.0997478 2.02727 
-0.0997478 0.0295665 -4.04759 
2.02727 -4.04759 0.289909 
0.0499508 -0.0394606 1.82328 
-0.0394606 0.0334691 -4.33184 
1.82328 -4.33184 0.639697 
0.411328 -0.0103216 -3.39694 
-0.0103216 0.314265 1.76471 
-3.39694 1.76471 0.424004 
0.643656 -0.173499 -3.36171 
-0.173499 0.25066 1.72435 
-3.36171 1.72435 0.255281 
0.642566 -0.0234182 -3.34067 
-0.0234182 0.638035 1.85678 
-3.34067 1.85678 -0.131003 
0.29798 -0.0104859 -3.40211 
-0.0104859 0.267773 1.7062 
-3.40211 1.7062 0.583845 
1.42516 -0.0653303 4.31108 
-0.0653303 0.998683 1.09315 
4.31108 1.09315 1.46441 
1.27799 -0.152201 4.36997 
-0.152201 1.35585 1.025 
4.36997 1.025 1.25441 
1.48155 -0.0540981 4.16122 
-0.0540981 1.47077 1.0792 
4.16122 1.0792 0.935927 
1.126 -0.101735 4.52864 
-0.101735 0.961612 0.98317 
4.52864 0.98317 1.80064 
9.77657 0.0167768 -1.43825 
0.0167768 9.84011 -4.56629 
-1.43825 -4.56629 9.59545 
9.73756 -0.0215846 -1.53157 
-0.0215846 9.53605 -4.48028 
-1.53157 -4.48028 9.93851 
9.78235 -0.0486414 -1.43269 
-0.0486414 9.77543 -4.51377 
-1.43269 -4.51377 9.65435 
9.64742 -0.0323943 -1.29221 
-0.0323943 9.59077 -4.55287 
-1.29221 -4.55287 9.97394 
0.321184 0.0523357 1.33356 
0.0523357 0.376358 -0.535301 
1.33356 -0.535301 0.241242 
0.48845 -0.0199934 1.46242 
-0.0199934 0.3819 -0.601142 
1.46242 -0.601142 0.0684327 
0.382445 0.0237878 1.44352 
0.0237878 0.333652 -0.418111 
1.44352 -0.418111 0.222686 
0.222427 -0.00932365 1.40773 
-0.00932365 0.238679 -0.495394 
1.40773 -0.495394 0.477677 
0.187089 -0.055808 -4.01015 
-0.055808 0.341242 2.07617 
-4.01015 2.07617 0.412831 
0.511121 -0.201515 -3.88604 
-0.201515 0.630667 2.32495 
-3.88604 2.32495 -0.200625 
0.119836 -0.0400887 -4.19004 
-0.0400887 0.154252 1.90142 
-4.19004 1.90142 0.667075 
0.104724 -0.0921021 -4.03318 
-0.0921021 0.518856 2.08316 
-4.03318 2.08316 0.317582 
0.55632 -0.205465 4.52427 
-0.205465 0.337103 -0.678127 
4.52427 -0.678127 -0.0129265 
0.317635 -0.0640358 4.65793 
-0.0640358 0.321258 -0.317561 
4.65793 -0.317561 0.241603 
0.13084 -0.0143477 4.53704 
-0.0143477 0.15653 -0.22025 
4.53704 -0.22025 0.593126 
0.122707 -0.0892443 4.45101 
-0.0892443 0.348921 -0.47308 
4.45101 -0.47308 0.408867 
0.353223 -0.0561887 3.7261 
-0.0561887 0.279052 -2.92828 
3.7261 -2.92828 0.340776 
0.389904 -0.171356 3.77502 
-0.171356 0.547704 -2.79015 
3.77502 -2.79015 0.0354443 
0.474407 0.0457316 3.59086 
0.0457316 0.497001 -3.01184 
3.59086 -3.01184 0.00164347 
0.268709 0.0316735 3.71396 
0.0316735 0.218909 -2.95583 
3.71396 -2.95583 0.485434 
0.321953 0.0177838 -2.91845 
0.0177838 0.258077 3.68836 
-2.91845 3.68836 0.395582 
0.463711 -0.0714228 -2.99435 
-0.0714228 0.503332 3.60142 
-2.99435 3.60142 0.00856821 
0.566771 -0.0914651 -2.77965 
-0.0914651 0.428221 3.77828 
-2.77965 3.77828 -0.01938 
0.224036 0.0979443 -2.99148 
0.0979443 0.245498 3.70595 
-2.99148 3.70595 0.506077 
0.322518 0.00949309 3.69477 
0.00949309 0.307525 2.93237 
3.69477 2.93237 0.356048 
0.484983 0.00915434 3.58858 
0.00915434 0.463014 2.99475 
3.58858 2.99475 0.038094 
0.428133 0.122375 3.76491 
0.122375 0.567534 2.78293 
3.76491 2.78293 -0.00957548 
0.266761 -0.0707867 3.68199 
-0.0707867 0.227076 2.97872 
3.68199 2.97872 0.492253 
0.39688 0.0977933 -3.42186 
0.0977933 0.133845 2.91122 
-3.42186 2.91122 0.401956 
0.178287 0.00418331 -3.35609 
0.00418331 0.0645342 3.27177 
-3.35609 3.27177 0.68986 
0.851655 -0.0768939 -3.6617 
-0.0768939 0.439262 2.70452 
-3.6617 2.70452 -0.358236 
0.393973 0.022035 -3.39339 
0.022035 0.127695 2.9686 
-3.39339 2.9686 0.411013 
1.7342 0.115773 -4.33134 
0.115773 1.9991 2.13467 
-4.33134 2.13467 2.47141 
2.21094 -0.0811991 -4.31786 
-0.0811991 1.93132 1.83448 
-4.31786 1.83448 2.06245 
2.23234 -0.032391 -4.36294 
-0.032391 2.258 1.8843 
-4.36294 1.8843 1.71438 
2.02136 -0.107359 -4.08481 
-0.107359 1.99278 1.73906 
-4.08481 1.73906 2.19056 
8.12587 -0.0224003 2.61115 
-0.0224003 7.95511 3.89852 
2.61115 3.89852 8.22544 
8.29705 0.0367285 2.84809 
0.0367285 8.21056 3.93705 
2.84809 3.93705 7.79881 
7.65616 -0.171642 2.85238 
-0.171642 7.62852 3.76504 
2.85238 3.76504 9.02175 
8.23559 0.117926 2.51904 
0.117926 7.88041 3.79141 
2.51904 3.79141 8.19042 
0.363439 0.0676643 2.0326 
0.0676643 0.0288605 4.01521 
2.0326 4.01521 0.391997 
0.619625 0.151681 2.34505 
0.151681 0.444895 3.86355 
2.34505 3.86355 -0.280224 
0.339178 0.00617072 2.05887 
0.00617072 0.0299254 3.97639 
2.05887 3.97639 0.415193 
0.0915606 0.0340519 1.8629 
0.0340519 0.00559238 4.2581 
1.8629 4.2581 0.687143 
0.0915947 0.0163658 -4.58542 
0.0163658 0.133241 -0.152972 
-4.58542 -0.152972 0.577965 
0.22199 0.10237 -4.59068 
0.10237 0.309306 -0.342773 
-4.59068 -0.342773 0.271504 
0.59385 0.230955 -4.54837 
0.230955 0.350891 -0.723311 
-4.54837 -0.723311 -0.141941 
0.0960038 0.0877489 -4.46071 
0.0877489 0.32605 -0.450148 
-4.46071 -0.450148 0.380746 
9.47844 -0.0684366 -2.60949 
-0.0684366 9.56434 2.52287 
-2.60949 2.52287 10.0876 
9.51016 -0.00873483 -2.69694 
-0.00873483 9.74861 2.83755 
-2.69694 2.83755 9.8716 
9.73904 0.0145179 -2.63231 
0.0145179 9.80906 2.70605 
-2.63231 2.70605 9.58228 
9.87299 0.00347461 -2.58047 
0.00347461 9.77771 2.76792 
-2.58047 2.76792 9.47967 
9.50884 -0.149869 3.48327 
-0.149869 9.67561 3.05318 
3.48327 3.05318 9.95428 
9.86107 0.0672445 3.62516 
0.0672445 9.79432 3.02958 
3.62516 3.02958 9.48334 
9.80098 -0.0438229 3.54338 
-0.0438229 9.79238 2.942 
3.54338 2.942 9.54537 
9.58944 -0.127933 3.66465 
-0.127933 9.53491 2.83316 
3.66465 2.83316 10.0144 
0.32176 -0.0509246 -4.1055 
-0.0509246 0.27975 -2.28338 
-4.1055 -2.28338 0.40226 
0.631392 0.0192889 -4.02029 
0.0192889 0.292157 -2.40538 
-4.02029 -2.40538 0.0802214 
0.523168 0.00512481 -4.14769 
0.00512481 0.493976 -2.16811 
-4.14769 -2.16811 -0.0133745 
0.19007 -0.0637297 -4.16367 
-0.0637297 0.31271 -2.29478 
-4.16367 -2.29478 0.50099 
0.372374 -0.0985418 2.69907 
-0.0985418 0.794773 -3.69813 
2.69907 -3.69813 -0.483604 
0.0893239 0.148478 2.88499 
0.148478 0.287924 -3.45273 
2.88499 -3.45273 0.306295 
0.0563162 0.0388638 2.93354 
0.0388638 0.257198 -3.39303 
2.93354 -3.39303 0.370029 
0.00371602 0.00842228 3.22748 
0.00842228 0.104784 -3.36714 
3.22748 -3.36714 0.575043 
9.77587 -0.00196693 2.31067 
-0.00196693 9.76823 4.20616 
2.31067 4.20616 9.53039 
9.54074 -0.0676705 2.10096 
-0.0676705 9.462 4.2643 
2.10096 4.2643 10.0717 
9.75177 -0.0828294 2.306 
-0.0828294 9.49109 4.15065 
2.306 4.15065 9.83162 
9.75667 -0.0193677 2.2625 
-0.0193677 9.62924 4.25084 
2.2625 4.25084 9.68857 
8.76511 -0.0568669 -4.51413 
-0.0568669 9.36519 0.869491 
-4.51413 0.869491 9.53818 
9.29056 0.0244079 -4.68288 
0.0244079 9.30226 1.22681 
-4.68288 1.22681 9.07566 
9.09309 0.0296578 -4.46541 
0.0296578 9.30177 1.01229 
-4.46541 1.01229 9.27361 
9.31898 -0.0670085 -4.57376 
-0.0670085 9.08142 1.15455 
-4.57376 1.15455 9.26808 
0.289616 -0.000471398 -0.438852 
-0.000471398 0.785696 -3.70365 
-0.438852 -3.70365 0.145711 
0.721165 -0.00503142 -0.659435 
-0.00503142 0.706124 -3.71853 
-0.659435 -3.71853 -0.206265 
0.350043 -0.016421 -0.533537 
-0.016421 0.348063 -3.77912 
-0.533537 -3.77912 0.522917 
0.384967 0.0390316 -0.46583 
0.0390316 0.228877 -3.91839 
-0.46583 -3.91839 0.60718 
1.04776 0.124678 -3.92657 
0.124678 0.932633 -2.51768 
-3.92657 -2.51768 0.62664 
0.888416 0.0747826 -3.84251 
0.0747826 0.889009 -2.5693 
-3.84251 -2.5693 0.829611 
0.852385 -0.0644389 -3.8483 
-0.0644389 0.937012 -2.65866 
-3.8483 -2.65866 0.817639 
0.870625 0.0427958 -3.80795 
0.0427958 0.814209 -2.68048 
-3.80795 -2.68048 0.922202 
9.48743 0.190111 -2.86778 
0.190111 9.55935 3.70303 
-2.86778 3.70303 10.1367 
9.79571 -0.0352432 -3.08075 
-0.0352432 9.81302 3.60392 
-3.08075 3.60392 9.57474 
9.70119 0.0218288 -3.04899 
0.0218288 9.6806 3.54298 
-3.04899 3.54298 9.80168 
9.85411 0.0154063 -2.99323 
0.0154063 9.66348 3.62347 
-2.99323 3.62347 9.66587 
0.29852 0.0146006 0.368289 
0.0146006 0.579213 3.76307 
0.368289 3.76307 0.253982 
0.736487 0.0155378 0.528027 
0.0155378 0.724567 3.74522 
0.528027 3.74522 -0.329339 
0.357038 0.040356 0.402311 
0.040356 0.397674 3.82638 
0.402311 3.82638 0.377002 
0.336506 0.0122852 0.302914 
0.0122852 0.267424 3.85861 
0.302914 3.85861 0.527784 
0.0985034 0.0205159 3.28148 
0.0205159 0.214757 3.35859 
3.28148 3.35859 0.79112 
0.536421 0.0783129 2.66475 
0.0783129 0.903808 3.68189 
2.66475 3.68189 -0.335849 
0.196658 -0.00870836 2.95542 
-0.00870836 0.409518 3.43425 
2.95542 3.43425 0.498204 
0.123772 -0.061187 2.93229 
-0.061187 0.494975 3.41383 
2.93229 3.41383 0.485634 
8.62703 -0.0285131 2.65671 
-0.0285131 8.63015 3.93371 
2.65671 3.93371 8.8926 
8.69615 0.0691003 2.72767 
0.0691003 8.87827 3.8793 
2.72767 3.8793 8.57536 
8.73135 0.012714 2.56155 
0.012714 8.75487 3.97014 
2.56155 3.97014 8.66356 
8.60711 -0.0214836 2.70258 
-0.0214836 8.71898 3.91267 
2.70258 3.91267 8.82369 
0.233226 -0.0320071 0.460293 
-0.0320071 0.302328 2.73068 
0.460293 2.73068 0.25301 
0.297699 -0.0466955 0.492423 
-0.0466955 0.330493 2.553 
0.492423 2.553 0.160372 
0.412234 -0.0912301 0.669099 
-0.0912301 0.333997 2.72844 
0.669099 2.72844 0.042334 
0.143564 0.0329418 0.454788 
0.0329418 0.166782 2.70762 
0.454788 2.70762 0.478219 
0.682407 -0.111882 -0.192093 
-0.111882 0.409388 -0.678247 
-0.192093 -0.678247 -0.196669 
0.253395 -0.0883973 -0.0518289 
-0.0883973 0.235524 -0.547101 
-0.0518289 -0.547101 0.406207 
0.371194 -0.157703 -0.0741993 
-0.157703 0.249282 -0.499347 
-0.0741993 -0.499347 0.274651 
0.143144 0.0162964 0.0366164 
0.0162964 0.200164 -0.420028 
0.0366164 -0.420028 0.551818 
9.798 0.00669627 4.45145 
0.00669627 9.81492 1.35511 
4.45145 1.35511 9.59035 
9.44233 -0.0145374 4.43447 
-0.0145374 9.76428 1.49574 
4.43447 1.49574 9.99665 
9.90773 0.0506828 4.55098 
0.0506828 9.75725 1.42822 
4.55098 1.42822 9.53829 
9.52998 -0.0763622 4.51337 
-0.0763622 9.60113 1.23756 
4.51337 1.23756 10.0722 
0.808927 -0.0800322 0.901458 
-0.0800322 1.16233 -4.57856 
0.901458 -4.57856 0.622257 
0.962188 0.0683458 1.00036 
0.0683458 0.78651 -4.54522 
1.00036 -4.54522 0.844814 
0.657315 -0.0803387 1.17504 
-0.0803387 0.932336 -4.5621 
1.17504 -4.5621 1.00386 
0.973052 0.000229138 0.964317 
0.000229138 0.823972 -4.52371 
0.964317 -4.52371 0.796489 
1.35081 -0.116673 -4.54587 
-0.116673 0.773337 0.829866 
-4.54587 0.829866 0.4507 
0.885633 -0.0911719 -4.5496 
-0.0911719 0.626096 1.3099 
-4.5496 1.3099 1.06312 
0.662434 0.124728 -4.42771 
0.124728 1.0587 1.00653 
-4.42771 1.00653 0.853713 
0.775074 0.0474983 -4.48016 
0.0474983 1.05425 1.02537 
-4.48016 1.02537 0.745525 
0.692895 0.111162 1.00314 
0.111162 1.37508 4.53097 
1.00314 4.53097 0.548204 
0.970831 -0.122935 0.943443 
-0.122935 0.780536 4.51669 
0.943443 4.51669 0.864815 
0.904872 -0.0799165 0.907508 
-0.0799165 0.80838 4.58965 
0.907508 4.58965 0.90293 
0.765328 0.000498919 1.05655 
0.000498919 0.886508 4.56066 
1.05655 4.56066 0.964346 
0.812199 -0.0137034 -3.97955 
-0.0137034 0.7415 2.46854 
-3.97955 2.46854 0.911405 
0.865296 0.0299152 -3.85092 
0.0299152 0.796739 2.56057 
-3.85092 2.56057 0.803068 
1.11563 -0.265945 -3.80987 
-0.265945 0.860888 2.67432 
-3.80987 2.67432 0.48859 
0.780594 0.183126 -3.86513 
0.183126 0.87172 2.51871 
-3.86513 2.51871 0.812789 
0.923901 -0.147899 2.60118 
-0.147899 0.811212 3.82851 
2.60118 3.82851 0.869228 
0.902601 -0.0165067 2.56778 
-0.0165067 0.835721 3.86162 
2.56778 3.86162 0.866019 
0.908099 0.280131 2.51719 
0.280131 1.13081 3.91925 
2.51719 3.91925 0.565432 
0.804743 0.0608548 2.71059 
0.0608548 0.840075 3.80405 
2.71059 3.80405 0.959523 
9.61152 0.0876694 -1.25632 
0.0876694 9.48942 4.51629 
-1.25632 4.51629 10.1098 
9.76487 -0.0294928 -1.45369 
-0.0294928 9.85666 4.5251 
-1.45369 4.5251 9.58922 
9.76359 0.0145333 -1.45902 
0.0145333 9.57437 4.44994 
-1.45902 4.44994 9.87279 
9.81739 -0.031306 -1.37169 
-0.031306 9.73043 4.47656 
-1.37169 4.47656 9.66293 
9.59436 -0.0199499 -4.20938 
-0.0199499 9.60232 2.11799 
-4.20938 2.11799 9.9632 
9.43521 0.12454 -4.10017 
0.12454 9.73799 2.32837 
-4.10017 2.32837 9.98668 
9.81743 -0.00187408 -4.18018 
-0.00187408 9.7687 2.28219 
-4.18018 2.28219 9.57375 
9.79124 0.0666895 -4.18039 
0.0666895 9.68054 2.26533 
-4.18039 2.26533 9.6881 
9.64115 -0.0601739 -4.05716 
-0.0601739 9.62086 0.012376 
-4.05716 0.012376 9.82204 
9.63939 -0.0166275 -3.93815 
-0.0166275 9.62017 0.105465 
-3.93815 0.105465 9.82448 
9.57161 -0.0216492 -3.91563 
-0.0216492 9.54121 -0.0995769 
-3.91563 -0.0995769 9.97123 
9.77257 -0.00566697 -4.01892 
-0.00566697 9.73593 0.0325187 
-4.01892 0.0325187 9.57554 
5.49952 -0.00528485 -4.43509 
-0.00528485 5.53868 1.69075 
-4.43509 1.69075 6.02323 
5.74757 -0.106977 -4.48011 
-0.106977 5.39428 1.32405 
-4.48011 1.32405 5.91958 
5.84217 0.10719 -4.64626 
0.10719 6.03996 1.24306 
-4.64626 1.24306 5.1793 
5.75494 -0.0026717 -4.36681 
-0.0026717 5.48577 1.35531 
-4.36681 1.35531 5.82071 
0.777789 0.227316 -2.57827 
0.227316 0.988992 -3.81499 
-2.57827 -3.81499 0.379117 
0.740204 -0.0110996 -2.50815 
-0.0110996 0.712762 -3.83582 
-2.50815 -3.83582 0.692932 
0.721282 -0.00903186 -2.65811 
-0.00903186 0.717756 -3.78783 
-2.65811 -3.78783 0.70686 
0.760956 -0.178549 -2.56615 
-0.178549 0.724959 -3.78982 
-2.56615 -3.78982 0.659982 
9.79538 -0.0414005 -2.23143 
-0.0414005 9.82188 -4.12481 
-2.23143 -4.12481 9.56279 
9.80786 0.0483845 -2.2101 
0.0483845 9.88737 -4.24861 
-2.2101 -4.24861 9.48482 
9.61025 -0.0617592 -2.389 
-0.0617592 9.42862 -4.05316 
-2.389 -4.05316 10.1412 
9.65332 -0.143856 -2.11999 
-0.143856 9.62728 -4.19205 
-2.11999 -4.19205 9.89945 
0.246393 -0.00121942 1.3013 
-0.00121942 0.323142 -4.51306 
1.3013 -4.51306 0.366186 
0.434407 -0.000775617 1.42357 
-0.000775617 0.397189 -4.46301 
1.42357 -4.46301 0.104125 
0.548193 -0.166976 1.13928 
-0.166976 0.595271 -4.55672 
1.13928 -4.55672 -0.207743 
0.292424 0.0731355 1.4665 
0.0731355 0.145775 -4.5199 
1.4665 -4.5199 0.497522 
0.241846 -0.0264053 1.30187 
-0.0264053 0.352235 4.46553 
1.30187 4.46553 0.440191 
0.556694 0.154228 1.15072 
0.154228 0.654452 4.52409 
1.15072 4.52409 -0.176874 
0.4221 -0.0165026 1.43671 
-0.0165026 0.475087 4.42999 
1.43671 4.42999 0.137084 
0.29557 -0.111294 1.47119 
-0.111294 0.191181 4.50071 
1.47119 4.50071 0.547521 
0.341792 0.043378 -4.53675 
0.043378 0.31651 1.26111 
-4.53675 1.26111 0.443098 
0.569189 -0.0899767 -4.57201 
-0.0899767 0.524502 1.14016 
-4.57201 1.14016 0.00770966 
0.589564 0.028272 -4.47711 
0.028272 0.536767 1.45244 
-4.47711 1.45244 -0.0249305 
0.215962 0.142522 -4.60681 
0.142522 0.337334 1.34726 
-4.60681 1.34726 0.548104 
6.02906 -0.131536 -4.30833 
-0.131536 6.34391 -2.15398 
-4.30833 -2.15398 6.64725 
6.37063 0.0712969 -4.35712 
0.0712969 6.3932 -1.91754 
-4.35712 -1.91754 6.25639 
6.34884 0.0358313 -4.26327 
0.0358313 6.30239 -2.06343 
-4.26327 -2.06343 6.36898 
6.26662 0.0736741 -4.08948 
0.0736741 6.20619 -1.88735 
-4.08948 -1.88735 6.5474 
4.90395 -0.0311745 -4.66613 
-0.0311745 4.79087 0.400004 
-4.66613 0.400004 4.8143 
4.57874 0.0308654 -4.92947 
0.0308654 4.4969 0.273761 
-4.92947 0.273761 5.43348 
5.36661 0.0761186 -4.71771 
0.0761186 5.01345 0.168865 
-4.71771 0.168865 4.12906 
4.74222 -0.0168112 -4.57226 
-0.0168112 4.86356 0.510018 
-4.57226 0.510018 4.90333 
0.958596 -0.0902449 4.52234 
-0.0902449 0.542456 -1.14345 
4.52234 -1.14345 0.993631 
0.733404 0.048527 4.55391 
0.048527 0.936758 -0.955823 
4.55391 -0.955823 0.824521 
1.13404 -0.0794455 4.57992 
-0.0794455 0.764813 -0.865537 
4.57992 -0.865537 0.595835 
0.761221 0.0217455 4.5299 
0.0217455 0.968707 -0.964233 
4.5299 -0.964233 0.764754 
9.45582 -0.230678 -3.49002 
-0.230678 9.72322 -3.08378 
-3.49002 -3.08378 10.0789 
9.96246 0.17926 -3.74478 
0.17926 9.89666 -3.01917 
-3.74478 -3.01917 9.39879 
9.95587 -0.0670588 -3.4374 
-0.0670588 9.90163 -2.84564 
-3.4374 -2.84564 9.40042 
9.70332 -0.212764 -3.66291 
-0.212764 9.65042 -2.86568 
-3.66291 -2.86568 9.90417 
0.315293 -0.0162555 1.14025 
-0.0162555 0.338506 1.09714 
1.14025 1.09714 0.0933521 
0.209057 0.0226926 0.98136 
0.0226926 0.275915 0.955932 
0.98136 0.955932 0.262179 
0.349892 -0.0469226 1.11314 
-0.0469226 0.317663 0.867034 
1.11314 0.867034 0.0795959 
0.105337 -0.0221174 1.01407 
-0.0221174 0.203554 0.978536 
1.01407 0.978536 0.43826 
10.0479 -0.0189525 4.75349 
-0.0189525 9.83036 -0.687556 
4.75349 -0.687556 9.43561 
9.44095 0.0489688 4.67548 
0.0489688 9.59221 -0.319992 
4.67548 -0.319992 10.2807 
9.57379 -0.0437937 4.65006 
-0.0437937 9.99176 -0.483555 
4.65006 -0.483555 9.74828 
9.8574 -0.0554949 4.5123 
-0.0554949 9.94137 -0.425247 
4.5123 -0.425247 9.51505 
0.270067 -0.157728 -4.28006 
-0.157728 0.143042 -1.3927 
-4.28006 -1.3927 0.393464 
0.157395 -0.0801518 -4.39003 
-0.0801518 0.0360954 -1.71361 
-4.39003 -1.71361 0.613084 
0.824654 -0.117965 -4.45806 
-0.117965 0.451879 -1.06986 
-4.45806 -1.06986 -0.469959 
0.248632 -0.183161 -4.33769 
-0.183161 0.240236 -1.36278 
-4.33769 -1.36278 0.317707 
0.723975 0.129243 -0.984023 
0.129243 1.32491 -4.5394 
-0.984023 -4.5394 0.563445 
0.935081 -0.0472067 -0.918764 
-0.0472067 0.791468 -4.57795 
-0.918764 -4.57795 0.885779 
0.70421 0.0508535 -1.08718 
0.0508535 0.916861 -4.54376 
-1.08718 -4.54376 0.991257 
0.997944 -0.082276 -0.934816 
-0.082276 0.745626 -4.51808 
-0.934816 -4.51808 0.868758 
0.238091 -0.000725387 4.483 
-0.000725387 0.156571 -1.24689 
4.483 -1.24689 0.465338 
0.545917 -0.237039 4.5759 
-0.237039 0.443966 -1.11258 
4.5759 -1.11258 -0.129882 
0.408493 -0.000561608 4.46722 
-0.000561608 0.398772 -1.44886 
4.46722 -1.44886 0.0527354 
0.0558481 0.121958 4.54663 
0.121958 0.257461 -1.49397 
4.54663 -1.49397 0.546691 
9.65208 -0.114123 0.316752 
-0.114123 9.63692 3.28736 
0.316752 3.28736 9.94214 
9.6023 -0.0638178 0.506064 
-0.0638178 9.72363 3.06679 
0.506064 3.06679 9.90521 
9.71448 -0.00734602 0.342833 
-0.00734602 9.87172 3.15105 
0.342833 3.15105 9.64494 
9.83148 0.0373247 0.304424 
0.0373247 9.86288 3.13536 
0.304424 3.13536 9.53678 
9.73234 -0.078434 -2.97787 
-0.078434 9.66325 -3.70505 
-2.97787 -3.70505 9.64537 
9.56851 -0.0256745 -3.08223 
-0.0256745 9.57366 -3.66813 
-3.08223 -3.66813 9.89879 
9.65903 -0.0459749 -3.07186 
-0.0459749 9.50019 -3.83815 
-3.07186 -3.83815 9.88175 
9.59879 -0.0726312 -2.9343 
-0.0726312 9.55465 -3.79004 
-2.9343 -3.79004 9.88753 
3.83575 0.11585 -4.76343 
0.11585 4.08966 0.628255 
-4.76343 0.628255 4.70422 
4.39347 0.00347222 -4.68116 
0.00347222 4.16394 0.431068 
-4.68116 0.431068 4.07221 
4.36749 0.095246 -4.7364 
0.095246 4.55839 0.761925 
-4.7364 0.761925 3.70374 
4.29394 -0.0297728 -4.62508 
-0.0297728 4.22366 0.44053 
-4.62508 0.44053 4.11204 
0.391089 0.00331589 -1.4128 
0.00331589 0.40855 -4.4525 
-1.4128 -4.4525 0.145165 
0.571269 0.178267 -1.11125 
0.178267 0.626816 -4.55336 
-1.11125 -4.55336 -0.253282 
0.287951 -0.109216 -1.51299 
-0.109216 0.0990357 -4.50675 
-1.51299 -4.50675 0.557817 
0.222138 -0.00765065 -1.26996 
-0.00765065 0.278473 -4.47239 
-1.26996 -4.47239 0.444192 
0.0854906 -0.0419484 2.41096 
-0.0419484 0.481249 -4.04954 
2.41096 -4.04954 0.0535314 
0.300414 -0.0787912 2.15213 
-0.0787912 0.428651 -4.19143 
2.15213 -4.19143 -0.108793 
0.0617371 0.008165 2.29914 
0.008165 0.136614 -4.03285 
2.29914 -4.03285 0.421921 
0.175435 0.0925114 2.24514 
0.0925114 -0.00695666 -4.23437 
2.24514 -4.23437 0.451793 
0.0708134 0.0839044 4.22232 
0.0839044 0.22834 -2.17948 
4.22232 -2.17948 0.478005 
0.555972 -0.00596627 4.01734 
-0.00596627 0.37229 -2.43573 
4.01734 -2.43573 -0.151104 
0.443528 -0.129028 4.13854 
-0.129028 0.279861 -2.20327 
4.13854 -2.20327 0.05377 
0.213694 0.024541 4.08277 
0.024541 0.185587 -2.28386 
4.08277 -2.28386 0.377878 
0.288247 0.0663531 4.08508 
0.0663531 0.244194 2.31924 
4.08508 2.31924 0.417151 
0.667362 0.0491523 4.02361 
0.0491523 0.328361 2.43858 
4.02361 2.43858 -0.0461314 
0.466002 0.0296545 4.1614 
0.0296545 0.40171 2.17307 
4.1614 2.17307 0.08188 
0.15805 -0.0410683 4.2034 
-0.0410683 0.264561 2.23069 
4.2034 2.23069 0.52698 
0.268103 0.0422945 -2.22855 
0.0422945 0.149736 4.21534 
-2.22855 4.21534 0.536695 
0.39973 -0.0547575 -2.16899 
-0.0547575 0.487388 4.16954 
-2.16899 4.16954 0.0674163 
0.349121 -0.0478216 -2.43877 
-0.0478216 0.64809 4.02851 
-2.43877 4.02851 -0.0426763 
0.230981 -0.0526864 -2.31334 
-0.0526864 0.280837 4.07893 
-2.31334 4.07893 0.442717 
0.0905236 0.0366055 -3.31928 
0.0366055 0.0374588 -3.33558 
-3.31928 -3.33558 0.775379 
0.300797 0.00381248 -3.36301 
0.00381248 0.130492 -2.93403 
-3.36301 -2.93403 0.472073 
0.761092 0.0776397 -3.65673 
0.0776397 0.46856 -2.66195 
-3.65673 -2.66195 -0.32629 
0.426567 -0.0640837 -3.39839 
-0.0640837 0.0552485 -2.89242 
-3.39839 -2.89242 0.421546 
4.85851 0.0258339 -0.188285 
0.0258339 5.00895 -4.72062 
-0.188285 -4.72062 5.47179 
5.29518 0.0244233 -0.22502 
0.0244233 5.23873 -4.74708 
-0.22502 -4.74708 4.80533 
5.15469 -0.0459137 -0.33133 
-0.0459137 5.03028 -4.63048 
-0.33133 -4.63048 5.15427 
5.13603 0.0463096 -0.375862 
0.0463096 5.12565 -4.57604 
-0.375862 -4.57604 5.07757 
9.67777 -0.0447986 -2.72036 
-0.0447986 9.67721 -2.87185 
-2.72036 -2.87185 9.91869 
9.78612 0.0119329 -2.59957 
0.0119329 9.72731 -2.83141 
-2.59957 -2.83141 9.76025 
9.68885 -0.0310475 -2.50208 
-0.0310475 9.66526 -2.98592 
-2.50208 -2.98592 9.91957 
9.81606 -0.00331275 -2.59353 
-0.00331275 9.85264 -2.83277 
-2.59353 -2.83277 9.60498 
0.305947 -0.0324794 -1.9798 
-0.0324794 0.00796781 -3.9312 
-1.9798 -3.9312 0.340365 
0.695916 0.206946 -2.39177 
0.206946 0.506502 -3.87515 
-2.39177 -3.87515 -0.548137 
0.0280842 -0.021862 -1.78487 
-0.021862 -0.0273914 -4.3225 
-1.78487 -4.3225 0.653588 
0.329865 0.0235574 -1.99888 
0.0235574 -0.0166281 -3.92953 
-1.99888 -3.92953 0.341043 
9.65511 0.0335333 3.75305 
0.0335333 9.67799 -1.47663 
3.75305 -1.47663 9.90994 
9.72772 -0.0141686 3.65178 
-0.0141686 9.72648 -1.40705 
3.65178 -1.40705 9.78883 
9.61249 0.0292328 3.73703 
0.0292328 9.67567 -1.25063 
3.73703 -1.25063 9.95488 
9.80831 0.044516 3.67218 
0.044516 9.82408 -1.38325 
3.67218 -1.38325 9.61065 
0.355442 -0.052352 3.0537 
-0.052352 0.350618 -3.57526 
3.0537 -3.57526 -0.0488613 
0.41976 -0.193321 2.82482 
-0.193321 0.190003 -3.76255 
2.82482 -3.76255 0.0474356 
0.128047 -0.0435658 2.87713 
-0.0435658 0.115256 -3.66696 
2.87713 -3.66696 0.413896 
0.0922578 0.111956 3.06759 
0.111956 0.0950319 -3.6665 
3.06759 -3.6665 0.469909 
9.71346 0.0106648 4.54027 
0.0106648 9.76725 -1.41131 
4.54027 -1.41131 9.64699 
9.49759 0.0586453 4.5762 
0.0586453 9.61433 -1.26997 
4.5762 -1.26997 10.0158 
9.61046 0.00739377 4.51587 
0.00739377 9.67114 -1.45553 
4.51587 -1.45553 9.8461 
9.56354 -0.0677017 4.62579 
-0.0677017 9.74146 -1.38316 
4.62579 -1.38316 9.8227 
0.146061 -0.0632009 -2.96199 
-0.0632009 0.20953 -3.65221 
-2.96199 -3.65221 0.439257 
0.381147 -0.103644 -2.98936 
-0.103644 0.356605 -3.56184 
-2.98936 -3.56184 0.0570972 
0.490794 0.19057 -2.77616 
0.19057 0.301695 -3.74291 
-2.77616 -3.74291 0.00236035 
0.152438 0.0521975 -2.86983 
0.0521975 0.293764 -3.6821 
-2.86983 -3.6821 0.348647 
0.394835 -0.0113794 -1.44633 
-0.0113794 0.411809 4.45207 
-1.44633 4.45207 0.121434 
0.477706 -0.212478 -1.14297 
-0.212478 0.552479 4.55113 
-1.14297 4.55113 -0.102106 
0.208621 -0.0066421 -1.28681 
-0.0066421 0.255358 4.46502 
-1.28681 4.46502 0.464099 
0.294068 0.0973174 -1.51572 
0.0973174 0.0960919 4.50519 
-1.51572 4.50519 0.537919 
0.278025 -0.00714777 4.48284 
-0.00714777 0.175946 1.25301 
4.48284 1.25301 0.486291 
0.404838 -0.0203072 4.45621 
-0.0203072 0.429292 1.44303 
4.45621 1.44303 0.106132 
0.552732 0.22231 4.5599 
0.22231 0.43658 1.12222 
4.5599 1.12222 -0.0490498 
0.101032 -0.117511 4.53218 
-0.117511 0.268491 1.47274 
4.53218 1.47274 0.57074 
9.92725 0.00391757 0.464193 
0.00391757 9.89773 4.58919 
0.464193 4.58919 9.55177 
9.84166 0.000163345 0.659935 
0.000163345 10.0373 4.7857 
0.659935 4.7857 9.49776 
10.0038 0.0738493 0.501117 
0.0738493 9.58709 4.68683 
0.501117 4.68683 9.78585 
9.60636 -0.0283291 0.317029 
-0.0283291 9.53086 4.71287 
0.317029 4.71287 10.2395 
0.500405 0.160688 -3.02249 
0.160688 0.461081 -2.30779 
-3.02249 -2.30779 0.101889 
0.597066 0.00377884 -3.19504 
0.00377884 0.538223 -2.17073 
-3.19504 -2.17073 -0.0719136 
0.3746 0.0142532 -3.14146 
0.0142532 0.360839 -2.34841 
-3.14146 -2.34841 0.327936 
0.323464 -0.0354385 -3.13882 
-0.0354385 0.267284 -2.40065 
-3.13882 -2.40065 0.472627 
9.83303 -0.0200402 -0.660366 
-0.0200402 9.91799 -4.83229 
-0.660366 -4.83229 9.43516 
9.9011 0.0432737 -0.484916 
0.0432737 9.54465 -4.75934 
-0.484916 -4.75934 9.74043 
9.84457 0.0772015 -0.420839 
0.0772015 9.7482 -4.72921 
-0.420839 -4.72921 9.59341 
9.51146 -0.020481 -0.302307 
-0.020481 9.4454 -4.78487 
-0.302307 -4.78487 10.2293 
0.410365 0.0263507 0.849878 
0.0263507 0.385957 -3.71634 
0.849878 -3.71634 0.219617 
0.50277 0.00970598 1.01321 
0.00970598 0.385866 -3.80867 
1.01321 -3.80867 0.127304 
0.469598 0.00350528 0.974009 
0.00350528 0.481187 -3.59794 
0.974009 -3.59794 0.065155 
0.26544 0.0210838 0.906991 
0.0210838 0.278892 -3.7303 
0.906991 -3.7303 0.471608 
2.14411 0.0402576 -0.97203 
0.0402576 1.47247 4.67447 
-0.97203 4.67447 2.42029 
1.95991 -0.0666148 -0.936671 
-0.0666148 2.13348 4.54057 
-0.936671 4.54057 1.94348 
2.05444 -0.0279985 -1.04927 
-0.0279985 2.45752 4.65668 
-1.04927 4.65668 1.52492 
1.90601 -0.16232 -1.09657 
-0.16232 2.08938 4.24872 
-1.09657 4.24872 2.04148 
9.57497 -0.0497003 -4.73481 
-0.0497003 10.0119 0.486508 
-4.73481 0.486508 9.74072 
9.97481 0.0467817 -4.80778 
0.0467817 9.86114 0.702806 
-4.80778 0.702806 9.49169 
9.55938 -0.00584091 -4.76046 
-0.00584091 9.52711 0.305809 
-4.76046 0.305809 10.2412 
9.85217 0.0410098 -4.67755 
0.0410098 9.8945 0.490772 
-4.67755 0.490772 9.58097 
0.58401 -0.0468819 -4.0379 
-0.0468819 0.129728 2.41867 
-4.0379 2.41867 0.172424 
0.523761 -0.0527633 -4.19458 
-0.0527633 0.444417 2.13502 
-4.19458 2.13502 -0.0820153 
0.0309808 0.104146 -4.22738 
0.104146 0.282803 2.2933 
-4.22738 2.2933 0.572378 
0.198097 -0.0200201 -4.00712 
-0.0200201 0.160212 2.32912 
-4.00712 2.32912 0.527853 
0.0758502 -0.0560623 2.24648 
-0.0560623 0.124712 3.98062 
2.24648 3.98062 0.481168 
0.286303 0.106252 2.13241 
0.106252 0.435024 4.14362 
2.13241 4.14362 -0.039597 
0.147279 0.016995 2.40166 
0.016995 0.523266 3.99813 
2.40166 3.99813 0.0111864 
0.223437 -0.153443 2.15832 
-0.153443 -0.0597207 4.2428 
2.15832 4.2428 0.518015 
0.513342 -0.007907 4.65639 
-0.007907 0.37748 -0.34669 
4.65639 -0.34669 -0.281684 
0.369965 0.144435 4.62898 
0.144435 -0.031697 -0.517331 
4.62898 -0.517331 0.27087 
0.0496671 0.0801249 4.5174 
0.0801249 0.103825 -0.529013 
4.5174 -0.529013 0.455646 
-0.0439849 -0.00388906 4.73499 
-0.00388906 0.190711 -0.570429 
4.73499 -0.570429 0.462412 
9.83044 -0.0100953 3.75939 
-0.0100953 9.84513 -3.11403 
3.75939 -3.11403 9.62542 
9.7376 0.0251491 3.76131 
0.0251491 9.8395 -3.09068 
3.76131 -3.09068 9.7239 
9.65167 0.0964464 3.81315 
0.0964464 9.63731 -2.97627 
3.81315 -2.97627 10.012 
9.64579 0.0526228 3.66177 
0.0526228 9.72969 -3.15722 
3.66177 -3.15722 9.92551 
0.330431 0.0370313 -3.57031 
0.0370313 0.333929 3.01357 
-3.57031 3.01357 0.0747401 
0.249909 -0.204477 -3.76822 
-0.204477 0.501134 2.7806 
-3.76822 2.7806 -0.0119427 
0.132894 0.148672 -3.62208 
0.148672 0.104779 3.0702 
-3.62208 3.0702 0.501428 
0.170725 -0.0244029 -3.64871 
-0.0244029 0.112642 2.8413 
-3.64871 2.8413 0.455733 
0.459598 -0.0351209 3.04872 
-0.0351209 0.403526 3.5442 
3.04872 3.5442 0.058144 
0.570418 0.263486 2.78656 
0.263486 0.261076 3.76367 
2.78656 3.76367 0.0897742 
0.158129 -0.122079 3.05713 
-0.122079 0.173098 3.65796 
3.05713 3.65796 0.590041 
0.174694 0.0664375 2.8325 
0.0664375 0.210802 3.65549 
2.8325 3.65549 0.535773 
0.966992 0.0554862 -0.992854 
0.0554862 0.805172 4.55066 
-0.992854 4.55066 0.888254 
0.637579 -0.0751871 -1.11793 
-0.0751871 0.958265 4.55578 
-1.11793 4.55578 1.06457 
0.840989 -0.0588681 -0.892681 
-0.0588681 1.12918 4.57931 
-0.892681 4.57931 0.690247 
0.949721 -0.0125439 -0.966266 
-0.0125439 0.863016 4.51366 
-0.966266 4.51366 0.847682 
0.759556 -0.0331723 4.55118 
-0.0331723 0.949764 0.967771 
4.55118 0.967771 0.848905 
1.01742 0.0207475 4.57903 
0.0207475 0.851158 0.848273 
4.57903 0.848273 0.689649 
0.804185 -0.0175656 4.49957 
-0.0175656 0.968601 1.00181 
4.49957 1.00181 0.785439 
1.0242 0.100649 4.49946 
0.100649 0.482065 1.1584 
4.49946 1.1584 1.05196 
9.96494 -0.103118 -3.74216 
-0.103118 9.94641 2.92817 
-3.74216 2.92817 9.53988 
10.0043 0.0534777 -3.53184 
0.0534777 9.90986 2.83582 
-3.53184 2.83582 9.53708 
9.84156 0.13666 -3.67151 
0.13666 9.76204 2.84401 
-3.67151 2.84401 9.84762 
9.61667 0.154285 -3.51016 
0.154285 9.76121 3.05103 
-3.51016 3.05103 10.0733 
9.48797 0.0480221 2.09483 
0.0480221 9.44653 -4.30565 
2.09483 -4.30565 10.1861 
9.76533 0.0382533 2.35316 
0.0382533 9.54194 -4.16026 
2.35316 -4.16026 9.81334 
9.80619 0.00408405 2.26927 
0.00408405 9.72567 -4.21661 
2.26927 -4.21661 9.58875 
9.79069 -0.0302917 2.3803 
-0.0302917 9.83748 -4.26258 
2.3803 -4.26258 9.49244 
9.98467 0.0837323 3.88283 
0.0837323 9.97903 -2.19249 
3.88283 -2.19249 9.47174 
9.68382 0.176437 4.12351 
0.176437 9.71489 -2.10887 
4.12351 -2.10887 10.0367 
10.1058 -0.0898015 4.09952 
-0.0898015 9.85442 -2.42964 
4.09952 -2.42964 9.47517 
9.60605 0.174343 3.99966 
0.174343 9.95479 -2.33474 
3.99966 -2.33474 9.87459 
9.80726 0.0439077 1.55808 
0.0439077 9.72074 -4.4799 
1.55808 -4.4799 9.85521 
9.76395 0.0347524 1.34688 
0.0347524 9.67804 -4.54601 
1.34688 -4.54601 9.94122 
9.88029 0.0204759 1.48828 
0.0204759 9.86117 -4.53605 
1.48828 -4.53605 9.64174 
9.87544 0.0798715 1.48538 
0.0798715 9.82782 -4.50346 
1.48538 -4.50346 9.67994 
0.250209 -0.00561136 -0.604943 
-0.00561136 0.0396326 4.76064 
-0.604943 4.76064 0.524886 
0.516907 -0.00354084 -0.387517 
-0.00354084 0.573062 4.67933 
-0.387517 4.67933 -0.275241 
0.0334402 0.147146 -0.545676 
0.147146 0.451778 4.65426 
-0.545676 4.65426 0.32951 
0.195044 0.078394 -0.550794 
0.078394 0.127029 4.57092 
-0.550794 4.57092 0.492655 
0.38487 -0.14142 4.61696 
-0.14142 0.045279 0.549749 
4.61696 0.549749 0.244488 
0.526837 -0.00430987 4.6404 
-0.00430987 0.392129 0.395599 
4.6404 0.395599 -0.244328 
0.0847052 -0.10625 4.53754 
-0.10625 0.168111 0.52457 
4.53754 0.52457 0.42182 
-0.00203301 -0.0215968 4.71993 
-0.0215968 0.233684 0.547714 
4.71993 0.547714 0.442986 
0.181532 0.0310992 -0.662507 
0.0310992 0.0545772 -4.7574 
-0.662507 -4.7574 0.561743 
-0.0989364 -0.171795 -0.507282 
-0.171795 0.507423 -4.64479 
-0.507282 -4.64479 0.389365 
0.616108 -0.0178076 -0.335191 
-0.0178076 0.526213 -4.67245 
-0.335191 -4.67245 -0.344469 
0.111702 -0.04669 -0.574962 
-0.04669 0.149856 -4.53572 
-0.574962 -4.53572 0.536294 
9.61825 -0.0193738 2.47729 
-0.0193738 9.62253 3.26482 
2.47729 3.26482 9.97094 
9.67047 -0.0121744 2.24079 
-0.0121744 9.71081 3.35585 
2.24079 3.35585 9.83045 
9.71618 0.0151644 2.33708 
0.0151644 9.72559 3.44451 
2.33708 3.44451 9.76996 
9.78662 -0.000123618 2.32023 
-0.000123618 9.84519 3.41218 
2.32023 3.41218 9.57993 
0.126235 -0.0803814 0.574716 
-0.0803814 0.124495 4.58576 
0.574716 4.58576 0.469827 
0.582405 -0.0388114 0.345412 
-0.0388114 0.500964 4.69705 
0.345412 4.69705 -0.362812 
-0.0833523 -0.176753 0.509703 
-0.176753 0.430945 4.66941 
0.509703 4.66941 0.372964 
0.126188 0.00922266 0.695149 
0.00922266 0.0990733 4.74196 
0.695149 4.74196 0.495296 
0.0310111 -0.0302062 -4.76323 
-0.0302062 0.207708 0.623582 
-4.76323 0.623582 0.548756 
0.492773 0.157018 -4.64274 
0.157018 -0.0523295 0.512883 
-4.64274 0.512883 0.347031 
0.570875 -0.00293636 -4.67203 
-0.00293636 0.552018 0.326006 
-4.67203 0.326006 -0.335418 
0.134031 0.0546036 -4.53532 
0.0546036 0.129465 0.548393 
-4.53532 0.548393 0.523978 
0.111011 0.0612254 0.562247 
0.0612254 0.0882424 -4.56939 
0.562247 -4.56939 0.491102 
-0.0619546 0.140095 0.538649 
0.140095 0.417727 -4.66096 
0.538649 -4.66096 0.334583 
0.46703 -0.0147528 0.359839 
-0.0147528 0.544737 -4.68974 
0.359839 -4.68974 -0.321411 
0.170004 -0.028555 0.634483 
-0.028555 -0.00285561 -4.77104 
0.634483 -4.77104 0.523207 
9.90965 -0.0532232 0.508255 
-0.0532232 9.59149 -4.77827 
0.508255 -4.77827 9.74685 
9.57181 0.0420978 0.295357 
0.0420978 9.46511 -4.80811 
0.295357 -4.80811 10.2111 
9.84691 0.0311934 0.669421 
0.0311934 9.93579 -4.857 
0.669421 -4.857 9.46529 
9.85936 -0.0647708 0.442326 
-0.0647708 9.77681 -4.76366 
0.442326 -4.76366 9.61182 
0.32637 -0.0473911 -2.04433 
-0.0473911 0.375156 -0.757533 
-2.04433 -0.757533 0.0632321 
0.330732 -0.0281787 -1.83105 
-0.0281787 0.227052 -0.561427 
-1.83105 -0.561427 0.206973 
0.20845 0.00835556 -1.95004 
0.00835556 0.159298 -0.606728 
-1.95004 -0.606728 0.39701 
0.146988 0.0367645 -1.95043 
0.0367645 0.0776828 -0.6531 
-1.95043 -0.6531 0.540087 
9.63152 0.0377222 4.70445 
0.0377222 10.0054 0.527374 
4.70445 0.527374 9.7296 
9.81054 0.00300615 4.6968 
0.00300615 9.89474 0.530986 
4.6968 0.530986 9.66121 
9.54768 -0.00295875 4.72879 
-0.00295875 9.56313 0.36591 
4.72879 0.36591 10.2557 
9.93457 -0.0612566 4.76176 
-0.0612566 9.91203 0.73411 
4.76176 0.73411 9.51989 
0.0669116 -0.0413351 -4.51874 
-0.0413351 0.129621 -0.560648 
-4.51874 -0.560648 0.517578 
0.443964 -0.143045 -4.63922 
-0.143045 -0.027378 -0.546254 
-4.63922 -0.546254 0.297524 
0.47368 0.0211949 -4.66745 
0.0211949 0.482857 -0.350994 
-4.66745 -0.350994 -0.242426 
-0.0550318 0.0380531 -4.75894 
0.0380531 0.241346 -0.596094 
-4.75894 -0.596094 0.527796 
0.215497 0.0224419 -0.758697 
0.0224419 0.23158 0.62435 
-0.758697 0.62435 0.187469 
0.157902 -0.0174488 -0.640609 
-0.0174488 0.234954 0.515075 
-0.640609 0.515075 0.241691 
0.149997 0.00293087 -0.553851 
0.00293087 0.271884 0.646044 
-0.553851 0.646044 0.212666 
0.0906222 -0.0188544 -0.61035 
-0.0188544 0.108171 0.552193 
-0.61035 0.552193 0.435754 
0.0899329 -0.116407 -3.59816 
-0.116407 0.0682165 -3.09221 
-3.59816 -3.09221 0.519852 
0.190542 0.259901 -3.74144 
0.259901 0.459283 -2.80332 
-3.74144 -2.80332 0.0281759 
0.286566 0.0183896 -3.53478 
0.0183896 0.310032 -3.04706 
-3.53478 -3.04706 0.0814032 
0.10838 0.0798686 -3.60658 
0.0798686 0.0733426 -2.79944 
-3.60658 -2.79944 0.496278 
0.438724 0.256872 -4.55168 
0.256872 0.326188 -1.16711 
-4.55168 -1.16711 0.0111787 
0.266061 -0.0583753 -4.4532 
-0.0583753 0.475059 -1.47353 
-4.4532 -1.47353 0.03497 
0.0905711 -0.0858743 -4.54101 
-0.0858743 0.220004 -1.40306 
-4.54101 -1.40306 0.465515 
0.236324 -0.00239652 -4.48519 
-0.00239652 0.118517 -1.24158 
-4.48519 -1.24158 0.421249 
1.14099 0.104888 -4.5588 
0.104888 0.726142 -0.805757 
-4.5588 -0.805757 0.461933 
0.731996 0.024273 -4.46138 
0.024273 0.906577 -0.992069 
-4.46138 -0.992069 0.690493 
0.611732 -0.0816019 -4.45879 
-0.0816019 0.935752 -1.01086 
-4.45879 -1.01086 0.781582 
0.772987 0.0751814 -4.53931 
0.0751814 0.612017 -1.1652 
-4.53931 -1.1652 0.944063 
9.89189 -0.0473357 -0.460684 
-0.0473357 9.79909 4.68198 
-0.460684 4.68198 9.61204 
9.56693 0.0402681 -0.310274 
0.0402681 9.45728 4.73408 
-0.310274 4.73408 10.2788 
9.94577 -0.0408342 -0.504934 
-0.0408342 9.62544 4.70495 
-0.504934 4.70495 9.73182 
9.88038 0.0279258 -0.701491 
0.0279258 9.96094 4.7796 
-0.701491 4.7796 9.4617 
9.87174 0.0167329 1.32081 
0.0167329 9.81777 4.60678 
1.32081 4.60678 9.62437 
9.67601 -0.0200223 1.52342 
-0.0200223 9.63427 4.50681 
1.52342 4.50681 10.0036 
9.863 0.00885213 1.36072 
0.00885213 9.72513 4.59739 
1.36072 4.59739 9.72575 
9.80118 -0.0977439 1.283 
-0.0977439 9.64418 4.57795 
1.283 4.57795 9.86852 
9.82971 -0.0204825 -4.66079 
-0.0204825 9.85671 1.32836 
-4.66079 1.32836 9.57861 
9.66693 0.108796 -4.6076 
0.108796 9.79976 1.30528 
-4.6076 1.30528 9.79834 
9.5295 0.0262322 -4.53156 
0.0262322 9.64536 1.57632 
-4.53156 1.57632 10.0902 
9.75211 0.0341074 -4.6247 
0.0341074 9.82634 1.38425 
-4.6247 1.38425 9.68658 
-0.00610697 0.0704588 -2.43637 
0.0704588 0.496601 -3.99686 
-2.43637 -3.99686 -0.013428 
0.260886 -0.0684007 -2.17307 
-0.0684007 0.159186 -4.12986 
-2.17307 -4.12986 0.0569942 
0.130891 -0.064594 -2.23924 
-0.064594 -0.0703697 -4.16102 
-2.23924 -4.16102 0.416545 
0.0408383 0.0658724 -2.33731 
0.0658724 0.0316514 -3.94912 
-2.33731 -3.94912 0.404576 
9.93149 -0.0184058 -4.81166 
-0.0184058 9.85006 -0.627966 
-4.81166 -0.627966 9.49768 
9.79792 0.0364784 -4.7134 
0.0364784 9.87096 -0.449305 
-4.7134 -0.449305 9.61035 
9.56854 0.0541945 -4.7359 
0.0541945 9.93189 -0.511134 
-4.7359 -0.511134 9.7788 
9.51578 -0.0217307 -4.76136 
-0.0217307 9.59087 -0.317038 
-4.76136 -0.317038 10.1726 
9.926 0.0541292 -2.33961 
0.0541292 9.82878 4.10884 
-2.33961 4.10884 9.72933 
9.92983 0.027812 -2.41289 
0.027812 9.9393 4.13167 
-2.41289 4.13167 9.61499 
10.0136 0.0130485 -2.28582 
0.0130485 9.80128 4.14773 
-2.28582 4.14773 9.66922 
9.75228 0.123815 -2.12064 
0.123815 9.63961 4.23796 
-2.12064 4.23796 10.0922 
9.77377 -0.0472218 -4.27535 
-0.0472218 9.87552 -2.24096 
-4.27535 -2.24096 9.69652 
9.63624 -0.0692921 -4.17197 
-0.0692921 9.76036 -2.36372 
-4.17197 -2.36372 9.9492 
9.85683 -0.0221746 -4.27647 
-0.0221746 9.88174 -2.24433 
-4.27647 -2.24433 9.60724 
9.69862 -0.0583666 -4.29426 
-0.0583666 9.76619 -2.13065 
-4.29426 -2.13065 9.88099 
0.42854 0.0846969 3.71989 
0.0846969 0.420932 0.893094 
3.71989 0.893094 0.0421629 
0.244486 0.0493229 3.72003 
0.0493229 0.283196 1.06406 
3.72003 1.06406 0.363952 
0.508674 0.102406 3.57281 
0.102406 0.367697 1.10229 
3.57281 1.10229 0.0152629 
0.196487 -0.00729534 3.74999 
-0.00729534 0.202925 1.06807 
3.74999 1.06807 0.492222 
9.79224 0.120997 2.91196 
0.120997 9.84744 -3.75173 
2.91196 -3.75173 9.8569 
9.94722 0.0684678 2.95342 
0.0684678 9.94773 -3.65669 
2.95342 -3.65669 9.60163 
9.94931 -0.0348896 3.01994 
-0.0348896 9.97163 -3.76572 
3.01994 -3.76572 9.57563 
9.80439 0.130029 3.11899 
0.130029 9.69937 -3.58724 
3.11899 -3.58724 9.99282 
9.83505 -0.0277916 4.08492 
-0.0277916 9.85456 2.29377 
4.08492 2.29377 9.92565 
9.94909 0.00778017 4.17803 
0.00778017 9.96819 2.21149 
4.17803 2.21149 9.69798 
9.90349 -0.0352326 4.12268 
-0.0352326 9.99193 2.18421 
4.12268 2.18421 9.71984 
9.79777 -0.116481 4.18229 
-0.116481 9.86539 2.11632 
4.18229 2.11632 9.95211 
9.92727 -0.0499431 3.07349 
-0.0499431 9.84681 3.72566 
3.07349 3.72566 9.76071 
9.75256 -0.12592 2.9739 
-0.12592 9.79889 3.77913 
2.9739 3.77913 9.98334 
9.93345 -0.0108491 3.09484 
-0.0108491 9.91798 3.73251 
3.09484 3.73251 9.68337 
9.83631 -0.053568 3.1383 
-0.053568 9.80315 3.6398 
3.1383 3.6398 9.89534 
9.53462 0.0842542 1.50782 
0.0842542 9.66749 -3.73296 
1.50782 -3.73296 9.33371 
9.69589 0.125345 1.50233 
0.125345 9.22424 -3.60547 
1.50233 -3.60547 9.6157 
9.5468 0.0881833 1.53765 
0.0881833 9.55142 -3.58493 
1.53765 -3.58493 9.43759 
9.17225 -0.0268187 1.23367 
-0.0268187 9.14617 -3.58368 
1.23367 -3.58368 10.2174 
8.75187 -0.0294271 1.43216 
-0.0294271 8.77682 -3.64725 
1.43216 -3.64725 8.8004 
8.59449 0.215414 1.61285 
0.215414 8.29809 -3.54735 
1.61285 -3.54735 9.43651 
8.5316 -0.154575 1.5274 
-0.154575 8.99688 -3.67403 
1.5274 -3.67403 8.80061 
9.10207 0.247713 1.63777 
0.247713 8.71104 -3.40041 
1.63777 -3.40041 8.51598 
1.57112 0.0312217 -0.888011 
0.0312217 1.64183 1.15938 
-0.888011 1.15938 1.72516 
1.56224 0.167259 -0.915857 
0.167259 1.80776 1.06155 
-0.915857 1.06155 1.56812 
1.768 -0.0836174 -1.43145 
-0.0836174 1.60133 1.27288 
-1.43145 1.27288 1.56878 
1.80044 -0.423577 -0.991539 
-0.423577 1.04834 0.936573 
-0.991539 0.936573 2.08934 
0.846123 0.391259 -0.87856 
0.391259 0.472683 1.20592 
-0.87856 1.20592 1.42385 
0.989587 -0.17385 -0.966311 
-0.17385 0.96328 0.914795 
-0.966311 0.914795 0.789793 
0.986773 -0.239834 -1.08507 
-0.239834 0.939014 1.12674 
-1.08507 1.12674 0.816872 
1.81067 0.462265 -1.17333 
0.462265 1.10072 1.72569 
-1.17333 1.72569 -0.168731 
8.66308 0.0785915 -1.27494 
0.0785915 8.59748 0.433036 
-1.27494 0.433036 8.72091 
8.62729 -0.0176604 -1.30992 
-0.0176604 8.74305 0.518812 
-1.30992 0.518812 8.61114 
8.63486 -0.0189823 -1.28405 
-0.0189823 8.79649 0.373816 
-1.28405 0.373816 8.55013 
8.19781 -0.134666 -1.3055 
-0.134666 8.78937 0.483822 
-1.3055 0.483822 8.9943 
7.91623 -0.203402 -1.50901 
-0.203402 7.93342 0.230095 
-1.50901 0.230095 7.91277 
7.8249 -0.157806 -1.54406 
-0.157806 8.0848 0.367266 
-1.54406 0.367266 7.85272 
7.79885 -0.025371 -1.69786 
-0.025371 7.78347 0.0335457 
-1.69786 0.0335457 8.1801 
8.34497 -0.0787376 -1.37728 
-0.0787376 8.26207 0.717728 
-1.37728 0.717728 7.15538 
0.465408 -0.013396 -1.4785 
-0.013396 0.689215 0.525613 
-1.4785 0.525613 0.409662 
0.464356 0.0313972 -1.6146 
0.0313972 0.540067 0.495838 
-1.6146 0.495838 0.559861 
0.555852 -0.123722 -1.49844 
-0.123722 0.612746 0.584759 
-1.49844 0.584759 0.395686 
1.15732 0.0523632 -1.72766 
0.0523632 1.19494 0.465557 
-1.72766 0.465557 -0.787979 
1.24494 0.0329468 -1.33847 
0.0329468 0.994625 0.516787 
-1.33847 0.516787 0.929711 
1.50842 0.10578 -1.42868 
0.10578 0.849725 0.448332 
-1.42868 0.448332 0.811126 
1.15733 -0.162203 -1.27197 
-0.162203 1.27056 0.613428 
-1.27197 0.613428 0.741386 
0.769894 -0.200963 -1.80991 
-0.200963 1.22754 0.30036 
-1.80991 0.30036 1.17184 
3.41052 -0.116606 2.31164 
-0.116606 3.84905 3.47417 
2.31164 3.47417 3.49789 
3.48753 -0.0545832 2.41361 
-0.0545832 3.39526 3.56566 
2.41361 3.56566 3.87467 
3.46494 0.352929 1.70168 
0.352929 3.69391 3.66501 
1.70168 3.66501 3.59861 
3.66357 0.118492 2.14465 
0.118492 3.36907 3.86161 
2.14465 3.86161 3.72482 
2.90018 0.0577449 1.85813 
0.0577449 3.40808 3.74423 
1.85813 3.74423 3.14106 
3.14722 -0.116678 1.72255 
-0.116678 2.81702 3.43652 
1.72255 3.43652 3.48509 
2.86551 -0.0955824 1.93725 
-0.0955824 3.22692 3.73333 
1.93725 3.73333 3.35689 
3.19444 0.0784728 2.16733 
0.0784728 3.43614 3.68858 
2.16733 3.68858 2.81874 
5.21923 -0.0626441 -1.94274 
-0.0626441 5.55228 -2.44578 
-1.94274 -2.44578 5.17766 
5.16241 -0.0578826 -2.13849 
-0.0578826 5.35855 -2.3243 
-2.13849 -2.3243 5.42821 
5.27823 0.000776621 -1.77895 
0.000776621 6.00825 -2.6555 
-1.77895 -2.6555 4.66269 
5.33856 -0.101597 -2.10759 
-0.101597 5.63268 -2.50167 
-2.10759 -2.50167 4.97793 
5.84119 -0.159465 -2.16337 
-0.159465 5.89545 -2.28378 
-2.16337 -2.28378 5.79381 
5.92498 0.244244 -1.84786 
0.244244 6.10411 -2.4844 
-1.84786 -2.4844 5.50136 
5.95012 -0.244304 -2.27828 
-0.244304 5.63299 -2.41381 
-2.27828 -2.41381 5.94735 
5.72656 0.0736297 -2.02717 
0.0736297 5.80322 -2.53219 
-2.02717 -2.53219 6.00068 
9.71625 -0.082002 1.76847 
-0.082002 9.73664 -4.22641 
1.76847 -4.22641 9.48203 
9.58013 -0.0424771 1.86748 
-0.0424771 9.71407 -4.16452 
1.86748 -4.16452 9.64072 
9.26858 0.120691 2.02196 
0.120691 9.57828 -4.11118 
2.02196 -4.11118 10.0881 
9.44692 -0.0167277 1.86733 
-0.0167277 9.69954 -4.20959 
1.86733 -4.20959 9.78846 
9.13163 0.396637 1.90409 
0.396637 8.88938 -4.14445 
1.90409 -4.14445 9.58199 
9.10297 -0.105597 1.64016 
-0.105597 9.24357 -4.34728 
1.64016 -4.34728 9.25645 
9.17486 -0.174974 1.70959 
-0.174974 9.22754 -4.44803 
1.70959 -4.44803 9.20059 
9.2821 0.178834 1.75826 
0.178834 9.0575 -4.19023 
1.75826 -4.19023 9.26339 
0.380765 0.00212497 2.83264 
0.00212497 0.459939 -0.0590616 
2.83264 -0.0590616 0.693812 
0.345941 -0.106828 2.93945 
-0.106828 0.722365 -0.050883 
2.93945 -0.050883 0.466211 
0.36081 0.181795 2.93567 
0.181795 0.701379 -0.150074 
2.93567 -0.150074 0.472327 
1.01564 0.0915759 2.70214 
0.0915759 1.04503 -0.267132 
2.70214 -0.267132 -0.526152 
1.37205 -0.0124455 3.04092 
-0.0124455 1.17384 -0.101825 
3.04092 -0.101825 1.32085 
1.31531 -0.00942639 3.01769 
-0.00942639 1.39287 0.0369621 
3.01769 0.0369621 1.15856 
1.38094 0.054085 3.19056 
0.054085 1.46364 -0.16508 
3.19056 -0.16508 1.02216 
0.659913 -0.154722 2.93909 
-0.154722 1.48724 0.107017 
2.93909 0.107017 1.71959 
8.49718 0.122785 3.25179 
0.122785 8.64727 0.672659 
3.25179 0.672659 8.72239 
8.48715 -0.170722 3.18881 
-0.170722 9.07957 1.05607 
3.18881 1.05607 8.30012 
8.58795 0.050757 3.14213 
0.050757 8.51173 0.480358 
3.14213 0.480358 8.76715 
8.09901 -0.214051 3.35617 
-0.214051 8.71349 0.217655 
3.35617 0.217655 9.05434 
7.75087 -0.13174 2.98545 
-0.13174 7.76967 0.481829 
2.98545 0.481829 8.03431 
7.51754 -0.2087 2.96012 
-0.2087 8.2529 0.649343 
2.96012 0.649343 7.78441 
7.58715 0.180553 2.53462 
0.180553 7.64458 0.282194 
2.53462 0.282194 8.32312 
8.19322 0.0019267 3.18317 
0.0019267 8.4275 0.862969 
3.18317 0.862969 6.93413 
2.859 -0.15242 3.92382 
-0.15242 2.62273 -0.459368 
3.92382 -0.459368 2.75253 
2.19135 0.00271632 4.56891 
0.00271632 2.13251 0.00303427 
4.56891 0.00303427 3.91041 
3.39515 0.188262 4.52811 
0.188262 3.58667 -0.320019 
4.52811 -0.320019 1.25245 
2.83401 -0.127697 4.00908 
-0.127697 2.77312 -0.244962 
4.00908 -0.244962 2.62714 
2.51729 -0.011815 4.24425 
-0.011815 2.75809 -0.882218 
4.24425 -0.882218 2.88892 
3.61065 0.288791 4.46892 
0.288791 2.79505 -0.142152 
4.46892 -0.142152 1.75861 
1.99431 -0.1616 4.79534 
-0.1616 2.49358 -0.167304 
4.79534 -0.167304 3.67642 
2.72971 0.030168 4.56443 
0.030168 2.70157 -0.387152 
4.56443 -0.387152 2.73303 
1.68064 0.0922686 0.74172 
0.0922686 1.79815 -0.0121445 
0.74172 -0.0121445 1.28528 
1.113 0.168508 0.526893 
0.168508 1.08978 -0.322969 
0.526893 -0.322969 2.56129 
1.39398 0.00810374 0.745426 
0.00810374 1.90921 0.0132163 
0.745426 0.0132163 1.46087 
2.18666 0.0636298 1.01372 
0.0636298 1.69082 0.81846 
1.01372 0.81846 0.886589 
1.74828 0.00115896 0.778328 
0.00115896 1.99578 0.152752 
0.778328 0.152752 2.40281 
1.79895 -0.0879501 0.775376 
-0.0879501 1.97014 0.161054 
0.775376 0.161054 2.37778 
1.95023 -0.0205146 0.744229 
-0.0205146 1.87837 0.0195209 
0.744229 0.0195209 2.31826 
1.84063 -0.0778808 0.804518 
-0.0778808 1.89227 0.164238 
0.804518 0.164238 2.41396 
4.8173 0.139387 3.23893 
0.139387 5.33972 -1.90439 
3.23893 -1.90439 4.93493 
5.36627 0.0617525 3.52282 
0.0617525 5.65387 -2.85783 
3.52282 -2.85783 4.07181 
5.03419 -0.0112429 3.65903 
-0.0112429 3.94153 -2.60211 
3.65903 -2.60211 6.11623 
4.84008 0.0943052 3.36483 
0.0943052 5.15858 -2.48291 
3.36483 -2.48291 5.0933 
5.24438 -0.0873558 3.87097 
-0.0873558 5.32263 -2.02078 
3.87097 -2.02078 5.00512 
4.90291 0.415141 3.60075 
0.415141 4.58112 -2.68062 
3.60075 -2.68062 6.0881 
5.54746 -0.219965 3.83601 
-0.219965 5.77044 -2.87494 
3.83601 -2.87494 4.25423 
5.2546 -0.0371133 3.78171 
-0.0371133 5.20396 -2.64542 
3.78171 -2.64542 5.11357 
9.03007 0.165499 3.71275 
0.165499 9.27263 -2.40287 
3.71275 -2.40287 9.20954 
8.96084 0.0649073 3.90284 
0.0649073 9.16557 -2.4655 
3.90284 -2.4655 9.38582 
9.39049 -0.060547 3.81505 
-0.060547 9.32043 -2.27074 
3.81505 -2.27074 8.80132 
8.6761 -0.511261 3.46201 
-0.511261 8.49831 -1.66909 
3.46201 -1.66909 10.3378 
9.02522 0.0165634 3.81131 
0.0165634 8.24158 -2.1029 
3.81131 -2.1029 8.92569 
8.92482 -0.0162153 3.58434 
-0.0162153 8.59227 -2.34151 
3.58434 -2.34151 8.6754 
8.93529 0.137721 3.88989 
0.137721 8.38178 -2.61138 
3.88989 -2.61138 8.87541 
9.05636 0.0630834 3.28889 
0.0630834 9.02364 -1.97301 
3.28889 -1.97301 8.11249 
2.49884 0.0636344 -2.46054 
0.0636344 2.4046 -2.9214 
-2.46054 -2.9214 2.67895 
1.62905 -0.0584986 -2.8987 
-0.0584986 2.03385 -3.75295 
-2.8987 -3.75295 3.9195 
2.94451 -0.0061591 -2.71966 
-0.0061591 2.24188 -3.04885 
-2.71966 -3.04885 2.39601 
3.44954 0.0696866 -2.84952 
0.0696866 3.53522 -3.40086 
-2.84952 -3.40086 0.597643 
3.17256 0.174329 -2.93809 
0.174329 3.33783 -2.94419 
-2.93809 -2.94419 2.84457 
2.7502 0.118836 -2.7438 
0.118836 3.47056 -3.02709 
-2.7438 -3.02709 3.13421 
2.78498 0.141007 -2.9657 
0.141007 3.2891 -3.49066 
-2.9657 -3.49066 3.28088 
3.4615 -0.780083 -2.51316 
-0.780083 1.7636 -2.98931 
-2.51316 -2.98931 4.12987 
7.84939 0.49209 1.51969 
0.49209 7.92442 -4.31451 
1.51969 -4.31451 8.14162 
8.28098 0.144002 1.1661 
0.144002 8.02303 -3.81282 
1.1661 -3.81282 7.61142 
7.9974 -0.778856 1.80716 
-0.778856 8.44435 -4.42901 
1.80716 -4.42901 7.47368 
7.801 0.157625 1.70721 
0.157625 7.57637 -4.3576 
1.70721 -4.3576 8.53806 
7.51645 -0.193807 2.00726 
-0.193807 7.67779 -3.65532 
2.00726 -3.65532 6.99597 
7.74113 0.225033 1.74091 
0.225033 7.13363 -3.55508 
1.74091 -3.55508 7.31544 
7.49745 0.151642 1.17021 
0.151642 7.06215 -4.36849 
1.17021 -4.36849 7.63061 
7.75572 -0.273272 1.27987 
-0.273272 7.00988 -3.87267 
1.27987 -3.87267 7.4246 
0.511716 0.146485 -1.53115 
0.146485 0.187132 -0.0217607 
-1.53115 -0.0217607 0.388841 
0.621192 0.163666 -1.6246 
0.163666 0.193719 0.0432978 
-1.6246 0.0432978 0.272778 
0.773957 -0.0573809 -1.60503 
-0.0573809 0.138418 0.0287054 
-1.60503 0.0287054 0.175314 
0.798414 0.0785715 -1.78043 
0.0785715 0.610326 -0.118972 
-1.78043 -0.118972 -0.32105 
1.04445 -0.0145198 -1.646 
-0.0145198 0.984107 0.207365 
-1.646 0.207365 0.935856 
0.863383 0.0287972 -1.55411 
0.0287972 1.13619 0.0416792 
-1.55411 0.0416792 0.964834 
1.84029 0.0170101 -1.77593 
0.0170101 0.754241 0.130446 
-1.77593 0.130446 0.369874 
0.905779 -0.00415992 -1.68105 
-0.00415992 1.02629 0.0685431 
-1.68105 0.0685431 1.03234 
4.80221 -0.0501488 -1.6316 
-0.0501488 4.42484 3.37994 
-1.6316 3.37994 4.02739 
4.92263 0.0727912 -2.37349 
0.0727912 5.13134 4.04311 
-2.37349 4.04311 3.20048 
4.20103 -0.248263 -2.04996 
-0.248263 4.50996 3.18262 
-2.04996 3.18262 4.54345 
3.45832 0.0629262 -2.03311 
0.0629262 3.92207 3.96485 
-2.03311 3.96485 5.87405 
3.90657 0.302392 -2.09247 
0.302392 3.84659 3.48634 
-2.09247 3.48634 3.99047 
4.02942 0.0766603 -1.96732 
0.0766603 3.97564 3.73299 
-1.96732 3.73299 3.73858 
4.01509 0.31148 -2.29886 
0.31148 4.04998 3.90439 
-2.29886 3.90439 3.67857 
4.15738 -0.406042 -1.68127 
-0.406042 4.63192 3.86487 
-1.68127 3.86487 2.95434 
8.34779 -0.0695007 3.5307 
-0.0695007 8.26212 -0.465115 
3.5307 -0.465115 8.06815 
8.24858 0.0933681 3.58718 
0.0933681 8.16363 -0.568487 
3.58718 -0.568487 8.26586 
8.30114 -0.0454489 3.47261 
-0.0454489 8.38753 -0.665692 
3.47261 -0.665692 7.98939 
8.46432 -0.000519027 3.35894 
-0.000519027 8.47819 -0.475177 
3.35894 -0.475177 7.73556 
9.08327 0.532515 3.9118 
0.532515 9.5125 -0.39357 
3.9118 -0.39357 8.35306 
8.95872 -0.201525 3.50168 
-0.201525 8.82776 -0.439563 
3.50168 -0.439563 9.16234 
8.99047 -0.107706 3.50303 
-0.107706 8.88493 -0.589568 
3.50303 -0.589568 9.07342 
8.19676 0.556617 3.24312 
0.556617 8.91073 -1.15266 
3.24312 -1.15266 9.84133 
3.25756 0.154061 -3.66746 
0.154061 2.53374 0.914332 
-3.66746 0.914332 3.20289 
3.06405 0.0451603 -3.74555 
0.0451603 2.5961 0.492713 
-3.74555 0.492713 3.33404 
3.08924 -0.0687781 -4.24847 
-0.0687781 3.4194 1.25976 
-4.24847 1.25976 2.48556 
3.11476 0.20575 -3.88262 
0.20575 2.76458 0.567827 
-3.88262 0.567827 3.11486 
3.08747 0.180814 -4.1584 
0.180814 3.46323 1.2244 
-4.1584 1.2244 2.11867 
2.49322 -0.162532 -4.00119 
-0.162532 2.62333 0.219949 
-4.00119 0.219949 3.55282 
2.87202 -0.0881801 -4.26742 
-0.0881801 2.36233 1.18625 
-4.26742 1.18625 3.43503 
2.95582 0.0499234 -4.25684 
0.0499234 2.69071 0.921653 
-4.25684 0.921653 3.02284 
1.23979 0.0591838 -2.64177 
0.0591838 1.2283 3.32254 
-2.64177 3.32254 1.17229 
1.40608 -0.178257 -2.53558 
-0.178257 1.19334 3.23797 
-2.53558 3.23797 1.04096 
1.23269 0.0554707 -2.42496 
0.0554707 1.33695 3.17638 
-2.42496 3.17638 1.07073 
1.34279 0.288701 -2.42405 
0.288701 1.6445 3.23382 
-2.42405 3.23382 0.653084 
2.04797 0.144124 -2.57117 
0.144124 2.08818 3.17712 
-2.57117 3.17712 1.72028 
1.77477 0.0662198 -2.55146 
0.0662198 2.20332 3.14044 
-2.55146 3.14044 1.87834 
2.19749 -0.0448008 -2.78294 
-0.0448008 2.09319 2.8438 
-2.78294 2.8438 1.56575 
1.47363 -0.0687455 -2.42059 
-0.0687455 1.6556 3.29366 
-2.42059 3.29366 2.72719 
8.19025 0.281424 -3.02704 
0.281424 7.54857 -2.93954 
-3.02704 -2.93954 6.77238 
7.63841 -0.342467 -3.65236 
-0.342467 7.34199 -2.62213 
-3.65236 -2.62213 7.5308 
6.96052 -0.0847439 -3.31447 
-0.0847439 6.8972 -2.60693 
-3.31447 -2.60693 8.65347 
7.53495 -0.0476451 -3.31735 
-0.0476451 7.38234 -2.79586 
-3.31735 -2.79586 7.5939 
7.76199 -0.0282366 -2.8252 
-0.0282366 7.87737 -2.92407 
-2.8252 -2.92407 5.60386 
6.46268 0.271876 -3.24794 
0.271876 6.70467 -2.47215 
-3.24794 -2.47215 8.07587 
7.2103 -0.353788 -3.64298 
-0.353788 7.07274 -2.79944 
-3.64298 -2.79944 6.96018 
7.1329 -0.520177 -3.19456 
-0.520177 7.42263 -2.88986 
-3.19456 -2.88986 6.68769 
7.05817 0.151888 -3.98722 
0.151888 7.77417 -2.36498 
-3.98722 -2.36498 9.15499 
7.95611 0.155701 -2.84887 
0.155701 7.94454 -2.51995 
-2.84887 -2.51995 8.08668 
8.40212 -0.0202301 -3.21711 
-0.0202301 8.35063 -3.29616 
-3.21711 -3.29616 7.23457 
7.91094 -0.132651 -3.17588 
-0.132651 8.0854 -2.64111 
-3.17588 -2.64111 7.99098 
7.00987 -0.451157 -3.48866 
-0.451157 7.77751 -2.90784 
-3.48866 -2.90784 8.20911 
7.8155 0.110533 -3.49095 
0.110533 7.54094 -2.87474 
-3.49095 -2.87474 7.64005 
7.77588 0.255093 -3.10283 
0.255093 7.57748 -2.58849 
-3.10283 -2.58849 7.64313 
7.83346 0.173672 -3.62227 
0.173672 7.69731 -2.91191 
-3.62227 -2.91191 7.46572 
7.04552 0.0531148 -3.98768 
0.0531148 6.94024 0.749717 
-3.98768 0.749717 6.8601 
7.01372 0.0371017 -4.20644 
0.0371017 6.98741 0.624086 
-4.20644 0.624086 6.84473 
6.67272 -0.128038 -3.98672 
-0.128038 6.88326 0.880918 
-3.98672 0.880918 7.28988 
7.30076 0.0492753 -3.81503 
0.0492753 7.164 1.09245 
-3.81503 1.09245 6.3811 
7.82108 0.0149015 -4.49596 
0.0149015 7.41625 0.932779 
-4.49596 0.932779 7.16884 
6.98882 0.147088 -3.90876 
0.147088 7.8449 0.767039 
-3.90876 0.767039 7.57244 
7.02974 0.281186 -4.39263 
0.281186 7.7961 0.82587 
-4.39263 0.82587 7.58032 
7.26737 0.099821 -3.94878 
0.099821 7.36091 0.93405 
-3.94878 0.93405 7.77789 
2.78583 -0.0487668 0.444931 
-0.0487668 2.79457 1.15989 
0.444931 1.15989 2.87673 
2.71793 -0.137787 0.635154 
-0.137787 3.03382 1.08068 
0.635154 1.08068 2.70537 
2.85533 -0.0228495 0.532575 
-0.0228495 3.06335 1.06188 
0.532575 1.06188 2.53845 
3.13268 0.0719281 0.857484 
0.0719281 3.21683 0.827394 
0.857484 0.827394 2.10761 
3.50607 -0.0252695 0.84754 
-0.0252695 3.34722 1.12858 
0.84754 1.12858 3.57617 
3.45912 -0.144489 0.770283 
-0.144489 3.63502 1.13242 
0.770283 1.13242 3.33533 
3.51977 0.0965454 0.852859 
0.0965454 3.48034 1.18277 
0.852859 1.18277 3.42936 
3.11013 -0.356372 0.690049 
-0.356372 3.54464 1.13387 
0.690049 1.13387 3.77469 
8.17021 0.092803 -0.702044 
0.092803 7.92005 -1.5441 
-0.702044 -1.5441 8.17079 
7.9236 -0.0824763 -0.751458 
-0.0824763 7.88659 -1.81761 
-0.751458 -1.81761 8.45087 
8.44347 0.149414 -0.766953 
0.149414 7.94519 -1.6886 
-0.766953 -1.6886 7.87239 
8.53421 0.0337066 -0.983262 
0.0337066 8.44074 -1.45854 
-0.983262 -1.45854 7.2861 
9.05288 -0.0706905 -1.03683 
-0.0706905 8.73392 -1.21501 
-1.03683 -1.21501 8.52482 
8.80972 -0.0582999 -0.764261 
-0.0582999 8.74467 -1.40119 
-0.764261 -1.40119 8.75723 
8.67857 -0.0897209 -0.837312 
-0.0897209 8.82028 -1.35464 
-0.837312 -1.35464 8.81278 
8.99881 -0.159851 -0.646588 
-0.159851 8.17457 -1.38979 
-0.646588 -1.38979 9.13824 
8.57331 0.139432 -1.05141 
0.139432 8.78256 -1.49918 
-1.05141 -1.49918 8.64053 
8.5015 0.026586 -1.48704 
0.026586 8.85722 -1.77452 
-1.48704 -1.77452 8.63768 
7.98445 0.277498 -1.69966 
0.277498 9.06115 -2.05424 
-1.69966 -2.05424 8.9508 
8.41664 0.209313 -0.710011 
0.209313 9.28131 -1.32468 
-0.710011 -1.32468 8.29846 
9.32495 0.0591154 -1.09244 
0.0591154 9.27262 -1.32402 
-1.09244 -1.32402 9.94764 
9.48203 -0.0137586 -1.18399 
-0.0137586 9.47281 -1.31327 
-1.18399 -1.31327 9.59036 
9.51113 -0.01532 -1.15255 
-0.01532 9.61924 -1.31311 
-1.15255 -1.31311 9.41483 
9.42054 -0.00315226 -1.3165 
-0.00315226 9.16067 -1.36262 
-1.3165 -1.36262 9.964 
7.35813 -0.218803 4.08922 
-0.218803 7.26006 -1.54417 
4.08922 -1.54417 5.23909 
6.4916 -0.0789435 4.38751 
-0.0789435 6.8434 -1.31855 
4.38751 -1.31855 6.52229 
6.40072 -0.427736 3.58147 
-0.427736 5.83185 -1.11609 
3.58147 -1.11609 7.62472 
6.52104 0.0196344 4.40971 
0.0196344 6.68443 -1.31638 
4.40971 -1.31638 6.65182 
7.19893 0.275721 3.90269 
0.275721 6.75632 -1.01989 
3.90269 -1.01989 6.47408 
5.96987 -0.440175 3.66718 
-0.440175 6.83702 -1.30203 
3.66718 -1.30203 7.62244 
6.70407 0.101094 4.26871 
0.101094 6.71154 -0.693503 
4.26871 -0.693503 7.01371 
6.8684 0.0119671 4.04382 
0.0119671 6.67441 -1.03238 
4.04382 -1.03238 6.88653 
0.308539 -0.00651854 1.40753 
-0.00651854 0.319311 1.8706 
1.40753 1.8706 0.673015 
0.272249 -0.0256359 1.2213 
-0.0256359 0.614557 1.89817 
1.2213 1.89817 0.414059 
0.356806 0.17466 1.30746 
0.17466 0.662123 1.92992 
1.30746 1.92992 0.281936 
1.00509 0.167385 1.35929 
0.167385 0.953305 2.08464 
1.35929 2.08464 -0.657527 
1.14551 -0.0190693 1.17493 
-0.0190693 1.08125 1.91584 
1.17493 1.91584 1.1819 
1.13119 -0.025058 1.16462 
-0.025058 1.21963 1.86226 
1.16462 1.86226 1.05784 
1.15838 0.00312875 1.11386 
0.00312875 1.26014 1.98632 
1.11386 1.98632 0.990138 
0.627541 -0.0606856 1.14265 
-0.0606856 1.33021 1.80543 
1.14265 1.80543 1.45091 
1.77109 -0.031721 0.174715 
-0.031721 1.73973 -2.99549 
0.174715 -2.99549 2.2603 
1.79748 -0.304109 -0.198662 
-0.304109 1.918 -2.75713 
-0.198662 -2.75713 2.05564 
1.87162 0.231552 -0.218548 
0.231552 2.06084 -2.73873 
-0.218548 -2.73873 1.83865 
1.73907 -0.234098 -0.052106 
-0.234098 1.65361 -2.75509 
-0.052106 -2.75509 2.37844 
1.14676 0.0903837 0.214551 
0.0903837 0.658901 -3.23475 
0.214551 -3.23475 1.15789 
1.1596 0.141621 -0.536225 
0.141621 1.20796 -2.70647 
-0.536225 -2.70647 0.595991 
1.02376 -0.308978 -0.549964 
-0.308978 1.03009 -2.93398 
-0.549964 -2.93398 0.909702 
1.26909 0.283175 0.0865871 
0.283175 1.00564 -3.06447 
0.0865871 -3.06447 0.688826 
8.80658 -0.370126 1.18074 
-0.370126 8.74967 1.79125 
1.18074 1.79125 8.47065 
8.77155 -0.0635262 1.51121 
-0.0635262 8.78153 1.567 
1.51121 1.567 8.47381 
8.76164 -0.0286257 1.27404 
-0.0286257 8.48678 1.73977 
1.27404 1.73977 8.77848 
8.52603 -0.640676 1.03996 
-0.640676 8.57089 1.79675 
1.03996 1.79675 8.92997 
8.37818 0.0150837 0.635349 
0.0150837 8.50053 1.3677 
0.635349 1.3677 7.27073 
7.84331 0.206978 1.05056 
0.206978 8.2057 1.78159 
1.05056 1.78159 8.10043 
8.11691 0.107578 0.789887 
0.107578 8.15202 1.56392 
0.789887 1.56392 7.8805 
8.06742 0.109946 0.955196 
0.109946 8.22334 1.63904 
0.955196 1.63904 7.85868 
9.72242 0.126578 0.669095 
0.126578 9.39805 1.7779 
0.669095 1.7779 9.47484 
9.41634 0.288241 0.720504 
0.288241 9.53262 1.83733 
0.720504 1.83733 9.64636 
9.71263 0.0242483 0.835591 
0.0242483 9.45118 1.71835 
0.835591 1.71835 9.4315 
9.1783 0.0174236 0.702071 
0.0174236 9.36902 1.97874 
0.702071 1.97874 10.048 
8.68347 0.363049 0.430125 
0.363049 8.203 1.82769 
0.430125 1.82769 9.78527 
8.86368 -0.0962276 0.938873 
-0.0962276 8.86022 1.84518 
0.938873 1.84518 8.94784 
8.89882 -0.119081 0.809362 
-0.119081 8.88241 1.75579 
0.809362 1.75579 8.8905 
9.33841 0.404776 0.559465 
0.404776 9.0116 1.75662 
0.559465 1.75662 8.32173 
1.1366 0.00713779 -3.33248 
0.00713779 1.08717 -0.263966 
-3.33248 -0.263966 1.45899 
1.24366 -0.144583 -3.33105 
-0.144583 1.22571 -0.122478 
-3.33105 -0.122478 1.21339 
1.03832 0.133554 -2.96815 
0.133554 1.7746 0.0469688 
-2.96815 0.0469688 0.869832 
0.995028 0.0999941 -2.98289 
0.0999941 1.31414 -0.0654594 
-2.98289 -0.0654594 1.37359 
0.485455 0.0351264 -2.90751 
0.0351264 0.331533 -0.197108 
-2.90751 -0.197108 0.702435 
0.70438 -0.104721 -2.83737 
-0.104721 0.794683 -0.101334 
-2.83737 -0.101334 0.0203594 
0.54641 -0.0463417 -2.92932 
-0.0463417 0.444839 -0.203911 
-2.92932 -0.203911 0.528174 
0.715616 -0.0151857 -3.05836 
-0.0151857 0.643413 -0.273749 
-3.05836 -0.273749 0.160393 
8.10203 -0.23646 -2.78012 
-0.23646 8.40496 -2.73469 
-2.78012 -2.73469 7.13507 
7.88401 0.475767 -2.03583 
0.475767 9.04767 -4.48319 
-2.03583 -4.48319 6.71037 
7.7508 -0.294704 -2.79047 
-0.294704 6.50453 -3.55743 
-2.79047 -3.55743 9.38673 
7.95272 -0.177135 -2.59926 
-0.177135 7.78276 -3.75411 
-2.59926 -3.75411 7.90658 
7.86312 -0.380037 -1.99278 
-0.380037 7.5655 -3.24984 
-1.99278 -3.24984 7.22576 
7.13324 -0.0762371 -3.27797 
-0.0762371 6.75844 -3.50857 
-3.27797 -3.50857 8.76269 
7.98213 0.220957 -1.5169 
0.220957 8.24808 -4.26051 
-1.5169 -4.26051 6.42416 
7.06376 -0.0975005 -2.39847 
-0.0975005 7.93029 -3.24795 
-2.39847 -3.24795 7.66032 
9.22471 -0.0994958 -3.96135 
-0.0994958 8.79436 0.729429 
-3.96135 0.729429 9.05254 
8.92296 0.0613139 -3.69693 
0.0613139 8.89743 0.952995 
-3.69693 0.952995 9.25123 
9.00686 -0.122788 -3.84529 
-0.122788 8.89094 1.06155 
-3.84529 1.06155 9.17381 
8.86026 0.239354 -3.99822 
0.239354 9.61887 0.66479 
-3.99822 0.66479 8.59248 
9.7879 0.110622 -4.04816 
0.110622 9.61827 0.666436 
-4.04816 0.666436 9.41566 
9.72127 0.129103 -3.84524 
0.129103 9.66253 0.750044 
-3.84524 0.750044 9.43803 
9.38519 0.150517 -3.85438 
0.150517 9.76393 0.653437 
-3.85438 0.653437 9.67271 
9.22473 0.0189391 -3.75241 
0.0189391 9.20441 0.478778 
-3.75241 0.478778 10.3927 
4.00008 0.143062 -3.60109 
0.143062 4.02079 2.00534 
-3.60109 2.00534 3.25424 
3.86242 -0.101097 -4.09603 
-0.101097 3.62886 1.92546 
-4.09603 1.92546 3.78382 
3.79061 0.0615272 -3.95358 
0.0615272 3.74424 1.99603 
-3.95358 1.99603 3.74026 
3.40583 0.173807 -4.12002 
0.173807 3.31553 1.78727 
-4.12002 1.78727 4.55375 
2.83849 0.283844 -4.05469 
0.283844 3.21661 1.92151 
-4.05469 1.92151 3.37429 
3.12267 0.0388673 -4.19993 
0.0388673 3.24421 2.03881 
-4.19993 2.03881 3.06251 
3.11455 0.125709 -4.20446 
0.125709 3.29506 2.06528 
-4.20446 2.06528 3.01978 
3.68987 -0.425532 -4.00202 
-0.425532 3.06341 1.78992 
-4.00202 1.78992 2.6761 
3.61865 -0.163136 0.394796 
-0.163136 3.69579 -0.719692 
0.394796 -0.719692 3.18907 
3.63042 0.0218228 0.0707663 
0.0218228 3.55562 -0.660414 
0.0707663 -0.660414 3.31747 
3.50897 -0.0518543 0.386203 
-0.0518543 3.61171 -0.741532 
0.386203 -0.741532 3.38284 
3.60199 -0.0518497 0.180967 
-0.0518497 3.56745 -0.564367 
0.180967 -0.564367 3.33407 
3.72811 -0.0456581 0.569058 
-0.0456581 3.52907 -0.556607 
0.569058 -0.556607 2.90638 
3.50168 -0.0489326 0.470319 
-0.0489326 3.44255 -0.425198 
0.470319 -0.425198 3.21932 
3.49219 -0.0832669 0.280123 
-0.0832669 3.39756 -0.252279 
0.280123 -0.252279 3.27381 
3.43027 -0.109593 0.303597 
-0.109593 3.53777 -0.0749121 
0.303597 -0.0749121 3.19552 
0.641761 -0.0812914 1.99924 
-0.0812914 0.244295 1.36474 
1.99924 1.36474 0.337703 
0.261304 0.0552421 1.95806 
0.0552421 0.323559 1.47447 
1.95806 1.47447 0.638896 
0.480793 0.0842814 2.03355 
0.0842814 0.308228 1.363 
2.03355 1.363 0.434738 
0.86521 0.0371991 2.07227 
0.0371991 0.966874 1.56919 
2.07227 1.56919 -0.608324 
1.165 -0.0694877 1.88288 
-0.0694877 1.20471 1.22169 
1.88288 1.22169 1.02166 
1.03003 -0.0317163 1.93962 
-0.0317163 1.15925 1.3466 
1.93962 1.3466 1.20209 
1.23246 -0.0104862 1.98136 
-0.0104862 1.17375 1.19573 
1.98136 1.19573 0.985163 
1.36541 -0.065615 1.9463 
-0.065615 0.491496 1.22576 
1.9463 1.22576 1.53446 
5.29618 0.334398 -2.22615 
0.334398 5.25623 4.34073 
-2.22615 4.34073 6.45626 
5.45357 0.264886 -1.28789 
0.264886 5.54772 3.99733 
-1.28789 3.99733 6.00739 
6.15375 -0.667362 -2.00108 
-0.667362 6.30964 3.8956 
-2.00108 3.8956 4.54528 
5.64577 0.0904235 -1.83254 
0.0904235 5.64971 4.17895 
-1.83254 4.17895 5.7132 
6.54213 -0.0661971 -1.8017 
-0.0661971 6.21107 4.16951 
-1.8017 4.16951 4.58399 
5.44482 -0.0472656 -1.85975 
-0.0472656 5.83895 3.55802 
-1.85975 3.55802 6.05342 
5.38209 -0.0280141 -2.43624 
-0.0280141 5.11071 3.90855 
-2.43624 3.90855 6.84439 
5.81065 0.246059 -1.88002 
0.246059 5.81098 3.5578 
-1.88002 3.5578 5.71556 
9.08596 0.0716068 -0.730209 
0.0716068 8.83616 -0.488147 
-0.730209 -0.488147 8.92421 
8.92476 0.0776286 -0.681281 
0.0776286 8.84662 -0.385863 
-0.681281 -0.385863 9.07494 
8.8078 -0.0509216 -0.822891 
-0.0509216 8.92463 -0.483319 
-0.822891 -0.483319 9.1139 
8.83312 -0.231887 -0.813794 
-0.231887 9.40659 -0.553672 
-0.813794 -0.553672 8.60662 
9.66847 -0.00717395 -0.725167 
-0.00717395 9.74289 -0.747593 
-0.725167 -0.747593 9.32304 
9.36719 0.0500588 -0.682312 
0.0500588 9.75055 -0.685191 
-0.682312 -0.685191 9.61665 
9.45009 -0.080284 -0.667022 
-0.080284 9.73895 -0.634416 
-0.667022 -0.634416 9.54535 
9.12111 0.0986269 -0.501099 
0.0986269 9.29108 -0.5978 
-0.501099 -0.5978 10.3222 
8.70803 0.203184 -2.20308 
0.203184 8.96442 -3.30662 
-2.20308 -3.30662 9.56624 
9.14824 -0.116661 -2.18426 
-0.116661 8.87082 -3.54998 
-2.18426 -3.54998 9.21964 
8.99199 0.00693639 -2.64332 
0.00693639 9.35325 -3.97706 
-2.64332 -3.97706 8.89346 
9.02111 0.114436 -2.46958 
0.114436 8.92093 -3.68229 
-2.46958 -3.68229 9.29665 
8.15189 0.401304 -2.49757 
0.401304 8.31597 -3.10963 
-2.49757 -3.10963 8.96723 
8.85217 -0.122031 -2.78813 
-0.122031 8.78544 -4.08157 
-2.78813 -4.08157 7.79748 
8.59754 -0.103947 -2.60474 
-0.103947 8.14969 -3.83953 
-2.60474 -3.83953 8.68785 
8.61329 -0.11128 -2.59688 
-0.11128 8.39922 -3.6882 
-2.59688 -3.6882 8.42257 
0.394363 0.0756649 1.17323 
0.0756649 0.379019 -3.22228 
1.17323 -3.22228 0.455408 
0.301584 -0.0546786 1.06463 
-0.0546786 0.298597 -3.16884 
1.06463 -3.16884 0.628609 
0.669117 0.269787 1.27615 
0.269787 0.722677 -3.38888 
1.27615 -3.38888 -0.163004 
0.46382 0.175967 1.04687 
0.175967 0.744749 -3.23899 
1.04687 -3.23899 0.0202213 
1.62135 0.200783 1.40671 
0.200783 0.905758 -3.29697 
1.40671 -3.29697 0.766372 
1.01482 -0.0821764 0.878286 
-0.0821764 0.860832 -2.86501 
0.878286 -2.86501 1.41782 
1.04351 0.106368 0.989002 
0.106368 1.20212 -2.8988 
0.989002 -2.8988 1.04785 
1.11447 -0.0525784 1.3251 
-0.0525784 0.983503 -3.14216 
1.3251 -3.14216 1.1955 
9.14254 -0.0689254 2.76661 
-0.0689254 9.30217 -3.86562 
2.76661 -3.86562 9.16866 
9.15722 -0.0859758 2.74794 
-0.0859758 9.2208 -3.80829 
2.74794 -3.80829 9.23535 
9.27681 0.17279 2.51687 
0.17279 8.81905 -3.85575 
2.51687 -3.85575 9.51751 
9.26338 0.129709 2.55044 
0.129709 9.08843 -3.79657 
2.55044 -3.79657 9.26156 
9.6978 -0.00565647 2.54153 
-0.00565647 9.75497 -3.91454 
2.54153 -3.91454 9.49878 
9.46105 -0.0310516 2.32892 
-0.0310516 9.35516 -3.96883 
2.32892 -3.96883 10.1353 
9.65599 -0.0408907 2.45909 
-0.0408907 9.64939 -3.92294 
2.45909 -3.92294 9.64617 
9.64559 -0.173003 2.4798 
-0.173003 9.47739 -3.96479 
2.4798 -3.96479 9.82857 
1.66064 -0.0179975 -3.73935 
-0.0179975 1.88514 -2.03449 
-3.73935 -2.03449 1.69208 
1.96629 0.0264765 -3.69397 
0.0264765 1.93882 -1.72989 
-3.69397 -1.72989 1.33276 
1.58954 0.103431 -3.69989 
0.103431 1.93378 -2.06108 
-3.69989 -2.06108 1.71455 
1.3044 0.0869776 -3.71734 
0.0869776 1.33932 -2.08816 
-3.71734 -2.08816 2.59415 
0.74688 -0.0923667 -3.81142 
-0.0923667 1.19006 -2.17809 
-3.81142 -2.17809 1.24269 
1.19267 0.0412302 -3.71049 
0.0412302 1.13835 -2.05213 
-3.71049 -2.05213 0.848605 
1.28801 0.0314847 -3.662 
0.0314847 0.948695 -2.08164 
-3.662 -2.08164 0.94292 
1.02877 -0.122311 -3.31443 
-0.122311 1.73951 -2.13458 
-3.31443 -2.13458 0.41135 
1.15783 0.103103 0.464084 
0.103103 1.00305 -3.71526 
0.464084 -3.71526 1.07698 
1.1493 -0.01223 0.60901 
-0.01223 1.19149 -3.65888 
0.60901 -3.65888 0.897073 
1.08473 0.0348885 0.520093 
0.0348885 1.15741 -3.80612 
0.520093 -3.80612 0.995715 
0.466236 -0.116777 0.404715 
-0.116777 1.31987 -3.79943 
0.404715 -3.79943 1.45176 
0.396615 -0.0923504 0.298678 
-0.0923504 0.337852 -3.85948 
0.298678 -3.85948 0.57038 
0.389994 -0.17432 0.391858 
-0.17432 0.512138 -3.71839 
0.391858 -3.71839 0.402715 
0.316621 -0.0495687 0.35791 
-0.0495687 0.693294 -3.75553 
0.35791 -3.75553 0.294932 
0.996188 -0.0510282 0.203262 
-0.0510282 0.943006 -3.6994 
0.203262 -3.6994 -0.634348 
8.75102 -0.233265 2.22621 
-0.233265 8.68301 2.36995 
2.22621 2.36995 8.59724 
8.71711 -0.211897 1.75901 
-0.211897 8.72688 2.45245 
1.75901 2.45245 8.58728 
8.71364 -0.0771554 2.07435 
-0.0771554 8.57468 2.38123 
2.07435 2.38123 8.74295 
8.65574 -0.594738 2.50511 
-0.594738 8.53043 2.32255 
2.50511 2.32255 8.8451 
8.42498 -0.00953033 2.52408 
-0.00953033 8.28832 2.64054 
2.52408 2.64054 7.51982 
8.02554 0.0152155 2.48561 
0.0152155 8.02672 2.46519 
2.48561 2.46519 8.18086 
8.0601 0.0147927 2.5375 
0.0147927 8.15233 2.48237 
2.5375 2.48237 8.02069 
8.16784 0.110028 2.37396 
0.110028 8.22251 2.58634 
2.37396 2.58634 7.84277 
9.60501 0.214134 2.70059 
0.214134 9.50612 2.36277 
2.70059 2.36277 9.50323 
9.33678 0.168843 2.64352 
0.168843 9.70054 2.39798 
2.64352 2.39798 9.57704 
9.74697 0.0406682 2.48369 
0.0406682 9.58964 2.31742 
2.48369 2.31742 9.27776 
9.07947 -0.0179428 2.68336 
-0.0179428 9.08535 2.08859 
2.68336 2.08859 10.4495 
8.42726 0.37664 2.83952 
0.37664 8.60272 2.64004 
2.83952 2.64004 9.79324 
8.98408 -0.0941944 2.53238 
-0.0941944 8.88746 2.32928 
2.53238 2.32928 8.95168 
9.06044 -0.166927 2.59701 
-0.166927 8.83446 2.45161 
2.59701 2.45161 8.92832 
9.07441 0.510618 2.90424 
0.510618 9.45126 2.39953 
2.90424 2.39953 8.29755 
8.97697 -0.143079 -3.40026 
-0.143079 9.19204 -2.91928 
-3.40026 -2.91928 9.25917 
9.13587 0.13922 -3.16419 
0.13922 9.35685 -2.90983 
-3.16419 -2.90983 8.93546 
8.86724 -0.190036 -3.80394 
-0.190036 9.16332 -2.23033 
-3.80394 -2.23033 9.39763 
9.18039 0.109079 -3.78638 
0.109079 9.20966 -2.42573 
-3.78638 -2.42573 9.03813 
9.50298 -0.170074 -3.63401 
-0.170074 9.54389 -2.28822 
-3.63401 -2.28822 10.0253 
9.76965 0.0453253 -3.44456 
0.0453253 9.77362 -2.40439 
-3.44456 -2.40439 9.52886 
9.72186 -0.033083 -3.51083 
-0.033083 9.70731 -2.36111 
-3.51083 -2.36111 9.64297 
9.6114 -0.0541008 -3.44988 
-0.0541008 9.55074 -2.41464 
-3.44988 -2.41464 9.91 
METADATA
COMPONENT_NAMES
XX
XY
XZ
YX
YY
YZ
ZX
ZY
ZZ

