# vtk DataFile Version 3.0
vtk output
ASCII
DATASET UNSTRUCTURED_GRID
POINTS 1722 float
0.75	1.5	0	
0.75	1.6875	0	
0.556695	1.522	0	
6.75	1.6875	0	
6.75	1.5	0	
6.9433	1.522	0	
0.75	1.125	0	
0.75	1.3125	0	
0.558219	1.2844	0	
6.75	1.3125	0	
6.75	1.125	0	
6.94178	1.2844	0	
7.23361	0.271932	0	
7.08354	0.448395	0	
7.03319	0.177224	0	
0.416455	0.448395	0	
0.266395	0.271932	0	
0.42802	0.182817	0	
7.08354	0.448395	0	
7.23361	0.271932	0	
7.32655	0.43998	0	
0.266395	0.271932	0	
0.416455	0.448395	0	
0.173449	0.43998	0	
0.787489	0.335177	0	
0.602375	0.265379	0	
0.738215	0.154296	0	
0.556695	1.522	0	
0.75	1.6875	0	
0.604119	1.72407	0	
6.75	1.6875	0	
6.9433	1.522	0	
6.89588	1.72407	0	
6.94178	1.2844	0	
6.75	1.125	0	
6.8959	1.08811	0	
0.75	1.125	0	
0.558219	1.2844	0	
0.604097	1.08811	0	
7.08354	0.448395	0	
6.8668	0.288039	0	
7.03319	0.177224	0	
0.602375	0.265379	0	
0.416455	0.448395	0	
0.42802	0.182817	0	
1.55	0.75	0	
1.35	0.75	0	
1.4606	0.549781	0	
6.8668	0.288039	0	
7.08354	0.448395	0	
6.84562	0.478216	0	
0.416455	0.448395	0	
0.602375	0.265379	0	
0.65438	0.478216	0	
7.25406	0.619554	0	
7.08354	0.448395	0	
7.32655	0.43998	0	
0.416455	0.448395	0	
0.245942	0.619554	0	
0.173449	0.43998	0	
5.95	0.75	0	
5.75	0.75	0	
5.83909	0.540001	0	
7.08354	0.448395	0	
7.25406	0.619554	0	
7.10534	0.692465	0	
0.245942	0.619554	0	
0.416455	0.448395	0	
0.394659	0.692465	0	
6.65	0.379224	0	
6.8668	0.288039	0	
6.84562	0.478216	0	
0.602375	0.265379	0	
0.787489	0.335177	0	
0.65438	0.478216	0	
1.95	0.75	0	
1.75	0.75	0	
1.8586	0.550374	0	
7.5	0.6	0	
7.25406	0.619554	0	
7.32655	0.43998	0	
0.245942	0.619554	0	
0	0.6	0	
0.173449	0.43998	0	
0.592105	0	0	
0.602375	0.265379	0	
0.42802	0.182817	0	
5.55	0.75	0	
5.35	0.75	0	
5.44334	0.550798	0	
2.35	0.75	0	
2.15	0.75	0	
2.25471	0.551236	0	
0.919633	0.170925	0	
0.787489	0.335177	0	
0.738215	0.154296	0	
5.15	0.75	0	
4.95	0.75	0	
5.04723	0.551687	0	
1.4606	0.549781	0	
1.35	0.75	0	
1.22598	0.562806	0	
2.75	0.75	0	
2.55	0.75	0	
2.65083	0.552152	0	
6.95871	0.623061	0	
7.08354	0.448395	0	
7.10534	0.692465	0	
0.416455	0.448395	0	
0.541288	0.623061	0	
0.394659	0.692465	0	
4.75	0.75	0	
4.55	0.75	0	
4.65111	0.552631	0	
3.15	0.75	0	
2.95	0.75	0	
3.04695	0.553123	0	
3.75	0	0	
3.94737	0	0	
3.85764	0.195446	0	
3.35526	0	0	
3.55263	0	0	
3.44502	0.195286	0	
6.51637	0.218294	0	
6.51316	0	0	
6.69575	0.179877	0	
4.14474	0	0	
4.34211	0	0	
4.25232	0.195097	0	
4.35	0.75	0	
4.15	0.75	0	
4.25499	0.553628	0	
2.96053	0	0	
3.15789	0	0	
3.05034	0.194914	0	
4.53947	0	0	
4.73684	0	0	
4.647	0.194736	0	
2.56579	0	0	
2.76316	0	0	
2.65566	0.194564	0	
4.93421	0	0	
5.13158	0	0	
5.04168	0.194396	0	
2.17105	0	0	
2.36842	0	0	
2.26098	0.194234	0	
5.32895	0	0	
5.52632	0	0	
5.43636	0.194077	0	
1.77632	0	0	
1.97368	0	0	
1.86629	0.193926	0	
5.72368	0	0	
5.92105	0	0	
5.82856	0.208382	0	
3.55	0.75	0	
3.35	0.75	0	
3.44333	0.55408	0	
1.38158	0	0	
1.57895	0	0	
1.4715	0.193536	0	
3.95	0.75	0	
3.75	0.75	0	
3.85829	0.554477	0	
6.51316	0	0	
6.71053	0	0	
6.69575	0.179877	0	
0	0.6	0	
0.245942	0.619554	0	
0.116612	0.714129	0	
7.25406	0.619554	0	
7.5	0.6	0	
7.38339	0.714129	0	
6.11842	0	0	
6.31579	0	0	
6.17763	0.199505	0	
7.08354	0.448395	0	
6.95871	0.623061	0	
6.84562	0.478216	0	
0.541288	0.623061	0	
0.416455	0.448395	0	
0.65438	0.478216	0	
7.25683	1.77066	0	
7.04404	1.69322	0	
7.12828	1.56007	0	
0.45596	1.69322	0	
0.243169	1.77066	0	
0.371716	1.56007	0	
7.04425	1.11919	0	
7.26353	1.03527	0	
7.13003	1.25193	0	
0.23647	1.03527	0	
0.455745	1.11919	0	
0.369974	1.25193	0	
1.8586	0.550374	0	
1.75	0.75	0	
1.65597	0.560492	0	
6.50103	0.523214	0	
6.55	0.75	0	
6.33034	0.602068	0	
5.95	0.75	0	
5.83909	0.540001	0	
6.02241	0.580052	0	
0.457883	2.25035	0	
0.233167	2.3381	0	
0.351028	2.14315	0	
7.26683	2.3381	0	
7.04212	2.25035	0	
7.14897	2.14315	0	
6.55	0.75	0	
6.35	0.75	0	
6.33034	0.602068	0	
5.55	0.75	0	
5.44334	0.550798	0	
5.6509	0.555507	0	
6.17763	0.199505	0	
6.31579	0	0	
6.36371	0.15739	0	
7.3125	3	0	
7.12482	2.85696	0	
7.34835	2.84639	0	
0.375178	2.85696	0	
0.1875	3	0	
0.151654	2.84639	0	
2.25471	0.551236	0	
2.15	0.75	0	
2.05267	0.561203	0	
7.28717	1.2482	0	
7.5	1.2	0	
7.34003	1.40731	0	
0	1.2	0	
0.212829	1.2482	0	
0.159965	1.40731	0	
0.5625	3	0	
0.375178	2.85696	0	
0.59952	2.85545	0	
7.12482	2.85696	0	
6.9375	3	0	
6.90048	2.85545	0	
0.23647	1.03527	0	
0	1	0	
0.220504	0.83696	0	
7.5	1	0	
7.26353	1.03527	0	
7.2795	0.83696	0	
5.15	0.75	0	
5.04723	0.551687	0	
5.24909	0.561588	0	
7.25406	0.619554	0	
7.2795	0.83696	0	
7.10534	0.692465	0	
0.220504	0.83696	0	
0.245942	0.619554	0	
0.394659	0.692465	0	
6.8668	0.288039	0	
6.65	0.379224	0	
6.69575	0.179877	0	
0.602375	0.265379	0	
0.592105	0	0	
0.738215	0.154296	0	
2.65083	0.552152	0	
2.55	0.75	0	
2.44436	0.557989	0	
7.28695	1.56625	0	
7.25683	1.77066	0	
7.12828	1.56007	0	
0.243169	1.77066	0	
0.213051	1.56625	0	
0.371716	1.56007	0	
7.5	1.2	0	
7.5	1.4	0	
7.34003	1.40731	0	
0	1.4	0	
0	1.2	0	
0.159965	1.40731	0	
7.26353	1.03527	0	
7.28717	1.2482	0	
7.13003	1.25193	0	
0.212829	1.2482	0	
0.23647	1.03527	0	
0.369974	1.25193	0	
1.36153	0.369478	0	
1.4606	0.549781	0	
1.22598	0.562806	0	
4.75	0.75	0	
4.65111	0.552631	0	
4.8572	0.55828	0	
3.04695	0.553123	0	
2.95	0.75	0	
2.84124	0.55858	0	
0.233167	2.3381	0	
0.208273	2.11425	0	
0.351028	2.14315	0	
7.29173	2.11425	0	
7.26683	2.3381	0	
7.14897	2.14315	0	
0.236767	2.72141	0	
0.215231	2.54333	0	
0.3756	2.67849	0	
7.28477	2.54333	0	
7.26323	2.72141	0	
7.1244	2.67849	0	
4.35	0.75	0	
4.25499	0.553628	0	
4.46032	0.558889	0	
7.3125	3	0	
7.125	3	0	
7.12482	2.85696	0	
0.375	3	0	
0.1875	3	0	
0.375178	2.85696	0	
0	2.4	0	
0.233167	2.3381	0	
0.215231	2.54333	0	
7.26683	2.3381	0	
7.5	2.4	0	
7.28477	2.54333	0	
1.36153	0.369478	0	
1.4715	0.193536	0	
1.55122	0.371627	0	
5.82856	0.208382	0	
6.00307	0.36808	0	
5.75113	0.372361	0	
1.75713	0.371043	0	
1.86629	0.193926	0	
1.94657	0.372348	0	
3.85764	0.195446	0	
3.96661	0.374796	0	
3.80595	0.374934	0	
5.43636	0.194077	0	
5.54551	0.371414	0	
5.35594	0.372681	0	
2.15185	0.371797	0	
2.26098	0.194234	0	
2.35173	0.372791	0	
5.04168	0.194396	0	
5.15079	0.372192	0	
4.95062	0.37311	0	
2.54657	0.3726	0	
2.65566	0.194564	0	
2.74703	0.373438	0	
3.336	0.374355	0	
3.44502	0.195286	0	
3.49689	0.374527	0	
4.647	0.194736	0	
4.75607	0.37302	0	
4.55533	0.373776	0	
4.25232	0.195097	0	
4.36136	0.373898	0	
4.16002	0.374469	0	
2.94129	0.373453	0	
3.05034	0.194914	0	
3.14232	0.374123	0	
3.44333	0.55408	0	
3.35	0.75	0	
3.23816	0.559195	0	
3.96661	0.374796	0	
3.85829	0.554477	0	
3.80595	0.374934	0	
3.44333	0.55408	0	
3.336	0.374355	0	
3.49689	0.374527	0	
7.5	2	0	
7.5	2.2	0	
7.29173	2.11425	0	
0	2.2	0	
0	2	0	
0.208273	2.11425	0	
4.36136	0.373898	0	
4.25499	0.553628	0	
4.16002	0.374469	0	
7.2795	0.83696	0	
7.10967	0.847159	0	
7.10534	0.692465	0	
0.390332	0.847159	0	
0.220504	0.83696	0	
0.394659	0.692465	0	
3.04695	0.553123	0	
2.94129	0.373453	0	
3.14232	0.374123	0	
4.75607	0.37302	0	
4.65111	0.552631	0	
4.55533	0.373776	0	
3.75	0	0	
3.85764	0.195446	0	
3.65131	0.216449	0	
2.65083	0.552152	0	
2.54657	0.3726	0	
2.74703	0.373438	0	
3.85764	0.195446	0	
3.94737	0	0	
4.06148	0.189901	0	
1.06883	0.508923	0	
0.866638	0.559109	0	
0.974591	0.36305	0	
5.15079	0.372192	0	
5.04723	0.551687	0	
4.95062	0.37311	0	
3.44502	0.195286	0	
3.55263	0	0	
3.65131	0.216449	0	
2.25471	0.551236	0	
2.15185	0.371797	0	
2.35173	0.372791	0	
3.35526	0	0	
3.44502	0.195286	0	
3.24119	0.189695	0	
0.233167	2.3381	0	
0.457883	2.25035	0	
0.375147	2.3936	0	
7.04212	2.25035	0	
7.26683	2.3381	0	
7.12485	2.3936	0	
5.54551	0.371414	0	
5.44334	0.550798	0	
5.35594	0.372681	0	
4.14474	0	0	
4.25232	0.195097	0	
4.06148	0.189901	0	
1.8586	0.550374	0	
1.75713	0.371043	0	
1.94657	0.372348	0	
4.25232	0.195097	0	
4.34211	0	0	
4.45612	0.189485	0	
6.00307	0.36808	0	
5.83909	0.540001	0	
5.75113	0.372361	0	
3.05034	0.194914	0	
3.15789	0	0	
3.24119	0.189695	0	
1.4606	0.549781	0	
1.36153	0.369478	0	
1.55122	0.371627	0	
2.96053	0	0	
3.05034	0.194914	0	
2.84656	0.18928	0	
3.95	0.75	0	
3.85829	0.554477	0	
4.06335	0.559494	0	
3.85829	0.554477	0	
3.96661	0.374796	0	
4.06335	0.559494	0	
4.53947	0	0	
4.647	0.194736	0	
4.45612	0.189485	0	
4.647	0.194736	0	
4.73684	0	0	
4.85076	0.189082	0	
2.65566	0.194564	0	
2.76316	0	0	
2.84656	0.18928	0	
2.56579	0	0	
2.65566	0.194564	0	
2.45192	0.18889	0	
3.336	0.374355	0	
3.44333	0.55408	0	
3.23816	0.559195	0	
4.93421	0	0	
5.04168	0.194396	0	
4.85076	0.189082	0	
3.96661	0.374796	0	
3.85764	0.195446	0	
4.06148	0.189901	0	
5.04168	0.194396	0	
5.13158	0	0	
5.24541	0.188704	0	
1.55	0.75	0	
1.4606	0.549781	0	
1.65597	0.560492	0	
2.26098	0.194234	0	
2.36842	0	0	
2.45192	0.18889	0	
3.44502	0.195286	0	
3.336	0.374355	0	
3.24119	0.189695	0	
2.17105	0	0	
2.26098	0.194234	0	
2.05727	0.188524	0	
4.25499	0.553628	0	
4.36136	0.373898	0	
4.46032	0.558889	0	
5.32895	0	0	
5.43636	0.194077	0	
5.24541	0.188704	0	
4.36136	0.373898	0	
4.25232	0.195097	0	
4.45612	0.189485	0	
5.43636	0.194077	0	
5.52632	0	0	
5.63964	0.190784	0	
0.5625	3	0	
0.375	3	0	
0.375178	2.85696	0	
7.125	3	0	
6.9375	3	0	
7.12482	2.85696	0	
1.86629	0.193926	0	
1.97368	0	0	
2.05727	0.188524	0	
2.94129	0.373453	0	
3.04695	0.553123	0	
2.84124	0.55858	0	
1.77632	0	0	
1.86629	0.193926	0	
1.6626	0.188166	0	
3.05034	0.194914	0	
2.94129	0.373453	0	
2.84656	0.18928	0	
6.90789	0	0	
7.03319	0.177224	0	
6.84283	0.129028	0	
5.72368	0	0	
5.82856	0.208382	0	
5.63964	0.190784	0	
4.75607	0.37302	0	
4.647	0.194736	0	
4.85076	0.189082	0	
4.65111	0.552631	0	
4.75607	0.37302	0	
4.8572	0.55828	0	
1.4715	0.193536	0	
1.57895	0	0	
1.6626	0.188166	0	
5.83909	0.540001	0	
5.75	0.75	0	
5.6509	0.555507	0	
1.38158	0	0	
1.4715	0.193536	0	
1.24133	0.181301	0	
2.65566	0.194564	0	
2.54657	0.3726	0	
2.45192	0.18889	0	
2.54657	0.3726	0	
2.65083	0.552152	0	
2.44436	0.557989	0	
5.15079	0.372192	0	
5.04168	0.194396	0	
5.24541	0.188704	0	
0.213051	1.56625	0	
0	1.6	0	
0.159965	1.40731	0	
7.5	1.6	0	
7.28695	1.56625	0	
7.34003	1.40731	0	
5.04723	0.551687	0	
5.15079	0.372192	0	
5.24909	0.561588	0	
2.26098	0.194234	0	
2.15185	0.371797	0	
2.05727	0.188524	0	
1.95	0.75	0	
1.8586	0.550374	0	
2.05267	0.561203	0	
5.54551	0.371414	0	
5.43636	0.194077	0	
5.63964	0.190784	0	
6.18033	0.518618	0	
6.15	0.75	0	
6.02241	0.580052	0	
2.15185	0.371797	0	
2.25471	0.551236	0	
2.05267	0.561203	0	
1.86629	0.193926	0	
1.75713	0.371043	0	
1.6626	0.188166	0	
5.44334	0.550798	0	
5.54551	0.371414	0	
5.6509	0.555507	0	
3.85829	0.554477	0	
3.75	0.75	0	
3.65079	0.533282	0	
0	0.6	0	
0	0.4	0	
0.173449	0.43998	0	
7.5	0.4	0	
7.5	0.6	0	
7.32655	0.43998	0	
1.4715	0.193536	0	
1.36153	0.369478	0	
1.24133	0.181301	0	
6.92287	0.774865	0	
6.95871	0.623061	0	
7.10534	0.692465	0	
0.541288	0.623061	0	
0.577126	0.774865	0	
0.394659	0.692465	0	
1.75713	0.371043	0	
1.8586	0.550374	0	
1.65597	0.560492	0	
5.44334	0.550798	0	
5.35	0.75	0	
5.24909	0.561588	0	
2.35	0.75	0	
2.25471	0.551236	0	
2.44436	0.557989	0	
7.10967	0.847159	0	
6.92287	0.774865	0	
7.10534	0.692465	0	
0.577126	0.774865	0	
0.390332	0.847159	0	
0.394659	0.692465	0	
5.04723	0.551687	0	
4.95	0.75	0	
4.8572	0.55828	0	
3.55	0.75	0	
3.44333	0.55408	0	
3.65079	0.533282	0	
3.65079	0.533282	0	
3.65104	0.374952	0	
3.80595	0.374934	0	
2.75	0.75	0	
2.65083	0.552152	0	
2.84124	0.55858	0	
3.85829	0.554477	0	
3.65079	0.533282	0	
3.80595	0.374934	0	
4.65111	0.552631	0	
4.55	0.75	0	
4.46032	0.558889	0	
3.65131	0.216449	0	
3.85764	0.195446	0	
3.80595	0.374934	0	
3.15	0.75	0	
3.04695	0.553123	0	
3.23816	0.559195	0	
3.65104	0.374952	0	
3.65131	0.216449	0	
3.80595	0.374934	0	
4.25499	0.553628	0	
4.15	0.75	0	
4.06335	0.559494	0	
3.44502	0.195286	0	
3.65131	0.216449	0	
3.49689	0.374527	0	
7.26353	1.03527	0	
7.04425	1.11919	0	
7.12108	0.984904	0	
0.455745	1.11919	0	
0.23647	1.03527	0	
0.378916	0.984904	0	
3.65131	0.216449	0	
3.65104	0.374952	0	
3.49689	0.374527	0	
4.06148	0.189901	0	
4.25232	0.195097	0	
4.16002	0.374469	0	
0.866638	0.559109	0	
0.787489	0.335177	0	
0.974591	0.36305	0	
6.50103	0.523214	0	
6.65	0.379224	0	
6.68726	0.584167	0	
3.65104	0.374952	0	
3.65079	0.533282	0	
3.49689	0.374527	0	
3.96661	0.374796	0	
4.06148	0.189901	0	
4.16002	0.374469	0	
3.05034	0.194914	0	
3.24119	0.189695	0	
3.14232	0.374123	0	
6.90789	0	0	
7.10526	0	0	
7.03319	0.177224	0	
0.394737	0	0	
0.592105	0	0	
0.42802	0.182817	0	
3.65079	0.533282	0	
3.44333	0.55408	0	
3.49689	0.374527	0	
0.243169	1.77066	0	
0.45596	1.69322	0	
0.382685	1.81803	0	
7.04404	1.69322	0	
7.25683	1.77066	0	
7.11732	1.81803	0	
3.24119	0.189695	0	
3.336	0.374355	0	
3.14232	0.374123	0	
4.45612	0.189485	0	
4.647	0.194736	0	
4.55533	0.373776	0	
2.65566	0.194564	0	
2.84656	0.18928	0	
2.74703	0.373438	0	
4.36136	0.373898	0	
4.45612	0.189485	0	
4.55533	0.373776	0	
6.55	0.75	0	
6.50103	0.523214	0	
6.68726	0.584167	0	
0.549776	2.42847	0	
0.75	2.4375	0	
0.567393	2.59452	0	
6.75	2.4375	0	
6.95022	2.42847	0	
6.93261	2.59452	0	
0.351676	1.9591	0	
0.243169	1.77066	0	
0.382685	1.81803	0	
7.25683	1.77066	0	
7.14832	1.9591	0	
7.11732	1.81803	0	
6.00307	0.36808	0	
5.82856	0.208382	0	
5.99811	0.158853	0	
4.85076	0.189082	0	
5.04168	0.194396	0	
4.95062	0.37311	0	
0.243169	1.77066	0	
0.351676	1.9591	0	
0.167719	1.94121	0	
7.14832	1.9591	0	
7.25683	1.77066	0	
7.33228	1.94121	0	
2.84656	0.18928	0	
2.94129	0.373453	0	
2.74703	0.373438	0	
5.83909	0.540001	0	
6.00307	0.36808	0	
6.02241	0.580052	0	
2.26098	0.194234	0	
2.45192	0.18889	0	
2.35173	0.372791	0	
4.75607	0.37302	0	
4.85076	0.189082	0	
4.95062	0.37311	0	
4.06335	0.559494	0	
3.96661	0.374796	0	
4.16002	0.374469	0	
0.386933	2.52895	0	
0.215231	2.54333	0	
0.375147	2.3936	0	
7.28477	2.54333	0	
7.11307	2.52895	0	
7.12485	2.3936	0	
5.24541	0.188704	0	
5.43636	0.194077	0	
5.35594	0.372681	0	
0.215231	2.54333	0	
0.386933	2.52895	0	
0.3756	2.67849	0	
7.11307	2.52895	0	
7.28477	2.54333	0	
7.1244	2.67849	0	
4.25499	0.553628	0	
4.06335	0.559494	0	
4.16002	0.374469	0	
2.45192	0.18889	0	
2.54657	0.3726	0	
2.35173	0.372791	0	
1.86629	0.193926	0	
2.05727	0.188524	0	
1.94657	0.372348	0	
5.15079	0.372192	0	
5.24541	0.188704	0	
5.35594	0.372681	0	
7.25683	1.77066	0	
7.5	1.8	0	
7.33228	1.94121	0	
0	1.8	0	
0.243169	1.77066	0	
0.167719	1.94121	0	
3.336	0.374355	0	
3.23816	0.559195	0	
3.14232	0.374123	0	
5.63964	0.190784	0	
5.82856	0.208382	0	
5.75113	0.372361	0	
2.05727	0.188524	0	
2.15185	0.371797	0	
1.94657	0.372348	0	
3.23816	0.559195	0	
3.04695	0.553123	0	
3.14232	0.374123	0	
0.75	2.4375	0	
0.75	2.625	0	
0.567393	2.59452	0	
6.75	2.625	0	
6.75	2.4375	0	
6.93261	2.59452	0	
1.4715	0.193536	0	
1.6626	0.188166	0	
1.55122	0.371627	0	
0	1.6	0	
0	1.4	0	
0.159965	1.40731	0	
7.5	1.4	0	
7.5	1.6	0	
7.34003	1.40731	0	
6.65	0.379224	0	
6.84562	0.478216	0	
6.68726	0.584167	0	
0.215231	2.54333	0	
0.233167	2.3381	0	
0.375147	2.3936	0	
7.26683	2.3381	0	
7.28477	2.54333	0	
7.12485	2.3936	0	
5.54551	0.371414	0	
5.63964	0.190784	0	
5.75113	0.372361	0	
4.46032	0.558889	0	
4.36136	0.373898	0	
4.55533	0.373776	0	
1.6626	0.188166	0	
1.75713	0.371043	0	
1.55122	0.371627	0	
0.65438	0.478216	0	
0.787489	0.335177	0	
0.866638	0.559109	0	
4.65111	0.552631	0	
4.46032	0.558889	0	
4.55533	0.373776	0	
2.94129	0.373453	0	
2.84124	0.55858	0	
2.74703	0.373438	0	
2.84124	0.55858	0	
2.65083	0.552152	0	
2.74703	0.373438	0	
7.12482	2.85696	0	
7.26323	2.72141	0	
7.34835	2.84639	0	
0.236767	2.72141	0	
0.375178	2.85696	0	
0.151654	2.84639	0	
4.8572	0.55828	0	
4.75607	0.37302	0	
4.95062	0.37311	0	
7.10967	0.847159	0	
7.2795	0.83696	0	
7.12108	0.984904	0	
0.220504	0.83696	0	
0.390332	0.847159	0	
0.378916	0.984904	0	
5.04723	0.551687	0	
4.8572	0.55828	0	
4.95062	0.37311	0	
2.54657	0.3726	0	
2.44436	0.557989	0	
2.35173	0.372791	0	
0	1	0	
0	0.8	0	
0.220504	0.83696	0	
7.5	0.8	0	
7.5	1	0	
7.2795	0.83696	0	
2.44436	0.557989	0	
2.25471	0.551236	0	
2.35173	0.372791	0	
7.2795	0.83696	0	
7.26353	1.03527	0	
7.12108	0.984904	0	
0.23647	1.03527	0	
0.220504	0.83696	0	
0.378916	0.984904	0	
5.24909	0.561588	0	
5.15079	0.372192	0	
5.35594	0.372681	0	
6.15	0.75	0	
6.18033	0.518618	0	
6.33034	0.602068	0	
5.44334	0.550798	0	
5.24909	0.561588	0	
5.35594	0.372681	0	
5.82856	0.208382	0	
5.92105	0	0	
5.99811	0.158853	0	
2.15185	0.371797	0	
2.05267	0.561203	0	
1.94657	0.372348	0	
2.05267	0.561203	0	
1.8586	0.550374	0	
1.94657	0.372348	0	
5.6509	0.555507	0	
5.54551	0.371414	0	
5.75113	0.372361	0	
5.83909	0.540001	0	
5.6509	0.555507	0	
5.75113	0.372361	0	
7.2795	0.83696	0	
7.25406	0.619554	0	
7.38339	0.714129	0	
0.245942	0.619554	0	
0.220504	0.83696	0	
0.116612	0.714129	0	
1.06407	0.242171	0	
1.24133	0.181301	0	
1.15606	0.371288	0	
0.375178	2.85696	0	
0.516551	2.7404	0	
0.59952	2.85545	0	
6.98345	2.7404	0	
7.12482	2.85696	0	
6.90048	2.85545	0	
1.75713	0.371043	0	
1.65597	0.560492	0	
1.55122	0.371627	0	
6.00307	0.36808	0	
6.18033	0.518618	0	
6.02241	0.580052	0	
1.65597	0.560492	0	
1.4606	0.549781	0	
1.55122	0.371627	0	
0.351676	1.9591	0	
0.208273	2.11425	0	
0.167719	1.94121	0	
7.29173	2.11425	0	
7.14832	1.9591	0	
7.33228	1.94121	0	
6.65	0.379224	0	
6.50103	0.523214	0	
6.49029	0.36969	0	
0.233167	2.3381	0	
0	2.4	0	
0.126927	2.24558	0	
7.5	2.4	0	
7.26683	2.3381	0	
7.37307	2.24558	0	
6.94178	1.2844	0	
7.1359	1.40638	0	
6.9433	1.522	0	
0.364096	1.40638	0	
0.558219	1.2844	0	
0.556695	1.522	0	
0.504144	2.05394	0	
0.351676	1.9591	0	
0.542238	1.86669	0	
7.14832	1.9591	0	
6.99586	2.05394	0	
6.95776	1.86669	0	
1.22598	0.562806	0	
1.06883	0.508923	0	
1.15606	0.371288	0	
7.03319	0.177224	0	
6.8668	0.288039	0	
6.84283	0.129028	0	
7.1359	1.40638	0	
7.28717	1.2482	0	
7.34003	1.40731	0	
0.212829	1.2482	0	
0.364096	1.40638	0	
0.159965	1.40731	0	
0.364096	1.40638	0	
0.213051	1.56625	0	
0.159965	1.40731	0	
7.28695	1.56625	0	
7.1359	1.40638	0	
7.34003	1.40731	0	
1.36153	0.369478	0	
1.22598	0.562806	0	
1.15606	0.371288	0	
7.26353	1.03527	0	
7.5	1	0	
7.38768	1.12087	0	
0	1	0	
0.23647	1.03527	0	
0.112325	1.12087	0	
7.5	2	0	
7.29173	2.11425	0	
7.33228	1.94121	0	
0.208273	2.11425	0	
0	2	0	
0.167719	1.94121	0	
7.10967	0.847159	0	
6.94961	0.947525	0	
6.92287	0.774865	0	
0.550391	0.947525	0	
0.390332	0.847159	0	
0.577126	0.774865	0	
6.15	0.75	0	
5.95	0.75	0	
6.02241	0.580052	0	
0.243169	1.77066	0	
0	1.8	0	
0.114055	1.68423	0	
7.5	1.8	0	
7.25683	1.77066	0	
7.38595	1.68423	0	
0.215231	2.54333	0	
0.236767	2.72141	0	
0.110476	2.7	0	
7.26323	2.72141	0	
7.28477	2.54333	0	
7.38952	2.7	0	
7.5	2.4	0	
7.5	2.6	0	
7.28477	2.54333	0	
0	2.6	0	
0	2.4	0	
0.215231	2.54333	0	
6.18033	0.518618	0	
6.00307	0.36808	0	
6.1844	0.363239	0	
1.24133	0.181301	0	
1.36153	0.369478	0	
1.15606	0.371288	0	
0.386933	2.52895	0	
0.567393	2.59452	0	
0.3756	2.67849	0	
6.93261	2.59452	0	
7.11307	2.52895	0	
7.1244	2.67849	0	
0.789474	0	0	
0.986842	0	0	
0.919633	0.170925	0	
0.208273	2.11425	0	
0.233167	2.3381	0	
0.126927	2.24558	0	
7.26683	2.3381	0	
7.29173	2.11425	0	
7.37307	2.24558	0	
0.386933	2.52895	0	
0.549776	2.42847	0	
0.567393	2.59452	0	
6.95022	2.42847	0	
7.11307	2.52895	0	
6.93261	2.59452	0	
6.75	0.75	0	
6.55	0.75	0	
6.68726	0.584167	0	
0.787489	0.335177	0	
0.919633	0.170925	0	
0.974591	0.36305	0	
1.75	0.75	0	
1.55	0.75	0	
1.65597	0.560492	0	
0.919633	0.170925	0	
1.06407	0.242171	0	
0.974591	0.36305	0	
0.866638	0.559109	0	
1.06883	0.508923	0	
1.05	0.649466	0	
0.558219	1.2844	0	
0.455745	1.11919	0	
0.604097	1.08811	0	
7.04425	1.11919	0	
6.94178	1.2844	0	
6.8959	1.08811	0	
0.95	0.75	0	
0.75	0.75	0	
0.866638	0.559109	0	
0.45596	1.69322	0	
0.556695	1.522	0	
0.604119	1.72407	0	
6.9433	1.522	0	
7.04404	1.69322	0	
6.89588	1.72407	0	
5.75	0.75	0	
5.55	0.75	0	
5.6509	0.555507	0	
0	2.2	0	
0.208273	2.11425	0	
0.126927	2.24558	0	
7.29173	2.11425	0	
7.5	2.2	0	
7.37307	2.24558	0	
1.24133	0.181301	0	
1.06407	0.242171	0	
1.08553	0.101929	0	
2.15	0.75	0	
1.95	0.75	0	
2.05267	0.561203	0	
0.919633	0.170925	0	
0.986842	0	0	
1.08553	0.101929	0	
6.35	0.75	0	
6.15	0.75	0	
6.33034	0.602068	0	
1.35	0.75	0	
1.15	0.75	0	
1.22598	0.562806	0	
6.51316	0	0	
6.51637	0.218294	0	
6.36371	0.15739	0	
5.35	0.75	0	
5.15	0.75	0	
5.24909	0.561588	0	
2.55	0.75	0	
2.35	0.75	0	
2.44436	0.557989	0	
6.17763	0.199505	0	
6.00307	0.36808	0	
5.99811	0.158853	0	
6.65	0.379224	0	
6.51637	0.218294	0	
6.69575	0.179877	0	
6.11842	0	0	
6.17763	0.199505	0	
5.99811	0.158853	0	
4.95	0.75	0	
4.75	0.75	0	
4.8572	0.55828	0	
6.33553	0.319482	0	
6.17763	0.199505	0	
6.36371	0.15739	0	
2.95	0.75	0	
2.75	0.75	0	
2.84124	0.55858	0	
7.5	1.8	0	
7.5	2	0	
7.33228	1.94121	0	
0	2	0	
0	1.8	0	
0.167719	1.94121	0	
0.457883	2.25035	0	
0.504144	2.05394	0	
0.631231	2.15109	0	
6.99586	2.05394	0	
7.04212	2.25035	0	
6.86877	2.15109	0	
3.55263	0	0	
3.75	0	0	
3.65131	0.216449	0	
4.55	0.75	0	
4.35	0.75	0	
4.46032	0.558889	0	
3.94737	0	0	
4.14474	0	0	
4.06148	0.189901	0	
3.15789	0	0	
3.35526	0	0	
3.24119	0.189695	0	
6.95776	1.86669	0	
6.75	1.875	0	
6.89588	1.72407	0	
0.75	1.875	0	
0.542238	1.86669	0	
0.604119	1.72407	0	
0.75	2.4375	0	
0.549776	2.42847	0	
0.624379	2.29972	0	
6.95022	2.42847	0	
6.75	2.4375	0	
6.87562	2.29972	0	
6.75	0.9375	0	
6.94961	0.947525	0	
6.8959	1.08811	0	
0.550391	0.947525	0	
0.75	0.9375	0	
0.604097	1.08811	0	
4.34211	0	0	
4.53947	0	0	
4.45612	0.189485	0	
2.76316	0	0	
2.96053	0	0	
2.84656	0.18928	0	
4.73684	0	0	
4.93421	0	0	
4.85076	0.189082	0	
3.35	0.75	0	
3.15	0.75	0	
3.23816	0.559195	0	
2.36842	0	0	
2.56579	0	0	
2.45192	0.18889	0	
5.13158	0	0	
5.32895	0	0	
5.24541	0.188704	0	
1.97368	0	0	
2.17105	0	0	
2.05727	0.188524	0	
5.52632	0	0	
5.72368	0	0	
5.63964	0.190784	0	
1.57895	0	0	
1.77632	0	0	
1.6626	0.188166	0	
4.15	0.75	0	
3.95	0.75	0	
4.06335	0.559494	0	
1.18421	0	0	
1.38158	0	0	
1.24133	0.181301	0	
3.75	0.75	0	
3.55	0.75	0	
3.65079	0.533282	0	
0.208273	2.11425	0	
0.351676	1.9591	0	
0.351028	2.14315	0	
7.14832	1.9591	0	
7.29173	2.11425	0	
7.14897	2.14315	0	
1.06407	0.242171	0	
0.919633	0.170925	0	
1.08553	0.101929	0	
6.94961	0.947525	0	
6.75	0.9375	0	
6.92287	0.774865	0	
0.75	0.9375	0	
0.550391	0.947525	0	
0.577126	0.774865	0	
0.624379	2.29972	0	
0.457883	2.25035	0	
0.631231	2.15109	0	
7.04212	2.25035	0	
6.87562	2.29972	0	
6.86877	2.15109	0	
1.22598	0.562806	0	
1.15	0.75	0	
1.05	0.649466	0	
6.75	1.875	0	
6.75	1.6875	0	
6.89588	1.72407	0	
0.75	1.6875	0	
0.75	1.875	0	
0.604119	1.72407	0	
0.567393	2.59452	0	
0.516551	2.7404	0	
0.3756	2.67849	0	
6.98345	2.7404	0	
6.93261	2.59452	0	
7.1244	2.67849	0	
6.31579	0	0	
6.51316	0	0	
6.36371	0.15739	0	
6.75	1.125	0	
6.75	0.9375	0	
6.8959	1.08811	0	
0.75	0.9375	0	
0.75	1.125	0	
0.604097	1.08811	0	
7.28717	1.2482	0	
7.26353	1.03527	0	
7.38768	1.12087	0	
0.23647	1.03527	0	
0.212829	1.2482	0	
0.112325	1.12087	0	
0.75	2.25	0	
0.75	2.4375	0	
0.624379	2.29972	0	
6.75	2.4375	0	
6.75	2.25	0	
6.87562	2.29972	0	
7.28717	1.2482	0	
7.1359	1.40638	0	
7.13003	1.25193	0	
0.364096	1.40638	0	
0.212829	1.2482	0	
0.369974	1.25193	0	
6.84562	0.478216	0	
6.95871	0.623061	0	
6.82692	0.624349	0	
0.541288	0.623061	0	
0.65438	0.478216	0	
0.673083	0.624349	0	
5.92105	0	0	
6.11842	0	0	
5.99811	0.158853	0	
1.06883	0.508923	0	
1.22598	0.562806	0	
1.05	0.649466	0	
0.65438	0.478216	0	
0.866638	0.559109	0	
0.673083	0.624349	0	
6.68726	0.584167	0	
6.84562	0.478216	0	
6.82692	0.624349	0	
0.213051	1.56625	0	
0.364096	1.40638	0	
0.371716	1.56007	0	
7.1359	1.40638	0	
7.28695	1.56625	0	
7.12828	1.56007	0	
7.5	1.2	0	
7.28717	1.2482	0	
7.38768	1.12087	0	
0.212829	1.2482	0	
0	1.2	0	
0.112325	1.12087	0	
6.75	0.9375	0	
6.75	0.75	0	
6.92287	0.774865	0	
0.75	0.75	0	
0.75	0.9375	0	
0.577126	0.774865	0	
0.213051	1.56625	0	
0.243169	1.77066	0	
0.114055	1.68423	0	
7.25683	1.77066	0	
7.28695	1.56625	0	
7.38595	1.68423	0	
0	1.6	0	
0.213051	1.56625	0	
0.114055	1.68423	0	
7.28695	1.56625	0	
7.5	1.6	0	
7.38595	1.68423	0	
0.75	3	0	
0.5625	3	0	
0.59952	2.85545	0	
0.75	2.8125	0	
0.75	3	0	
0.59952	2.85545	0	
6.75	3	0	
6.75	2.8125	0	
6.90048	2.85545	0	
6.9375	3	0	
6.75	3	0	
6.90048	2.85545	0	
0.504144	2.05394	0	
0.457883	2.25035	0	
0.351028	2.14315	0	
7.04212	2.25035	0	
6.99586	2.05394	0	
7.14897	2.14315	0	
7.5	2.8	0	
7.5	3	0	
7.34835	2.84639	0	
0	3	0	
0	2.8	0	
0.151654	2.84639	0	
0.351676	1.9591	0	
0.504144	2.05394	0	
0.351028	2.14315	0	
6.99586	2.05394	0	
7.14832	1.9591	0	
7.14897	2.14315	0	
0.1875	3	0	
0	3	0	
0.151654	2.84639	0	
7.5	3	0	
7.3125	3	0	
7.34835	2.84639	0	
0.95	0.75	0	
0.866638	0.559109	0	
1.05	0.649466	0	
0	2.4	0	
0	2.2	0	
0.126927	2.24558	0	
7.5	2.2	0	
7.5	2.4	0	
7.37307	2.24558	0	
6.94178	1.2844	0	
6.9433	1.522	0	
6.84627	1.40473	0	
0.556695	1.522	0	
0.558219	1.2844	0	
0.653729	1.40473	0	
0	0.2	0	
0	0	0	
0.144686	0.145396	0	
7.5	0	0	
7.5	0.2	0	
7.35531	0.145396	0	
1.18421	0	0	
1.24133	0.181301	0	
1.08553	0.101929	0	
0	0	0	
0.197368	0	0	
0.144686	0.145396	0	
7.30263	0	0	
7.5	0	0	
7.35531	0.145396	0	
6.95776	1.86669	0	
6.99586	2.05394	0	
6.85612	1.97763	0	
0.504144	2.05394	0	
0.542238	1.86669	0	
0.643877	1.97763	0	
6.94178	1.2844	0	
7.04425	1.11919	0	
7.13003	1.25193	0	
0.455745	1.11919	0	
0.558219	1.2844	0	
0.369974	1.25193	0	
0.558219	1.2844	0	
0.364096	1.40638	0	
0.369974	1.25193	0	
7.1359	1.40638	0	
6.94178	1.2844	0	
7.13003	1.25193	0	
0.556695	1.522	0	
0.45596	1.69322	0	
0.371716	1.56007	0	
7.04404	1.69322	0	
6.9433	1.522	0	
7.12828	1.56007	0	
0.364096	1.40638	0	
0.556695	1.522	0	
0.371716	1.56007	0	
6.9433	1.522	0	
7.1359	1.40638	0	
7.12828	1.56007	0	
6.51637	0.218294	0	
6.33553	0.319482	0	
6.36371	0.15739	0	
6.75	0.75	0	
6.68726	0.584167	0	
6.82692	0.624349	0	
0.866638	0.559109	0	
0.75	0.75	0	
0.673083	0.624349	0	
6.33553	0.319482	0	
6.51637	0.218294	0	
6.49029	0.36969	0	
6.51637	0.218294	0	
6.65	0.379224	0	
6.49029	0.36969	0	
0.457883	2.25035	0	
0.549776	2.42847	0	
0.375147	2.3936	0	
6.95022	2.42847	0	
7.04212	2.25035	0	
7.12485	2.3936	0	
0.549776	2.42847	0	
0.386933	2.52895	0	
0.375147	2.3936	0	
7.11307	2.52895	0	
6.95022	2.42847	0	
7.12485	2.3936	0	
0.592105	0	0	
0.789474	0	0	
0.738215	0.154296	0	
6.00307	0.36808	0	
6.17763	0.199505	0	
6.1844	0.363239	0	
7.04425	1.11919	0	
6.94961	0.947525	0	
7.12108	0.984904	0	
0.550391	0.947525	0	
0.455745	1.11919	0	
0.378916	0.984904	0	
6.17763	0.199505	0	
6.33553	0.319482	0	
6.1844	0.363239	0	
0.45596	1.69322	0	
0.542238	1.86669	0	
0.382685	1.81803	0	
6.95776	1.86669	0	
7.04404	1.69322	0	
7.11732	1.81803	0	
6.94961	0.947525	0	
7.10967	0.847159	0	
7.12108	0.984904	0	
0.390332	0.847159	0	
0.550391	0.947525	0	
0.378916	0.984904	0	
0.542238	1.86669	0	
0.351676	1.9591	0	
0.382685	1.81803	0	
7.14832	1.9591	0	
6.95776	1.86669	0	
7.11732	1.81803	0	
7.5	1	0	
7.5	1.2	0	
7.38768	1.12087	0	
0	1.2	0	
0	1	0	
0.112325	1.12087	0	
0.549776	2.42847	0	
0.457883	2.25035	0	
0.624379	2.29972	0	
7.04212	2.25035	0	
6.95022	2.42847	0	
6.87562	2.29972	0	
6.75	1.875	0	
6.95776	1.86669	0	
6.85612	1.97763	0	
0.542238	1.86669	0	
0.75	1.875	0	
0.643877	1.97763	0	
0.558219	1.2844	0	
0.75	1.3125	0	
0.653729	1.40473	0	
6.75	1.3125	0	
6.94178	1.2844	0	
6.84627	1.40473	0	
0.75	1.5	0	
0.556695	1.522	0	
0.653729	1.40473	0	
6.9433	1.522	0	
6.75	1.5	0	
6.84627	1.40473	0	
6.94961	0.947525	0	
7.04425	1.11919	0	
6.8959	1.08811	0	
0.455745	1.11919	0	
0.550391	0.947525	0	
0.604097	1.08811	0	
0.542238	1.86669	0	
0.45596	1.69322	0	
0.604119	1.72407	0	
7.04404	1.69322	0	
6.95776	1.86669	0	
6.89588	1.72407	0	
0	2.6	0	
0.215231	2.54333	0	
0.110476	2.7	0	
7.28477	2.54333	0	
7.5	2.6	0	
7.38952	2.7	0	
0	1.8	0	
0	1.6	0	
0.114055	1.68423	0	
7.5	1.6	0	
7.5	1.8	0	
7.38595	1.68423	0	
7.5	0.6	0	
7.5	0.8	0	
7.38339	0.714129	0	
0	0.8	0	
0	0.6	0	
0.116612	0.714129	0	
0.789474	0	0	
0.919633	0.170925	0	
0.738215	0.154296	0	
6.71053	0	0	
6.90789	0	0	
6.84283	0.129028	0	
6.92287	0.774865	0	
6.75	0.75	0	
6.82692	0.624349	0	
0.75	0.75	0	
0.577126	0.774865	0	
0.673083	0.624349	0	
0.42802	0.182817	0	
0.266395	0.271932	0	
0.296053	0.111198	0	
7.23361	0.271932	0	
7.03319	0.177224	0	
7.20395	0.111198	0	
6.95871	0.623061	0	
6.92287	0.774865	0	
6.82692	0.624349	0	
0.577126	0.774865	0	
0.541288	0.623061	0	
0.673083	0.624349	0	
0.394737	0	0	
0.42802	0.182817	0	
0.296053	0.111198	0	
7.03319	0.177224	0	
7.10526	0	0	
7.20395	0.111198	0	
7.5	0.2	0	
7.5	0.4	0	
7.3881	0.3	0	
0	0.4	0	
0	0.2	0	
0.111902	0.3	0	
0	2.8	0	
0	2.6	0	
0.110476	2.7	0	
7.5	2.6	0	
7.5	2.8	0	
7.38952	2.7	0	
7.10526	0	0	
7.30263	0	0	
7.20395	0.111198	0	
0.197368	0	0	
0.394737	0	0	
0.296053	0.111198	0	
0.75	2.625	0	
0.75	2.8125	0	
0.63973	2.72424	0	
6.75	2.8125	0	
6.75	2.625	0	
6.86027	2.72424	0	
7.5	0.8	0	
7.2795	0.83696	0	
7.38339	0.714129	0	
0.220504	0.83696	0	
0	0.8	0	
0.116612	0.714129	0	
6.75	1.5	0	
6.75	1.3125	0	
6.84627	1.40473	0	
0.75	1.3125	0	
0.75	1.5	0	
0.653729	1.40473	0	
0.75	1.875	0	
0.75	2.0625	0	
0.643877	1.97763	0	
6.75	2.0625	0	
6.75	1.875	0	
6.85612	1.97763	0	
7.32655	0.43998	0	
7.23361	0.271932	0	
7.3881	0.3	0	
0.266395	0.271932	0	
0.173449	0.43998	0	
0.111902	0.3	0	
1.15	0.75	0	
0.95	0.75	0	
1.05	0.649466	0	
0.986842	0	0	
1.18421	0	0	
1.08553	0.101929	0	
0.643877	1.97763	0	
0.75	2.0625	0	
0.631231	2.15109	0	
6.75	2.0625	0	
6.85612	1.97763	0	
6.86877	2.15109	0	
0.75	2.0625	0	
0.75	2.25	0	
0.631231	2.15109	0	
6.75	2.25	0	
6.75	2.0625	0	
6.86877	2.15109	0	
7.5	0.4	0	
7.32655	0.43998	0	
7.3881	0.3	0	
0.173449	0.43998	0	
0	0.4	0	
0.111902	0.3	0	
6.69575	0.179877	0	
6.71053	0	0	
6.84283	0.129028	0	
0.504144	2.05394	0	
0.643877	1.97763	0	
0.631231	2.15109	0	
6.85612	1.97763	0	
6.99586	2.05394	0	
6.86877	2.15109	0	
6.8668	0.288039	0	
6.69575	0.179877	0	
6.84283	0.129028	0	
6.33553	0.319482	0	
6.49029	0.36969	0	
6.33581	0.454813	0	
0.567393	2.59452	0	
0.75	2.625	0	
0.63973	2.72424	0	
6.75	2.625	0	
6.93261	2.59452	0	
6.86027	2.72424	0	
6.49029	0.36969	0	
6.50103	0.523214	0	
6.33581	0.454813	0	
0.516551	2.7404	0	
0.375178	2.85696	0	
0.3756	2.67849	0	
7.12482	2.85696	0	
6.98345	2.7404	0	
7.1244	2.67849	0	
6.1844	0.363239	0	
6.33553	0.319482	0	
6.33581	0.454813	0	
0.516551	2.7404	0	
0.567393	2.59452	0	
0.63973	2.72424	0	
6.93261	2.59452	0	
6.98345	2.7404	0	
6.86027	2.72424	0	
6.18033	0.518618	0	
6.1844	0.363239	0	
6.33581	0.454813	0	
0.375178	2.85696	0	
0.236767	2.72141	0	
0.3756	2.67849	0	
7.26323	2.72141	0	
7.12482	2.85696	0	
7.1244	2.67849	0	
7.34835	2.84639	0	
7.26323	2.72141	0	
7.38952	2.7	0	
0.236767	2.72141	0	
0.151654	2.84639	0	
0.110476	2.7	0	
0.144686	0.145396	0	
0.266395	0.271932	0	
0.111902	0.3	0	
7.23361	0.271932	0	
7.35531	0.145396	0	
7.3881	0.3	0	
0.151654	2.84639	0	
0	2.8	0	
0.110476	2.7	0	
7.5	2.8	0	
7.34835	2.84639	0	
7.38952	2.7	0	
0	0.2	0	
0.144686	0.145396	0	
0.111902	0.3	0	
7.35531	0.145396	0	
7.5	0.2	0	
7.3881	0.3	0	
7.35531	0.145396	0	
7.23361	0.271932	0	
7.20395	0.111198	0	
0.266395	0.271932	0	
0.144686	0.145396	0	
0.296053	0.111198	0	
7.30263	0	0	
7.35531	0.145396	0	
7.20395	0.111198	0	
0.144686	0.145396	0	
0.197368	0	0	
0.296053	0.111198	0	
1.06883	0.508923	0	
0.974591	0.36305	0	
1.15606	0.371288	0	
0.59952	2.85545	0	
0.516551	2.7404	0	
0.63973	2.72424	0	
6.98345	2.7404	0	
6.90048	2.85545	0	
6.86027	2.72424	0	
0.75	2.8125	0	
0.59952	2.85545	0	
0.63973	2.72424	0	
6.90048	2.85545	0	
6.75	2.8125	0	
6.86027	2.72424	0	
6.87562	2.29972	0	
6.75	2.25	0	
6.86877	2.15109	0	
0.75	2.25	0	
0.624379	2.29972	0	
0.631231	2.15109	0	
0.974591	0.36305	0	
1.06407	0.242171	0	
1.15606	0.371288	0	
6.50103	0.523214	0	
6.33034	0.602068	0	
6.33581	0.454813	0	
6.33034	0.602068	0	
6.18033	0.518618	0	
6.33581	0.454813	0	
CELLS 574 2296
3	0	1	2	
3	3	4	5	
3	6	7	8	
3	9	10	11	
3	12	13	14	
3	15	16	17	
3	18	19	20	
3	21	22	23	
3	24	25	26	
3	27	28	29	
3	30	31	32	
3	33	34	35	
3	36	37	38	
3	39	40	41	
3	42	43	44	
3	45	46	47	
3	48	49	50	
3	51	52	53	
3	54	55	56	
3	57	58	59	
3	60	61	62	
3	63	64	65	
3	66	67	68	
3	69	70	71	
3	72	73	74	
3	75	76	77	
3	78	79	80	
3	81	82	83	
3	84	85	86	
3	87	88	89	
3	90	91	92	
3	93	94	95	
3	96	97	98	
3	99	100	101	
3	102	103	104	
3	105	106	107	
3	108	109	110	
3	111	112	113	
3	114	115	116	
3	117	118	119	
3	120	121	122	
3	123	124	125	
3	126	127	128	
3	129	130	131	
3	132	133	134	
3	135	136	137	
3	138	139	140	
3	141	142	143	
3	144	145	146	
3	147	148	149	
3	150	151	152	
3	153	154	155	
3	156	157	158	
3	159	160	161	
3	162	163	164	
3	165	166	167	
3	168	169	170	
3	171	172	173	
3	174	175	176	
3	177	178	179	
3	180	181	182	
3	183	184	185	
3	186	187	188	
3	189	190	191	
3	192	193	194	
3	195	196	197	
3	198	199	200	
3	201	202	203	
3	204	205	206	
3	207	208	209	
3	210	211	212	
3	213	214	215	
3	216	217	218	
3	219	220	221	
3	222	223	224	
3	225	226	227	
3	228	229	230	
3	231	232	233	
3	234	235	236	
3	237	238	239	
3	240	241	242	
3	243	244	245	
3	246	247	248	
3	249	250	251	
3	252	253	254	
3	255	256	257	
3	258	259	260	
3	261	262	263	
3	264	265	266	
3	267	268	269	
3	270	271	272	
3	273	274	275	
3	276	277	278	
3	279	280	281	
3	282	283	284	
3	285	286	287	
3	288	289	290	
3	291	292	293	
3	294	295	296	
3	297	298	299	
3	300	301	302	
3	303	304	305	
3	306	307	308	
3	309	310	311	
3	312	313	314	
3	315	316	317	
3	318	319	320	
3	321	322	323	
3	324	325	326	
3	327	328	329	
3	330	331	332	
3	333	334	335	
3	336	337	338	
3	339	340	341	
3	342	343	344	
3	345	346	347	
3	348	349	350	
3	351	352	353	
3	354	355	356	
3	357	358	359	
3	360	361	362	
3	363	364	365	
3	366	367	368	
3	369	370	371	
3	372	373	374	
3	375	376	377	
3	378	379	380	
3	381	382	383	
3	384	385	386	
3	387	388	389	
3	390	391	392	
3	393	394	395	
3	396	397	398	
3	399	400	401	
3	402	403	404	
3	405	406	407	
3	408	409	410	
3	411	412	413	
3	414	415	416	
3	417	418	419	
3	420	421	422	
3	423	424	425	
3	426	427	428	
3	429	430	431	
3	432	433	434	
3	435	436	437	
3	438	439	440	
3	441	442	443	
3	444	445	446	
3	447	448	449	
3	450	451	452	
3	453	454	455	
3	456	457	458	
3	459	460	461	
3	462	463	464	
3	465	466	467	
3	468	469	470	
3	471	472	473	
3	474	475	476	
3	477	478	479	
3	480	481	482	
3	483	484	485	
3	486	487	488	
3	489	490	491	
3	492	493	494	
3	495	496	497	
3	498	499	500	
3	501	502	503	
3	504	505	506	
3	507	508	509	
3	510	511	512	
3	513	514	515	
3	516	517	518	
3	519	520	521	
3	522	523	524	
3	525	526	527	
3	528	529	530	
3	531	532	533	
3	534	535	536	
3	537	538	539	
3	540	541	542	
3	543	544	545	
3	546	547	548	
3	549	550	551	
3	552	553	554	
3	555	556	557	
3	558	559	560	
3	561	562	563	
3	564	565	566	
3	567	568	569	
3	570	571	572	
3	573	574	575	
3	576	577	578	
3	579	580	581	
3	582	583	584	
3	585	586	587	
3	588	589	590	
3	591	592	593	
3	594	595	596	
3	597	598	599	
3	600	601	602	
3	603	604	605	
3	606	607	608	
3	609	610	611	
3	612	613	614	
3	615	616	617	
3	618	619	620	
3	621	622	623	
3	624	625	626	
3	627	628	629	
3	630	631	632	
3	633	634	635	
3	636	637	638	
3	639	640	641	
3	642	643	644	
3	645	646	647	
3	648	649	650	
3	651	652	653	
3	654	655	656	
3	657	658	659	
3	660	661	662	
3	663	664	665	
3	666	667	668	
3	669	670	671	
3	672	673	674	
3	675	676	677	
3	678	679	680	
3	681	682	683	
3	684	685	686	
3	687	688	689	
3	690	691	692	
3	693	694	695	
3	696	697	698	
3	699	700	701	
3	702	703	704	
3	705	706	707	
3	708	709	710	
3	711	712	713	
3	714	715	716	
3	717	718	719	
3	720	721	722	
3	723	724	725	
3	726	727	728	
3	729	730	731	
3	732	733	734	
3	735	736	737	
3	738	739	740	
3	741	742	743	
3	744	745	746	
3	747	748	749	
3	750	751	752	
3	753	754	755	
3	756	757	758	
3	759	760	761	
3	762	763	764	
3	765	766	767	
3	768	769	770	
3	771	772	773	
3	774	775	776	
3	777	778	779	
3	780	781	782	
3	783	784	785	
3	786	787	788	
3	789	790	791	
3	792	793	794	
3	795	796	797	
3	798	799	800	
3	801	802	803	
3	804	805	806	
3	807	808	809	
3	810	811	812	
3	813	814	815	
3	816	817	818	
3	819	820	821	
3	822	823	824	
3	825	826	827	
3	828	829	830	
3	831	832	833	
3	834	835	836	
3	837	838	839	
3	840	841	842	
3	843	844	845	
3	846	847	848	
3	849	850	851	
3	852	853	854	
3	855	856	857	
3	858	859	860	
3	861	862	863	
3	864	865	866	
3	867	868	869	
3	870	871	872	
3	873	874	875	
3	876	877	878	
3	879	880	881	
3	882	883	884	
3	885	886	887	
3	888	889	890	
3	891	892	893	
3	894	895	896	
3	897	898	899	
3	900	901	902	
3	903	904	905	
3	906	907	908	
3	909	910	911	
3	912	913	914	
3	915	916	917	
3	918	919	920	
3	921	922	923	
3	924	925	926	
3	927	928	929	
3	930	931	932	
3	933	934	935	
3	936	937	938	
3	939	940	941	
3	942	943	944	
3	945	946	947	
3	948	949	950	
3	951	952	953	
3	954	955	956	
3	957	958	959	
3	960	961	962	
3	963	964	965	
3	966	967	968	
3	969	970	971	
3	972	973	974	
3	975	976	977	
3	978	979	980	
3	981	982	983	
3	984	985	986	
3	987	988	989	
3	990	991	992	
3	993	994	995	
3	996	997	998	
3	999	1000	1001	
3	1002	1003	1004	
3	1005	1006	1007	
3	1008	1009	1010	
3	1011	1012	1013	
3	1014	1015	1016	
3	1017	1018	1019	
3	1020	1021	1022	
3	1023	1024	1025	
3	1026	1027	1028	
3	1029	1030	1031	
3	1032	1033	1034	
3	1035	1036	1037	
3	1038	1039	1040	
3	1041	1042	1043	
3	1044	1045	1046	
3	1047	1048	1049	
3	1050	1051	1052	
3	1053	1054	1055	
3	1056	1057	1058	
3	1059	1060	1061	
3	1062	1063	1064	
3	1065	1066	1067	
3	1068	1069	1070	
3	1071	1072	1073	
3	1074	1075	1076	
3	1077	1078	1079	
3	1080	1081	1082	
3	1083	1084	1085	
3	1086	1087	1088	
3	1089	1090	1091	
3	1092	1093	1094	
3	1095	1096	1097	
3	1098	1099	1100	
3	1101	1102	1103	
3	1104	1105	1106	
3	1107	1108	1109	
3	1110	1111	1112	
3	1113	1114	1115	
3	1116	1117	1118	
3	1119	1120	1121	
3	1122	1123	1124	
3	1125	1126	1127	
3	1128	1129	1130	
3	1131	1132	1133	
3	1134	1135	1136	
3	1137	1138	1139	
3	1140	1141	1142	
3	1143	1144	1145	
3	1146	1147	1148	
3	1149	1150	1151	
3	1152	1153	1154	
3	1155	1156	1157	
3	1158	1159	1160	
3	1161	1162	1163	
3	1164	1165	1166	
3	1167	1168	1169	
3	1170	1171	1172	
3	1173	1174	1175	
3	1176	1177	1178	
3	1179	1180	1181	
3	1182	1183	1184	
3	1185	1186	1187	
3	1188	1189	1190	
3	1191	1192	1193	
3	1194	1195	1196	
3	1197	1198	1199	
3	1200	1201	1202	
3	1203	1204	1205	
3	1206	1207	1208	
3	1209	1210	1211	
3	1212	1213	1214	
3	1215	1216	1217	
3	1218	1219	1220	
3	1221	1222	1223	
3	1224	1225	1226	
3	1227	1228	1229	
3	1230	1231	1232	
3	1233	1234	1235	
3	1236	1237	1238	
3	1239	1240	1241	
3	1242	1243	1244	
3	1245	1246	1247	
3	1248	1249	1250	
3	1251	1252	1253	
3	1254	1255	1256	
3	1257	1258	1259	
3	1260	1261	1262	
3	1263	1264	1265	
3	1266	1267	1268	
3	1269	1270	1271	
3	1272	1273	1274	
3	1275	1276	1277	
3	1278	1279	1280	
3	1281	1282	1283	
3	1284	1285	1286	
3	1287	1288	1289	
3	1290	1291	1292	
3	1293	1294	1295	
3	1296	1297	1298	
3	1299	1300	1301	
3	1302	1303	1304	
3	1305	1306	1307	
3	1308	1309	1310	
3	1311	1312	1313	
3	1314	1315	1316	
3	1317	1318	1319	
3	1320	1321	1322	
3	1323	1324	1325	
3	1326	1327	1328	
3	1329	1330	1331	
3	1332	1333	1334	
3	1335	1336	1337	
3	1338	1339	1340	
3	1341	1342	1343	
3	1344	1345	1346	
3	1347	1348	1349	
3	1350	1351	1352	
3	1353	1354	1355	
3	1356	1357	1358	
3	1359	1360	1361	
3	1362	1363	1364	
3	1365	1366	1367	
3	1368	1369	1370	
3	1371	1372	1373	
3	1374	1375	1376	
3	1377	1378	1379	
3	1380	1381	1382	
3	1383	1384	1385	
3	1386	1387	1388	
3	1389	1390	1391	
3	1392	1393	1394	
3	1395	1396	1397	
3	1398	1399	1400	
3	1401	1402	1403	
3	1404	1405	1406	
3	1407	1408	1409	
3	1410	1411	1412	
3	1413	1414	1415	
3	1416	1417	1418	
3	1419	1420	1421	
3	1422	1423	1424	
3	1425	1426	1427	
3	1428	1429	1430	
3	1431	1432	1433	
3	1434	1435	1436	
3	1437	1438	1439	
3	1440	1441	1442	
3	1443	1444	1445	
3	1446	1447	1448	
3	1449	1450	1451	
3	1452	1453	1454	
3	1455	1456	1457	
3	1458	1459	1460	
3	1461	1462	1463	
3	1464	1465	1466	
3	1467	1468	1469	
3	1470	1471	1472	
3	1473	1474	1475	
3	1476	1477	1478	
3	1479	1480	1481	
3	1482	1483	1484	
3	1485	1486	1487	
3	1488	1489	1490	
3	1491	1492	1493	
3	1494	1495	1496	
3	1497	1498	1499	
3	1500	1501	1502	
3	1503	1504	1505	
3	1506	1507	1508	
3	1509	1510	1511	
3	1512	1513	1514	
3	1515	1516	1517	
3	1518	1519	1520	
3	1521	1522	1523	
3	1524	1525	1526	
3	1527	1528	1529	
3	1530	1531	1532	
3	1533	1534	1535	
3	1536	1537	1538	
3	1539	1540	1541	
3	1542	1543	1544	
3	1545	1546	1547	
3	1548	1549	1550	
3	1551	1552	1553	
3	1554	1555	1556	
3	1557	1558	1559	
3	1560	1561	1562	
3	1563	1564	1565	
3	1566	1567	1568	
3	1569	1570	1571	
3	1572	1573	1574	
3	1575	1576	1577	
3	1578	1579	1580	
3	1581	1582	1583	
3	1584	1585	1586	
3	1587	1588	1589	
3	1590	1591	1592	
3	1593	1594	1595	
3	1596	1597	1598	
3	1599	1600	1601	
3	1602	1603	1604	
3	1605	1606	1607	
3	1608	1609	1610	
3	1611	1612	1613	
3	1614	1615	1616	
3	1617	1618	1619	
3	1620	1621	1622	
3	1623	1624	1625	
3	1626	1627	1628	
3	1629	1630	1631	
3	1632	1633	1634	
3	1635	1636	1637	
3	1638	1639	1640	
3	1641	1642	1643	
3	1644	1645	1646	
3	1647	1648	1649	
3	1650	1651	1652	
3	1653	1654	1655	
3	1656	1657	1658	
3	1659	1660	1661	
3	1662	1663	1664	
3	1665	1666	1667	
3	1668	1669	1670	
3	1671	1672	1673	
3	1674	1675	1676	
3	1677	1678	1679	
3	1680	1681	1682	
3	1683	1684	1685	
3	1686	1687	1688	
3	1689	1690	1691	
3	1692	1693	1694	
3	1695	1696	1697	
3	1698	1699	1700	
3	1701	1702	1703	
3	1704	1705	1706	
3	1707	1708	1709	
3	1710	1711	1712	
3	1713	1714	1715	
3	1716	1717	1718	
3	1719	1720	1721	
CELL_TYPES 574
5
5
5
5
5
5
5
5
5
5
5
5
5
5
5
5
5
5
5
5
5
5
5
5
5
5
5
5
5
5
5
5
5
5
5
5
5
5
5
5
5
5
5
5
5
5
5
5
5
5
5
5
5
5
5
5
5
5
5
5
5
5
5
5
5
5
5
5
5
5
5
5
5
5
5
5
5
5
5
5
5
5
5
5
5
5
5
5
5
5
5
5
5
5
5
5
5
5
5
5
5
5
5
5
5
5
5
5
5
5
5
5
5
5
5
5
5
5
5
5
5
5
5
5
5
5
5
5
5
5
5
5
5
5
5
5
5
5
5
5
5
5
5
5
5
5
5
5
5
5
5
5
5
5
5
5
5
5
5
5
5
5
5
5
5
5
5
5
5
5
5
5
5
5
5
5
5
5
5
5
5
5
5
5
5
5
5
5
5
5
5
5
5
5
5
5
5
5
5
5
5
5
5
5
5
5
5
5
5
5
5
5
5
5
5
5
5
5
5
5
5
5
5
5
5
5
5
5
5
5
5
5
5
5
5
5
5
5
5
5
5
5
5
5
5
5
5
5
5
5
5
5
5
5
5
5
5
5
5
5
5
5
5
5
5
5
5
5
5
5
5
5
5
5
5
5
5
5
5
5
5
5
5
5
5
5
5
5
5
5
5
5
5
5
5
5
5
5
5
5
5
5
5
5
5
5
5
5
5
5
5
5
5
5
5
5
5
5
5
5
5
5
5
5
5
5
5
5
5
5
5
5
5
5
5
5
5
5
5
5
5
5
5
5
5
5
5
5
5
5
5
5
5
5
5
5
5
5
5
5
5
5
5
5
5
5
5
5
5
5
5
5
5
5
5
5
5
5
5
5
5
5
5
5
5
5
5
5
5
5
5
5
5
5
5
5
5
5
5
5
5
5
5
5
5
5
5
5
5
5
5
5
5
5
5
5
5
5
5
5
5
5
5
5
5
5
5
5
5
5
5
5
5
5
5
5
5
5
5
5
5
5
5
5
5
5
5
5
5
5
5
5
5
5
5
5
5
5
5
5
5
5
5
5
5
5
5
5
5
5
5
5
5
5
5
5
5
5
5
5
5
5
5
5
5
5
5
5
5
5
5
5
5
5
5
5
5
5
5
5
5
5
5
5
5
5
5
5
5
5
5
5
5
5
5
5
5
5
5
5
5
5
5
5
5
5
5
5
5
5
5
5
5
5
5
5
5
5
5
5
5
5
5
5
5
5
5
5
5
5
5
5
5
5
5
5
5
5
5
5
5
5
5
5
5
5
5
5
5
5
5
5
5
5
CELL_DATA 574
POINT_DATA 1722
SCALARS Pressure float 
LOOKUP_TABLE default
9.37863 9.37863 9.37863 5.62137 5.62137 5.62137 9.25555 9.25555 9.25555 5.74452 5.74452 5.74452 6.10001 6.10001 6.10001 8.90428 8.90428 8.90428 6.06995 6.06995 6.06995 8.93072 8.93072 8.93072 8.82304 8.82304 8.82304 9.41844 9.41844 9.41844 5.58156 5.58156 5.58156 5.78045 5.78045 5.78045 9.21975 9.21975 9.21975 6.10845 6.10845 6.10845 8.8963 8.8963 8.8963 8.49637 8.49637 8.49637 6.11908 6.11908 6.11908 8.88589 8.88589 8.88589 6.05554 6.05554 6.05554 8.94515 8.94515 8.94515 6.59316 6.59316 6.59316 6.04182 6.04182 6.04182 8.9589 8.9589 8.9589 6.18466 6.18466 6.18466 8.83203 8.83203 8.83203 8.32338 8.32338 8.32338 6.05691 6.05691 6.05691 8.94378 8.94378 8.94378 8.88939 8.88939 8.88939 6.76392 6.76392 6.76392 8.15082 8.15082 8.15082 8.77961 8.77961 8.77961 6.93618 6.93618 6.93618 8.5425 8.5425 8.5425 7.97789 7.97789 7.97789 6.04457 6.04457 6.04457 8.95633 8.95633 8.95633 7.1091 7.1091 7.1091 7.80518 7.80518 7.80518 7.45341 7.45341 7.45341 7.63285 7.63285 7.63285 6.26764 6.26764 6.26764 7.28377 7.28377 7.28377 7.28181 7.28181 7.28181 7.80248 7.80248 7.80248 7.11253 7.11253 7.11253 7.97373 7.97373 7.97373 6.94121 6.94121 6.94121 8.14502 8.14502 8.14502 6.7702 6.7702 6.7702 8.31621 8.31621 8.31621 6.60121 6.60121 6.60121 7.63401 7.63401 7.63401 8.48904 8.48904 8.48904 7.45302 7.45302 7.45302 6.22543 6.22543 6.22543 8.97308 8.97308 8.97308 6.02742 6.02742 6.02742 6.43797 6.43797 6.43797 6.09319 6.09319 6.09319 8.90848 8.90848 8.90848 5.55738 5.55738 5.55738 9.44262 9.44262 9.44262 5.81387 5.81387 5.81387 9.1861 9.1861 9.1861 8.36593 8.36593 8.36593 6.33187 6.33187 6.33187 6.55564 6.55564 6.55564 9.68315 9.68315 9.68315 5.31685 5.31685 5.31685 6.36975 6.36975 6.36975 6.72039 6.72039 6.72039 6.39906 6.39906 6.39906 5.05218 5.05218 5.05218 9.94782 9.94782 9.94782 8.19314 8.19314 8.19314 5.74724 5.74724 5.74724 9.25272 9.25272 9.25272 9.94874 9.94874 9.94874 5.05126 5.05126 5.05126 9.11493 9.11493 9.11493 5.88497 5.88497 5.88497 6.89389 6.89389 6.89389 5.98301 5.98301 5.98301 9.01733 9.01733 9.01733 6.19773 6.19773 6.19773 8.86215 8.86215 8.86215 8.02124 8.02124 8.02124 5.59848 5.59848 5.59848 9.40152 9.40152 9.40152 5.70657 5.70657 5.70657 9.29339 9.29339 9.29339 5.77378 5.77378 5.77378 9.22615 9.22615 9.22615 8.54121 8.54121 8.54121 7.06577 7.06577 7.06577 7.84844 7.84844 7.84844 9.64507 9.64507 9.64507 5.35493 5.35493 5.35493 9.8517 9.8517 9.8517 5.1483 5.1483 5.1483 7.23857 7.23857 7.23857 5.01866 5.01866 5.01866 9.98134 9.98134 9.98134 9.75061 9.75061 9.75061 5.24939 5.24939 5.24939 8.49312 8.49312 8.49312 6.58739 6.58739 6.58739 8.32114 8.32114 8.32114 7.44785 7.44785 7.44785 6.76508 6.76508 6.76508 8.14878 8.14878 8.14878 6.9375 6.9375 6.9375 7.97745 7.97745 7.97745 7.63837 7.63837 7.63837 7.10883 7.10883 7.10883 7.28003 7.28003 7.28003 7.80624 7.80624 7.80624 7.67691 7.67691 7.67691 7.44768 7.44768 7.44768 7.63879 7.63879 7.63879 5.38362 5.38362 5.38362 9.61638 9.61638 9.61638 7.27933 7.27933 7.27933 5.95497 5.95497 5.95497 9.04498 9.04498 9.04498 7.80712 7.80712 7.80712 7.10776 7.10776 7.10776 7.50047 7.50047 7.50047 7.97869 7.97869 7.97869 7.41098 7.41098 7.41098 8.69986 8.69986 8.69986 6.93625 6.93625 6.93625 7.58579 7.58579 7.58579 8.15023 8.15023 8.15023 7.67527 7.67527 7.67527 9.70473 9.70473 9.70473 5.29527 5.29527 5.29527 6.76312 6.76312 6.76312 7.32519 7.32519 7.32519 8.32306 8.32306 8.32306 7.24102 7.24102 7.24102 6.58484 6.58484 6.58484 7.76105 7.76105 7.76105 8.49509 8.49509 8.49509 7.84523 7.84523 7.84523 7.41013 7.41013 7.41013 7.4065 7.4065 7.4065 7.15407 7.15407 7.15407 7.06973 7.06973 7.06973 7.93218 7.93218 7.93218 8.01652 8.01652 8.01652 7.68003 7.68003 7.68003 6.98278 6.98278 6.98278 7.40669 7.40669 7.40669 6.89842 6.89842 6.89842 8.45466 8.45466 8.45466 8.10347 8.10347 8.10347 7.67956 7.67956 7.67956 8.1878 8.1878 8.1878 7.23477 7.23477 7.23477 6.81166 6.81166 6.81166 7.23546 7.23546 7.23546 6.72742 6.72742 6.72742 9.98139 9.98139 9.98139 5.01861 5.01861 5.01861 8.2746 8.2746 8.2746 7.8517 7.8517 7.8517 8.35896 8.35896 8.35896 7.85079 7.85079 7.85079 6.10563 6.10563 6.10563 6.63985 6.63985 6.63985 7.06417 7.06417 7.06417 7.06303 7.06303 7.06303 8.44614 8.44614 8.44614 6.63191 6.63191 6.63191 8.53496 8.53496 8.53496 8.02208 8.02208 8.02208 8.02345 8.02345 8.02345 6.89279 6.89279 6.89279 9.37496 9.37496 9.37496 5.62503 5.62503 5.62503 6.89138 6.89138 6.89138 8.19343 8.19343 8.19343 8.28182 8.28182 8.28182 6.72183 6.72183 6.72183 6.46138 6.46138 6.46138 8.19507 8.19507 8.19507 8.36465 8.36465 8.36465 6.71966 6.71966 6.71966 7.50048 7.50048 7.50048 8.92753 8.92753 8.92753 6.07347 6.07347 6.07347 8.54055 8.54055 8.54055 6.00149 6.00149 6.00149 8.9992 8.9992 8.9992 8.36688 8.36688 8.36688 6.80543 6.80543 6.80543 8.10922 8.10922 8.10922 5.97673 5.97673 5.97673 9.02347 9.02347 9.02347 6.97782 6.97782 6.97782 7.5866 7.5866 7.5866 7.52491 7.52491 7.52491 7.93622 7.93622 7.93622 7.48438 7.48438 7.48438 7.15082 7.15082 7.15082 7.48439 7.48439 7.48439 7.76351 7.76351 7.76351 7.52484 7.52484 7.52484 7.32354 7.32354 7.32354 7.60184 7.60184 7.60184 5.83265 5.83265 5.83265 9.1673 9.1673 9.1673 7.56147 7.56147 7.56147 7.3235 7.3235 7.3235 8.75652 8.75652 8.75652 6.25647 6.25647 6.25647 7.56163 7.56163 7.56163 7.36448 7.36448 7.36448 7.76281 7.76281 7.76281 6.09955 6.09955 6.09955 8.90799 8.90799 8.90799 7.60203 7.60203 7.60203 9.46278 9.46278 9.46278 5.53722 5.53722 5.53722 7.72181 7.72181 7.72181 7.15197 7.15197 7.15197 7.93434 7.93434 7.93434 7.19305 7.19305 7.19305 6.30204 6.30204 6.30204 9.77373 9.77373 9.77373 5.22627 5.22627 5.22627 9.50109 9.50109 9.50109 5.49891 5.49891 5.49891 6.53858 6.53858 6.53858 6.98064 6.98064 6.98064 9.53676 9.53676 9.53676 5.46324 5.46324 5.46324 7.89324 7.89324 7.89324 6.53532 6.53532 6.53532 8.10567 8.10567 8.10567 7.02173 7.02173 7.02173 7.36399 7.36399 7.36399 9.78658 9.78658 9.78658 5.21342 5.21342 5.21342 6.80705 6.80705 6.80705 9.8167 9.8167 9.8167 5.1833 5.1833 5.1833 7.32312 7.32312 7.32312 8.06456 8.06456 8.06456 8.27912 8.27912 8.27912 6.8493 6.8493 6.8493 5.5103 5.5103 5.5103 9.4897 9.4897 9.4897 7.72255 7.72255 7.72255 6.6372 6.6372 6.6372 8.23699 8.23699 8.23699 7.76338 7.76338 7.76338 9.81408 9.81408 9.81408 5.18592 5.18592 5.18592 8.45061 8.45061 8.45061 9.33421 9.33421 9.33421 5.66577 5.66577 5.66577 6.19818 6.19818 6.19818 9.75694 9.75694 9.75694 5.24306 5.24306 5.24306 6.67748 6.67748 6.67748 7.19211 7.19211 7.19211 8.40857 8.40857 8.40857 8.79054 8.79054 8.79054 7.15123 7.15123 7.15123 7.8944 7.8944 7.8944 7.93526 7.93526 7.93526 5.07402 5.07402 5.07402 9.92598 9.92598 9.92598 7.02033 7.02033 7.02033 5.91074 5.91074 5.91074 9.08946 9.08946 9.08946 6.97956 6.97956 6.97956 8.06618 8.06618 8.06618 9.06901 9.06901 9.06901 5.93107 5.93107 5.93107 8.10693 8.10693 8.10693 5.89201 5.89201 5.89201 9.10802 9.10802 9.10802 6.84866 6.84866 6.84866 6.43906 6.43906 6.43906 6.8065 6.8065 6.8065 6.56756 6.56756 6.56756 8.23782 8.23782 8.23782 8.27991 8.27991 8.27991 6.67557 6.67557 6.67557 6.63491 6.63491 6.63491 5.99083 5.99083 5.99083 9.00946 9.00946 9.00946 8.62554 8.62554 8.62554 9.92904 9.92904 9.92904 5.07096 5.07096 5.07096 8.40943 8.40943 8.40943 6.50909 6.50909 6.50909 8.45185 8.45185 8.45185 9.56192 9.56192 9.56192 5.43808 5.43808 5.43808 6.2868 6.2868 6.2868 9.71654 9.71654 9.71654 5.28346 5.28346 5.28346 5.68456 5.68456 5.68456 9.31545 9.31545 9.31545 9.55186 9.55186 9.55186 5.44814 5.44814 5.44814 8.61633 8.61633 8.61633 6.13944 6.13944 6.13944 5.69382 5.69382 5.69382 9.30615 9.30615 9.30615 9.3253 9.3253 9.3253 5.67469 5.67469 5.67469 8.58599 8.58599 8.58599 5.84738 5.84738 5.84738 9.15261 9.15261 9.15261 5.41939 5.41939 5.41939 9.58061 9.58061 9.58061 5.91977 5.91977 5.91977 9.07963 9.07963 9.07963 6.50813 6.50813 6.50813 9.46822 9.46822 9.46822 5.53178 5.53178 5.53178 9.86084 9.86084 9.86084 5.13916 5.13916 5.13916 5.20362 5.20362 5.20362 9.79638 9.79638 9.79638 6.4674 6.4674 6.4674 8.58585 8.58585 8.58585 9.83068 9.83068 9.83068 5.16932 5.16932 5.16932 8.7458 8.7458 8.7458 9.66831 9.66831 9.66831 5.33169 5.33169 5.33169 9.79664 9.79664 9.79664 5.20336 5.20336 5.20336 6.28917 6.28917 6.28917 8.73591 8.73591 8.73591 8.41029 8.41029 8.41029 8.70985 8.70985 8.70985 8.67424 8.67424 8.67424 9.20645 9.20645 9.20645 5.79353 5.79353 5.79353 8.68998 8.68998 8.68998 9.42769 9.42769 9.42769 5.57231 5.57231 5.57231 6.67606 6.67606 6.67606 9.64895 9.64895 9.64895 5.35105 5.35105 5.35105 8.65106 8.65106 8.65106 8.23771 8.23771 8.23771 8.70813 8.70813 8.70813 6.40256 6.40256 6.40256 8.58808 8.58808 8.58808 6.30571 6.30571 6.30571 6.84945 6.84945 6.84945 8.06597 8.06597 8.06597 6.50885 6.50885 6.50885 6.24368 6.24368 6.24368 6.47422 6.47422 6.47422 7.02109 7.02109 7.02109 6.38835 6.38835 6.38835 7.89297 7.89297 7.89297 5.46222 5.46222 5.46222 9.53778 9.53778 9.53778 9.63884 9.63884 9.63884 5.36116 5.36116 5.36116 7.54314 7.54314 7.54314 7.19409 7.19409 7.19409 7.3674 7.3674 7.3674 7.71884 7.71884 7.71884 5.49587 5.49587 5.49587 9.50413 9.50413 9.50413 9.74828 9.74828 9.74828 5.25172 5.25172 5.25172 5.85291 5.85291 5.85291 9.14758 9.14758 9.14758 7.19692 7.19692 7.19692 7.88934 7.88934 7.88934 7.02561 7.02561 7.02561 7.72085 7.72085 7.72085 8.06063 8.06063 8.06063 6.8544 6.8544 6.8544 8.23182 8.23182 8.23182 6.68425 6.68425 6.68425 8.40311 8.40311 8.40311 7.36621 7.36621 7.36621 8.584 8.584 8.584 7.54353 7.54353 7.54353 9.60721 9.60721 9.60721 5.39279 5.39279 5.39279 8.67951 8.67951 8.67951 5.88588 5.88588 5.88588 9.11345 9.11345 9.11345 9.67229 9.67229 9.67229 5.32771 5.32771 5.32771 8.62011 8.62011 8.62011 5.53654 5.53654 5.53654 9.46346 9.46346 9.46346 9.85837 9.85837 9.85837 5.14163 5.14163 5.14163 6.34893 6.34893 6.34893 5.81716 5.81716 5.81716 9.18335 9.18335 9.18335 5.80551 5.80551 5.80551 9.19447 9.19447 9.19447 9.7063 9.7063 9.7063 5.2937 5.2937 5.2937 5.7352 5.7352 5.7352 9.26481 9.26481 9.26481 6.10124 6.10124 6.10124 8.90336 8.90336 8.90336 6.51966 6.51966 6.51966 8.65046 8.65046 8.65046 8.82152 8.82152 8.82152 6.17826 6.17826 6.17826 9.36712 9.36712 9.36712 5.63287 5.63287 5.63287 5.77271 5.77271 5.77271 9.22722 9.22722 9.22722 5.89624 5.89624 5.89624 9.10294 9.10294 9.10294 9.43252 9.43252 9.43252 5.56747 5.56747 5.56747 9.39816 9.39816 9.39816 5.60183 5.60183 5.60183 9.99021 9.99021 9.99021 9.94863 9.94863 9.94863 5.05137 5.05137 5.05137 5.00979 5.00979 5.00979 9.62612 9.62612 9.62612 5.37388 5.37388 5.37388 5.05435 5.05435 5.05435 9.94565 9.94565 9.94565 9.5963 9.5963 9.5963 5.4037 5.4037 5.4037 9.98868 9.98868 9.98868 5.01132 5.01132 5.01132 8.69394 8.69394 8.69394 9.69082 9.69082 9.69082 5.30918 5.30918 5.30918 5.68366 5.68366 5.68366 9.31636 9.31636 9.31636 8.91414 8.91414 8.91414 6.08773 6.08773 6.08773 8.61998 8.61998 8.61998 8.9195 8.9195 8.9195 6.08226 6.08226 6.08226 5.43633 5.43633 5.43633 9.56367 9.56367 9.56367 5.74902 5.74902 5.74902 9.25103 9.25103 9.25103 9.27538 9.27538 9.27538 5.72462 5.72462 5.72462 9.38269 9.38269 9.38269 5.61731 5.61731 5.61731 9.35595 9.35595 9.35595 5.64406 5.64406 5.64406 6.35728 6.35728 6.35728 6.14225 6.14225 6.14225 8.84828 8.84828 8.84828 6.32096 6.32096 6.32096 6.28384 6.28384 6.28384 9.73303 9.73303 9.73303 5.26697 5.26697 5.26697 9.75653 9.75653 9.75653 5.24347 5.24347 5.24347 8.82795 8.82795 8.82795 6.4672 6.4672 6.4672 5.85877 5.85877 5.85877 9.14111 9.14111 9.14111 6.43269 6.43269 6.43269 9.48817 9.48817 9.48817 5.51183 5.51183 5.51183 5.89758 5.89758 5.89758 9.102 9.102 9.102 9.51911 9.51911 9.51911 5.48089 5.48089 5.48089 5.81489 5.81489 5.81489 9.18506 9.18506 9.18506 9.69993 9.69993 9.69993 5.30007 5.30007 5.30007 5.47678 5.47678 5.47678 9.52322 9.52322 9.52322 9.28534 9.28534 9.28534 5.71469 5.71469 5.71469 9.34714 9.34714 9.34714 5.65287 5.65287 5.65287 5.81319 5.81319 5.81319 9.18699 9.18699 9.18699 9.45603 9.45603 9.45603 5.54398 5.54398 5.54398 9.83011 9.83011 9.83011 5.16989 5.16989 5.16989 9.43473 9.43473 9.43473 5.56526 5.56526 5.56526 6.00926 6.00926 6.00926 8.99106 8.99106 8.99106 8.79565 8.79565 8.79565 6.15786 6.15786 6.15786 6.06205 6.06205 6.06205 8.93009 8.93009 8.93009 8.92781 8.92781 8.92781 6.07635 6.07635 6.07635 6.03447 6.03447 6.03447 8.96496 8.96496 8.96496 8.93594 8.93594 8.93594 6.06668 6.06668 6.06668 6.09482 6.09482 6.09482 8.9069 8.9069 8.9069 9.87536 9.87536 9.87536 5.12464 5.12464 5.12464 6.07659 6.07659 6.07659 8.92887 8.92887 8.92887 9.88215 9.88215 9.88215 5.11785 5.11785 5.11785 5.97488 5.97488 5.97488 9.02522 9.02522 9.02522 5.68378 5.68378 5.68378 9.31624 9.31624 9.31624 9.56295 9.56295 9.56295 5.43705 5.43705 5.43705 6.09315 6.09315 6.09315 8.90836 8.90836 8.90836 8.64462 8.64462 8.64462 8.66419 8.66419 8.66419 9.59858 9.59858 9.59858 5.40142 5.40142 5.40142 9.6358 9.6358 9.6358 5.3642 5.3642 5.3642 6.10296 6.10296 6.10296 8.89842 8.89842 8.89842 6.17827 6.17827 6.17827 9.59172 9.59172 9.59172 5.40828 5.40828 5.40828 6.16739 6.16739 6.16739 6.36702 6.36702 6.36702 9.84378 9.84378 9.84378 5.15622 5.15622 5.15622 6.33015 6.33015 6.33015 9.89524 9.89524 9.89524 5.10476 5.10476 5.10476 6.39263 6.39263 6.39263 9.87527 9.87527 9.87527 5.12473 5.12473 5.12473 6.43399 6.43399 6.43399 9.88881 9.88881 9.88881 5.11119 5.11119 5.11119 5.11858 5.11858 5.11858 9.88142 9.88142 9.88142 8.92239 8.92239 8.92239 6.08003 6.08003 6.08003 9.90734 9.90734 9.90734 5.09266 5.09266 5.09266 8.89131 8.89131 8.89131 6.11092 6.11092 6.11092 6.09148 6.09148 6.09148 8.91072 8.91072 8.91072 6.05925 6.05925 6.05925 8.94256 8.94256 8.94256 8.66925 8.66925 8.66925 9.88802 9.88802 9.88802 5.11198 5.11198 5.11198 9.91402 9.91402 9.91402 5.08598 5.08598 5.08598 5.32848 5.32848 5.32848 9.67152 9.67152 9.67152 8.66608 8.66608 8.66608 6.3785 6.3785 6.3785 6.39316 6.39316 6.39316 
VECTORS Velocity float 
9.34791e-11 -0.000645493 0 
9.44421e-11 -0.000731904 0 
-8.90857e-05 -0.0243584 0 
-5.55578e-11 0.0007318 0 
-5.65209e-11 0.000645732 0 
-8.87325e-05 0.0243595 0 
9.19543e-11 -0.000604442 0 
9.28297e-11 -0.000663778 0 
-6.06904e-05 -0.0240047 0 
-5.71705e-11 0.000664178 0 
-5.80475e-11 0.000605253 0 
-6.02703e-05 0.0240066 0 
0.00536924 0.00615915 0 
0.0150461 0.015145 0 
0.0121986 0.00402237 0 
0.0149625 -0.0151389 0 
0.00542077 -0.00605161 0 
0.0107128 -0.00394966 0 
0.013799 0.0166116 0 
0.00587793 0.00556096 0 
0.00336044 0.0105474 0 
0.00588394 -0.00550695 0 
0.0137739 -0.0165365 0 
0.00337388 -0.0104629 0 
0.0285032 -0.00475503 0 
0.0208759 -0.00602051 0 
0.0173152 -0.00185747 0 
-0.000205429 -0.024458 0 
0.000194643 -0.00056526 0 
-0.000206417 -0.0190155 0 
0.0001945 0.000565278 0 
-0.000204939 0.024459 0 
-0.000206293 0.0190158 0 
1.3537e-05 0.024068 0 
-9.84832e-05 0.000523398 0 
2.54016e-05 0.0185602 0 
-9.8334e-05 -0.00052271 0 
1.46788e-05 -0.0240673 0 
2.23948e-05 -0.0185571 0 
0.0153375 0.016714 0 
0.0225114 0.00607014 0 
0.0119662 0.00277117 0 
0.0208035 -0.00566854 0 
0.0150129 -0.0162963 0 
0.0106755 -0.00309392 0 
0.000788122 8.4506e-11 0 
0.000838211 8.54802e-11 0 
0.0246103 -5.01432e-05 0 
0.0224665 0.00603695 0 
0.0154682 0.0168107 0 
0.0254657 0.0133435 0 
0.0153378 -0.0166162 0 
0.0207458 -0.00561172 0 
0.0256806 -0.0135822 0 
0.00475654 0.020592 0 
0.0141691 0.0165987 0 
0.00294804 0.0105617 0 
0.0141638 -0.016523 0 
0.00476959 -0.0204984 0 
0.00295853 -0.0104772 0 
0.000846431 6.54757e-11 0 
0.000819328 6.63485e-11 0 
0.0255889 2.84586e-05 0 
0.0148726 0.0173049 0 
0.00432173 0.0201556 0 
0.00887646 0.0267529 0 
0.00433952 -0.0200667 0 
0.0148567 -0.0172186 0 
0.00889969 -0.0266573 0 
0.0307071 0.0036159 0 
0.022418 0.00647287 0 
0.0256013 0.0121259 0 
0.0206226 -0.00611601 0 
0.0284428 -0.00477781 0 
0.0258845 -0.0127474 0 
0.000782008 8.27772e-11 0 
0.000789073 8.37308e-11 0 
0.0247087 -7.05144e-06 0 
-0.000897759 0.000936997 0 
0.00471139 0.0207039 0 
0.00279772 0.0109341 0 
0.00472429 -0.0206106 0 
-0.000906479 -0.000927187 0 
0.0028081 -0.0108499 0 
0.00123941 0.00078115 0 
0.0210819 -0.00553672 0 
0.0108557 -0.00300858 0 
0.000787599 6.71418e-11 0 
0.000780343 6.81005e-11 0 
0.024648 7.22678e-06 0 
0.000762971 8.10414e-11 0 
0.000788718 8.19926e-11 0 
0.0246399 -2.55873e-05 0 
0.0216322 -0.000604622 0 
0.0285792 -0.004476 0 
0.0174026 -0.00153645 0 
0.000785042 6.88816e-11 0 
0.000761586 6.98325e-11 0 
0.0245991 2.32581e-05 0 
0.0246029 -3.676e-05 0 
0.000786614 9.34092e-05 0 
0.0232603 -0.00013482 0 
0.000760725 7.93028e-11 0 
0.000786848 8.02601e-11 0 
0.0245326 -2.58418e-05 0 
0.0165115 0.0234634 0 
0.0148079 0.0165802 0 
0.00889675 0.0269801 0 
0.0147903 -0.0164746 0 
0.0165282 -0.023401 0 
0.00891937 -0.0268777 0 
0.000783117 7.0614e-11 0 
0.000758936 7.15714e-11 0 
0.024491 2.38627e-05 0 
0.000751641 7.75668e-11 0 
0.000780792 7.85239e-11 0 
0.0244435 -2.8695e-05 0 
0.000772602 -7.50384e-11 0 
0.000752193 -7.40754e-11 0 
0.0242163 2.02099e-05 0 
0.000751555 -7.6787e-11 0 
0.000771159 -7.58244e-11 0 
0.0242018 -1.93977e-05 0 
0.0256686 0.000336833 0 
0.00157302 0.000294621 0 
0.0214034 0.00101724 0 
0.000736428 -7.33304e-11 0 
0.000764915 -7.23844e-11 0 
0.0242853 -2.81587e-05 0 
0.000776954 7.235e-11 0 
0.000749343 7.33076e-11 0 
0.0243996 2.71099e-05 0 
0.000763947 -7.84782e-11 0 
0.000735578 -7.75322e-11 0 
0.0242706 2.80167e-05 0 
0.000740118 -7.16176e-11 0 
0.000761489 -7.06708e-11 0 
0.0242577 -2.10865e-05 0 
0.000760485 -8.01918e-11 0 
0.000739253 -7.9245e-11 0 
0.0242434 2.093e-05 0 
0.00073784 -6.99045e-11 0 
0.000759236 -6.8958e-11 0 
0.0242338 -2.1074e-05 0 
0.000757992 -8.19043e-11 0 
0.000737036 -8.09581e-11 0 
0.0242182 2.06233e-05 0 
0.000738713 -6.81924e-11 0 
0.000745719 -6.72464e-11 0 
0.0241952 -6.88943e-06 0 
0.000758016 -8.36163e-11 0 
0.00073482 -8.26695e-11 0 
0.024197 2.2791e-05 0 
0.000810599 -6.64618e-11 0 
0.000885376 -6.56055e-11 0 
0.0254898 -7.89504e-05 0 
0.00078028 7.58351e-11 0 
0.000759631 7.68098e-11 0 
0.0242583 2.02276e-05 0 
0.00084718 -8.53491e-11 0 
0.000718268 -8.43762e-11 0 
0.0242848 0.000126408 0 
0.000756658 7.40638e-11 0 
0.000777669 7.50389e-11 0 
0.0242236 -2.05398e-05 0 
0.00127395 -6.29876e-11 0 
0.000327406 -6.17196e-11 0 
0.0212465 0.000862659 0 
-0.00109431 -0.000942121 0 
0.00483024 -0.0206022 0 
0.000562509 -0.0128813 0 
0.00482582 0.0206948 0 
-0.00109808 0.000952924 0 
0.000558133 0.0129306 0 
0.000733456 -6.47511e-11 0 
0.000859352 -6.38385e-11 0 
0.0249109 -0.000127259 0 
0.014562 0.0169243 0 
0.016766 0.0231073 0 
0.0259645 0.013281 0 
0.0167629 -0.0230727 0 
0.0146252 -0.0167055 0 
0.0259168 -0.0135526 0 
0.000557548 0.0285461 0 
-0.000519512 0.0293548 0 
-0.00023215 0.0298131 0 
-0.000520016 -0.0293545 0 
0.000557224 -0.0285464 0 
-0.000232956 -0.0298131 0 
0.000654235 0.0295602 0 
-0.000278845 0.0283027 0 
6.27671e-05 0.0298595 0 
-0.000258797 -0.028291 0 
0.000671164 -0.0295681 0 
6.7253e-05 -0.0298627 0 
0.0247394 -6.34723e-05 0 
0.000760986 5.1629e-05 0 
0.0236239 -3.22416e-05 0 
0.0269979 -0.000243202 0 
0.00130159 0.00066683 0 
0.0187158 -0.000392998 0 
0.00068893 -0.000298213 0 
0.0257669 0.000365525 0 
0.0215723 0.000382278 0 
-0.000664878 -0.0295625 0 
0.000859097 -0.0278837 0 
-0.000126929 -0.0297013 0 
0.000859094 0.0278837 0 
-0.000664863 0.0295625 0 
-0.000126894 0.0297013 0 
0.000311449 6.31117e-11 0 
3.59831e-05 6.39114e-11 0 
0.0196019 0.000203752 0 
0.000779235 -1.56225e-05 0 
0.024648 7.09585e-06 0 
0.0241044 1.6628e-06 0 
0.025125 -0.00043639 0 
0.000660647 0.000286942 0 
0.020537 -0.000294378 0 
-0.000402892 0.0233342 0 
0.000946728 0.0316061 0 
-0.000429126 0.0206296 0 
0.000946728 -0.0316061 0 
-0.000402892 -0.0233342 0 
-0.000429125 -0.0206296 0 
0.0246735 -8.93399e-05 0 
0.000756072 6.19686e-05 0 
0.0236113 -5.75925e-05 0 
0.000175604 0.0255535 0 
-0.000965521 0.00181052 0 
0.000458154 0.0204452 0 
-0.000965115 -0.00181002 0 
0.000177851 -0.0255535 0 
0.000457905 -0.020447 0 
0.000441942 -0.0233375 0 
-0.000993815 -0.0316014 0 
0.000462086 -0.020581 0 
-0.000993816 0.0316014 0 
0.000441942 0.0233375 0 
0.000462085 0.020581 0 
0.000660902 -0.0275445 0 
9.47403e-05 -0.00163811 0 
0.00141061 -0.0252088 0 
0.000106963 0.00164053 0 
0.00063923 0.0275611 0 
0.00138268 0.0252538 0 
0.000753605 -6.06635e-05 0 
0.0246328 8.82954e-05 0 
0.0235736 5.22392e-05 0 
0.00489246 0.0198758 0 
0.00168245 0.0248982 0 
0.00810068 0.0271332 0 
0.00171353 -0.0248498 0 
0.00490212 -0.0197909 0 
0.0081403 -0.0270296 0 
0.0228801 0.00627852 0 
0.0305213 0.00369406 0 
0.0210605 0.00119265 0 
0.0210574 -0.00616898 0 
0.00127217 0.00162767 0 
0.0169451 -0.00155485 0 
0.0245401 -4.05866e-05 0 
0.000769427 3.41838e-05 0 
0.0239161 -3.88802e-05 0 
0.000323321 0.0254026 0 
-0.000654905 0.0265598 0 
0.000439226 0.030913 0 
-0.000655262 -0.02656 0 
0.000322819 -0.0254034 0 
0.00043844 -0.030913 0 
5.78136e-11 0.000559247 0 
5.67517e-11 0.000108714 0 
-0.000360349 0.021506 0 
-9.32481e-11 -0.000108856 0 
-9.21853e-11 -0.000559267 0 
-0.000360251 -0.0215073 0 
0.000936647 0.0263301 0 
-0.000567091 0.025467 0 
-0.000619796 0.0309673 0 
-0.000564429 -0.025466 0 
0.000952866 -0.0263246 0 
-0.000613888 -0.0309681 0 
0.0312323 0.000238251 0 
0.0242695 -1.82479e-05 0 
0.0233655 -0.000140658 0 
0.000766638 -3.28891e-05 0 
0.0244985 3.89032e-05 0 
0.0238934 3.72351e-05 0 
0.0244512 -4.42837e-05 0 
0.00076485 3.23734e-05 0 
0.0238682 -3.09437e-05 0 
-0.00025701 -0.0260375 0 
0.000266636 -0.0249246 0 
0.000299165 -0.0304061 0 
0.000266659 0.0249246 0 
-0.000257009 0.0260375 0 
0.0002992 0.0304061 0 
4.47136e-05 -0.0262654 0 
7.51239e-05 -0.0256758 0 
-2.88663e-05 -0.0307351 0 
7.51225e-05 0.0256758 0 
4.47126e-05 0.0262654 0 
-2.88683e-05 0.030735 0 
0.000761893 -3.11272e-05 0 
0.0244071 4.27387e-05 0 
0.0238446 2.96042e-05 0 
0.000451998 0.0239857 0 
-2.98644e-06 0.0305231 0 
-1.0723e-05 0.0308764 0 
-2.98642e-06 -0.0305231 0 
0.000451998 -0.0239857 0 
-1.07223e-05 -0.0308764 0 
-0.000578156 -0.00142504 0 
6.3964e-05 -0.0272951 0 
0.000217372 -0.025911 0 
6.39665e-05 0.0272951 0 
-0.000578156 0.00142504 0 
0.00021737 0.025911 0 
0.0311965 0.000196736 0 
0.0240555 6.94731e-05 0 
0.0311997 0.00011167 0 
0.0251018 6.58286e-05 0 
0.0310534 -0.000127888 0 
0.0310144 -2.99282e-05 0 
0.0311885 4.12097e-05 0 
0.0240187 -1.87876e-05 0 
0.0311898 2.06467e-05 0 
0.024192 0.000144343 0 
0.0313422 -3.15827e-06 0 
0.0312175 1.57203e-07 0 
0.0240258 4.12138e-05 0 
0.0312163 -1.0375e-05 0 
0.0312094 -1.55787e-05 0 
0.0311529 8.44685e-06 0 
0.0240601 -1.88593e-05 0 
0.0311632 6.32237e-06 0 
0.0240764 1.80448e-05 0 
0.0311556 -9.78747e-06 0 
0.0311622 -7.49578e-06 0 
0.0311716 4.90125e-06 0 
0.02409 -2.41198e-05 0 
0.0311707 7.44848e-06 0 
0.0313394 4.39358e-06 0 
0.0241784 -0.000141746 0 
0.0312168 1.55791e-06 0 
0.0241053 2.3578e-05 0 
0.0311737 -5.08001e-06 0 
0.0311702 -7.15849e-06 0 
0.0241332 6.73692e-06 0 
0.0311793 -5.7266e-06 0 
0.0311877 -5.97359e-06 0 
0.031177 6.05928e-06 0 
0.0241174 -7.41634e-06 0 
0.031188 6.55577e-06 0 
0.0242855 -3.69532e-05 0 
0.000737779 4.58699e-05 0 
0.023776 -7.57785e-05 0 
0.0313478 -3.1631e-06 0 
0.0242009 -0.000140571 0 
0.0312175 1.57253e-07 0 
0.0242297 0.000139297 0 
0.0313482 4.40296e-06 0 
0.031219 1.56027e-06 0 
5.42801e-11 0.000774441 0 
5.34661e-11 0.000860626 0 
8.97499e-05 0.0253805 0 
-9.65339e-11 -0.00086062 0 
-9.57199e-11 -0.000774444 0 
8.97413e-05 -0.0253805 0 
0.0311966 -5.77551e-06 0 
0.0242371 -2.98905e-06 0 
0.0311777 -5.94525e-06 0 
0.001406 0.0246688 0 
0.00397397 0.0299187 0 
0.0084742 0.0274431 0 
0.00406396 -0.029882 0 
0.00142864 -0.0246134 0 
0.00852399 -0.0273479 0 
0.0242744 4.36211e-06 0 
0.0311983 6.13012e-06 0 
0.0311746 6.51124e-06 0 
0.0311994 -5.17687e-06 0 
0.0243167 -2.12199e-05 0 
0.0311536 -7.09618e-06 0 
0.000856292 0.000151963 0 
0.0241403 -0.00011772 0 
0.0262988 -0.000224876 0 
0.0243519 2.23598e-05 0 
0.0312012 5.02477e-06 0 
0.0311512 7.36672e-06 0 
0.0242443 -4.07974e-05 0 
0.000729304 4.98542e-05 0 
0.0236911 -8.31193e-05 0 
0.0265982 -0.000296393 0 
0.0251477 -0.00327093 0 
0.0305564 -0.00161874 0 
0.0311752 -9.87741e-06 0 
0.024383 -6.75985e-06 0 
0.0311426 -7.40563e-06 0 
0.0241248 0.000120387 0 
0.000855671 -0.000153364 0 
0.0262992 0.000225832 0 
0.0244187 5.94786e-06 0 
0.0311764 8.56365e-06 0 
0.0311405 6.20954e-06 0 
0.000728343 -5.05047e-05 0 
0.0242306 4.30828e-05 0 
0.0236738 8.33254e-05 0 
-0.000964881 -0.0271714 0 
0.00109217 -0.0302486 0 
0.000375936 -0.0301473 0 
0.00109218 0.0302486 0 
-0.000964877 0.0271714 0 
0.000375936 0.0301473 0 
0.0312542 -1.06279e-05 0 
0.0243997 -3.17192e-05 0 
0.0311862 -1.54239e-05 0 
0.000722644 -2.49966e-05 0 
0.0243176 3.04886e-05 0 
0.0237278 2.14374e-06 0 
0.0244253 2.04656e-05 0 
0.0312101 4.13586e-05 0 
0.031171 2.05174e-05 0 
0.0242948 -4.88489e-05 0 
0.000748884 3.48337e-05 0 
0.0236987 -3.55826e-05 0 
0.0311638 -0.000129764 0 
0.025248 -9.0043e-05 0 
0.0309789 -2.93243e-05 0 
0.024303 -3.07172e-05 0 
0.000721739 2.50793e-05 0 
0.0237103 -2.02773e-06 0 
0.0243304 9.26779e-05 0 
0.0312096 0.000196884 0 
0.0311903 0.000111564 0 
0.000747914 -3.47938e-05 0 
0.0242801 4.87415e-05 0 
0.0236811 3.53471e-05 0 
0.000735353 -4.54252e-05 0 
0.0242503 3.64031e-05 0 
0.0237513 7.60751e-05 0 
0.0240965 3.26407e-05 0 
0.0313508 -8.16588e-06 0 
0.0238202 7.776e-05 0 
0.000721769 -3.32317e-05 0 
0.0242894 3.62283e-05 0 
0.0237236 3.93212e-05 0 
0.0242672 -4.16544e-05 0 
0.000745863 3.38693e-05 0 
0.0236614 -3.75061e-05 0 
0.0242752 -3.65254e-05 0 
0.000720793 3.34127e-05 0 
0.0237059 -3.9514e-05 0 
0.000744922 -3.36913e-05 0 
0.024253 4.15278e-05 0 
0.0236441 3.67569e-05 0 
0.0313508 8.69983e-06 0 
0.0241268 -3.2996e-05 0 
0.023847 -7.75481e-05 0 
0.000720107 -3.2078e-05 0 
0.0242637 3.30455e-05 0 
0.0236868 3.79686e-05 0 
0.0313504 1.04319e-05 0 
0.0240822 -3.63893e-05 0 
0.0237745 -8.53888e-05 0 
0.024245 -4.54645e-05 0 
0.000744072 3.27889e-05 0 
0.0236311 -2.8504e-05 0 
0.00074556 -9.53169e-05 0 
0.0246935 0.00013624 0 
0.0236244 0.00010483 0 
0.0242484 -3.39423e-05 0 
0.000719036 3.25413e-05 0 
0.023669 -3.87382e-05 0 
0.0240685 3.86385e-05 0 
0.0313479 -9.51284e-06 0 
0.0237578 8.56297e-05 0 
0.000742609 -3.32259e-05 0 
0.0242292 4.43305e-05 0 
0.0236141 3.1413e-05 0 
0.024213 3.77654e-05 0 
0.0312195 -4.44974e-05 0 
0.0239177 3.14759e-05 0 
0.000718685 -3.61865e-05 0 
0.024226 4.88858e-05 0 
0.023653 3.81767e-05 0 
0.0312105 4.54467e-05 0 
0.0241026 -4.35541e-05 0 
0.0237814 -3.78612e-05 0 
0.0241959 -8.51991e-06 0 
0.000742533 6.8735e-06 0 
0.0238014 1.89239e-05 0 
-0.000430929 -0.024004 0 
-2.97721e-06 -0.0305305 0 
-1.07542e-05 -0.0308508 0 
-2.97724e-06 0.0305305 0 
-0.000430929 0.024004 0 
-1.07549e-05 0.0308508 0 
0.024227 -3.14242e-05 0 
0.000717274 3.16861e-05 0 
0.0236366 -3.56185e-05 0 
0.0312208 4.45316e-05 0 
0.0242489 -3.89175e-05 0 
0.0239451 -3.29844e-05 0 
0.000739024 -4.09329e-05 0 
0.0242078 4.61414e-05 0 
0.0236084 5.95633e-05 0 
0.0240864 4.33864e-05 0 
0.0312081 -4.48365e-05 0 
0.0237645 3.76523e-05 0 
0.000573908 -0.00131611 0 
0.012723 0.00355131 0 
0.0130736 0.0013257 0 
0.000745177 -0.000129985 0 
0.0256095 0.000158744 0 
0.0237711 0.00015798 0 
0.0312051 4.61354e-05 0 
0.0240687 -3.61471e-05 0 
0.0237461 -3.98561e-05 0 
0.0242849 3.30492e-05 0 
0.0312219 -4.36042e-05 0 
0.023975 3.94743e-05 0 
0.0243178 6.70517e-05 0 
0.00071519 5.5455e-06 0 
0.023643 -6.64844e-06 0 
0.025682 -0.000191046 0 
0.00076756 0.000122027 0 
0.0241005 -0.000138442 0 
0.000777737 -0.000149461 0 
0.0243133 0.000187658 0 
0.0232658 0.000272615 0 
0.0240532 3.59642e-05 0 
0.0312029 -4.61281e-05 0 
0.0237294 3.91342e-05 0 
0.0312233 4.31241e-05 0 
0.024319 -3.43345e-05 0 
0.0240014 -4.12934e-05 0 
0.0311817 3.27448e-05 0 
0.0240409 -3.97616e-05 0 
0.0237344 -3.13891e-05 0 
-0.00036683 -0.0254214 0 
0.000954107 -0.0016794 0 
-0.000497383 -0.0204705 0 
0.000953956 0.00167918 0 
-0.000366239 0.0254206 0 
-0.000497258 0.0204692 0 
0.0243365 7.37644e-05 0 
0.0312083 -6.71608e-05 0 
0.0238049 6.35841e-05 0 
0.0240248 3.86025e-05 0 
0.0311779 -3.22187e-05 0 
0.0237162 3.42744e-05 0 
0.000747918 -7.44579e-05 0 
0.0247586 0.000101815 0 
0.0236159 7.67083e-05 0 
0.0312062 -2.68395e-05 0 
0.0239972 -5.29966e-06 0 
0.0239019 1.72956e-05 0 
0.0269143 -0.000806943 0 
0.00151417 0.000934385 0 
0.0212874 -0.0002623 0 
0.0312075 6.29434e-05 0 
0.0243726 -7.44937e-05 0 
0.0238414 -6.89435e-05 0 
0.0239826 3.97738e-05 0 
0.0311972 2.69771e-05 0 
0.0237191 6.26958e-05 0 
0.024381 1.03803e-06 0 
0.0312412 1.21911e-05 0 
0.0242121 4.10461e-06 0 
0.0241468 0.000118184 0 
0.000862355 -0.000152899 0 
0.0263229 0.000227088 0 
-8.93416e-11 -0.00176348 0 
-8.87884e-11 0.000427348 0 
0.00189999 -0.0100121 0 
6.12226e-11 -0.000414713 0 
6.06635e-11 0.00176525 0 
0.00189056 0.0100972 0 
0.0239923 0.000170597 0 
0.0311941 0.000200604 0 
0.0234605 0.000282966 0 
0.00740959 0.0255601 0 
0.0164633 0.0234406 0 
0.00938643 0.0272119 0 
0.0164204 -0.02335 0 
0.00764563 -0.0255382 0 
0.00940759 -0.0271088 0 
0.0312291 7.49727e-05 0 
0.0243877 -4.59106e-05 0 
0.023866 -4.43311e-05 0 
0.024704 -0.000112175 0 
0.000743185 7.92976e-05 0 
0.0235784 -8.13693e-05 0 
0.000743621 -4.0364e-05 0 
0.0246723 4.18719e-05 0 
0.0239407 4.79897e-05 0 
0.00397947 0.0301152 0 
0.00894655 0.024866 0 
0.00847919 0.0276216 0 
0.0091209 -0.024872 0 
0.00406961 -0.0300841 0 
0.00852841 -0.0275058 0 
0.0246305 -4.08807e-05 0 
0.000742277 3.93843e-05 0 
0.0239164 -4.71909e-05 0 
0.000861723 0.000149589 0 
0.0241834 -0.00011735 0 
0.0263216 -0.000218428 0 
0.0261826 -0.000335795 0 
0.0303948 5.06448e-07 0 
0.0307243 1.90328e-06 0 
0.000738447 -4.44447e-05 0 
0.0245719 5.25136e-05 0 
0.0238904 5.14757e-05 0 
0.0242804 0.00013183 0 
0.025694 0.000162848 0 
0.0311048 -0.000386374 0 
0.0245291 -5.06682e-05 0 
0.00073683 4.31509e-05 0 
0.0238654 -5.04807e-05 0 
0.0256797 -0.000161851 0 
0.0242713 -0.00013106 0 
0.0311051 0.000390717 0 
0.0007341 -3.35135e-05 0 
0.0244812 4.33199e-05 0 
0.0238071 1.21981e-05 0 
0.0303994 5.05913e-07 0 
0.0261643 0.000334839 0 
0.0307257 1.90312e-06 0 
0.0244359 -4.08436e-05 0 
0.000732398 3.1696e-05 0 
0.0237823 -1.0244e-05 0 
0.0242582 0.000134069 0 
0.0256748 0.000161772 0 
0.0311042 -0.000387498 0 
0.00177159 0.0275179 0 
-0.00130451 0.0303099 0 
0.00116362 0.0302709 0 
-0.00129525 -0.0303207 0 
0.00179476 -0.0275051 0 
0.00121802 -0.0302647 0 
0.0261655 -0.000340545 0 
0.0303994 2.60963e-06 0 
0.0307218 3.92555e-06 0 
0.0238278 4.86945e-06 0 
0.0241237 2.5208e-05 0 
0.0312203 -6.94743e-05 0 
0.0258292 -0.00450855 0 
0.0292414 -0.00406897 0 
0.030248 -0.00105863 0 
0.0266167 0.000932652 0 
0.0303208 0.00365123 0 
0.023827 0.00551203 0 
0.0303948 2.59695e-06 0 
0.0261815 0.000338068 0 
0.0307327 3.9556e-06 0 
0.0313579 -4.06973e-06 0 
0.023777 -9.02992e-05 0 
0.0312547 -5.01893e-06 0 
0.0241082 -2.5391e-05 0 
0.0238118 -4.80381e-06 0 
0.0312197 6.83541e-05 0 
0.00150434 -6.09494e-11 0 
-0.000575527 -6.04342e-11 0 
0.0115327 0.00186759 0 
-0.000435431 -8.95955e-11 0 
0.00194052 -8.89954e-11 0 
0.0101307 -0.00220078 0 
0.0257022 -0.000156335 0 
0.02431 -0.000130046 0 
0.031104 0.000386972 0 
-0.000935002 -0.0280033 0 
0.000875236 -0.0298623 0 
7.50171e-05 -0.0299928 0 
0.000875701 0.0298625 0 
-0.000934594 0.028003 0 
7.53344e-05 0.0299928 0 
0.0237605 9.0859e-05 0 
0.0313547 3.69288e-06 0 
0.031254 4.36301e-06 0 
0.0238031 4.15082e-05 0 
0.0241015 3.10576e-05 0 
0.0311915 -4.87271e-05 0 
0.0240863 -3.12979e-05 0 
0.0237868 -4.17533e-05 0 
0.0311913 4.77326e-05 0 
0.0312355 -3.20438e-06 0 
0.0237711 -1.7815e-05 0 
0.0312156 -3.88287e-06 0 
0.000616664 -0.00250539 0 
0.0273001 0.00115633 0 
0.0240946 0.0055996 0 
-0.000128646 -0.0244096 0 
0.000656401 -0.00131109 0 
-0.000258781 -0.0230342 0 
0.000656401 0.00131109 0 
-0.000128647 0.0244096 0 
-0.000258782 0.0230342 0 
4.42294e-05 -0.0302277 0 
-0.000780135 -0.0279507 0 
-9.64581e-05 -0.030051 0 
-0.000779797 0.0279505 0 
4.43574e-05 0.0302277 0 
-9.61441e-05 0.030051 0 
0.0319073 0.000653548 0 
0.0247009 -0.000300993 0 
0.0211565 -0.000571897 0 
0.0237705 4.02997e-05 0 
0.0240715 2.76957e-05 0 
0.0311839 -5.00366e-05 0 
-8.21939e-05 -0.0267386 0 
-0.00064109 -0.0314179 0 
0.00047024 -0.021647 0 
-0.000640941 0.0314179 0 
-8.18858e-05 0.0267384 0 
0.000470277 0.0216469 0 
0.0237544 1.81008e-05 0 
0.0312323 2.32175e-06 0 
0.0312155 3.02058e-06 0 
0.0249779 0.000193147 0 
0.0317737 -0.00076917 0 
0.022082 0.000493646 0 
0.0240552 -2.85359e-05 0 
0.0237542 -4.11224e-05 0 
0.0311841 4.74338e-05 0 
0.0312288 -7.86163e-09 0 
0.0237368 -2.17999e-05 0 
0.0312102 -1.5453e-06 0 
0.0238299 9.63103e-05 0 
0.031353 -4.06146e-06 0 
0.0312607 -5.02901e-06 0 
-6.8684e-05 -0.030588 0 
0.000416462 -0.0259938 0 
-3.20765e-05 -0.0306581 0 
0.00041646 0.0259938 0 
-6.86859e-05 0.0305879 0 
-3.20763e-05 0.0306581 0 
0.0237495 4.08908e-05 0 
0.0240249 4.32253e-05 0 
0.0312083 -1.32216e-05 0 
-0.000237238 -0.025939 0 
0.000148304 -0.0306061 0 
9.63788e-05 -0.0306295 0 
0.000148302 0.0306061 0 
-0.00023724 0.025939 0 
9.63771e-05 0.0306295 0 
0.0242205 -3.42519e-05 0 
0.0238873 -1.34574e-05 0 
0.0312197 7.34015e-05 0 
0.0237202 2.12906e-05 0 
0.031226 -1.20476e-06 0 
0.0312103 -6.58863e-07 0 
0.0240157 -2.54488e-05 0 
0.0237377 -3.84777e-05 0 
0.0311921 2.58322e-05 0 
0.0311968 3.49895e-06 0 
0.0237213 -6.02698e-06 0 
0.0312117 -7.51835e-06 0 
0.000564743 0.0282001 0 
-0.000927015 0.00157506 0 
0.000155733 0.0209358 0 
-0.00092701 -0.0015751 0 
0.000564488 -0.0282004 0 
0.000155684 -0.0209359 0 
0.0313534 3.69138e-06 0 
0.0238568 -9.60755e-05 0 
0.031258 4.36777e-06 0 
0.0240529 0.000184234 0 
0.0250811 0.000109528 0 
0.0310912 -0.000192472 0 
0.0237059 1.43206e-05 0 
0.0311911 -6.53568e-06 0 
0.0312001 1.25165e-05 0 
0.0239146 1.56143e-05 0 
0.0242574 3.62118e-05 0 
0.0312175 -7.38775e-05 0 
9.75158e-11 -0.000746653 0 
9.84738e-11 -0.000550462 0 
0.000191071 -0.023421 0 
-5.15262e-11 0.000550462 0 
-5.24842e-11 0.000746652 0 
0.00019107 0.023421 0 
0.0240577 7.43608e-05 0 
0.0237626 -1.00114e-05 0 
0.0312004 0.000113398 0 
-9.4016e-11 -0.000530099 0 
-9.30521e-11 -0.000108856 0 
0.000336921 -0.0214755 0 
5.69475e-11 0.000108714 0 
5.59841e-11 0.000530065 0 
0.000337008 0.0214741 0 
0.0302745 0.00339701 0 
0.0268612 0.0127635 0 
0.0238235 0.00549264 0 
0.000207506 -0.0257981 0 
1.95242e-05 -0.0267866 0 
-0.000296817 -0.0304102 0 
1.95268e-05 0.0267866 0 
0.000207504 0.0257981 0 
-0.000296817 0.0304102 0 
0.0311892 5.75054e-06 0 
0.0239242 -2.54736e-05 0 
0.0312015 -1.28254e-05 0 
0.0239138 2.4317e-05 0 
0.0312416 -3.20816e-06 0 
0.0312172 -3.88384e-06 0 
0.0237188 6.212e-05 0 
0.0311936 1.98845e-05 0 
0.03121 9.75975e-05 0 
0.0263444 -0.0132415 0 
0.02884 -0.00520467 0 
0.0266283 -0.00224759 0 
0.0243048 -4.33103e-05 0 
0.0239537 -5.33791e-05 0 
0.0311869 5.50429e-05 0 
0.0312437 2.32259e-06 0 
0.023941 -2.53974e-05 0 
0.0312148 3.02053e-06 0 
0.0239817 5.45568e-05 0 
0.0243399 4.46813e-05 0 
0.031185 -5.54668e-05 0 
-0.000908018 0.0316938 0 
0.000263338 0.0258329 0 
0.00087941 0.0205678 0 
0.000263339 -0.0258329 0 
-0.000908017 -0.0316938 0 
0.00087941 -0.0205678 0 
0.0239719 3.3793e-05 0 
0.0312457 -8.53072e-11 0 
0.0312058 -1.54731e-06 0 
0.00389944 0.0299232 0 
0.00185887 0.0246416 0 
0.001202 0.0313852 0 
0.00189218 -0.0245856 0 
0.00397346 -0.0298874 0 
0.00124618 -0.0313829 0 
0.0243694 -3.18224e-05 0 
0.0240145 -5.05959e-05 0 
0.0311768 5.59491e-05 0 
0.0312477 -1.22605e-06 0 
0.0239981 -3.52749e-05 0 
0.0312041 -6.52862e-07 0 
-9.13438e-11 -0.00156806 0 
-9.00973e-11 -0.000617759 0 
0.00104772 -0.0249405 0 
5.99021e-11 0.0006244 0 
5.8654e-11 0.00156144 0 
0.00103311 0.0249953 0 
0.0240416 5.15806e-05 0 
0.0244043 3.23318e-05 0 
0.0311754 -5.80643e-05 0 
0.00139725 0.0250727 0 
0.000673949 0.0271298 0 
0.00205696 0.0305868 0 
0.000695373 -0.0271164 0 
0.00142571 -0.0250213 0 
0.002107 -0.030579 0 
0.023766 -1.13384e-05 0 
0.031245 3.61384e-06 0 
0.0312362 -7.46017e-06 0 
0.0017583 -0.000927859 0 
0.0267142 0.000719172 0 
0.0188627 9.91843e-05 0 
0.0243693 -9.35847e-05 0 
0.023813 -9.43955e-05 0 
0.0312115 3.61225e-05 0 
0.0257206 -0.00059888 0 
0.000715593 0.000382531 0 
0.0204755 -0.000372952 0 
0.031244 -6.67763e-06 0 
0.0238047 1.04765e-06 0 
0.0312207 1.24612e-05 0 
0.0238547 9.00312e-05 0 
0.0243951 8.15341e-05 0 
0.0311964 -3.08281e-05 0 
0.0242277 3.14775e-05 0 
0.0312376 5.97356e-06 0 
0.0311622 -1.30064e-05 0 
0.0252152 -0.000152583 0 
0.0243311 -0.000157444 0 
0.031073 0.000150011 0 
0.00160417 0.0242292 0 
0.00500349 0.0208247 0 
0.000577472 0.0129448 0 
0.00501265 -0.0207356 0 
0.00163405 -0.0241705 0 
0.000582239 -0.0128958 0 
0.0264784 -0.000389818 0 
0.0236925 -0.000128315 0 
0.0309024 0.000256046 0 
0.000905065 -0.0316142 0 
-0.000135287 -0.0256204 0 
-0.000965654 -0.0205714 0 
-0.000135288 0.0256204 0 
0.000905064 0.0316142 0 
-0.000965654 0.0205714 0 
0.0312586 1.97001e-05 0 
0.0238235 3.53e-05 0 
0.0312111 9.75946e-05 0 
0.0319152 0.00078167 0 
0.0258588 -0.000396323 0 
0.0219882 -0.0005349 0 
0.0238695 0.000118268 0 
0.0243187 0.000115692 0 
0.031204 8.47614e-05 0 
0.000381027 -0.0313185 0 
-6.66653e-05 -0.0245825 0 
-0.000438267 -0.0217353 0 
-6.66411e-05 0.0245825 0 
0.000381166 0.0313185 0 
-0.000438202 0.0217352 0 
0.0304751 0.00350202 0 
0.0266448 0.00090545 0 
0.0306256 0.000817913 0 
-0.000995993 -0.0270137 0 
0.000926714 -0.00182452 0 
0.000175504 -0.0166105 0 
0.000926714 0.00182453 0 
-0.00099599 0.0270137 0 
0.000175505 0.0166105 0 
-0.000273109 0.0237358 0 
-0.000163581 0.0312581 0 
0.000133128 0.0239161 0 
-0.000163753 -0.0312583 0 
-0.000273489 -0.0237351 0 
0.00013254 -0.0239149 0 
7.45493e-05 -0.0267832 0 
-0.000285156 -0.0308074 0 
-4.93907e-05 -0.0254131 0 
-0.000284988 0.0308074 0 
7.4604e-05 0.0267832 0 
-4.92675e-05 0.0254132 0 
0.0235854 0.00050821 0 
0.0261797 -0.000132539 0 
0.030795 -0.000466551 0 
0.011326 0.00319759 0 
0.0225391 0.00605165 0 
0.0138623 0.00152539 0 
-0.000869734 0.0317629 0 
-3.07115e-05 0.0249325 0 
0.000632363 0.0209696 0 
-2.82944e-05 -0.024933 0 
-0.000869536 -0.031763 0 
0.000631942 -0.0209709 0 
0.000649065 -0.0317699 0 
-0.000158761 -0.0247984 0 
-0.000662524 -0.0209649 0 
-0.000158167 0.0247976 0 
0.000649319 0.0317699 0 
-0.000662408 0.0209636 0 
0.0312542 0.000206976 0 
0.0233543 -0.000124734 0 
0.0309679 7.06562e-06 0 
0.00173983 0.0273969 0 
-0.00118386 0.00183307 0 
0.000163272 0.0152695 0 
-0.00118315 -0.00182872 0 
0.00175112 -0.0273819 0 
0.000166508 -0.0152651 0 
0.000289773 0.000615487 0 
-0.00030433 0.0255966 0 
-0.000320983 0.0212351 0 
-0.000304357 -0.0255967 0 
0.000289797 -0.000615477 0 
-0.000321042 -0.0212352 0 
0.00459545 0.0303536 0 
0.001327 0.0256136 0 
0.00766833 0.0243713 0 
0.00137247 -0.0257047 0 
0.00467434 -0.0303182 0 
0.00790329 -0.0244008 0 
0.000812665 6.45204e-11 0 
0.000561873 6.55533e-11 0 
0.0216443 0.000213108 0 
-0.00155447 -0.0279448 0 
0.00125326 -0.00183817 0 
-0.000156338 -0.0152498 0 
0.00125313 0.00183811 0 
-0.00155406 0.0279444 0 
-0.000156196 0.0152494 0 
0.000124739 -0.0252655 0 
3.84533e-05 -0.0263171 0 
0.000619414 -0.0154327 0 
3.84522e-05 0.0263171 0 
0.000124738 0.0252655 0 
0.000619414 0.0154327 0 
5.26111e-11 0.00104002 0 
5.16989e-11 0.000841298 0 
-0.000213857 0.0261982 0 
-9.83011e-11 -0.000841298 0 
-9.73889e-11 -0.00104002 0 
-0.000213855 -0.0261982 0 
0.026603 0.000235743 0 
0.0308529 -0.000120398 0 
0.0306138 -7.5246e-05 0 
0.0234883 0.000326516 0 
0.0311985 0.000207467 0 
0.0310143 6.65616e-06 0 
0.000165904 -0.0308383 0 
-0.000292532 -0.0232519 0 
0.000120767 -0.0309513 0 
-0.000292533 0.0232519 0 
0.000165902 0.0308383 0 
0.000120766 0.0309513 0 
0.000394449 -8.8167e-11 0 
0.000750786 -8.70607e-11 0 
0.0218234 -0.000308594 0 
0.000301726 -0.0246091 0 
-0.000297971 -0.0264059 0 
0.000187616 -0.0165999 0 
-0.000297969 0.0264059 0 
0.000301748 0.0246091 0 
0.000187618 0.0165999 0 
0.00015477 -0.0308424 0 
-0.000120434 -0.0243322 0 
-0.000281456 -0.0232479 0 
-0.000120435 0.0243322 0 
0.000154768 0.0308424 0 
-0.000281458 0.0232479 0 
0.00529446 6.51741e-11 0 
-0.00145708 6.25186e-11 0 
0.0240958 0.00559814 0 
0.0283577 -0.00420063 0 
0.0217726 -0.00077908 0 
0.030781 -0.000979219 0 
0.000735369 8.36341e-11 0 
0.00069226 8.46006e-11 0 
0.0236602 4.08485e-05 0 
0.02196 -0.00012389 0 
0.026405 -0.000255993 0 
0.0305291 -0.00185982 0 
0.0247583 -0.00317428 0 
0.0267317 -0.000329514 0 
0.0143835 0.00109892 0 
-0.000245813 -0.0229528 0 
-0.000336493 -0.0297033 0 
0.000152656 -0.0191145 0 
-0.000348168 0.0296924 0 
-0.000245585 0.0229593 0 
0.000152941 0.0191059 0 
-0.000620789 8.72974e-11 0 
0.00418227 8.51929e-11 0 
0.0261391 -0.0045843 0 
0.000246773 -0.0295373 0 
5.8482e-05 -0.0233335 0 
-0.000301961 -0.0194226 0 
5.8989e-05 0.0233344 0 
0.000247311 0.0295376 0 
-0.000301843 0.019423 0 
0.000705381 6.62761e-11 0 
0.00077113 6.7244e-11 0 
0.0241385 -6.39385e-05 0 
-0.000619654 -0.000605489 0 
0.0010156 -0.0257617 0 
0.000209822 -0.0166358 0 
0.00101562 0.0257617 0 
-0.000619661 0.000605492 0 
0.000209825 0.0166358 0 
0.0226699 0.000222833 0 
0.0269528 -0.000552715 0 
0.0148121 0.000321703 0 
0.000724126 8.1895e-11 0 
0.000707425 8.28715e-11 0 
0.0236491 1.57659e-05 0 
0.022056 -0.000900325 0 
0.000619188 0.000334676 0 
0.0142584 -2.80249e-05 0 
3.59831e-05 6.37494e-11 0 
0.000627148 6.45679e-11 0 
0.0195167 -0.000437262 0 
0.000724727 8.53873e-11 0 
0.000619122 8.62246e-11 0 
0.0234151 9.88433e-05 0 
0.00155569 -0.000881489 0 
0.0256805 0.0011447 0 
0.0203519 0.0001362 0 
0.000700713 6.80055e-11 0 
0.000721702 6.89783e-11 0 
0.0236114 -1.97729e-05 0 
0.000750621 8.01581e-11 0 
0.000723783 8.11363e-11 0 
0.0239516 2.57654e-05 0 
0.0243089 0.000177455 0 
0.0318704 -0.000902898 0 
0.0211779 0.000329118 0 
0.0304875 0.00384124 0 
0.0255424 0.000363854 0 
0.0210851 0.00108542 0 
0.000665822 -0.000227879 0 
0.0250512 0.000345546 0 
0.0205514 0.000187257 0 
0.000723212 6.97373e-11 0 
0.000748249 7.07161e-11 0 
0.0239276 -2.39997e-05 0 
0.030444 0.000459358 0 
0.0242341 -0.000234747 0 
0.0208161 -0.000357569 0 
0.000746456 7.84224e-11 0 
0.000717262 7.9399e-11 0 
0.0239016 2.79414e-05 0 
5.5128e-11 0.00079454 0 
5.42323e-11 0.00051392 0 
-0.000235327 0.0212651 0 
-9.57677e-11 -0.0005139 0 
-9.4872e-11 -0.000794587 0 
-0.000235382 -0.0212652 0 
0.000157381 -0.0297686 0 
6.8297e-05 -0.026647 0 
-0.000210258 -0.0167017 0 
6.83523e-05 0.026647 0 
0.000157391 0.0297686 0 
-0.000210254 0.0167017 0 
0.000925589 -7.59015e-11 0 
0.00092558 -7.49613e-11 0 
0.0261963 9.72301e-09 0 
0.000716582 7.14745e-11 0 
0.000743924 7.2452e-11 0 
0.0238768 -2.61269e-05 0 
0.000699346 -7.4185e-11 0 
0.000711686 -7.32342e-11 0 
0.0237339 -1.18731e-05 0 
0.000710726 -7.76283e-11 0 
0.000697973 -7.66776e-11 0 
0.0237166 1.22574e-05 0 
0.000416716 0.0251929 0 
-0.000716996 0.00133254 0 
0.000112806 0.0188766 0 
-0.000716928 -0.00133252 0 
0.000416556 -0.0251927 0 
0.000112662 -0.0188764 0 
-0.000783783 -0.00137604 0 
0.000787423 -0.0243683 0 
0.000241627 -0.0168364 0 
0.000787423 0.0243683 0 
-0.000783783 0.00137604 0 
0.000241629 0.0168364 0 
0.000203728 0.000515836 0 
0.000158725 0.0251166 0 
-0.000242598 0.0185092 0 
0.000187022 -0.0251755 0 
0.000187928 -0.000488146 0 
-0.000246444 -0.0185121 0 
0.000727923 -7.24875e-11 0 
0.000707151 -7.15182e-11 0 
0.0237321 1.99424e-05 0 
0.00070607 -7.93444e-11 0 
0.000726965 -7.83751e-11 0 
0.0237144 -2.00382e-05 0 
0.000725457 -7.07743e-11 0 
0.00070595 -6.9805e-11 0 
0.0236953 1.86886e-05 0 
0.000710892 7.67009e-11 0 
0.000718616 7.76613e-11 0 
0.0238161 -7.36914e-06 0 
0.000704651 -8.10575e-11 0 
0.000724611 -8.00884e-11 0 
0.0236777 -1.91026e-05 0 
0.000724294 -6.90599e-11 0 
0.000702665 -6.80939e-11 0 
0.0236608 2.06793e-05 0 
0.000703225 -8.27681e-11 0 
0.000722555 -8.18023e-11 0 
0.0236442 -1.84636e-05 0 
0.00073845 -6.73487e-11 0 
0.000687919 -6.63921e-11 0 
0.0238191 4.88454e-05 0 
0.000712724 -8.44779e-11 0 
0.000714285 -8.35132e-11 0 
0.0236453 -1.48841e-06 0 
0.000717982 7.32121e-11 0 
0.000708324 7.41735e-11 0 
0.0237911 9.19958e-06 0 
0.000701601 -8.62049e-11 0 
0.000662119 -8.52274e-11 0 
0.0234486 3.62681e-05 0 
0.000932352 7.49609e-11 0 
0.00093129 7.59136e-11 0 
0.0262194 1.15036e-06 0 
0.000252277 -0.0249276 0 
-0.00018583 -0.0307052 0 
0.000115816 -0.0304432 0 
-0.000185695 0.0307052 0 
0.000252299 0.0249275 0 
0.000115846 0.0304432 0 
0.0268722 -2.55615e-05 0 
0.0211499 -0.000523467 0 
0.0149068 -0.000297685 0 
0.0012586 0.0251719 0 
-0.00264545 0.000372742 0 
0.00785215 0.0255584 0 
-0.00269719 -0.000343246 0 
0.00129916 -0.0252313 0 
0.00810392 -0.0256964 0 
6.64917e-05 -0.0172842 0 
0.00015244 -0.0297657 0 
5.17861e-05 -0.0168517 0 
0.000152455 0.0297657 0 
6.64932e-05 0.0172842 0 
5.17928e-05 0.0168517 0 
0.0237037 -0.00061229 0 
0.000575535 0.00010739 0 
0.0132498 0.000430876 0 
-5.48137e-11 0.000590734 0 
-5.57199e-11 0.000516519 0 
-5.7742e-05 0.0190531 0 
9.42801e-11 -0.000516465 0 
9.51863e-11 -0.000590787 0 
-5.7825e-05 -0.0190527 0 
0.000322339 -0.0235211 0 
0.000123303 -0.025876 0 
-0.000374269 -0.0307346 0 
0.000123302 0.025876 0 
0.000322337 0.0235211 0 
-0.000374271 0.0307346 0 
0.000573285 -6.39464e-11 0 
0.000718673 -6.28145e-11 0 
0.0205913 -0.000115939 0 
-5.79205e-11 0.000498498 0 
-5.85963e-11 0.000305535 0 
-0.000150155 0.0186046 0 
9.14183e-11 -0.000294155 0 
9.20785e-11 -0.000497848 0 
-0.000158504 -0.0186029 0 
-0.00062104 0.0249811 0 
0.000998335 0.0268857 0 
0.000168499 0.0152731 0 
0.00101381 -0.0268736 0 
-0.000618028 -0.0249832 0 
0.000171478 -0.0152686 0 
9.66626e-11 -0.000307089 0 
9.76615e-11 -0.0005164 0 
-0.000140233 -0.0172552 0 
-5.23385e-11 0.000516398 0 
-5.33374e-11 0.000307089 0 
-0.000140232 0.0172552 0 
-0.000541216 0.0254663 0 
-7.20966e-05 0.0309288 0 
-0.000357889 0.030961 0 
-7.27825e-05 -0.0309298 0 
-0.000537346 -0.0254653 0 
-0.000353944 -0.0309619 0 
0.0257601 0.0130193 0 
0.0168441 0.0232074 0 
0.0203716 0.0159539 0 
0.0168472 -0.0231807 0 
0.0257444 -0.0133317 0 
0.0199792 -0.0158156 0 
0.000530042 -6.56474e-11 0 
0.000493226 -6.46691e-11 0 
0.0206708 2.96316e-05 0 
0.0266822 3.97594e-05 0 
0.0223138 7.22027e-05 0 
0.0145593 -0.000213989 0 
0.0257257 -0.0134773 0 
0.0269468 -0.00212623 0 
0.0200207 -0.015492 0 
0.0254728 0.00438917 0 
0.0256928 0.0135452 0 
0.0203902 0.0158085 0 
0.0004162 -0.025407 0 
-0.000185719 -0.0308863 0 
0.000146229 -0.0309016 0 
-0.000185517 0.0308862 0 
0.000416897 0.0254062 0 
0.000146948 0.0309016 0 
0.000958737 0.00137476 0 
-0.00134461 0.0258978 0 
9.20889e-05 0.0153699 0 
-0.00133934 -0.0258971 0 
0.000956501 -0.00137485 0 
9.48107e-05 -0.0153657 0 
-5.93416e-11 -0.00211602 0 
-5.61516e-11 0.00681634 0 
0.00823559 0.0251977 0 
9.39372e-11 -0.00715674 0 
9.06388e-11 0.00219419 0 
0.00862152 -0.0252095 0 
0.000417626 -0.0247599 0 
-0.000783224 -0.0274285 0 
-0.0001677 -0.0152574 0 
-0.000782864 0.0274282 0 
0.000418125 0.0247592 0 
-0.000167552 0.015257 0 
-0.000958083 -0.00137653 0 
0.00117802 -0.0256661 0 
-7.85981e-05 -0.0153635 0 
0.00117839 0.0256652 0 
-0.00095806 0.00137634 0 
-7.84517e-05 0.0153631 0 
-0.000656353 -0.00116233 0 
0.000476475 -0.0234723 0 
0.000298109 -0.0199407 0 
9.90712e-11 -0.000402218 0 
1.00111e-10 -0.000531845 0 
-0.000104033 -0.020327 0 
-4.98895e-11 0.000531845 0 
-5.09288e-11 0.000402218 0 
-0.000104033 0.020327 0 
0.000476475 0.0234723 0 
-0.000656353 0.00116233 0 
0.000298109 0.0199407 0 
0.000216632 -0.0272768 0 
-3.90363e-05 -0.0289346 0 
-0.000526454 -0.0301021 0 
-3.90245e-05 0.0289346 0 
0.000216685 0.0272768 0 
-0.000526411 0.0301021 0 
5.09798e-11 0.000412661 0 
4.98846e-11 0.000553201 0 
0.000106567 0.0204267 0 
-1.00115e-10 -0.000553201 0 
-9.90202e-11 -0.000412661 0 
0.000106567 -0.0204267 0 
-0.000185688 -0.0307456 0 
-0.000266459 -0.0269953 0 
0.000115933 -0.0304764 0 
-0.000266394 0.0269954 0 
-0.000185553 0.0307456 0 
0.000115963 0.0304764 0 
-0.000419408 -0.0234049 0 
0.000638694 -0.00120012 0 
-0.000288408 -0.0200266 0 
0.000638694 0.00120012 0 
-0.000419408 0.0234049 0 
-0.000288408 0.0200266 0 
-0.000507303 0.00025987 0 
0.0273024 -0.00192064 0 
0.0130831 0.000458123 0 
-9.73863e-11 -0.000697117 0 
-9.65905e-11 -0.000382945 0 
0.000199385 -0.0166395 0 
5.34095e-11 0.000382945 0 
5.26137e-11 0.000697119 0 
0.000199386 0.0166395 0 
-0.000276101 0.0232694 0 
0.000131116 0.0236023 0 
-6.63968e-07 0.0131978 0 
0.000130529 -0.0236015 0 
-0.000276486 -0.0232678 0 
-8.25217e-07 -0.0131966 0 
-8.89168e-11 -7.05663e-05 0 
-8.92124e-11 0.000303708 0 
0.000270761 -0.000783576 0 
6.08045e-11 -0.000309241 0 
6.11089e-11 7.8342e-05 0 
0.000280388 0.000792967 0 
0.000600879 -0.000319699 0 
0.0236675 0.000731055 0 
0.0142534 3.71193e-05 0 
-0.000302224 -8.91166e-11 0 
4.99425e-05 -8.94221e-11 0 
0.000792344 -0.000259432 0 
4.64461e-05 -6.05938e-11 0 
-0.000307729 -6.09025e-11 0 
0.000809844 0.000260912 0 
-0.000253953 0.0244071 0 
0.000153506 0.0271711 0 
-0.000460377 0.0148312 0 
0.000153452 -0.0271711 0 
-0.000254074 -0.024407 0 
-0.000460387 -0.0148311 0 
-0.00098361 0.0241492 0 
0.000184622 0.0288334 0 
0.000562089 0.0306323 0 
0.000199841 -0.0288387 0 
-0.000987759 -0.024149 0 
0.000566225 -0.0306349 0 
8.95356e-05 -0.0239632 0 
-5.77436e-05 -0.0313249 0 
-0.000360308 -0.0307947 0 
-5.70151e-05 0.0313251 0 
8.99965e-05 0.023964 0 
-0.00036432 0.0307921 0 
0.000671013 -0.0243746 0 
-0.000178418 -0.0288146 0 
-0.000689997 -0.0305355 0 
-0.000177916 0.0288149 0 
0.000671602 0.0243756 0 
-0.000689195 0.0305355 0 
-0.000205403 -0.0312833 0 
-0.000300261 -0.0241748 0 
0.000155753 -0.0307095 0 
-0.000299445 0.0241758 0 
-0.000205194 0.0312831 0 
0.000156471 0.0307095 0 
0.024987 0.000868036 0 
0.0305986 -0.000430575 0 
0.0207058 0.000277389 0 
0.00807225 0.00734238 0 
0.0234144 0.00379692 0 
0.0213611 0.0160878 0 
0.0240382 -0.00114587 0 
0.00880355 -0.00756326 0 
0.0213678 -0.015946 0 
0.0296611 9.40015e-05 0 
0.0258101 0.000407492 0 
0.0305112 0.000955835 0 
0.0257703 0.000638312 0 
0.0301918 0.0034851 0 
0.0305359 0.000812552 0 
0.000260677 -0.028809 0 
-0.000354067 -0.0247269 0 
0.000690768 -0.0306924 0 
-0.000354069 0.0247269 0 
0.000260687 0.028809 0 
0.000690768 0.0306924 0 
0.000305726 -0.0245952 0 
-7.83159e-05 -0.0306986 0 
-4.79031e-05 -0.0308399 0 
-7.83178e-05 0.0306986 0 
0.000305726 0.0245951 0 
-4.79028e-05 0.0308399 0 
-0.000269143 -8.90086e-11 0 
0.000937581 -8.80369e-11 0 
0.0175242 -0.000943376 0 
0.031066 -0.000126085 0 
0.0249995 -0.000489426 0 
0.0304436 -7.07027e-05 0 
-0.000398172 0.0287257 0 
0.00156956 0.0253211 0 
0.000810023 0.0308889 0 
0.00161592 -0.0253784 0 
-0.000385608 -0.0287307 0 
0.000865315 -0.0308811 0 
0.0250352 0.000373957 0 
0.0296584 -0.000137521 0 
0.0304324 -0.000341032 0 
0.000199342 -0.028711 0 
-0.000574084 -0.0253653 0 
0.000261041 -0.0303096 0 
-0.00057398 0.0253655 0 
0.000199815 0.0287113 0 
0.000261366 0.0303097 0 
0.00173576 0.0253573 0 
0.00396773 0.0307472 0 
0.00116732 0.0309668 0 
0.00404202 -0.0307147 0 
0.00182151 -0.0254232 0 
0.00121084 -0.0309565 0 
-0.000312488 -0.0252855 0 
0.000226168 -0.0310554 0 
-2.07196e-05 -0.0303955 0 
0.000226285 0.0310554 0 
-0.000312312 0.0252857 0 
-2.04027e-05 0.0303956 0 
5.86087e-11 0.00055917 0 
5.78105e-11 0.000699327 0 
7.87155e-05 0.0153605 0 
-9.21891e-11 -0.000700993 0 
-9.13897e-11 -0.000555585 0 
8.16645e-05 -0.0153564 0 
0.000281446 -0.0234951 0 
-0.000302507 -0.0299006 0 
0.000437418 -0.0171743 0 
-0.000302498 0.0299006 0 
0.000281444 0.0234951 0 
0.000437421 0.0171742 0 
0.000824106 0.00127089 0 
-0.00102676 0.0252506 0 
-0.00013139 0.0144721 0 
-0.00102685 -0.0252505 0 
0.00082411 -0.00127088 0 
-0.000131407 -0.014472 0 
-0.000966819 -0.0241374 0 
0.00038314 -0.000607642 0 
6.36971e-05 -0.0131153 0 
0.000383265 0.000608025 0 
-0.000966701 0.0241395 0 
6.38688e-05 0.0131165 0 
-0.000368404 -0.000603562 0 
0.0008448 -0.0244647 0 
-6.44484e-05 -0.0131197 0 
0.000845563 0.0244658 0 
-0.00036866 0.000603772 0 
-6.43018e-05 0.0131209 0 
0.000690036 0.0237258 0 
0.000197869 0.0298068 0 
-0.000424353 0.018985 0 
0.000214229 -0.0298187 0 
0.00072608 -0.0237644 0 
-0.000429932 -0.0189924 0 
-5.02713e-06 -0.0242211 0 
-0.000264594 -0.0296438 0 
0.000295674 -0.0192982 0 
-0.000264166 0.0296441 0 
-4.88644e-06 0.0242212 0 
0.000295854 0.0192985 0 
-0.000515505 -0.00070557 0 
0.000953919 -0.0265056 0 
0.000211569 -0.0148227 0 
0.000953918 0.0265056 0 
-0.000515504 0.00070557 0 
0.000211569 0.0148227 0 
-9.46808e-11 -0.000566046 0 
-9.40747e-11 -0.000668992 0 
-5.87076e-05 -0.0153489 0 
5.59253e-11 0.00066882 0 
5.53192e-11 0.000566121 0 
-5.85667e-05 0.0153485 0 
6.05747e-11 -0.000121773 0 
5.98187e-11 0.000693401 0 
0.000475294 0.0130117 0 
-9.01826e-11 -0.000695239 0 
-8.94295e-11 0.000128889 0 
0.000480514 -0.0129616 0 
0.000772607 0.000496596 0 
0.0215954 -0.000608001 0 
0.0177118 -0.00150811 0 
0.000867419 -6.17926e-11 0 
-8.97365e-05 -6.11929e-11 0 
0.0134266 0.000625733 0 
0.00667615 0.0249734 0 
0.00771498 0.00792601 0 
0.0210062 0.0166676 0 
0.00831986 -0.00835342 0 
0.00688792 -0.0249601 0 
0.0210121 -0.016527 0 
0.00964299 -0.00335983 0 
0.00624454 -0.0065058 0 
0.00341671 -0.000989641 0 
0.00635344 0.00662423 0 
0.0108116 0.00336696 0 
0.00344932 0.00119454 0 
0.0165176 0.0232106 0 
0.00731246 0.0259715 0 
0.02055 0.0159521 0 
0.00754046 -0.0259837 0 
0.0164595 -0.0231845 0 
0.020555 -0.01581 0 
-0.000251948 0.00100784 0 
0.00995001 -0.00319321 0 
0.00331161 -0.00104668 0 
0.0109436 0.00331589 0 
-0.00014192 -0.00106615 0 
0.00345503 0.00119233 0 
6.11575e-11 -0.00075415 0 
6.10737e-11 0.000704275 0 
0.000816005 0.00328758 0 
-8.89427e-11 -0.000691969 0 
-8.8864e-11 0.000745635 0 
0.000804355 -0.00322294 0 
-9.90842e-11 -0.000367728 0 
-9.84101e-11 -0.00023895 0 
7.11346e-05 -0.0149498 0 
5.15899e-11 0.00023895 0 
5.09158e-11 0.000367728 0 
7.11345e-05 0.0149498 0 
0.00080425 -6.06747e-11 0 
-0.000788321 -6.05184e-11 0 
0.00319316 0.00089726 0 
-0.000720879 -8.94711e-11 0 
0.000642472 -8.94158e-11 0 
0.0030644 -0.000768117 0 
9.84507e-11 -0.000189313 0 
9.91599e-11 -0.00033372 0 
-8.49271e-05 -0.0150992 0 
-5.08401e-11 0.00033372 0 
-5.15493e-11 0.000189313 0 
-8.49274e-05 0.0150992 0 
-7.6328e-05 0.000637194 0 
0.000943467 0.0250103 0 
0.000503372 0.0130324 0 
0.000972081 -0.0249531 0 
-8.57068e-05 -0.000632125 0 
0.000508892 -0.0129825 0 
-5.66463e-11 0.000238931 0 
-5.70288e-11 0.000240866 0 
9.93492e-07 0.0130562 0 
9.29715e-11 -0.000240603 0 
9.33539e-11 -0.000238973 0 
8.36895e-07 -0.0130551 0 
9.52582e-11 -0.000473866 0 
9.59973e-11 -0.000252025 0 
0.00012556 -0.0147205 0 
-5.40027e-11 0.000252014 0 
-5.47418e-11 0.000473885 0 
0.000125576 0.0147206 0 
0.00290687 0.00972734 0 
0.00634716 0.00640935 0 
0.00116515 0.00359415 0 
0.00632504 -0.00630447 0 
0.00292537 -0.00965193 0 
0.00114389 -0.00352754 0 
0.000468715 8.63777e-11 0 
-0.000248811 8.66045e-11 0 
0.01318 0.000360677 0 
0.000295164 -8.70485e-11 0 
0.000291357 -8.62414e-11 0 
0.0142875 1.96621e-06 0 
-3.60443e-05 -0.0148498 0 
-3.98604e-05 -0.000283901 0 
3.31383e-05 -0.016524 0 
-3.98683e-05 0.000283896 0 
-3.6026e-05 0.0148498 0 
3.31457e-05 0.016524 0 
9.59546e-11 -0.000313633 0 
9.67836e-11 -0.000280248 0 
2.11477e-05 -0.0165151 0 
-5.32164e-11 0.000280245 0 
-5.40454e-11 0.000313634 0 
2.11498e-05 0.0165151 0 
-0.000995419 -0.000185268 0 
0.00284054 0.00987818 0 
0.00116343 0.00359806 0 
0.00286481 -0.00978967 0 
-0.000995711 0.000197836 0 
0.00114426 -0.00352669 0 
0.0212267 0.0011036 0 
0.000367453 -0.000487578 0 
0.0140207 0.00120512 0 
-0.000296109 -0.0269256 0 
-1.98646e-05 -0.0150717 0 
3.25583e-05 -0.0165161 0 
-1.98451e-05 0.0150717 0 
-0.000296056 0.0269256 0 
3.25651e-05 0.0165161 0 
0.022541 0.00606412 0 
0.0210282 0.00117224 0 
0.0138243 0.00127302 0 
0.0298633 0.000159591 0 
0.0302702 0.000877658 0 
0.0291308 -0.000432553 0 
-0.00051911 -0.0235395 0 
0.000338508 -0.000493966 0 
-0.000227348 -0.014971 0 
0.000338508 0.000493966 0 
-0.000519111 0.0235395 0 
-0.000227348 0.014971 0 
0.0306165 0.000686852 0 
0.0266405 0.000843432 0 
0.0285149 -9.31834e-05 0 
0.000156884 -0.0258612 0 
3.32492e-05 -0.0308954 0 
-0.000100236 -0.0306142 0 
3.32485e-05 0.0308954 0 
0.000156883 0.0258612 0 
-0.000100238 0.0306142 0 
0.0300355 -0.00022611 0 
0.0298626 -0.000196628 0 
0.0291321 0.000169755 0 
0.000236763 -0.0262015 0 
2.64829e-06 -0.0226039 0 
-0.000496963 -0.0154545 0 
2.64713e-06 0.0226039 0 
0.000236762 0.0262015 0 
-0.000496963 0.0154545 0 
0.0266128 -0.000137988 0 
0.0306087 0.000120547 0 
0.0285141 -0.000203991 0 
3.29579e-05 -0.0307723 0 
-0.000124734 -0.026213 0 
-0.000100002 -0.0307131 0 
-0.000124736 0.026213 0 
3.29572e-05 0.0307723 0 
-0.000100004 0.0307131 0 
0.000232953 0.0196185 0 
0.000535672 0.0262328 0 
-1.10684e-05 0.0155395 0 
0.000535673 -0.0262328 0 
0.000232954 -0.0196185 0 
-1.10681e-05 -0.0155395 0 
0.000843358 -0.000214931 0 
0.00536746 -0.00613049 0 
0.00157651 -0.00360614 0 
0.00544617 0.00624566 0 
0.000883534 0.000228929 0 
0.00158857 0.00367107 0 
-3.87779e-06 -0.0204605 0 
3.71006e-05 -0.000401311 0 
0.000137827 -0.0150102 0 
3.7101e-05 0.000401311 0 
-3.87801e-06 0.0204605 0 
0.000137826 0.0150102 0 
-0.000642156 0.000171781 0 
0.00102424 -0.00106794 0 
0.00138519 -0.00270388 0 
0.00106601 0.00108946 0 
-0.000654972 -0.000168842 0 
0.00139713 0.00276826 0 
0.00029887 0.000836779 0 
0.0061488 0.00551517 0 
0.00353316 0.00164891 0 
0.00604526 -0.00542582 0 
0.000253578 -0.0008281 0 
0.00351588 -0.00152714 0 
-0.000195567 -0.000667919 0 
0.00108267 0.00101386 0 
0.00269429 0.00145939 0 
0.0010648 -0.00101138 0 
-0.000173532 0.000616754 0 
0.0025787 -0.00131541 0 
0.0264394 -0.000542288 0 
0.0307405 -0.00133372 0 
0.0304376 9.73677e-05 0 
-0.000247095 -0.019575 0 
-0.000486028 -0.0261067 0 
0.00011155 -0.0155343 0 
-0.000486029 0.0261067 0 
-0.000247096 0.019575 0 
0.000111549 0.0155343 0 
-6.30845e-05 -0.000384212 0 
-8.25064e-06 -0.0203544 0 
-3.4229e-05 -0.0150586 0 
-8.25104e-06 0.0203543 0 
-6.30845e-05 0.000384212 0 
-3.42294e-05 0.0150586 0 
6.89701e-05 0.017338 0 
-2.18499e-05 0.000298441 0 
3.57156e-05 0.0165029 0 
-2.18473e-05 -0.000298442 0 
6.89687e-05 -0.017338 0 
3.57091e-05 -0.0165029 0 
0.0301592 -0.00136011 0 
0.026491 -0.000372173 0 
0.0308011 0.000113873 0 
0.0255885 0.000407913 0 
0.0193368 -0.000679896 0 
0.0292015 0.00019104 0 
0.0192989 0.000341821 0 
0.0257845 0.000201946 0 
0.029227 -0.000496551 0 
TENSORS Stress float 
-9.4341 0.129037 0 
0.129037 -9.32317 0 
0 0 0 
-9.35297 0.143802 0 
0.143802 -9.4043 0 
0 0 0 
-9.37634 0.120589 0 
0.120589 -9.38093 0 
0 0 0 
-5.64704 0.143808 0 
0.143808 -5.59571 0 
0 0 0 
-5.5659 0.129042 0 
0.129042 -5.67685 0 
0 0 0 
-5.62367 0.120592 0 
0.120592 -5.61908 0 
0 0 0 
-9.27816 0.141072 0 
0.141072 -9.23294 0 
0 0 0 
-9.20388 0.129231 0 
0.129231 -9.30723 0 
0 0 0 
-9.25614 0.119762 0 
0.119762 -9.25497 0 
0 0 0 
-5.79624 0.129247 0 
0.129247 -5.69279 0 
0 0 0 
-5.72188 0.141095 0 
0.141095 -5.76715 0 
0 0 0 
-5.74394 0.119778 0 
0.119778 -5.7451 0 
0 0 0 
-6.1889 0.00159222 0 
0.00159222 -6.01113 0 
0 0 0 
-6.19213 0.0202706 0 
0.0202706 -6.00789 0 
0 0 0 
-6.18305 0.00955964 0 
0.00955964 -6.01697 0 
0 0 0 
-8.81322 0.0149451 0 
0.0149451 -8.99534 0 
0 0 0 
-8.81526 -0.00275836 0 
-0.00275836 -8.99329 0 
0 0 0 
-8.82282 0.00922591 0 
0.00922591 -8.98573 0 
0 0 0 
-6.16825 -0.0251502 0 
-0.0251502 -5.97165 0 
0 0 0 
-6.15934 0.00528473 0 
0.00528473 -5.98056 0 
0 0 0 
-6.14302 -0.0222043 0 
-0.0222043 -5.99688 0 
0 0 0 
-8.8418 0.00441468 0 
0.00441468 -9.01963 0 
0 0 0 
-8.83294 -0.025072 0 
-0.025072 -9.02849 0 
0 0 0 
-8.85725 -0.0218621 0 
-0.0218621 -9.00418 0 
0 0 0 
-8.75737 0.0732243 0 
0.0732243 -8.88872 0 
0 0 0 
-8.78765 0.0575298 0 
0.0575298 -8.85844 0 
0 0 0 
-8.77918 0.0651478 0 
0.0651478 -8.86691 0 
0 0 0 
-9.42979 0.116653 0 
0.116653 -9.4071 0 
0 0 0 
-9.41273 0.124152 0 
0.124152 -9.42416 0 
0 0 0 
-9.37112 0.10348 0 
0.10348 -9.46577 0 
0 0 0 
-5.58727 0.124155 0 
0.124155 -5.57584 0 
0 0 0 
-5.57021 0.116654 0 
0.116654 -5.59291 0 
0 0 0 
-5.62888 0.103478 0 
0.103478 -5.53423 0 
0 0 0 
-5.79387 0.115674 0 
0.115674 -5.76702 0 
0 0 0 
-5.77857 0.12254 0 
0.12254 -5.78233 0 
0 0 0 
-5.7408 0.10349 0 
0.10349 -5.8201 0 
0 0 0 
-9.22158 0.122579 0 
0.122579 -9.21791 0 
0 0 0 
-9.20635 0.115715 0 
0.115715 -9.23315 0 
0 0 0 
-9.25928 0.103546 0 
0.103546 -9.18021 0 
0 0 0 
-6.21364 0.0308978 0 
0.0308978 -6.00325 0 
0 0 0 
-6.20793 0.0629904 0 
0.0629904 -6.00896 0 
0 0 0 
-6.17199 0.000813113 0 
0.000813113 -6.0449 0 
0 0 0 
-8.78807 0.0544819 0 
0.0544819 -9.00452 0 
0 0 0 
-8.79067 0.0208002 0 
0.0208002 -9.00193 0 
0 0 0 
-8.83619 0.006717 0 
0.006717 -8.95641 0 
0 0 0 
-8.45124 -0.139245 0 
-0.139245 -8.5415 0 
0 0 0 
-8.53602 -0.140491 0 
-0.140491 -8.45673 0 
0 0 0 
-8.49716 -0.115489 0 
-0.115489 -8.49558 0 
0 0 0 
-6.19843 0.032643 0 
0.032643 -6.03973 0 
0 0 0 
-6.19561 0.0225708 0 
0.0225708 -6.04255 0 
0 0 0 
-6.23811 0.0314293 0 
0.0314293 -6.00005 0 
0 0 0 
-8.80855 0.0226554 0 
0.0226554 -8.96323 0 
0 0 0 
-8.79872 0.0253328 0 
0.0253328 -8.97306 0 
0 0 0 
-8.77376 0.0276736 0 
0.0276736 -8.99802 0 
0 0 0 
-6.15922 -0.0573142 0 
-0.0573142 -5.95186 0 
0 0 0 
-6.15294 -0.0271801 0 
-0.0271801 -5.95814 0 
0 0 0 
-6.11281 -0.0189377 0 
-0.0189377 -5.99827 0 
0 0 0 
-8.84787 -0.0271628 0 
-0.0271628 -9.04243 0 
0 0 0 
-8.84172 -0.0570262 0 
-0.0570262 -9.04858 0 
0 0 0 
-8.8879 -0.0189768 0 
-0.0189768 -9.0024 0 
0 0 0 
-6.55114 -0.139944 0 
-0.139944 -6.63519 0 
0 0 0 
-6.63946 -0.137647 0 
-0.137647 -6.54687 0 
0 0 0 
-6.59246 -0.112745 0 
-0.112745 -6.59387 0 
0 0 0 
-6.12079 -0.0428857 0 
-0.0428857 -5.96286 0 
0 0 0 
-6.12875 -0.0302238 0 
-0.0302238 -5.95489 0 
0 0 0 
-6.13381 -0.0390402 0 
-0.0390402 -5.94984 0 
0 0 0 
-8.87209 -0.0301573 0 
-0.0301573 -9.04571 0 
0 0 0 
-8.8801 -0.0426301 0 
-0.0426301 -9.03769 0 
0 0 0 
-8.86689 -0.0387914 0 
-0.0387914 -9.05091 0 
0 0 0 
-6.24976 0.0351284 0 
0.0351284 -6.11955 0 
0 0 0 
-6.24108 0.0373688 0 
0.0373688 -6.12823 0 
0 0 0 
-6.22587 0.0558948 0 
0.0558948 -6.14344 0 
0 0 0 
-8.77363 0.0350474 0 
0.0350474 -8.89043 0 
0 0 0 
-8.75807 0.0396482 0 
0.0396482 -8.90599 0 
0 0 0 
-8.76786 0.0517171 0 
0.0517171 -8.8962 0 
0 0 0 
-8.28051 -0.139499 0 
-0.139499 -8.36624 0 
0 0 0 
-8.36214 -0.14089 0 
-0.14089 -8.28461 0 
0 0 0 
-8.32366 -0.116831 0 
-0.116831 -8.3231 0 
0 0 0 
-6.09412 -0.0874724 0 
-0.0874724 -6.01971 0 
0 0 0 
-6.14558 -0.0906684 0 
-0.0906684 -5.96824 0 
0 0 0 
-6.07891 -0.0276667 0 
-0.0276667 -6.03491 0 
0 0 0 
-8.85521 -0.0902578 0 
-0.0902578 -9.03235 0 
0 0 0 
-8.90642 -0.0871781 0 
-0.0871781 -8.98114 0 
0 0 0 
-8.92157 -0.0274194 0 
-0.0274194 -8.966 0 
0 0 0 
-8.85187 0.0824232 0 
0.0824232 -8.92691 0 
0 0 0 
-8.79707 0.0897632 0 
0.0897632 -8.9817 0 
0 0 0 
-8.86436 0.0173237 0 
0.0173237 -8.91442 0 
0 0 0 
-6.72498 -0.140608 0 
-0.140608 -6.80285 0 
0 0 0 
-6.80635 -0.139716 0 
-0.139716 -6.72149 0 
0 0 0 
-6.76369 -0.116888 0 
-0.116888 -6.76414 0 
0 0 0 
-8.1097 -0.1399 0 
-0.1399 -8.19193 0 
0 0 0 
-8.19013 -0.140643 0 
-0.140643 -8.1115 0 
0 0 0 
-8.15118 -0.117201 0 
-0.117201 -8.15045 0 
0 0 0 
-8.73503 0.0717567 0 
0.0717567 -8.82419 0 
0 0 0 
-8.75151 0.0822151 0 
0.0822151 -8.80771 0 
0 0 0 
-8.75684 0.0660238 0 
0.0660238 -8.80238 0 
0 0 0 
-6.89659 -0.140537 0 
-0.140537 -6.97576 0 
0 0 0 
-6.9767 -0.140125 0 
-0.140125 -6.89566 0 
0 0 0 
-6.93588 -0.117301 0 
-0.117301 -6.93647 0 
0 0 0 
-8.5079 -0.101432 0 
-0.101432 -8.57709 0 
0 0 0 
-8.54467 -0.123353 0 
-0.123353 -8.54033 0 
0 0 0 
-8.57692 -0.0946779 0 
-0.0946779 -8.50807 0 
0 0 0 
-7.9377 -0.140366 0 
-0.140366 -8.01809 0 
0 0 0 
-8.01777 -0.140276 0 
-0.140276 -7.93802 0 
0 0 0 
-7.97817 -0.117318 0 
-0.117318 -7.97761 0 
0 0 0 
-6.14589 -0.0466583 0 
-0.0466583 -5.94324 0 
0 0 0 
-6.13127 -0.0127368 0 
-0.0127368 -5.95787 0 
0 0 0 
-6.117 -0.0120118 0 
-0.0120118 -5.97214 0 
0 0 0 
-8.86932 -0.0124762 0 
-0.0124762 -9.04333 0 
0 0 0 
-8.85458 -0.0473993 0 
-0.0473993 -9.05808 0 
0 0 0 
-8.88437 -0.0119324 0 
-0.0119324 -9.02829 0 
0 0 0 
-7.06896 -0.14017 0 
-0.14017 -7.14924 0 
0 0 0 
-7.14868 -0.140581 0 
-0.140581 -7.06952 0 
0 0 0 
-7.10888 -0.117447 0 
-0.117447 -7.10932 0 
0 0 0 
-7.76638 -0.140722 0 
-0.140722 -7.84398 0 
0 0 0 
-7.84553 -0.139987 0 
-0.139987 -7.76483 0 
0 0 0 
-7.80541 -0.11762 0 
-0.11762 -7.80495 0 
0 0 0 
-7.49121 0.14071 0 
0.14071 -7.41562 0 
0 0 0 
-7.4112 0.139481 0 
0.139481 -7.49563 0 
0 0 0 
-7.45381 0.117405 0 
0.117405 -7.45302 0 
0 0 0 
-7.67501 0.139503 0 
0.139503 -7.5907 0 
0 0 0 
-7.59513 0.140716 0 
0.140716 -7.67058 0 
0 0 0 
-7.63247 0.117442 0 
0.117442 -7.63324 0 
0 0 0 
-6.31529 0.125084 0 
0.125084 -6.21999 0 
0 0 0 
-6.26971 0.112487 0 
0.112487 -6.26557 0 
0 0 0 
-6.25272 0.0903504 0 
0.0903504 -6.28255 0 
0 0 0 
-7.32098 0.141301 0 
0.141301 -7.24656 0 
0 0 0 
-7.24229 0.139583 0 
0.139583 -7.32526 0 
0 0 0 
-7.28367 0.118022 0 
0.118022 -7.28387 0 
0 0 0 
-7.24121 -0.139872 0 
-0.139872 -7.32241 0 
0 0 0 
-7.31998 -0.140915 0 
-0.140915 -7.24364 0 
0 0 0 
-7.28164 -0.117774 0 
-0.117774 -7.28198 0 
0 0 0 
-7.8439 0.13962 0 
0.13962 -7.76106 0 
0 0 0 
-7.76532 0.141328 0 
0.141328 -7.83963 0 
0 0 0 
-7.80258 0.118074 0 
0.118074 -7.80238 0 
0 0 0 
-7.1498 0.141406 0 
0.141406 -7.07526 0 
0 0 0 
-7.07112 0.139712 0 
0.139712 -7.15394 0 
0 0 0 
-7.1125 0.118079 0 
0.118079 -7.11255 0 
0 0 0 
-8.01507 0.139743 0 
0.139743 -7.93238 0 
0 0 0 
-7.93651 0.141428 0 
0.141428 -8.01095 0 
0 0 0 
-7.97375 0.118126 0 
0.118126 -7.9737 0 
0 0 0 
-6.97833 0.141448 0 
0.141448 -6.90409 0 
0 0 0 
-6.89993 0.139798 0 
0.139798 -6.98249 0 
0 0 0 
-6.94118 0.118202 0 
0.118202 -6.94124 0 
0 0 0 
-8.18623 0.139812 0 
0.139812 -8.10382 0 
0 0 0 
-8.10795 0.141455 0 
0.141455 -8.18209 0 
0 0 0 
-8.14505 0.118236 0 
0.118236 -8.145 0 
0 0 0 
-6.80713 0.141319 0 
0.141319 -6.73327 0 
0 0 0 
-6.72947 0.139687 0 
0.139687 -6.81093 0 
0 0 0 
-6.7703 0.118387 0 
0.118387 -6.77009 0 
0 0 0 
-8.35735 0.139902 0 
0.139902 -8.27506 0 
0 0 0 
-8.27923 0.141529 0 
0.141529 -8.35319 0 
0 0 0 
-8.31626 0.118334 0 
0.118334 -8.31616 0 
0 0 0 
-6.6447 0.140512 0 
0.140512 -6.55772 0 
0 0 0 
-6.5532 0.139216 0 
0.139216 -6.64922 0 
0 0 0 
-6.60075 0.112103 0 
0.112103 -6.60167 0 
0 0 0 
-7.59597 -0.140489 0 
-0.140489 -7.67205 0 
0 0 0 
-7.67541 -0.139712 0 
-0.139712 -7.59261 0 
0 0 0 
-7.63367 -0.117385 0 
-0.117385 -7.63435 0 
0 0 0 
-8.53313 0.141284 0 
0.141284 -8.44495 0 
0 0 0 
-8.4511 0.143195 0 
0.143195 -8.52698 0 
0 0 0 
-8.49012 0.118235 0 
0.118235 -8.48796 0 
0 0 0 
-7.4114 -0.139589 0 
-0.139589 -7.49463 0 
0 0 0 
-7.49052 -0.14063 0 
-0.14063 -7.41551 0 
0 0 0 
-7.45339 -0.117517 0 
-0.117517 -7.45264 0 
0 0 0 
-6.25899 0.14023 0 
0.14023 -6.19187 0 
0 0 0 
-6.17424 0.120895 0 
0.120895 -6.27662 0 
0 0 0 
-6.23406 0.117025 0 
0.117025 -6.2168 0 
0 0 0 
-8.94748 -0.0677421 0 
-0.0677421 -8.99868 0 
0 0 0 
-8.92156 -0.0863573 0 
-0.0863573 -9.0246 0 
0 0 0 
-8.91473 -0.147386 0 
-0.147386 -9.03144 0 
0 0 0 
-6.07884 -0.0868329 0 
-0.0868329 -5.97599 0 
0 0 0 
-6.05296 -0.068031 0 
-0.068031 -6.00188 0 
0 0 0 
-6.08575 -0.147589 0 
-0.147589 -5.96909 0 
0 0 0 
-6.48972 0.136737 0 
0.136737 -6.38622 0 
0 0 0 
-6.40358 0.143927 0 
0.143927 -6.47236 0 
0 0 0 
-6.43532 0.116813 0 
0.116813 -6.44062 0 
0 0 0 
-6.18116 0.00541598 0 
0.00541598 -6.00522 0 
0 0 0 
-6.19425 0.0154178 0 
0.0154178 -5.99212 0 
0 0 0 
-6.18508 -0.0120239 0 
-0.0120239 -6.00129 0 
0 0 0 
-8.8085 0.0172637 0 
0.0172637 -9.00845 0 
0 0 0 
-8.81995 0.00244658 0 
0.00244658 -8.997 0 
0 0 0 
-8.81871 -0.015407 0 
-0.015407 -8.99824 0 
0 0 0 
-5.55661 0.000539786 0 
0.000539786 -5.55815 0 
0 0 0 
-5.55516 -0.01065 0 
-0.01065 -5.55961 0 
0 0 0 
-5.54773 -0.0103178 0 
-0.0103178 -5.56703 0 
0 0 0 
-9.44484 -0.0106477 0 
-0.0106477 -9.4404 0 
0 0 0 
-9.44339 0.000544382 0 
0.000544382 -9.44185 0 
0 0 0 
-9.45227 -0.0103096 0 
-0.0103096 -9.43297 0 
0 0 0 
-5.81214 -0.0207075 0 
-0.0207075 -5.8156 0 
0 0 0 
-5.81838 -0.00431962 0 
-0.00431962 -5.80936 0 
0 0 0 
-5.82352 -0.0096024 0 
-0.0096024 -5.80422 0 
0 0 0 
-9.18146 -0.00450295 0 
-0.00450295 -9.19074 0 
0 0 0 
-9.18793 -0.0210579 0 
-0.0210579 -9.18426 0 
0 0 0 
-9.17642 -0.00957547 0 
-0.00957547 -9.19578 0 
0 0 0 
-8.33051 -0.102994 0 
-0.102994 -8.40136 0 
0 0 0 
-8.36687 -0.122468 0 
-0.122468 -8.36499 0 
0 0 0 
-8.40657 -0.0983305 0 
-0.0983305 -8.32529 0 
0 0 0 
-6.31048 -0.131409 0 
-0.131409 -6.35325 0 
0 0 0 
-6.33531 -0.108668 0 
-0.108668 -6.32843 0 
0 0 0 
-6.34249 -0.0873284 0 
-0.0873284 -6.32125 0 
0 0 0 
-6.54836 -0.12021 0 
-0.12021 -6.56291 0 
0 0 0 
-6.5825 -0.11098 0 
-0.11098 -6.52878 0 
0 0 0 
-6.5082 -0.0918969 0 
-0.0918969 -6.60307 0 
0 0 0 
-9.69036 -0.0159667 0 
-0.0159667 -9.67594 0 
0 0 0 
-9.68491 -0.00188642 0 
-0.00188642 -9.68138 0 
0 0 0 
-9.69974 -0.0201191 0 
-0.0201191 -9.66656 0 
0 0 0 
-5.31509 -0.0018866 0 
-0.0018866 -5.31862 0 
0 0 0 
-5.30964 -0.0159668 0 
-0.0159668 -5.32406 0 
0 0 0 
-5.30026 -0.0201193 0 
-0.0201193 -5.33344 0 
0 0 0 
-6.36427 -0.136501 0 
-0.136501 -6.37524 0 
0 0 0 
-6.39073 -0.129292 0 
-0.129292 -6.34877 0 
0 0 0 
-6.36642 -0.132161 0 
-0.132161 -6.37308 0 
0 0 0 
-6.72022 -0.122366 0 
-0.122366 -6.72056 0 
0 0 0 
-6.7578 -0.10085 0 
-0.10085 -6.68299 0 
0 0 0 
-6.68107 -0.0984672 0 
-0.0984672 -6.75971 0 
0 0 0 
-6.41692 0.11494 0 
0.11494 -6.38119 0 
0 0 0 
-6.39083 0.122363 0 
0.122363 -6.40728 0 
0 0 0 
-6.34801 0.10019 0 
0.10019 -6.4501 0 
0 0 0 
-5.08951 -0.0802439 0 
-0.0802439 -5.01485 0 
0 0 0 
-5.06955 -0.0429401 0 
-0.0429401 -5.03482 0 
0 0 0 
-5.00897 -0.0398502 0 
-0.0398502 -5.09539 0 
0 0 0 
-9.93045 -0.0429401 0 
-0.0429401 -9.96518 0 
0 0 0 
-9.91049 -0.080244 0 
-0.080244 -9.98515 0 
0 0 0 
-9.99103 -0.0398503 0 
-0.0398503 -9.90461 0 
0 0 0 
-8.15745 -0.103566 0 
-0.103566 -8.22882 0 
0 0 0 
-8.19451 -0.122785 0 
-0.122785 -8.19176 0 
0 0 0 
-8.23295 -0.0985513 0 
-0.0985513 -8.15332 0 
0 0 0 
-5.72235 -0.127819 0 
-0.127819 -5.77214 0 
0 0 0 
-5.75723 -0.107559 0 
-0.107559 -5.73726 0 
0 0 0 
-5.76263 -0.0895912 0 
-0.0895912 -5.73186 0 
0 0 0 
-9.24271 -0.107572 0 
-0.107572 -9.26273 0 
0 0 0 
-9.2776 -0.127839 0 
-0.127839 -9.22784 0 
0 0 0 
-9.23731 -0.0896061 0 
-0.0896061 -9.26813 0 
0 0 0 
-9.9109 0.0820961 0 
0.0820961 -9.98658 0 
0 0 0 
-9.92898 0.0416283 0 
0.0416283 -9.9685 0 
0 0 0 
-9.99063 0.0369386 0 
0.0369386 -9.90685 0 
0 0 0 
-5.07102 0.0416283 0 
0.0416283 -5.0315 0 
0 0 0 
-5.0891 0.0820961 0 
0.0820961 -5.01342 0 
0 0 0 
-5.00937 0.0369386 0 
0.0369386 -5.09315 0 
0 0 0 
-9.05437 -0.109428 0 
-0.109428 -9.17548 0 
0 0 0 
-9.10875 -0.112777 0 
-0.112777 -9.1211 0 
0 0 0 
-9.13906 -0.0868743 0 
-0.0868743 -9.0908 0 
0 0 0 
-5.89084 -0.112828 0 
-0.112828 -5.8791 0 
0 0 0 
-5.94534 -0.109459 0 
-0.109459 -5.8246 0 
0 0 0 
-5.86054 -0.0869072 0 
-0.0869072 -5.90941 0 
0 0 0 
-6.89252 -0.122844 0 
-0.122844 -6.89525 0 
0 0 0 
-6.92984 -0.103837 0 
-0.103837 -6.85793 0 
0 0 0 
-6.8547 -0.0985772 0 
-0.0985772 -6.93307 0 
0 0 0 
-6.03406 -0.0492437 0 
-0.0492437 -5.93197 0 
0 0 0 
-6.04001 -0.0486395 0 
-0.0486395 -5.92602 0 
0 0 0 
-6.03197 -0.0699804 0 
-0.0699804 -5.93406 0 
0 0 0 
-8.95983 -0.0484686 0 
-0.0484686 -9.07483 0 
0 0 0 
-8.96638 -0.0491749 0 
-0.0491749 -9.06829 0 
0 0 0 
-8.96797 -0.0691832 0 
-0.0691832 -9.0667 0 
0 0 0 
-6.23101 0.0592635 0 
0.0592635 -6.16446 0 
0 0 0 
-6.2447 0.0649012 0 
0.0649012 -6.15076 0 
0 0 0 
-6.24833 0.0457103 0 
0.0457103 -6.14713 0 
0 0 0 
-8.80756 0.0873873 0 
0.0873873 -8.91674 0 
0 0 0 
-8.82046 0.0656318 0 
0.0656318 -8.90384 0 
0 0 0 
-8.80776 0.123039 0 
0.123039 -8.91654 0 
0 0 0 
-7.98341 -0.102024 0 
-0.102024 -8.05908 0 
0 0 0 
-8.02208 -0.122724 0 
-0.122724 -8.02041 0 
0 0 0 
-8.05933 -0.0984011 0 
-0.0984011 -7.98315 0 
0 0 0 
-5.56122 -0.0324295 0 
-0.0324295 -5.63575 0 
0 0 0 
-5.6049 -0.0521831 0 
-0.0521831 -5.59206 0 
0 0 0 
-5.6019 -0.0383137 0 
-0.0383137 -5.59507 0 
0 0 0 
-9.3951 -0.0521796 0 
-0.0521796 -9.40793 0 
0 0 0 
-9.43879 -0.0324232 0 
-0.0324232 -9.36424 0 
0 0 0 
-9.3981 -0.0383074 0 
-0.0383074 -9.40493 0 
0 0 0 
-5.69603 -0.141683 0 
-0.141683 -5.71711 0 
0 0 0 
-5.7393 -0.132163 0 
-0.132163 -5.67384 0 
0 0 0 
-5.70259 -0.134229 0 
-0.134229 -5.71056 0 
0 0 0 
-9.26064 -0.132171 0 
-0.132171 -9.32613 0 
0 0 0 
-9.30392 -0.141691 0 
-0.141691 -9.28285 0 
0 0 0 
-9.29736 -0.134244 0 
-0.134244 -9.28941 0 
0 0 0 
-5.76728 -0.0551198 0 
-0.0551198 -5.78027 0 
0 0 0 
-5.81705 -0.0361916 0 
-0.0361916 -5.7305 0 
0 0 0 
-5.7689 -0.0394367 0 
-0.0394367 -5.77865 0 
0 0 0 
-9.18279 -0.036258 0 
-0.036258 -9.26951 0 
0 0 0 
-9.23261 -0.0551987 0 
-0.0551987 -9.2197 0 
0 0 0 
-9.23096 -0.0395183 0 
-0.0395183 -9.22134 0 
0 0 0 
-8.5381 -0.037212 0 
-0.037212 -8.54432 0 
0 0 0 
-8.50523 -0.059482 0 
-0.059482 -8.5772 0 
0 0 0 
-8.56366 -0.0551108 0 
-0.0551108 -8.51876 0 
0 0 0 
-7.06493 -0.122784 0 
-0.122784 -7.0666 0 
0 0 0 
-7.10395 -0.102241 0 
-0.102241 -7.02758 0 
0 0 0 
-7.02819 -0.0984717 0 
-0.0984717 -7.10335 0 
0 0 0 
-7.81 -0.102533 0 
-0.102533 -7.88688 0 
0 0 0 
-7.8493 -0.122814 0 
-0.122814 -7.84758 0 
0 0 0 
-7.88545 -0.098633 0 
-0.098633 -7.81143 0 
0 0 0 
-9.6377 -0.0535128 0 
-0.0535128 -9.65244 0 
0 0 0 
-9.6791 -0.0438359 0 
-0.0438359 -9.61104 0 
0 0 0 
-9.63642 -0.0340407 0 
-0.0340407 -9.65372 0 
0 0 0 
-5.3209 -0.0438361 0 
-0.0438361 -5.38896 0 
0 0 0 
-5.3623 -0.0535128 0 
-0.0535128 -5.34756 0 
0 0 0 
-5.36358 -0.0340412 0 
-0.0340412 -5.34628 0 
0 0 0 
-9.81976 -0.0468933 0 
-0.0468933 -9.88363 0 
0 0 0 
-9.86919 -0.042846 0 
-0.042846 -9.8342 0 
0 0 0 
-9.85141 -0.035457 0 
-0.035457 -9.85198 0 
0 0 0 
-5.13081 -0.042846 0 
-0.042846 -5.1658 0 
0 0 0 
-5.18024 -0.0468933 0 
-0.0468933 -5.11637 0 
0 0 0 
-5.14859 -0.035457 0 
-0.035457 -5.14802 0 
0 0 0 
-7.2377 -0.122872 0 
-0.122872 -7.23943 0 
0 0 0 
-7.27734 -0.102769 0 
-0.102769 -7.19979 0 
0 0 0 
-7.20207 -0.0987275 0 
-0.0987275 -7.27507 0 
0 0 0 
-5.00828 -0.0420657 0 
-0.0420657 -5.02904 0 
0 0 0 
-5.06816 -0.034747 0 
-0.034747 -4.96916 0 
0 0 0 
-4.98985 -0.0166047 0 
-0.0166047 -5.04747 0 
0 0 0 
-9.93184 -0.034747 0 
-0.034747 -10.0308 0 
0 0 0 
-9.99172 -0.0420657 0 
-0.0420657 -9.97096 0 
0 0 0 
-10.0101 -0.0166048 0 
-0.0166048 -9.95253 0 
0 0 0 
-9.7428 -0.115938 0 
-0.115938 -9.75843 0 
0 0 0 
-9.80561 -0.100119 0 
-0.100119 -9.69562 0 
0 0 0 
-9.70923 -0.0824794 0 
-0.0824794 -9.79199 0 
0 0 0 
-5.19439 -0.100119 0 
-0.100119 -5.30438 0 
0 0 0 
-5.2572 -0.115938 0 
-0.115938 -5.24157 0 
0 0 0 
-5.29077 -0.0824794 0 
-0.0824794 -5.20801 0 
0 0 0 
-8.5248 0.0201185 0 
0.0201185 -8.46144 0 
0 0 0 
-8.49417 0.041077 0 
0.041077 -8.49207 0 
0 0 0 
-8.45528 0.0230489 0 
0.0230489 -8.53096 0 
0 0 0 
-6.58389 0.0407816 0 
0.0407816 -6.59089 0 
0 0 0 
-6.57242 0.0208411 0 
0.0208411 -6.60236 0 
0 0 0 
-6.61895 0.0210704 0 
0.0210704 -6.55583 0 
0 0 0 
-8.35293 0.0206448 0 
0.0206448 -8.28935 0 
0 0 0 
-8.32188 0.0416903 0 
0.0416903 -8.32041 0 
0 0 0 
-8.2833 0.0232505 0 
0.0232505 -8.35898 0 
0 0 0 
-7.44569 0.041347 0 
0.041347 -7.45001 0 
0 0 0 
-7.41473 0.0201782 0 
0.0201782 -7.48097 0 
0 0 0 
-7.49093 0.0265252 0 
0.0265252 -7.40478 0 
0 0 0 
-6.76429 0.0417536 0 
0.0417536 -6.76587 0 
0 0 0 
-6.73324 0.0208774 0 
0.0208774 -6.79692 0 
0 0 0 
-6.80282 0.0234241 0 
0.0234241 -6.72735 0 
0 0 0 
-8.18005 0.0205958 0 
0.0205958 -8.11752 0 
0 0 0 
-8.14922 0.041667 0 
0.041667 -8.14834 0 
0 0 0 
-8.1134 0.0219318 0 
0.0219318 -8.18417 0 
0 0 0 
-6.93705 0.0415721 0 
0.0415721 -6.93794 0 
0 0 0 
-6.90615 0.0204624 0 
0.0204624 -6.96884 0 
0 0 0 
-6.97287 0.0217422 0 
0.0217422 -6.90212 0 
0 0 0 
-8.00884 0.0204763 0 
0.0204763 -7.94605 0 
0 0 0 
-7.97793 0.0415344 0 
0.0415344 -7.97696 0 
0 0 0 
-7.94218 0.0216817 0 
0.0216817 -8.01272 0 
0 0 0 
-7.67135 0.0203408 0 
0.0203408 -7.6054 0 
0 0 0 
-7.64051 0.0414192 0 
0.0414192 -7.63624 0 
0 0 0 
-7.59541 0.0266364 0 
0.0266364 -7.68133 0 
0 0 0 
-7.10835 0.0414176 0 
0.0414176 -7.1093 0 
0 0 0 
-7.07738 0.0203559 0 
0.0203559 -7.14028 0 
0 0 0 
-7.14409 0.0214965 0 
0.0214965 -7.07356 0 
0 0 0 
-7.27973 0.0415471 0 
0.0415471 -7.28033 0 
0 0 0 
-7.24843 0.0200544 0 
0.0200544 -7.31164 0 
0 0 0 
-7.31568 0.0210791 0 
0.0210791 -7.24439 0 
0 0 0 
-7.83779 0.0201739 0 
0.0201739 -7.77469 0 
0 0 0 
-7.80656 0.0416619 0 
0.0416619 -7.80593 0 
0 0 0 
-7.77059 0.0212719 0 
0.0212719 -7.84189 0 
0 0 0 
-7.63909 -0.102897 0 
-0.102897 -7.71474 0 
0 0 0 
-7.67814 -0.122459 0 
-0.122459 -7.67569 0 
0 0 0 
-7.71255 -0.0987799 0 
-0.0987799 -7.64128 0 
0 0 0 
-7.4143 -0.0201824 0 
-0.0201824 -7.48105 0 
0 0 0 
-7.44557 -0.0414003 0 
-0.0414003 -7.44978 0 
0 0 0 
-7.4909 -0.0262333 0 
-0.0262333 -7.40446 0 
0 0 0 
-7.64084 -0.041262 0 
-0.041262 -7.63674 0 
0 0 0 
-7.67238 -0.0200666 0 
-0.0200666 -7.6052 0 
0 0 0 
-7.59569 -0.0258112 0 
-0.0258112 -7.68189 0 
0 0 0 
-5.34418 -0.140016 0 
-0.140016 -5.42306 0 
0 0 0 
-5.43117 -0.137131 0 
-0.137131 -5.33607 0 
0 0 0 
-5.38381 -0.111915 0 
-0.111915 -5.38343 0 
0 0 0 
-9.56883 -0.137131 0 
-0.137131 -9.66393 0 
0 0 0 
-9.65582 -0.140016 0 
-0.140016 -9.57694 0 
0 0 0 
-9.61619 -0.111915 0 
-0.111915 -9.61657 0 
0 0 0 
-7.24706 -0.0197317 0 
-0.0197317 -7.31161 0 
0 0 0 
-7.27926 -0.0409801 0 
-0.0409801 -7.27941 0 
0 0 0 
-7.3147 -0.0198702 0 
-0.0198702 -7.24396 0 
0 0 0 
-5.99763 -0.0462651 0 
-0.0462651 -5.9123 0 
0 0 0 
-5.99432 -0.0580222 0 
-0.0580222 -5.91562 0 
0 0 0 
-5.98194 -0.05327 0 
-0.05327 -5.92799 0 
0 0 0 
-9.00437 -0.0577943 0 
-0.0577943 -9.0856 0 
0 0 0 
-9.00175 -0.0463366 0 
-0.0463366 -9.08822 0 
0 0 0 
-9.01738 -0.0529855 0 
-0.0529855 -9.07259 0 
0 0 0 
-7.8072 -0.0407691 0 
-0.0407691 -7.80705 0 
0 0 0 
-7.83952 -0.0196211 0 
-0.0196211 -7.77473 0 
0 0 0 
-7.77189 -0.0196299 0 
-0.0196299 -7.84236 0 
0 0 0 
-7.07527 -0.0195376 0 
-0.0195376 -7.14025 0 
0 0 0 
-7.10752 -0.0401907 0 
-0.0401907 -7.108 0 
0 0 0 
-7.14249 -0.019403 0 
-0.019403 -7.07303 0 
0 0 0 
-7.49724 0.119623 0 
0.119623 -7.5037 0 
0 0 0 
-7.45758 0.0911504 0 
0.0911504 -7.54337 0 
0 0 0 
-7.53973 0.104269 0 
0.104269 -7.46121 0 
0 0 0 
-7.97893 -0.0399941 0 
-0.0399941 -7.97845 0 
0 0 0 
-8.01131 -0.0194299 0 
-0.0194299 -7.94608 0 
0 0 0 
-7.94409 -0.0191728 0 
-0.0191728 -8.01329 0 
0 0 0 
-7.44924 0.103546 0 
0.103546 -7.37272 0 
0 0 0 
-7.40961 0.122499 0 
0.122499 -7.41235 0 
0 0 0 
-7.37605 0.0987689 0 
0.0987689 -7.44591 0 
0 0 0 
-8.6734 -0.0401386 0 
-0.0401386 -8.72632 0 
0 0 0 
-8.7264 -0.0200233 0 
-0.0200233 -8.67332 0 
0 0 0 
-8.69886 -0.00926628 0 
-0.00926628 -8.70086 0 
0 0 0 
-6.90396 -0.0194172 0 
-0.0194172 -6.96854 0 
0 0 0 
-6.93622 -0.0395739 0 
-0.0395739 -6.93628 0 
0 0 0 
-6.97068 -0.0190394 0 
-0.0190394 -6.90182 0 
0 0 0 
-7.62869 0.0911119 0 
0.0911119 -7.54289 0 
0 0 0 
-7.58905 0.119631 0 
0.119631 -7.58253 0 
0 0 0 
-7.54659 0.104317 0 
0.104317 -7.62499 0 
0 0 0 
-8.15025 -0.0393513 0 
-0.0393513 -8.1502 0 
0 0 0 
-8.18262 -0.0193091 0 
-0.0193091 -8.11783 0 
0 0 0 
-8.11593 -0.0188185 0 
-0.0188185 -8.18452 0 
0 0 0 
-7.67666 0.122518 0 
0.122518 -7.67388 0 
0 0 0 
-7.63711 0.103623 0 
0.103623 -7.71342 0 
0 0 0 
-7.71014 0.0988408 0 
0.0988408 -7.64039 0 
0 0 0 
-9.68613 -0.00994466 0 
-0.00994466 -9.72332 0 
0 0 0 
-9.71399 -0.0212066 0 
-0.0212066 -9.69547 0 
0 0 0 
-9.65923 0.0166902 0 
0.0166902 -9.75023 0 
0 0 0 
-5.28601 -0.0212066 0 
-0.0212066 -5.30453 0 
0 0 0 
-5.31387 -0.00994473 0 
-0.00994473 -5.27667 0 
0 0 0 
-5.34077 0.0166902 0 
0.0166902 -5.24977 0 
0 0 0 
-6.72954 -0.019414 0 
-0.019414 -6.7967 0 
0 0 0 
-6.76282 -0.0396476 0 
-0.0396476 -6.76342 0 
0 0 0 
-6.79991 -0.0196629 0 
-0.0196629 -6.72632 0 
0 0 0 
-7.32542 0.12325 0 
0.12325 -7.32497 0 
0 0 0 
-7.28937 0.102482 0 
0.102482 -7.36102 0 
0 0 0 
-7.36723 0.101582 0 
0.101582 -7.28316 0 
0 0 0 
-8.32303 -0.0393891 0 
-0.0393891 -8.32309 0 
0 0 0 
-8.3562 -0.0194614 0 
-0.0194614 -8.28992 0 
0 0 0 
-8.28647 -0.0196345 0 
-0.0196345 -8.35965 0 
0 0 0 
-7.28034 0.103782 0 
0.103782 -7.2017 0 
0 0 0 
-7.23998 0.123009 0 
0.123009 -7.24206 0 
0 0 0 
-7.20583 0.0989281 0 
0.0989281 -7.27621 0 
0 0 0 
-6.56793 -0.0193496 0 
-0.0193496 -6.60176 0 
0 0 0 
-6.58341 -0.0386338 0 
-0.0386338 -6.58628 0 
0 0 0 
-6.61676 -0.0170555 0 
-0.0170555 -6.55293 0 
0 0 0 
-7.79681 0.102552 0 
0.102552 -7.72529 0 
0 0 0 
-7.76083 0.12328 0 
0.12328 -7.76128 0 
0 0 0 
-7.7191 0.101627 0 
0.101627 -7.80301 0 
0 0 0 
-8.49445 -0.0397485 0 
-0.0397485 -8.49572 0 
0 0 0 
-8.5279 -0.0208791 0 
-0.0208791 -8.46227 0 
0 0 0 
-8.45818 -0.0198254 0 
-0.0198254 -8.532 0 
0 0 0 
-7.84627 0.123047 0 
0.123047 -7.8442 0 
0 0 0 
-7.80598 0.103836 0 
0.103836 -7.88449 0 
0 0 0 
-7.88037 0.0989852 0 
0.0989852 -7.81009 0 
0 0 0 
-7.40888 -0.12249 0 
-0.12249 -7.41137 0 
0 0 0 
-7.4482 -0.103115 0 
-0.103115 -7.37205 0 
0 0 0 
-7.37496 -0.0988432 0 
-0.0988432 -7.44529 0 
0 0 0 
-7.44008 -0.0613102 0 
-0.0613102 -7.37291 0 
0 0 0 
-7.40737 -0.037699 0 
-0.037699 -7.40563 0 
0 0 0 
-7.37232 -0.0575753 0 
-0.0575753 -7.44068 0 
0 0 0 
-7.15461 0.123477 0 
0.123477 -7.15354 0 
0 0 0 
-7.11821 0.102284 0 
0.102284 -7.18994 0 
0 0 0 
-7.19668 0.101396 0 
0.101396 -7.11147 0 
0 0 0 
-7.10901 0.103827 0 
0.103827 -7.03045 0 
0 0 0 
-7.06873 0.123106 0 
0.123106 -7.07074 0 
0 0 0 
-7.03462 0.0989564 0 
0.0989564 -7.10485 0 
0 0 0 
-7.96798 0.102352 0 
0.102352 -7.89638 0 
0 0 0 
-7.93164 0.123503 0 
0.123503 -7.93273 0 
0 0 0 
-7.88965 0.101435 0 
0.101435 -7.97471 0 
0 0 0 
-8.01752 0.123138 0 
0.123138 -8.01553 0 
0 0 0 
-7.97731 0.103881 0 
0.103881 -8.05573 0 
0 0 0 
-8.05158 0.0990135 0 
0.0990135 -7.98146 0 
0 0 0 
-7.67917 -0.03749 0 
-0.03749 -7.68088 0 
0 0 0 
-7.64616 -0.0611375 0 
-0.0611375 -7.71389 0 
0 0 0 
-7.71399 -0.0574644 0 
-0.0574644 -7.64606 0 
0 0 0 
-6.98328 0.123551 0 
0.123551 -6.98227 0 
0 0 0 
-6.94696 0.102387 0 
0.102387 -7.01859 0 
0 0 0 
-7.02525 0.101435 0 
0.101435 -6.94031 0 
0 0 0 
-7.40768 0.0378905 0 
0.0378905 -7.40569 0 
0 0 0 
-7.4402 0.0616531 0 
0.0616531 -7.37317 0 
0 0 0 
-7.37215 0.0574746 0 
0.0574746 -7.44123 0 
0 0 0 
-6.93745 0.104075 0 
0.104075 -6.85939 0 
0 0 0 
-6.89747 0.123103 0 
0.123103 -6.89938 0 
0 0 0 
-6.86356 0.0992302 0 
0.0992302 -6.93328 0 
0 0 0 
-8.45231 -0.121662 0 
-0.121662 -8.45702 0 
0 0 0 
-8.49281 -0.10477 0 
-0.10477 -8.41652 0 
0 0 0 
-8.416 -0.0971249 0 
-0.0971249 -8.49332 0 
0 0 0 
-8.13921 0.102449 0 
0.102449 -8.06774 0 
0 0 0 
-8.10295 0.123569 0 
0.123569 -8.10399 0 
0 0 0 
-8.06107 0.10147 0 
0.10147 -8.14587 0 
0 0 0 
-7.64612 0.0617897 0 
0.0617897 -7.71299 0 
0 0 0 
-7.67856 0.0380276 0 
0.0380276 -7.68056 0 
0 0 0 
-7.71404 0.057585 0 
0.057585 -7.64508 0 
0 0 0 
-8.18877 0.123143 0 
0.123143 -8.18683 0 
0 0 0 
-8.14882 0.104083 0 
0.104083 -8.22679 0 
0 0 0 
-8.22264 0.0992436 0 
0.0992436 -8.15296 0 
0 0 0 
-7.26844 -0.0598458 0 
-0.0598458 -7.20111 0 
0 0 0 
-7.23574 -0.0370759 0 
-0.0370759 -7.23381 0 
0 0 0 
-7.2006 -0.0568889 0 
-0.0568889 -7.26895 0 
0 0 0 
-6.8123 0.123536 0 
0.123536 -6.81103 0 
0 0 0 
-6.77618 0.102617 0 
0.102617 -6.84714 0 
0 0 0 
-6.85388 0.101664 0 
0.101664 -6.76945 0 
0 0 0 
-7.23656 0.0379777 0 
0.0379777 -7.23436 0 
0 0 0 
-7.26832 0.0607678 0 
0.0607678 -7.20261 0 
0 0 0 
-7.2006 0.0572541 0 
0.0572541 -7.27032 0 
0 0 0 
-6.76693 0.103433 0 
0.103433 -6.68792 0 
0 0 0 
-6.72719 0.12296 0 
0.12296 -6.72766 0 
0 0 0 
-6.69302 0.099813 0 
0.099813 -6.76182 0 
0 0 0 
-9.99129 0.0418422 0 
0.0418422 -9.9715 0 
0 0 0 
-9.9328 0.0349254 0 
0.0349254 -10.03 0 
0 0 0 
-10.0094 0.0169201 0 
0.0169201 -9.9534 0 
0 0 0 
-5.0672 0.0349254 0 
0.0349254 -4.97001 0 
0 0 0 
-5.00871 0.0418422 0 
0.0418422 -5.0285 0 
0 0 0 
-4.99061 0.0169201 0 
0.0169201 -5.0466 0 
0 0 0 
-8.31028 0.102574 0 
0.102574 -8.23892 0 
0 0 0 
-8.27411 0.123608 0 
0.123608 -8.27509 0 
0 0 0 
-8.23236 0.101541 0 
0.101541 -8.31684 0 
0 0 0 
-7.85074 -0.0368685 0 
-0.0368685 -7.85267 0 
0 0 0 
-7.81784 -0.0596944 0 
-0.0596944 -7.88556 0 
0 0 0 
-7.88562 -0.0567306 0 
-0.0567306 -7.81779 0 
0 0 0 
-8.36018 0.123396 0 
0.123396 -8.35775 0 
0 0 0 
-8.32001 0.103996 0 
0.103996 -8.39791 0 
0 0 0 
-8.3941 0.0991763 0 
0.0991763 -8.32383 0 
0 0 0 
-7.81803 0.0608848 0 
0.0608848 -7.88356 0 
0 0 0 
-7.8497 0.0381138 0 
0.0381138 -7.85189 0 
0 0 0 
-7.88558 0.0573594 0 
0.0573594 -7.81601 0 
0 0 0 
-6.15542 0.0706538 0 
0.0706538 -6.05585 0 
0 0 0 
-6.14562 0.0882442 0 
0.0882442 -6.06565 0 
0 0 0 
-6.15022 0.092748 0 
0.092748 -6.06104 0 
0 0 0 
-6.64265 0.121982 0 
0.121982 -6.63705 0 
0 0 0 
-6.60337 0.104491 0 
0.104491 -6.67633 0 
0 0 0 
-6.68636 0.0956525 0 
0.0956525 -6.59334 0 
0 0 0 
-7.06526 0.0381862 0 
0.0381862 -7.06309 0 
0 0 0 
-7.09685 0.0609599 0 
0.0609599 -7.0315 0 
0 0 0 
-7.0295 0.0574055 0 
0.0574055 -7.09885 0 
0 0 0 
-7.09709 -0.0594905 0 
-0.0594905 -7.02897 0 
0 0 0 
-7.06397 -0.036568 0 
-0.036568 -7.06208 0 
0 0 0 
-7.02937 -0.0564966 0 
-0.0564966 -7.09668 0 
0 0 0 
-8.48301 0.102485 0 
0.102485 -8.40926 0 
0 0 0 
-8.44657 0.123962 0 
0.123962 -8.44571 0 
0 0 0 
-8.4038 0.101149 0 
0.101149 -8.48847 0 
0 0 0 
-6.59134 -0.105065 0 
-0.105065 -6.67249 0 
0 0 0 
-6.63493 -0.121922 0 
-0.121922 -6.62889 0 
0 0 0 
-6.67548 -0.0942474 0 
-0.0942474 -6.58835 0 
0 0 0 
-8.5396 0.125228 0 
0.125228 -8.53031 0 
0 0 0 
-8.49833 0.105761 0 
0.105761 -8.57159 0 
0 0 0 
-8.56598 0.0986828 0 
0.0986828 -8.50393 0 
0 0 0 
-7.9895 0.0610749 0 
0.0610749 -8.05467 0 
0 0 0 
-8.021 0.0383241 0 
0.0383241 -8.02317 0 
0 0 0 
-8.05668 0.0575103 0 
0.0575103 -7.98748 0 
0 0 0 
-8.02251 -0.0363701 0 
-0.0363701 -8.02439 0 
0 0 0 
-7.9892 -0.0593442 0 
-0.0593442 -8.0577 0 
0 0 0 
-8.05685 -0.0563455 0 
-0.0563455 -7.99005 0 
0 0 0 
-6.8937 0.0382364 0 
0.0382364 -6.89187 0 
0 0 0 
-6.92546 0.0612828 0 
0.0612828 -6.86012 0 
0 0 0 
-6.85792 0.0575704 0 
0.0575704 -6.92765 0 
0 0 0 
-9.35071 -0.126382 0 
-0.126382 -9.39922 0 
0 0 0 
-9.38684 -0.107983 0 
-0.107983 -9.36309 0 
0 0 0 
-9.39369 -0.0892454 0 
-0.0892454 -9.35623 0 
0 0 0 
-5.61316 -0.10798 0 
-0.10798 -5.6369 0 
0 0 0 
-5.64929 -0.126377 0 
-0.126377 -5.60077 0 
0 0 0 
-5.60631 -0.0892413 0 
-0.0892413 -5.64375 0 
0 0 0 
-6.92746 -0.0610904 0 
-0.0610904 -6.8553 0 
0 0 0 
-6.89295 -0.0365277 0 
-0.0365277 -6.88981 0 
0 0 0 
-6.85666 -0.0553802 0 
-0.0553802 -6.9261 0 
0 0 0 
-8.16083 0.0613682 0 
0.0613682 -8.22603 0 
0 0 0 
-8.1925 0.0383171 0 
0.0383171 -8.19435 0 
0 0 0 
-8.22822 0.0576534 0 
0.0576534 -8.15864 0 
0 0 0 
-8.27998 -0.122894 0 
-0.122894 -8.28366 0 
0 0 0 
-8.32079 -0.104809 0 
-0.104809 -8.24286 0 
0 0 0 
-8.2424 -0.0974127 0 
-0.0974127 -8.32125 0 
0 0 0 
-6.72165 0.0379276 0 
0.0379276 -6.72201 0 
0 0 0 
-6.75361 0.0611635 0 
0.0611635 -6.69004 0 
0 0 0 
-6.68615 0.0583186 0 
0.0583186 -6.7575 0 
0 0 0 
-6.43452 -0.121551 0 
-0.121551 -6.48823 0 
0 0 0 
-6.47592 -0.110663 0 
-0.110663 -6.44683 0 
0 0 0 
-6.49156 -0.0867069 0 
-0.0867069 -6.43119 0 
0 0 0 
-8.19353 -0.0362977 0 
-0.0362977 -8.19662 0 
0 0 0 
-8.15882 -0.0608625 0 
-0.0608625 -8.23132 0 
0 0 0 
-8.22959 -0.0552042 0 
-0.0552042 -8.16056 0 
0 0 0 
-8.33258 0.0615731 0 
0.0615731 -8.39673 0 
0 0 0 
-8.3642 0.0384257 0 
0.0384257 -8.36511 0 
0 0 0 
-8.39952 0.0576362 0 
0.0576362 -8.32979 0 
0 0 0 
-6.75358 -0.058614 0 
-0.058614 -6.68574 0 
0 0 0 
-6.71955 -0.0356759 0 
-0.0356759 -6.71977 0 
0 0 0 
-6.68659 -0.0560846 0 
-0.0560846 -6.75273 0 
0 0 0 
-7.45766 -0.0910016 0 
-0.0910016 -7.5433 0 
0 0 0 
-7.49723 -0.119556 0 
-0.119556 -7.50373 0 
0 0 0 
-7.53967 -0.104178 0 
-0.104178 -7.46129 0 
0 0 0 
-8.88089 -0.0804823 0 
-0.0804823 -8.97417 0 
0 0 0 
-8.94694 -0.067185 0 
-0.067185 -8.90813 0 
0 0 0 
-8.902 -0.051318 0 
-0.051318 -8.95306 0 
0 0 0 
-6.05342 -0.0677377 0 
-0.0677377 -6.09351 0 
0 0 0 
-6.12025 -0.0811385 0 
-0.0811385 -6.02669 0 
0 0 0 
-6.09895 -0.0516452 0 
-0.0516452 -6.04799 0 
0 0 0 
-8.5082 0.0630425 0 
0.0630425 -8.5729 0 
0 0 0 
-8.54031 0.0378412 0 
0.0378412 -8.54078 0 
0 0 0 
-8.56911 0.0568598 0 
0.0568598 -8.51198 0 
0 0 0 
-6.03695 -0.0468175 0 
-0.0468175 -5.96603 0 
0 0 0 
-6.05645 -0.061812 0 
-0.061812 -5.94653 0 
0 0 0 
-6.03833 -0.00189864 0 
-0.00189864 -5.96465 0 
0 0 0 
-8.94436 -0.0596235 0 
-0.0596235 -9.05405 0 
0 0 0 
-8.96293 -0.0453352 0 
-0.0453352 -9.03547 0 
0 0 0 
-8.96162 -0.00256063 0 
-0.00256063 -9.03679 0 
0 0 0 
-8.36553 -0.036825 0 
-0.036825 -8.36822 0 
0 0 0 
-8.33106 -0.0604293 0 
-0.0604293 -8.40269 0 
0 0 0 
-8.40012 -0.0548455 0 
-0.0548455 -8.33363 0 
0 0 0 
-6.76747 -0.104803 0 
-0.104803 -6.8434 0 
0 0 0 
-6.80736 -0.122802 0 
-0.122802 -6.80351 0 
0 0 0 
-6.84492 -0.09787 0 
-0.09787 -6.76595 0 
0 0 0 
-8.10832 -0.123401 0 
-0.123401 -8.11012 0 
0 0 0 
-8.14924 -0.102706 0 
-0.102706 -8.0692 0 
0 0 0 
-8.06746 -0.0986177 0 
-0.0986177 -8.15097 0 
0 0 0 
-6.02324 -0.012061 0 
-0.012061 -5.93022 0 
0 0 0 
-6.00832 -0.0172877 0 
-0.0172877 -5.94514 0 
0 0 0 
-5.98378 -0.0181838 0 
-0.0181838 -5.96967 0 
0 0 0 
-8.99077 -0.0173348 0 
-0.0173348 -9.05618 0 
0 0 0 
-8.9762 -0.0120683 0 
-0.0120683 -9.07074 0 
0 0 0 
-9.01511 -0.018224 0 
-0.018224 -9.03184 0 
0 0 0 
-6.93835 -0.102553 0 
-0.102553 -7.0173 0 
0 0 0 
-6.97867 -0.123423 0 
-0.123423 -6.97698 0 
0 0 0 
-7.01979 -0.0989277 0 
-0.0989277 -6.93585 0 
0 0 0 
-7.58975 -0.119602 0 
-0.119602 -7.58344 0 
0 0 0 
-7.62988 -0.091118 0 
-0.091118 -7.54331 0 
0 0 0 
-7.54752 -0.103834 0 
-0.103834 -7.62567 0 
0 0 0 
-7.51951 -0.0277693 0 
-0.0277693 -7.53032 0 
0 0 0 
-7.56267 -0.026654 0 
-0.026654 -7.48716 0 
0 0 0 
-7.50928 -0.0154364 0 
-0.0154364 -7.54055 0 
0 0 0 
-7.93528 -0.123268 0 
-0.123268 -7.93716 0 
0 0 0 
-7.97468 -0.102563 0 
-0.102563 -7.89776 0 
0 0 0 
-7.89423 -0.0994337 0 
-0.0994337 -7.97821 0 
0 0 0 
-7.44977 -0.0450626 0 
-0.0450626 -7.51898 0 
0 0 0 
-7.50601 -0.0563375 0 
-0.0563375 -7.46274 0 
0 0 0 
-7.48998 -0.0383946 0 
-0.0383946 -7.47877 0 
0 0 0 
-7.1129 -0.102442 0 
-0.102442 -7.18875 0 
0 0 0 
-7.1517 -0.123299 0 
-0.123299 -7.14995 0 
0 0 0 
-7.19302 -0.099759 0 
-0.099759 -7.10863 0 
0 0 0 
-7.50619 0.0564655 0 
0.0564655 -7.46259 0 
0 0 0 
-7.4496 0.045049 0 
0.045049 -7.51919 0 
0 0 0 
-7.49003 0.0384695 0 
0.0384695 -7.47875 0 
0 0 0 
-7.763 -0.123149 0 
-0.123149 -7.76402 0 
0 0 0 
-7.80069 -0.102653 0 
-0.102653 -7.72633 0 
0 0 0 
-7.72184 -0.100362 0 
-0.100362 -7.80519 0 
0 0 0 
-7.5628 0.0266645 0 
0.0266645 -7.48689 0 
0 0 0 
-7.51947 0.0279211 0 
0.0279211 -7.53022 0 
0 0 0 
-7.50907 0.0154521 0 
0.0154521 -7.54062 0 
0 0 0 
-7.2869 -0.102559 0 
-0.102559 -7.36017 0 
0 0 0 
-7.32398 -0.123162 0 
-0.123162 -7.3231 0 
0 0 0 
-7.36536 -0.100708 0 
-0.100708 -7.28171 0 
0 0 0 
-7.63646 0.0451429 0 
0.0451429 -7.56723 0 
0 0 0 
-7.58012 0.0565362 0 
0.0565362 -7.62357 0 
0 0 0 
-7.5962 0.0385767 0 
0.0385767 -7.60749 0 
0 0 0 
-5.81445 -0.0179156 0 
-0.0179156 -5.85086 0 
0 0 0 
-5.84156 -0.033582 0 
-0.033582 -5.82375 0 
0 0 0 
-5.79298 -0.00416282 0 
-0.00416282 -5.87233 0 
0 0 0 
-9.1584 -0.0340153 0 
-0.0340153 -9.1762 0 
0 0 0 
-9.18535 -0.018047 0 
-0.018047 -9.14925 0 
0 0 0 
-9.2064 -0.0050869 0 
-0.0050869 -9.1282 0 
0 0 0 
-7.56695 0.0278762 0 
0.0278762 -7.55598 0 
0 0 0 
-7.52389 0.0268806 0 
0.0268806 -7.59904 0 
0 0 0 
-7.57722 0.0154689 0 
0.0154689 -7.54571 0 
0 0 0 
-7.35782 0.0575269 0 
0.0575269 -7.28918 0 
0 0 0 
-7.28648 0.0597488 0 
0.0597488 -7.36051 0 
0 0 0 
-7.32259 0.0382183 0 
0.0382183 -7.3244 0 
0 0 0 
-8.7418 0.00786627 0 
0.00786627 -8.77124 0 
0 0 0 
-8.77199 0.00534128 0 
0.00534128 -8.74106 0 
0 0 0 
-8.72013 0.0146273 0 
0.0146273 -8.79292 0 
0 0 0 
-6.28184 -0.0398613 0 
-0.0398613 -6.23111 0 
0 0 0 
-6.26961 -0.00316271 0 
-0.00316271 -6.24334 0 
0 0 0 
-6.21926 -0.00135244 0 
-0.00135244 -6.29369 0 
0 0 0 
-7.52362 -0.0264452 0 
-0.0264452 -7.59965 0 
0 0 0 
-7.56709 -0.0278908 0 
-0.0278908 -7.55618 0 
0 0 0 
-7.57756 -0.0153634 0 
-0.0153634 -7.54571 0 
0 0 0 
-7.40242 0.0218444 0 
0.0218444 -7.32654 0 
0 0 0 
-7.36537 0.0433196 0 
0.0433196 -7.36359 0 
0 0 0 
-7.32834 0.0208883 0 
0.0208883 -7.40062 0 
0 0 0 
-7.79985 0.059843 0 
0.059843 -7.72577 0 
0 0 0 
-7.72862 0.0576487 0 
0.0576487 -7.79701 0 
0 0 0 
-7.76371 0.0383396 0 
0.0383396 -7.76192 0 
0 0 0 
-6.147 0.0826826 0 
0.0826826 -6.05209 0 
0 0 0 
-6.10309 0.071166 0 
0.071166 -6.096 0 
0 0 0 
-6.12111 0.0619317 0 
0.0619317 -6.07798 0 
0 0 0 
-8.93291 0.0645245 0 
0.0645245 -8.88307 0 
0 0 0 
-8.85513 0.0814316 0 
0.0814316 -8.96084 0 
0 0 0 
-8.88027 0.0496795 0 
0.0496795 -8.93571 0 
0 0 0 
-7.58011 -0.0562208 0 
-0.0562208 -7.62396 0 
0 0 0 
-7.63664 -0.0451803 0 
-0.0451803 -7.56742 0 
0 0 0 
-7.59638 -0.0380625 0 
-0.0380625 -7.60768 0 
0 0 0 
-9.44704 -0.0113645 0 
-0.0113645 -9.47853 0 
0 0 0 
-9.47509 -0.0185452 0 
-0.0185452 -9.45048 0 
0 0 0 
-9.41899 0.0191149 0 
0.0191149 -9.50658 0 
0 0 0 
-5.52491 -0.0185489 0 
-0.0185489 -5.54952 0 
0 0 0 
-5.55296 -0.011369 0 
-0.011369 -5.52147 0 
0 0 0 
-5.58101 0.0191129 0 
0.0191129 -5.49342 0 
0 0 0 
-7.72092 0.0434449 0 
0.0434449 -7.72271 0 
0 0 0 
-7.6839 0.0219564 0 
0.0219564 -7.75972 0 
0 0 0 
-7.7578 0.0210274 0 
0.0210274 -7.68583 0 
0 0 0 
-7.18595 0.057375 0 
0.057375 -7.11798 0 
0 0 0 
-7.11484 0.0596026 0 
0.0596026 -7.18909 0 
0 0 0 
-7.15107 0.038068 0 
0.038068 -7.15286 0 
0 0 0 
-7.97149 0.0596967 0 
0.0596967 -7.8972 0 
0 0 0 
-7.90048 0.0574932 0 
0.0574932 -7.96821 0 
0 0 0 
-7.93523 0.0381918 0 
0.0381918 -7.93346 0 
0 0 0 
-7.22972 0.0217 0 
0.0217 -7.15638 0 
0 0 0 
-7.19316 0.0427098 0 
0.0427098 -7.19294 0 
0 0 0 
-7.15738 0.021121 0 
0.021121 -7.22872 0 
0 0 0 
-6.24992 -0.103351 0 
-0.103351 -6.35416 0 
0 0 0 
-6.35072 -0.10108 0 
-0.10108 -6.25335 0 
0 0 0 
-6.23143 -0.0520023 0 
-0.0520023 -6.37264 0 
0 0 0 
-9.81466 0.117305 0 
0.117305 -9.7328 0 
0 0 0 
-9.76394 0.11668 0 
0.11668 -9.78352 0 
0 0 0 
-9.74698 0.0943493 0 
0.0943493 -9.80049 0 
0 0 0 
-5.23606 0.11668 0 
0.11668 -5.21648 0 
0 0 0 
-5.18534 0.117305 0 
0.117305 -5.2672 0 
0 0 0 
-5.25302 0.0943492 0 
0.0943492 -5.19951 0 
0 0 0 
-9.49538 -0.0204731 0 
-0.0204731 -9.5068 0 
0 0 0 
-9.50229 -0.00976883 0 
-0.00976883 -9.4999 0 
0 0 0 
-9.49086 -0.0106297 0 
-0.0106297 -9.51132 0 
0 0 0 
-5.49772 -0.00977235 0 
-0.00977235 -5.5001 0 
0 0 0 
-5.50462 -0.0204749 0 
-0.0204749 -5.49319 0 
0 0 0 
-5.50913 -0.0106348 0 
-0.0106348 -5.48868 0 
0 0 0 
-6.54831 0.0533661 0 
0.0533661 -6.52886 0 
0 0 0 
-6.55795 0.0672067 0 
0.0672067 -6.51922 0 
0 0 0 
-6.51174 0.0393744 0 
0.0393744 -6.56542 0 
0 0 0 
-7.01441 0.0575787 0 
0.0575787 -6.94686 0 
0 0 0 
-6.94347 0.0597343 0 
0.0597343 -7.0178 0 
0 0 0 
-6.97976 0.0382429 0 
0.0382429 -6.98151 0 
0 0 0 
-9.54892 -0.0529067 0 
-0.0529067 -9.5246 0 
0 0 0 
-9.53457 -0.0596792 0 
-0.0596792 -9.53895 0 
0 0 0 
-9.53322 -0.0442978 0 
-0.0442978 -9.5403 0 
0 0 0 
-5.46543 -0.0596804 0 
-0.0596804 -5.46105 0 
0 0 0 
-5.45108 -0.0529094 0 
-0.0529094 -5.4754 0 
0 0 0 
-5.46678 -0.0442986 0 
-0.0442986 -5.4597 0 
0 0 0 
-7.89312 0.0428275 0 
0.0428275 -7.89336 0 
0 0 0 
-7.85663 0.0218153 0 
0.0218153 -7.92985 0 
0 0 0 
-7.92874 0.0212732 0 
0.0212732 -7.85774 0 
0 0 0 
-6.56033 -0.0643209 0 
-0.0643209 -6.51031 0 
0 0 0 
-6.54578 -0.0465859 0 
-0.0465859 -6.52486 0 
0 0 0 
-6.50337 -0.0393716 0 
-0.0393716 -6.56727 0 
0 0 0 
-8.14284 0.0598309 0 
0.0598309 -8.06849 0 
0 0 0 
-8.07201 0.0576947 0 
0.0576947 -8.13932 0 
0 0 0 
-8.10652 0.0383693 0 
0.0383693 -8.10481 0 
0 0 0 
-7.05828 0.0219445 0 
0.0219445 -6.98518 0 
0 0 0 
-7.02191 0.0428756 0 
0.0428756 -7.02155 0 
0 0 0 
-6.98646 0.0214246 0 
0.0214246 -7.05699 0 
0 0 0 
-7.36508 -0.0430177 0 
-0.0430177 -7.36289 0 
0 0 0 
-7.40164 -0.0212218 0 
-0.0212218 -7.32634 0 
0 0 0 
-7.32747 -0.0208833 0 
-0.0208833 -7.4005 0 
0 0 0 
-9.7571 -0.0325906 0 
-0.0325906 -9.81607 0 
0 0 0 
-9.79373 -0.0278901 0 
-0.0278901 -9.77944 0 
0 0 0 
-9.80471 -0.0126499 0 
-0.0126499 -9.76846 0 
0 0 0 
-5.20627 -0.0278901 0 
-0.0278901 -5.22056 0 
0 0 0 
-5.2429 -0.0325906 0 
-0.0325906 -5.18393 0 
0 0 0 
-5.19529 -0.0126499 0 
-0.0126499 -5.23154 0 
0 0 0 
-6.83841 0.0583823 0 
0.0583823 -6.77569 0 
0 0 0 
-6.76743 0.0592792 0 
0.0592792 -6.84667 0 
0 0 0 
-6.80663 0.0387342 0 
0.0387342 -6.80747 0 
0 0 0 
-9.81147 -0.0286384 0 
-0.0286384 -9.82194 0 
0 0 0 
-9.84942 -0.0272528 0 
-0.0272528 -9.78398 0 
0 0 0 
-9.79845 -0.014011 0 
-0.014011 -9.83496 0 
0 0 0 
-5.15058 -0.0272527 0 
-0.0272527 -5.21602 0 
0 0 0 
-5.18853 -0.0286383 0 
-0.0286383 -5.17806 0 
0 0 0 
-5.20155 -0.0140109 0 
-0.0140109 -5.16504 0 
0 0 0 
-7.28673 -0.0596039 0 
-0.0596039 -7.35951 0 
0 0 0 
-7.3577 -0.0567339 0 
-0.0567339 -7.28854 0 
0 0 0 
-7.32204 -0.0378379 0 
-0.0378379 -7.3242 0 
0 0 0 
-8.06437 0.0429954 0 
0.0429954 -8.06475 0 
0 0 0 
-8.02806 0.0220649 0 
0.0220649 -8.10106 0 
0 0 0 
-8.09967 0.0215812 0 
0.0215812 -8.02946 0 
0 0 0 
-8.31871 0.0591718 0 
0.0591718 -8.23954 0 
0 0 0 
-8.24784 0.0583085 0 
0.0583085 -8.3104 0 
0 0 0 
-8.27956 0.0386697 0 
0.0386697 -8.27869 0 
0 0 0 
-6.88531 0.0220235 0 
0.0220235 -6.81329 0 
0 0 0 
-6.84919 0.0430676 0 
0.0430676 -6.84941 0 
0 0 0 
-6.81679 0.021223 0 
0.021223 -6.8818 0 
0 0 0 
-5.48511 -0.121368 0 
-0.121368 -5.53549 0 
0 0 0 
-5.5193 -0.104783 0 
-0.104783 -5.5013 0 
0 0 0 
-5.5348 -0.0850333 0 
-0.0850333 -5.4858 0 
0 0 0 
-9.4807 -0.104784 0 
-0.104784 -9.49869 0 
0 0 0 
-9.51489 -0.121369 0 
-0.121369 -9.46451 0 
0 0 0 
-9.4652 -0.0850311 0 
-0.0850311 -9.5142 0 
0 0 0 
-7.68517 -0.0210067 0 
-0.0210067 -7.75992 0 
0 0 0 
-7.72144 -0.0428381 0 
-0.0428381 -7.72365 0 
0 0 0 
-7.75928 -0.0207508 0 
-0.0207508 -7.68582 0 
0 0 0 
-6.66332 0.0521363 0 
0.0521363 -6.61108 0 
0 0 0 
-6.597 0.0588265 0 
0.0588265 -6.67739 0 
0 0 0 
-6.63339 0.0365951 0 
0.0365951 -6.641 0 
0 0 0 
-8.23701 0.0430647 0 
0.0430647 -8.23697 0 
0 0 0 
-8.20103 0.022104 0 
0.022104 -8.27295 0 
0 0 0 
-8.26926 0.0213201 0 
0.0213201 -8.20472 0 
0 0 0 
-7.72867 -0.0564243 0 
-0.0564243 -7.79809 0 
0 0 0 
-7.79967 -0.0595132 0 
-0.0595132 -7.72709 0 
0 0 0 
-7.7645 -0.0376711 0 
-0.0376711 -7.76226 0 
0 0 0 
-9.83887 0.144589 0 
0.144589 -9.78929 0 
0 0 0 
-9.76328 0.133897 0 
0.133897 -9.86488 0 
0 0 0 
-9.81717 0.123433 0 
0.123433 -9.811 0 
0 0 0 
-5.23672 0.133897 0 
0.133897 -5.13512 0 
0 0 0 
-5.16113 0.144589 0 
0.144589 -5.21071 0 
0 0 0 
-5.18283 0.123433 0 
0.123433 -5.189 0 
0 0 0 
-8.49029 0.0585803 0 
0.0585803 -8.41094 0 
0 0 0 
-8.41996 0.0577799 0 
0.0577799 -8.48127 0 
0 0 0 
-8.45127 0.0385069 0 
0.0385069 -8.44996 0 
0 0 0 
-9.32412 -0.140555 0 
-0.140555 -9.3443 0 
0 0 0 
-9.36594 -0.135116 0 
-0.135116 -9.30247 0 
0 0 0 
-9.33006 -0.133537 0 
-0.133537 -9.33835 0 
0 0 0 
-5.63405 -0.135108 0 
-0.135108 -5.6975 0 
0 0 0 
-5.67586 -0.140546 0 
-0.140546 -5.65568 0 
0 0 0 
-5.66992 -0.133526 0 
-0.133526 -5.66163 0 
0 0 0 
-6.24642 0.00253122 0 
0.00253122 -6.14994 0 
0 0 0 
-6.198 0.0447912 0 
0.0447912 -6.19835 0 
0 0 0 
-6.19665 0.011141 0 
0.011141 -6.1997 0 
0 0 0 
-9.74265 -0.040936 0 
-0.040936 -9.77122 0 
0 0 0 
-9.80085 -0.0450684 0 
-0.0450684 -9.71303 0 
0 0 0 
-9.75916 -0.018831 0 
-0.018831 -9.75472 0 
0 0 0 
-5.19915 -0.0450684 0 
-0.0450684 -5.28697 0 
0 0 0 
-5.25735 -0.040936 0 
-0.040936 -5.22878 0 
0 0 0 
-5.24084 -0.0188311 0 
-0.0188311 -5.24528 0 
0 0 0 
-6.71279 0.021586 0 
0.021586 -6.64216 0 
0 0 0 
-6.67755 0.0426214 0 
0.0426214 -6.6774 0 
0 0 0 
-6.64575 0.020636 0 
0.020636 -6.7092 0 
0 0 0 
-7.19245 -0.0418476 0 
-0.0418476 -7.19177 0 
0 0 0 
-7.22812 -0.0204014 0 
-0.0204014 -7.1561 0 
0 0 0 
-7.15528 -0.0205077 0 
-0.0205077 -7.22893 0 
0 0 0 
-8.40868 0.0431428 0 
0.0431428 -8.40846 0 
0 0 0 
-8.37256 0.0217687 0 
0.0217687 -8.44458 0 
0 0 0 
-8.44091 0.0209242 0 
0.0209242 -8.37623 0 
0 0 0 
-8.76812 0.0636866 0 
0.0636866 -8.81296 0 
0 0 0 
-8.75014 -0.023791 0 
-0.023791 -8.83094 0 
0 0 0 
-8.78282 0.0419824 0 
0.0419824 -8.79826 0 
0 0 0 
-7.11492 -0.0590923 0 
-0.0590923 -7.18753 0 
0 0 0 
-7.18602 -0.0557251 0 
-0.0557251 -7.11643 0 
0 0 0 
-7.15006 -0.0370798 0 
-0.0370798 -7.15239 0 
0 0 0 
-7.85862 -0.0201944 0 
-0.0201944 -7.93018 0 
0 0 0 
-7.89404 -0.0416899 0 
-0.0416899 -7.89476 0 
0 0 0 
-7.93145 -0.0203656 0 
-0.0203656 -7.85736 0 
0 0 0 
-7.90034 -0.0554337 0 
-0.0554337 -7.97019 0 
0 0 0 
-7.97147 -0.059003 0 
-0.059003 -7.89905 0 
0 0 0 
-7.93646 -0.0369223 0 
-0.0369223 -7.93407 0 
0 0 0 
-5.06114 -0.053499 0 
-0.053499 -5.0869 0 
0 0 0 
-5.05571 -0.0624424 0 
-0.0624424 -5.09233 0 
0 0 0 
-5.0843 -0.0309192 0 
-0.0309192 -5.06374 0 
0 0 0 
-9.94429 -0.0624424 0 
-0.0624424 -9.90767 0 
0 0 0 
-9.93886 -0.053499 0 
-0.053499 -9.9131 0 
0 0 0 
-9.9157 -0.0309192 0 
-0.0309192 -9.93626 0 
0 0 0 
-7.02078 -0.0414275 0 
-0.0414275 -7.01989 0 
0 0 0 
-7.05584 -0.0200112 0 
-0.0200112 -6.98483 0 
0 0 0 
-6.98317 -0.0202097 0 
-0.0202097 -7.0575 0 
0 0 0 
-5.91102 -0.0525371 0 
-0.0525371 -5.91046 0 
0 0 0 
-5.93399 -0.0459541 0 
-0.0459541 -5.88749 0 
0 0 0 
-5.94693 -0.0378547 0 
-0.0378547 -5.87455 0 
0 0 0 
-9.06581 -0.0461548 0 
-0.0461548 -9.1131 0 
0 0 0 
-9.0883 -0.0527839 0 
-0.0527839 -9.09061 0 
0 0 0 
-9.05288 -0.0382819 0 
-0.0382819 -9.12603 0 
0 0 0 
-6.94373 -0.0587252 0 
-0.0587252 -7.0154 0 
0 0 0 
-7.01451 -0.0549607 0 
-0.0549607 -6.94462 0 
0 0 0 
-6.97845 -0.0367651 0 
-0.0367651 -6.98068 0 
0 0 0 
-8.03091 -0.0198073 0 
-0.0198073 -8.10146 0 
0 0 0 
-8.06572 -0.0412727 0 
-0.0412727 -8.06664 0 
0 0 0 
-8.10357 -0.0200731 0 
-0.0200731 -8.02879 0 
0 0 0 
-9.01375 -0.143337 0 
-0.143337 -9.12426 0 
0 0 0 
-9.12976 -0.121285 0 
-0.121285 -9.00825 0 
0 0 0 
-9.05788 -0.106325 0 
-0.106325 -9.08013 0 
0 0 0 
-5.87012 -0.121526 0 
-0.121526 -5.99203 0 
0 0 0 
-5.98616 -0.14354 0 
-0.14354 -5.87599 0 
0 0 0 
-5.94206 -0.106559 0 
-0.106559 -5.92009 0 
0 0 0 
-8.07185 -0.0546767 0 
-0.0546767 -8.14201 0 
0 0 0 
-8.1427 -0.0586408 0 
-0.0586408 -8.07116 0 
0 0 0 
-8.10808 -0.0366013 0 
-0.0366013 -8.10577 0 
0 0 0 
-5.89335 -0.0433952 0 
-0.0433952 -5.89066 0 
0 0 0 
-5.9382 -0.0447926 0 
-0.0447926 -5.84582 0 
0 0 0 
-5.91096 -0.0373963 0 
-0.0373963 -5.87305 0 
0 0 0 
-9.06169 -0.0448486 0 
-0.0448486 -9.15436 0 
0 0 0 
-9.10622 -0.0434786 0 
-0.0434786 -9.10983 0 
0 0 0 
-9.08865 -0.0376597 0 
-0.0376597 -9.1274 0 
0 0 0 
-6.84847 -0.0422344 0 
-0.0422344 -6.84886 0 
0 0 0 
-6.88589 -0.0203096 0 
-0.0203096 -6.81144 0 
0 0 0 
-6.81305 -0.01937 0 
-0.01937 -6.88428 0 
0 0 0 
-6.43004 -0.103809 0 
-0.103809 -6.44808 0 
0 0 0 
-6.45039 -0.126069 0 
-0.126069 -6.42773 0 
0 0 0 
-6.42289 -0.0966652 0 
-0.0966652 -6.45522 0 
0 0 0 
-6.76722 -0.060059 0 
-0.060059 -6.84578 0 
0 0 0 
-6.83854 -0.0553465 0 
-0.0553465 -6.77446 0 
0 0 0 
-6.80517 -0.0371605 0 
-0.0371605 -6.80782 0 
0 0 0 
-6.59121 0.1176 0 
0.1176 -6.54392 0 
0 0 0 
-6.55812 0.121249 0 
0.121249 -6.577 0 
0 0 0 
-6.52318 0.0904267 0 
0.0904267 -6.61194 0 
0 0 0 
-8.20084 -0.0201393 0 
-0.0201393 -8.2748 0 
0 0 0 
-8.23788 -0.0419732 0 
-0.0419732 -8.23776 0 
0 0 0 
-8.27345 -0.0192152 0 
-0.0192152 -8.20219 0 
0 0 0 
-8.24781 -0.0548836 0 
-0.0548836 -8.31202 0 
0 0 0 
-8.31861 -0.0596765 0 
-0.0596765 -8.24121 0 
0 0 0 
-8.28111 -0.0370591 0 
-0.0370591 -8.27872 0 
0 0 0 
-6.67599 -0.0403531 0 
-0.0403531 -6.67514 0 
0 0 0 
-6.70872 -0.0195036 0 
-0.0195036 -6.64242 0 
0 0 0 
-6.64095 -0.0186939 0 
-0.0186939 -6.71019 0 
0 0 0 
-6.5968 -0.0579421 0 
-0.0579421 -6.67301 0 
0 0 0 
-6.66512 -0.0509638 0 
-0.0509638 -6.6047 0 
0 0 0 
-6.63144 -0.0348968 0 
-0.0348968 -6.63838 0 
0 0 0 
-6.04791 -0.0809467 0 
-0.0809467 -5.93374 0 
0 0 0 
-6.02805 -0.0847295 0 
-0.0847295 -5.95361 0 
0 0 0 
-6.04031 -0.0903937 0 
-0.0903937 -5.94134 0 
0 0 0 
-8.97191 -0.0844535 0 
-0.0844535 -9.04701 0 
0 0 0 
-8.95219 -0.080679 0 
-0.080679 -9.06673 0 
0 0 0 
-8.95974 -0.0900753 0 
-0.0900753 -9.05917 0 
0 0 0 
-8.64883 0.0627767 0 
0.0627767 -8.60224 0 
0 0 0 
-8.60894 0.0411869 0 
0.0411869 -8.64214 0 
0 0 0 
-8.63054 0.0458232 0 
0.0458232 -8.62053 0 
0 0 0 
-9.94332 0.0509648 0 
0.0509648 -9.91476 0 
0 0 0 
-9.94902 0.0606205 0 
0.0606205 -9.90906 0 
0 0 0 
-9.91979 0.029105 0 
0.029105 -9.93829 0 
0 0 0 
-5.05098 0.0606205 0 
0.0606205 -5.09094 0 
0 0 0 
-5.05668 0.0509648 0 
0.0509648 -5.08524 0 
0 0 0 
-5.08021 0.029105 0 
0.029105 -5.06171 0 
0 0 0 
-8.37273 -0.0202212 0 
-0.0202212 -8.44614 0 
0 0 0 
-8.40924 -0.042269 0 
-0.042269 -8.40963 0 
0 0 0 
-8.44508 -0.0195257 0 
-0.0195257 -8.37379 0 
0 0 0 
-6.49957 -0.050726 0 
-0.050726 -6.5186 0 
0 0 0 
-6.49265 -0.0612757 0 
-0.0612757 -6.52553 0 
0 0 0 
-6.52795 -0.0334304 0 
-0.0334304 -6.49023 0 
0 0 0 
-8.41942 -0.054634 0 
-0.054634 -8.48428 0 
0 0 0 
-8.48836 -0.0596924 0 
-0.0596924 -8.41534 0 
0 0 0 
-8.45218 -0.037972 0 
-0.037972 -8.45153 0 
0 0 0 
-9.55798 -0.055871 0 
-0.055871 -9.56586 0 
0 0 0 
-9.54562 -0.0639747 0 
-0.0639747 -9.57823 0 
0 0 0 
-9.58527 -0.0462485 0 
-0.0462485 -9.53858 0 
0 0 0 
-5.45438 -0.0639748 0 
-0.0639748 -5.42177 0 
0 0 0 
-5.44202 -0.0558721 0 
-0.0558721 -5.43414 0 
0 0 0 
-5.41474 -0.0462494 0 
-0.0462494 -5.46142 0 
0 0 0 
-6.27227 0.00639347 0 
0.00639347 -6.30132 0 
0 0 0 
-6.28828 -0.00612236 0 
-0.00612236 -6.28531 0 
0 0 0 
-6.32885 -0.00868764 0 
-0.00868764 -6.24474 0 
0 0 0 
-9.7239 -0.129338 0 
-0.129338 -9.70918 0 
0 0 0 
-9.72615 -0.104382 0 
-0.104382 -9.70692 0 
0 0 0 
-9.73631 -0.119898 0 
-0.119898 -9.69677 0 
0 0 0 
-5.27385 -0.104382 0 
-0.104382 -5.29308 0 
0 0 0 
-5.2761 -0.129339 0 
-0.129339 -5.29082 0 
0 0 0 
-5.26369 -0.119898 0 
-0.119898 -5.30323 0 
0 0 0 
-5.65192 0.0609969 0 
0.0609969 -5.71721 0 
0 0 0 
-5.68541 0.0313634 0 
0.0313634 -5.68372 0 
0 0 0 
-5.72028 0.0612708 0 
0.0612708 -5.64885 0 
0 0 0 
-9.31461 0.0313541 0 
0.0313541 -9.31629 0 
0 0 0 
-9.34811 0.0610086 0 
0.0610086 -9.28279 0 
0 0 0 
-9.27973 0.0612796 0 
0.0612796 -9.35116 0 
0 0 0 
-9.51607 0.0590384 0 
0.0590384 -9.58765 0 
0 0 0 
-9.54785 0.0232865 0 
0.0232865 -9.55586 0 
0 0 0 
-9.58219 0.0371403 0 
0.0371403 -9.52153 0 
0 0 0 
-5.45215 0.0232846 0 
0.0232846 -5.44414 0 
0 0 0 
-5.48393 0.0590382 0 
0.0590382 -5.41235 0 
0 0 0 
-5.41781 0.0371394 0 
0.0371394 -5.47847 0 
0 0 0 
-8.59511 -0.0340571 0 
-0.0340571 -8.63755 0 
0 0 0 
-8.64869 -0.0635863 0 
-0.0635863 -8.58396 0 
0 0 0 
-8.62405 -0.0357959 0 
-0.0357959 -8.6086 0 
0 0 0 
-6.19935 0.0506392 0 
0.0506392 -6.07953 0 
0 0 0 
-6.21503 0.0778491 0 
0.0778491 -6.06385 0 
0 0 0 
-6.18896 0.0611441 0 
0.0611441 -6.08992 0 
0 0 0 
-5.68338 -0.0552277 0 
-0.0552277 -5.70427 0 
0 0 0 
-5.67275 -0.0645732 0 
-0.0645732 -5.7149 0 
0 0 0 
-5.70978 -0.0410866 0 
-0.0410866 -5.67787 0 
0 0 0 
-9.32722 -0.0645818 0 
-0.0645818 -9.28508 0 
0 0 0 
-9.31658 -0.0552395 0 
-0.0552395 -9.29572 0 
0 0 0 
-9.29018 -0.0410939 0 
-0.0410939 -9.32212 0 
0 0 0 
-9.31609 -0.0553539 0 
-0.0553539 -9.33451 0 
0 0 0 
-9.30602 -0.0657531 0 
-0.0657531 -9.34457 0 
0 0 0 
-9.34331 -0.0414709 0 
-0.0414709 -9.30728 0 
0 0 0 
-5.69397 -0.0657526 0 
-0.0657526 -5.65542 0 
0 0 0 
-5.68391 -0.0553534 0 
-0.0553534 -5.66548 0 
0 0 0 
-5.65668 -0.0414727 0 
-0.0414727 -5.69271 0 
0 0 0 
-8.55463 -0.0190226 0 
-0.0190226 -8.61735 0 
0 0 0 
-8.58323 -0.0417231 0 
-0.0417231 -8.58876 0 
0 0 0 
-8.62837 -0.0224915 0 
-0.0224915 -8.54361 0 
0 0 0 
-5.86229 -0.12693 0 
-0.12693 -5.83247 0 
0 0 0 
-5.85363 -0.0939142 0 
-0.0939142 -5.84112 0 
0 0 0 
-5.87591 -0.123273 0 
-0.123273 -5.81884 0 
0 0 0 
-9.14626 -0.0938855 0 
-0.0938855 -9.15896 0 
0 0 0 
-9.13757 -0.126847 0 
-0.126847 -9.16765 0 
0 0 0 
-9.12396 -0.123336 0 
-0.123336 -9.18126 0 
0 0 0 
-5.41251 -0.119582 0 
-0.119582 -5.42628 0 
0 0 0 
-5.44564 -0.111734 0 
-0.111734 -5.39315 0 
0 0 0 
-5.37096 -0.0942814 0 
-0.0942814 -5.46783 0 
0 0 0 
-9.55436 -0.111734 0 
-0.111734 -9.60685 0 
0 0 0 
-9.58749 -0.119582 0 
-0.119582 -9.57372 0 
0 0 0 
-9.62904 -0.0942814 0 
-0.0942814 -9.53217 0 
0 0 0 
-5.92428 -0.0039826 0 
-0.0039826 -5.91526 0 
0 0 0 
-5.95498 0.0211195 0 
0.0211195 -5.88456 0 
0 0 0 
-5.88471 0.00346831 0 
0.00346831 -5.95483 0 
0 0 0 
-9.04463 0.0186347 0 
0.0186347 -9.11463 0 
0 0 0 
-9.07458 -0.00378852 0 
-0.00378852 -9.08468 0 
0 0 0 
-9.1123 0.00159115 0 
0.00159115 -9.04696 0 
0 0 0 
-6.47864 -0.143777 0 
-0.143777 -6.53763 0 
0 0 0 
-6.54741 -0.141323 0 
-0.141323 -6.46885 0 
0 0 0 
-6.50487 -0.120431 0 
-0.120431 -6.5114 0 
0 0 0 
-9.4825 -0.121993 0 
-0.121993 -9.45394 0 
0 0 0 
-9.47107 -0.0895986 0 
-0.0895986 -9.46537 0 
0 0 0 
-9.49458 -0.122016 0 
-0.122016 -9.44186 0 
0 0 0 
-5.52893 -0.0895998 0 
-0.0895998 -5.53462 0 
0 0 0 
-5.5175 -0.121992 0 
-0.121992 -5.54605 0 
0 0 0 
-5.50542 -0.122011 0 
-0.122011 -5.55813 0 
0 0 0 
-9.87422 -0.0787069 0 
-0.0787069 -9.84747 0 
0 0 0 
-9.84119 -0.0855198 0 
-0.0855198 -9.88049 0 
0 0 0 
-9.86827 -0.0852 0 
-0.0852 -9.85341 0 
0 0 0 
-5.15881 -0.0855198 0 
-0.0855198 -5.11951 0 
0 0 0 
-5.12578 -0.0787068 0 
-0.0787068 -5.15253 0 
0 0 0 
-5.13173 -0.0852 0 
-0.0852 -5.14659 0 
0 0 0 
-5.16314 -0.143186 0 
-0.143186 -5.2441 0 
0 0 0 
-5.26654 -0.134641 0 
-0.134641 -5.1407 0 
0 0 0 
-5.19913 -0.11026 0 
-0.11026 -5.2081 0 
0 0 0 
-9.73346 -0.134641 0 
-0.134641 -9.8593 0 
0 0 0 
-9.83686 -0.143186 0 
-0.143186 -9.7559 0 
0 0 0 
-9.80087 -0.11026 0 
-0.11026 -9.7919 0 
0 0 0 
-6.46888 -0.02329 0 
-0.02329 -6.46592 0 
0 0 0 
-6.481 -0.0136542 0 
-0.0136542 -6.45381 0 
0 0 0 
-6.43271 -0.0255829 0 
-0.0255829 -6.5021 0 
0 0 0 
-8.58285 0.0444732 0 
0.0444732 -8.58884 0 
0 0 0 
-8.55307 0.0214249 0 
0.0214249 -8.61862 0 
0 0 0 
-8.62577 0.0225445 0 
0.0225445 -8.54592 0 
0 0 0 
-9.88169 0.0197987 0 
0.0197987 -9.77966 0 
0 0 0 
-9.83487 0.0490762 0 
0.0490762 -9.82649 0 
0 0 0 
-9.78984 0.0247325 0 
0.0247325 -9.87152 0 
0 0 0 
-5.16513 0.0490762 0 
0.0490762 -5.17351 0 
0 0 0 
-5.11831 0.0197987 0 
0.0197987 -5.22034 0 
0 0 0 
-5.21016 0.0247325 0 
0.0247325 -5.12848 0 
0 0 0 
-8.76183 0.138953 0 
0.138953 -8.72977 0 
0 0 0 
-8.7031 0.139367 0 
0.139367 -8.78851 0 
0 0 0 
-8.74155 0.126252 0 
0.126252 -8.75005 0 
0 0 0 
-9.68167 -0.0791862 0 
-0.0791862 -9.65496 0 
0 0 0 
-9.65137 -0.0816941 0 
-0.0816941 -9.68526 0 
0 0 0 
-9.68483 -0.134263 0 
-0.134263 -9.6518 0 
0 0 0 
-5.34863 -0.0816942 0 
-0.0816942 -5.31474 0 
0 0 0 
-5.31833 -0.0791863 0 
-0.0791863 -5.34504 0 
0 0 0 
-5.31517 -0.134263 0 
-0.134263 -5.3482 0 
0 0 0 
-9.8014 0.0383489 0 
0.0383489 -9.79189 0 
0 0 0 
-9.83364 0.065868 0 
0.065868 -9.75964 0 
0 0 0 
-9.76069 0.050531 0 
0.050531 -9.83259 0 
0 0 0 
-5.16636 0.065868 0 
0.065868 -5.24036 0 
0 0 0 
-5.1986 0.0383489 0 
0.0383489 -5.20811 0 
0 0 0 
-5.23931 0.050531 0 
0.050531 -5.16741 0 
0 0 0 
-6.0373 -0.195893 0 
-0.195893 -6.54104 0 
0 0 0 
-6.29528 -0.187086 0 
-0.187086 -6.28306 0 
0 0 0 
-6.2724 0.0221404 0 
0.0221404 -6.30594 0 
0 0 0 
-8.73441 0.0513771 0 
0.0513771 -8.73742 0 
0 0 0 
-8.71755 0.0492695 0 
0.0492695 -8.75427 0 
0 0 0 
-8.70505 0.0608329 0 
0.0608329 -8.76677 0 
0 0 0 
-8.37237 -0.139678 0 
-0.139678 -8.44821 0 
0 0 0 
-8.44502 -0.140742 0 
-0.140742 -8.37556 0 
0 0 0 
-8.40994 -0.119381 0 
-0.119381 -8.41064 0 
0 0 0 
-8.70842 0.0423549 0 
0.0423549 -8.71129 0 
0 0 0 
-8.6818 0.0606152 0 
0.0606152 -8.73791 0 
0 0 0 
-8.69464 0.0597212 0 
0.0597212 -8.72507 0 
0 0 0 
-8.70294 -0.0550494 0 
-0.0550494 -8.64554 0 
0 0 0 
-8.64102 -0.0787962 0 
-0.0787962 -8.70747 0 
0 0 0 
-8.71899 -0.0856699 0 
-0.0856699 -8.62949 0 
0 0 0 
-9.19917 0.0730728 0 
0.0730728 -9.21372 0 
0 0 0 
-9.20697 0.0756816 0 
0.0756816 -9.20592 0 
0 0 0 
-9.22267 0.0689065 0 
0.0689065 -9.19022 0 
0 0 0 
-5.79305 0.0757835 0 
0.0757835 -5.79401 0 
0 0 0 
-5.80095 0.0730049 0 
0.0730049 -5.7861 0 
0 0 0 
-5.77762 0.0688954 0 
0.0688954 -5.80943 0 
0 0 0 
-8.6299 -0.176906 0 
-0.176906 -8.75005 0 
0 0 0 
-8.84513 -0.195152 0 
-0.195152 -8.53482 0 
0 0 0 
-8.75191 -0.0286697 0 
-0.0286697 -8.62805 0 
0 0 0 
-9.42513 0.0752703 0 
0.0752703 -9.43026 0 
0 0 0 
-9.43588 0.0703854 0 
0.0703854 -9.4195 0 
0 0 0 
-9.41506 0.0660832 0 
0.0660832 -9.44033 0 
0 0 0 
-5.56411 0.0703834 0 
0.0703834 -5.5805 0 
0 0 0 
-5.57487 0.0752679 0 
0.0752679 -5.56975 0 
0 0 0 
-5.58494 0.0660808 0 
0.0660808 -5.55968 0 
0 0 0 
-6.63836 -0.139861 0 
-0.139861 -6.71376 0 
0 0 0 
-6.7141 -0.139708 0 
-0.139708 -6.63802 0 
0 0 0 
-6.67673 -0.118488 0 
-0.118488 -6.67539 0 
0 0 0 
-9.634 -0.111246 0 
-0.111246 -9.6639 0 
0 0 0 
-9.65573 -0.128922 0 
-0.128922 -9.64217 0 
0 0 0 
-9.61423 -0.0997321 0 
-0.0997321 -9.68367 0 
0 0 0 
-5.34427 -0.128922 0 
-0.128922 -5.35783 0 
0 0 0 
-5.366 -0.111245 0 
-0.111245 -5.3361 0 
0 0 0 
-5.38577 -0.0997324 0 
-0.0997324 -5.31633 0 
0 0 0 
-8.63892 0.0870356 0 
0.0870356 -8.6632 0 
0 0 0 
-8.65932 0.0934479 0 
0.0934479 -8.64279 0 
0 0 0 
-8.64799 0.0835874 0 
0.0835874 -8.65412 0 
0 0 0 
-8.20065 -0.140485 0 
-0.140485 -8.27476 0 
0 0 0 
-8.27339 -0.140967 0 
-0.140967 -8.20202 0 
0 0 0 
-8.23758 -0.119818 0 
-0.119818 -8.23784 0 
0 0 0 
-8.70964 0.130805 0 
0.130805 -8.70663 0 
0 0 0 
-8.70158 0.116658 0 
0.116658 -8.71469 0 
0 0 0 
-8.69096 0.119314 0 
0.119314 -8.72531 0 
0 0 0 
-6.37192 -0.136152 0 
-0.136152 -6.4332 0 
0 0 0 
-6.41523 -0.139537 0 
-0.139537 -6.38989 0 
0 0 0 
-6.41133 -0.128237 0 
-0.128237 -6.39379 0 
0 0 0 
-8.55972 -0.139656 0 
-0.139656 -8.61645 0 
0 0 0 
-8.63022 -0.139095 0 
-0.139095 -8.54595 0 
0 0 0 
-8.5862 -0.117464 0 
-0.117464 -8.58997 0 
0 0 0 
-6.32026 0.109314 0 
0.109314 -6.29115 0 
0 0 0 
-6.29001 0.126625 0 
0.126625 -6.32141 0 
0 0 0 
-6.32968 0.101648 0 
0.101648 -6.28174 0 
0 0 0 
-6.81364 -0.140831 0 
-0.140831 -6.88525 0 
0 0 0 
-6.88587 -0.140587 0 
-0.140587 -6.81302 0 
0 0 0 
-6.84964 -0.119898 0 
-0.119898 -6.84925 0 
0 0 0 
-8.02948 -0.140831 0 
-0.140831 -8.10246 0 
0 0 0 
-8.10489 -0.140166 0 
-0.140166 -8.02705 0 
0 0 0 
-8.06562 -0.119029 0 
-0.119029 -8.06633 0 
0 0 0 
-6.48543 0.0706039 0 
0.0706039 -6.53227 0 
0 0 0 
-6.49785 0.052263 0 
0.052263 -6.51985 0 
0 0 0 
-6.54288 0.0422149 0 
0.0422149 -6.47482 0 
0 0 0 
-6.2686 0.0630513 0 
0.0630513 -6.21877 0 
0 0 0 
-6.28541 0.0645497 0 
0.0645497 -6.20196 0 
0 0 0 
-6.25 0.0513117 0 
0.0513117 -6.23736 0 
0 0 0 
-6.47914 0.121512 0 
0.121512 -6.46929 0 
0 0 0 
-6.44332 0.120902 0 
0.120902 -6.50511 0 
0 0 0 
-6.50347 0.0952269 0 
0.0952269 -6.44497 0 
0 0 0 
-6.9819 -0.140064 0 
-0.140064 -7.06028 0 
0 0 0 
-7.05714 -0.140987 0 
-0.140987 -6.98505 0 
0 0 0 
-7.02145 -0.11912 0 
-0.11912 -7.02073 0 
0 0 0 
-6.39203 0.066074 0 
0.066074 -6.38466 0 
0 0 0 
-6.40276 0.0681486 0 
0.0681486 -6.37393 0 
0 0 0 
-6.3697 0.0575462 0 
0.0575462 -6.40699 0 
0 0 0 
-7.85746 -0.14106 0 
-0.14106 -7.92849 0 
0 0 0 
-7.93228 -0.139925 0 
-0.139925 -7.85366 0 
0 0 0 
-7.89255 -0.119233 0 
-0.119233 -7.8934 0 
0 0 0 
-5.43608 -0.142879 0 
-0.142879 -5.48836 0 
0 0 0 
-5.50298 -0.138504 0 
-0.138504 -5.42146 0 
0 0 0 
-5.4575 -0.118195 0 
-0.118195 -5.46694 0 
0 0 0 
-9.49702 -0.138504 0 
-0.138504 -9.57854 0 
0 0 0 
-9.56392 -0.14288 0 
-0.14288 -9.51164 0 
0 0 0 
-9.5425 -0.118195 0 
-0.118195 -9.53306 0 
0 0 0 
-9.61927 0.0694687 0 
0.0694687 -9.65841 0 
0 0 0 
-9.66389 0.0512571 0 
0.0512571 -9.61379 0 
0 0 0 
-9.64385 0.0818136 0 
0.0818136 -9.63384 0 
0 0 0 
-5.33611 0.0512566 0 
0.0512566 -5.38621 0 
0 0 0 
-5.38073 0.0694684 0 
0.0694684 -5.34159 0 
0 0 0 
-5.35615 0.0818138 0 
0.0818138 -5.36616 0 
0 0 0 
-7.59329 0.139613 0 
0.139613 -7.49299 0 
0 0 0 
-7.493 0.139614 0 
0.139614 -7.59328 0 
0 0 0 
-7.54314 0.110525 0 
0.110525 -7.54314 0 
0 0 0 
-7.15451 -0.139822 0 
-0.139822 -7.23367 0 
0 0 0 
-7.22916 -0.141208 0 
-0.141208 -7.15902 0 
0 0 0 
-7.19451 -0.119342 0 
-0.119342 -7.19366 0 
0 0 0 
-7.40041 0.141172 0 
0.141172 -7.33439 0 
0 0 0 
-7.32711 0.138871 0 
0.138871 -7.4077 0 
0 0 0 
-7.36749 0.119579 0 
0.119579 -7.36731 0 
0 0 0 
-7.75906 0.138908 0 
0.138908 -7.67863 0 
0 0 0 
-7.6859 0.141194 0 
0.141194 -7.75179 0 
0 0 0 
-7.71876 0.119634 0 
0.119634 -7.71893 0 
0 0 0 
-5.51548 0.129108 0 
0.129108 -5.47625 0 
0 0 0 
-5.48834 0.111388 0 
0.111388 -5.50339 0 
0 0 0 
-5.47904 0.0985925 0 
0.0985925 -5.51269 0 
0 0 0 
-9.51165 0.111388 0 
0.111388 -9.49661 0 
0 0 0 
-9.48451 0.129108 0 
0.129108 -9.52375 0 
0 0 0 
-9.52095 0.0985913 0 
0.0985913 -9.48731 0 
0 0 0 
-9.75962 0.110578 0 
0.110578 -9.73694 0 
0 0 0 
-9.7356 0.132364 0 
0.132364 -9.76097 0 
0 0 0 
-9.76655 0.10225 0 
0.10225 -9.73002 0 
0 0 0 
-5.2644 0.132363 0 
0.132363 -5.23903 0 
0 0 0 
-5.24037 0.110578 0 
0.110578 -5.26306 0 
0 0 0 
-5.23345 0.10225 0 
0.10225 -5.26998 0 
0 0 0 
-5.85645 0.123315 0 
0.123315 -5.84937 0 
0 0 0 
-5.81508 0.137096 0 
0.137096 -5.89073 0 
0 0 0 
-5.86844 0.0844549 0 
0.0844549 -5.83737 0 
0 0 0 
-9.18597 0.137443 0 
0.137443 -9.1092 0 
0 0 0 
-9.14439 0.123711 0 
0.123711 -9.15077 0 
0 0 0 
-9.13214 0.0839158 0 
0.0839158 -9.16302 0 
0 0 0 
-7.23075 0.141698 0 
0.141698 -7.16308 0 
0 0 0 
-7.15622 0.139461 0 
0.139461 -7.23761 0 
0 0 0 
-7.19735 0.119743 0 
0.119743 -7.19648 0 
0 0 0 
-7.92995 0.139501 0 
0.139501 -7.84872 0 
0 0 0 
-7.85556 0.141721 0 
0.141721 -7.92311 0 
0 0 0 
-7.88891 0.119791 0 
0.119791 -7.88977 0 
0 0 0 
-7.05934 0.141738 0 
0.141738 -6.99189 0 
0 0 0 
-6.98505 0.13953 0 
0.13953 -7.06618 0 
0 0 0 
-7.02603 0.119822 0 
0.119822 -7.0252 0 
0 0 0 
-7.68715 -0.140871 0 
-0.140871 -7.75455 0 
0 0 0 
-7.76017 -0.139201 0 
-0.139201 -7.68153 0 
0 0 0 
-7.72076 -0.119384 0 
-0.119384 -7.72094 0 
0 0 0 
-8.10112 0.13956 0 
0.13956 -8.02015 0 
0 0 0 
-8.02696 0.141752 0 
0.141752 -8.0943 0 
0 0 0 
-8.06021 0.119864 0 
0.119864 -8.06105 0 
0 0 0 
-6.88805 0.141777 0 
0.141777 -6.82076 0 
0 0 0 
-6.81402 0.139587 0 
0.139587 -6.89478 0 
0 0 0 
-6.85485 0.119846 0 
0.119846 -6.85396 0 
0 0 0 
-8.27218 0.139624 0 
0.139624 -8.19147 0 
0 0 0 
-8.19823 0.141799 0 
0.141799 -8.26541 0 
0 0 0 
-8.2314 0.119868 0 
0.119868 -8.23224 0 
0 0 0 
-6.71848 0.141161 0 
0.141161 -6.65001 0 
0 0 0 
-6.6443 0.138951 0 
0.138951 -6.72419 0 
0 0 0 
-6.68496 0.119431 0 
0.119431 -6.68353 0 
0 0 0 
-8.44376 0.139944 0 
0.139944 -8.36247 0 
0 0 0 
-8.36973 0.142035 0 
0.142035 -8.43649 0 
0 0 0 
-8.40286 0.119993 0 
0.119993 -8.40337 0 
0 0 0 
-7.32664 -0.139092 0 
-0.139092 -7.40579 0 
0 0 0 
-7.39948 -0.14099 0 
-0.14099 -7.33295 0 
0 0 0 
-7.3663 -0.11949 0 
-0.11949 -7.36613 0 
0 0 0 
-8.63222 0.140596 0 
0.140596 -8.53577 0 
0 0 0 
-8.5595 0.144788 0 
0.144788 -8.60849 0 
0 0 0 
-8.58358 0.123328 0 
0.123328 -8.58441 0 
0 0 0 
-7.49365 -0.139511 0 
-0.139511 -7.5934 0 
0 0 0 
-7.59299 -0.139694 0 
-0.139694 -7.49406 0 
0 0 0 
-7.54355 -0.11077 0 
-0.11077 -7.5435 0 
0 0 0 
-9.6085 -0.0354781 0 
-0.0354781 -9.60592 0 
0 0 0 
-9.62143 -0.0247513 0 
-0.0247513 -9.59299 0 
0 0 0 
-9.5742 -0.0299277 0 
-0.0299277 -9.64022 0 
0 0 0 
-5.37857 -0.0247522 0 
-0.0247522 -5.40701 0 
0 0 0 
-5.3915 -0.0354784 0 
-0.0354784 -5.39408 0 
0 0 0 
-5.4258 -0.0299285 0 
-0.0299285 -5.35978 0 
0 0 0 
-8.67037 0.0968806 0 
0.0968806 -8.68866 0 
0 0 0 
-8.68411 0.0874445 0 
0.0874445 -8.67492 0 
0 0 0 
-8.66863 0.0834574 0 
0.0834574 -8.6904 0 
0 0 0 
-5.95608 0.0955666 0 
0.0955666 -5.81569 0 
0 0 0 
-5.83114 0.0972506 0 
0.0972506 -5.94062 0 
0 0 0 
-5.82028 0.0551748 0 
0.0551748 -5.95148 0 
0 0 0 
-9.1692 0.096355 0 
0.096355 -9.05771 0 
0 0 0 
-9.04164 0.0950115 0 
0.0950115 -9.18527 0 
0 0 0 
-9.18038 0.0539904 0 
0.0539904 -9.04652 0 
0 0 0 
-9.63347 0.0887378 0 
0.0887378 -9.7111 0 
0 0 0 
-9.67379 0.0730597 0 
0.0730597 -9.67078 0 
0 0 0 
-9.70113 0.0891222 0 
0.0891222 -9.64345 0 
0 0 0 
-5.32621 0.0730595 0 
0.0730595 -5.32922 0 
0 0 0 
-5.36653 0.0887378 0 
0.0887378 -5.2889 0 
0 0 0 
-5.29887 0.0891222 0 
0.0891222 -5.35655 0 
0 0 0 
-8.62003 -0.129589 0 
-0.129589 -8.62018 0 
0 0 0 
-8.61688 -0.113056 0 
-0.113056 -8.62333 0 
0 0 0 
-8.62619 -0.122062 0 
-0.122062 -8.61402 0 
0 0 0 
-5.55431 0.144531 0 
0.144531 -5.51877 0 
0 0 0 
-5.49458 0.137683 0 
0.137683 -5.57849 0 
0 0 0 
-5.53974 0.123098 0 
0.123098 -5.53334 0 
0 0 0 
-9.50542 0.137681 0 
0.137681 -9.42151 0 
0 0 0 
-9.44569 0.144529 0 
0.144529 -9.48123 0 
0 0 0 
-9.46026 0.123095 0 
0.123095 -9.46666 0 
0 0 0 
-9.87979 0.0381399 0 
0.0381399 -9.83695 0 
0 0 0 
-9.8234 0.0617924 0 
0.0617924 -9.89334 0 
0 0 0 
-9.85121 0.0402364 0 
0.0402364 -9.86553 0 
0 0 0 
-5.1766 0.0617924 0 
0.0617924 -5.10666 0 
0 0 0 
-5.12021 0.0381399 0 
0.0381399 -5.16305 0 
0 0 0 
-5.14879 0.0402364 0 
0.0402364 -5.13447 0 
0 0 0 
-6.39314 0.14087 0 
0.14087 -6.30473 0 
0 0 0 
-6.32741 0.146 0 
0.146 -6.37046 0 
0 0 0 
-6.34655 0.125133 0 
0.125133 -6.35132 0 
0 0 0 
-5.84856 0.131777 0 
0.131777 -5.78575 0 
0 0 0 
-5.80668 0.137294 0 
0.137294 -5.82763 0 
0 0 0 
-5.81812 0.122583 0 
0.122583 -5.8162 0 
0 0 0 
-9.19356 0.137149 0 
0.137149 -9.17313 0 
0 0 0 
-9.15241 0.131636 0 
0.131636 -9.21428 0 
0 0 0 
-9.18227 0.12259 0 
0.12259 -9.18442 0 
0 0 0 
-5.82117 -0.0819328 0 
-0.0819328 -5.78984 0 
0 0 0 
-5.78509 -0.0894008 0 
-0.0894008 -5.82592 0 
0 0 0 
-5.81593 -0.125742 0 
-0.125742 -5.79508 0 
0 0 0 
-9.21467 -0.0894782 0 
-0.0894782 -9.17426 0 
0 0 0 
-9.17871 -0.0820363 0 
-0.0820363 -9.21022 0 
0 0 0 
-9.18397 -0.125598 0 
-0.125598 -9.20496 0 
0 0 0 
-9.7372 0.147585 0 
0.147585 -9.67541 0 
0 0 0 
-9.69288 0.146743 0 
0.146743 -9.71972 0 
0 0 0 
-9.70175 0.129729 0 
0.129729 -9.71086 0 
0 0 0 
-5.30712 0.146743 0 
0.146743 -5.28028 0 
0 0 0 
-5.2628 0.147585 0 
0.147585 -5.32459 0 
0 0 0 
-5.29825 0.129729 0 
0.129729 -5.28914 0 
0 0 0 
-5.73573 -0.0314833 0 
-0.0314833 -5.73467 0 
0 0 0 
-5.75242 -0.0161411 0 
-0.0161411 -5.71798 0 
0 0 0 
-5.69632 -0.0355919 0 
-0.0355919 -5.77409 0 
0 0 0 
-9.24758 -0.0161742 0 
-0.0161742 -9.28204 0 
0 0 0 
-9.26426 -0.0315441 0 
-0.0315441 -9.26537 0 
0 0 0 
-9.30375 -0.0356367 0 
-0.0356367 -9.22588 0 
0 0 0 
-6.16183 0.00437183 0 
0.00437183 -6.04064 0 
0 0 0 
-6.15794 0.0168525 0 
0.0168525 -6.04453 0 
0 0 0 
-6.17105 0.0131226 0 
0.0131226 -6.03143 0 
0 0 0 
-8.84501 0.0215275 0 
0.0215275 -8.96171 0 
0 0 0 
-8.84781 0.00145222 0 
0.00145222 -8.95891 0 
0 0 0 
-8.84818 0.0127674 0 
0.0127674 -8.95854 0 
0 0 0 
-6.54817 0.140527 0 
0.140527 -6.49115 0 
0 0 0 
-6.49927 0.1426 0 
0.1426 -6.54004 0 
0 0 0 
-6.52018 0.127622 0 
0.127622 -6.51914 0 
0 0 0 
-8.66145 -0.0924308 0 
-0.0924308 -8.63947 0 
0 0 0 
-8.64718 -0.0861906 0 
-0.0861906 -8.65374 0 
0 0 0 
-8.65677 -0.0819741 0 
-0.0819741 -8.64415 0 
0 0 0 
-8.79325 0.0162804 0 
0.0162804 -8.84978 0 
0 0 0 
-8.77735 -0.000357563 0 
-0.000357563 -8.86569 0 
0 0 0 
-8.83121 0.0457227 0 
0.0457227 -8.81182 0 
0 0 0 
-6.23672 0.00880066 0 
0.00880066 -6.11979 0 
0 0 0 
-6.20134 0.021631 0 
0.021631 -6.15517 0 
0 0 0 
-6.19109 0.0511463 0 
0.0511463 -6.16543 0 
0 0 0 
-9.3688 -0.0309752 0 
-0.0309752 -9.36544 0 
0 0 0 
-9.38503 -0.0151642 0 
-0.0151642 -9.34922 0 
0 0 0 
-9.32965 -0.0359395 0 
-0.0359395 -9.4046 0 
0 0 0 
-5.61497 -0.0151659 0 
-0.0151659 -5.65078 0 
0 0 0 
-5.63119 -0.0309777 0 
-0.0309777 -5.63456 0 
0 0 0 
-5.67035 -0.0359413 0 
-0.0359413 -5.5954 0 
0 0 0 
-5.76201 -0.0979505 0 
-0.0979505 -5.7834 0 
0 0 0 
-5.76958 -0.128961 0 
-0.128961 -5.77584 0 
0 0 0 
-5.74995 -0.112023 0 
-0.112023 -5.79546 0 
0 0 0 
-9.23028 -0.128954 0 
-0.128954 -9.22416 0 
0 0 0 
-9.23786 -0.097993 0 
-0.097993 -9.21658 0 
0 0 0 
-9.24991 -0.111986 0 
-0.111986 -9.20453 0 
0 0 0 
-5.88222 0.189626 0 
0.189626 -5.91026 0 
0 0 0 
-5.52932 0.152252 0 
0.152252 -6.26317 0 
0 0 0 
-5.89081 -0.0148147 0 
-0.0148147 -5.90168 0 
0 0 0 
-9.48638 0.152406 0 
0.152406 -8.71949 0 
0 0 0 
-9.11635 0.192822 0 
0.192822 -9.08953 0 
0 0 0 
-9.1093 -0.0214277 0 
-0.0214277 -9.09657 0 
0 0 0 
-9.45013 -0.0750317 0 
-0.0750317 -9.41491 0 
0 0 0 
-9.40981 -0.0889501 0 
-0.0889501 -9.45524 0 
0 0 0 
-9.44215 -0.127387 0 
-0.127387 -9.4229 0 
0 0 0 
-5.59019 -0.0889517 0 
-0.0889517 -5.54476 0 
0 0 0 
-5.54987 -0.0750351 0 
-0.0750351 -5.58508 0 
0 0 0 
-5.55785 -0.127383 0 
-0.127383 -5.5771 0 
0 0 0 
-9.38924 -0.098251 0 
-0.098251 -9.40708 0 
0 0 0 
-9.39815 -0.129663 0 
-0.129663 -9.39817 0 
0 0 0 
-9.37703 -0.110235 0 
-0.110235 -9.41929 0 
0 0 0 
-5.60185 -0.129659 0 
-0.129659 -5.60182 0 
0 0 0 
-5.61076 -0.0982485 0 
-0.0982485 -5.59291 0 
0 0 0 
-5.62297 -0.110238 0 
-0.110238 -5.5807 0 
0 0 0 
-10.0018 0.118166 0 
0.118166 -9.97861 0 
0 0 0 
-9.96744 0.127599 0 
0.127599 -10.013 0 
0 0 0 
-10.0122 0.102662 0 
0.102662 -9.9682 0 
0 0 0 
-9.98228 0.14221 0 
0.14221 -9.91499 0 
0 0 0 
-9.9329 0.146001 0 
0.146001 -9.96437 0 
0 0 0 
-9.94842 0.134425 0 
0.134425 -9.94884 0 
0 0 0 
-5.0671 0.146001 0 
0.146001 -5.03563 0 
0 0 0 
-5.01772 0.14221 0 
0.14221 -5.08501 0 
0 0 0 
-5.05158 0.134425 0 
0.134425 -5.05116 0 
0 0 0 
-5.03256 0.127599 0 
0.127599 -4.98703 0 
0 0 0 
-4.9982 0.118166 0 
0.118166 -5.02139 0 
0 0 0 
-4.98779 0.102662 0 
0.102662 -5.0318 0 
0 0 0 
-9.63805 0.0220422 0 
0.0220422 -9.61418 0 
0 0 0 
-9.60588 0.0329377 0 
0.0329377 -9.64636 0 
0 0 0 
-9.61502 0.00947289 0 
0.00947289 -9.63721 0 
0 0 0 
-5.39412 0.0329375 0 
0.0329375 -5.35364 0 
0 0 0 
-5.36195 0.0220419 0 
0.0220419 -5.38582 0 
0 0 0 
-5.38498 0.00947218 0 
0.00947218 -5.36279 0 
0 0 0 
-5.02129 -0.1423 0 
-0.1423 -5.0874 0 
0 0 0 
-5.06872 -0.144893 0 
-0.144893 -5.03997 0 
0 0 0 
-5.05478 -0.133566 0 
-0.133566 -5.05392 0 
0 0 0 
-9.93128 -0.144893 0 
-0.144893 -9.96003 0 
0 0 0 
-9.97871 -0.1423 0 
-0.1423 -9.9126 0 
0 0 0 
-9.94522 -0.133566 0 
-0.133566 -9.94608 0 
0 0 0 
-9.62087 0.0118011 0 
0.0118011 -9.57172 0 
0 0 0 
-9.5993 0.0220746 0 
0.0220746 -9.5933 0 
0 0 0 
-9.5731 0.0100782 0 
0.0100782 -9.61949 0 
0 0 0 
-5.4007 0.0220739 0 
0.0220739 -5.4067 0 
0 0 0 
-5.37913 0.0118003 0 
0.0118003 -5.42828 0 
0 0 0 
-5.4269 0.0100772 0 
0.0100772 -5.38051 0 
0 0 0 
-9.96391 -0.126376 0 
-0.126376 -10.0134 0 
0 0 0 
-9.99896 -0.116969 0 
-0.116969 -9.9784 0 
0 0 0 
-10.0093 -0.102718 0 
-0.102718 -9.96805 0 
0 0 0 
-5.00104 -0.116969 0 
-0.116969 -5.0216 0 
0 0 0 
-5.03609 -0.126376 0 
-0.126376 -4.98655 0 
0 0 0 
-4.99069 -0.102718 0 
-0.102718 -5.03195 0 
0 0 0 
-8.70854 -0.133323 0 
-0.133323 -8.67935 0 
0 0 0 
-8.72232 -0.133755 0 
-0.133755 -8.66556 0 
0 0 0 
-8.68837 -0.0740391 0 
-0.0740391 -8.69952 0 
0 0 0 
-9.67368 -0.144543 0 
-0.144543 -9.70796 0 
0 0 0 
-9.73097 -0.143062 0 
-0.143062 -9.65067 0 
0 0 0 
-9.67776 -0.110896 0 
-0.110896 -9.70388 0 
0 0 0 
-5.26903 -0.143062 0 
-0.143062 -5.34933 0 
0 0 0 
-5.32632 -0.144543 0 
-0.144543 -5.29204 0 
0 0 0 
-5.32224 -0.110896 0 
-0.110896 -5.29612 0 
0 0 0 
-5.67288 0.0924692 0 
0.0924692 -5.69445 0 
0 0 0 
-5.69797 0.0927273 0 
0.0927273 -5.66936 0 
0 0 0 
-5.68439 0.143312 0 
0.143312 -5.68294 0 
0 0 0 
-9.30205 0.0927308 0 
0.0927308 -9.33067 0 
0 0 0 
-9.32714 0.092473 0 
0.092473 -9.30558 0 
0 0 0 
-9.31563 0.1433 0 
0.1433 -9.31709 0 
0 0 0 
-8.91018 -0.00571561 0 
-0.00571561 -8.9181 0 
0 0 0 
-8.90584 -0.00105597 0 
-0.00105597 -8.92244 0 
0 0 0 
-8.91237 -0.00129396 0 
-0.00129396 -8.91591 0 
0 0 0 
-6.09613 -0.00112115 0 
-0.00112115 -6.07932 0 
0 0 0 
-6.09216 -0.00588134 0 
-0.00588134 -6.08329 0 
0 0 0 
-6.08947 -0.000977805 0 
-0.000977805 -6.08599 0 
0 0 0 
-8.62384 0.11747 0 
0.11747 -8.61612 0 
0 0 0 
-8.61538 0.133189 0 
0.133189 -8.62458 0 
0 0 0 
-8.63615 0.114041 0 
0.114041 -8.60382 0 
0 0 0 
-8.91092 0.000768116 0 
0.000768116 -8.92808 0 
0 0 0 
-8.91643 0.00556934 0 
0.00556934 -8.92256 0 
0 0 0 
-8.9179 0.00151755 0 
0.00151755 -8.9211 0 
0 0 0 
-6.08505 0.00561105 0 
0.00561105 -6.07947 0 
0 0 0 
-6.09102 0.000758136 0 
0.000758136 -6.07351 0 
0 0 0 
-6.08394 0.00179356 0 
0.00179356 -6.08058 0 
0 0 0 
-5.42031 0.0770505 0 
0.0770505 -5.45236 0 
0 0 0 
-5.44822 0.0858324 0 
0.0858324 -5.42445 0 
0 0 0 
-5.42763 0.0960896 0 
0.0960896 -5.44504 0 
0 0 0 
-9.55178 0.0858328 0 
0.0858328 -9.57555 0 
0 0 0 
-9.57969 0.0770512 0 
0.0770512 -9.54764 0 
0 0 0 
-9.57237 0.096089 0 
0.096089 -9.55496 0 
0 0 0 
-5.74655 0.0255366 0 
0.0255366 -5.75148 0 
0 0 0 
-5.73329 0.0347523 0 
0.0347523 -5.76475 0 
0 0 0 
-5.74834 0.0446728 0 
0.0446728 -5.7497 0 
0 0 0 
-9.26681 0.0346263 0 
0.0346263 -9.23524 0 
0 0 0 
-9.25361 0.0254727 0 
0.0254727 -9.24844 0 
0 0 0 
-9.25169 0.0446463 0 
0.0446463 -9.25036 0 
0 0 0 
-9.27053 0.0405438 0 
0.0405438 -9.28022 0 
0 0 0 
-9.24253 0.0220953 0 
0.0220953 -9.30822 0 
0 0 0 
-9.31689 0.0290179 0 
0.0290179 -9.23387 0 
0 0 0 
-5.75746 0.0221349 0 
0.0221349 -5.69178 0 
0 0 0 
-5.72949 0.0405356 0 
0.0405356 -5.71975 0 
0 0 0 
-5.6832 0.0290449 0 
0.0290449 -5.76604 0 
0 0 0 
-9.38163 0.0265452 0 
0.0265452 -9.38376 0 
0 0 0 
-9.36821 0.0331456 0 
0.0331456 -9.39718 0 
0 0 0 
-9.38292 0.0452183 0 
0.0452183 -9.38247 0 
0 0 0 
-5.63179 0.033144 0 
0.033144 -5.60283 0 
0 0 0 
-5.61837 0.0265385 0 
0.0265385 -5.61625 0 
0 0 0 
-5.61709 0.0452115 0 
0.0452115 -5.61754 0 
0 0 0 
-9.38784 0.0232177 0 
0.0232177 -9.32405 0 
0 0 0 
-9.36038 0.0396414 0 
0.0396414 -9.35151 0 
0 0 0 
-9.31559 0.0267549 0 
0.0267549 -9.3963 0 
0 0 0 
-5.63963 0.0396371 0 
0.0396371 -5.64849 0 
0 0 0 
-5.61217 0.0232151 0 
0.0232151 -5.67595 0 
0 0 0 
-5.68441 0.0267542 0 
0.0267542 -5.60371 0 
0 0 0 
-6.3499 0.0704532 0 
0.0704532 -6.36466 0 
0 0 0 
-6.35989 0.0702299 0 
0.0702299 -6.35466 0 
0 0 0 
-6.37182 0.0536747 0 
0.0536747 -6.34273 0 
0 0 0 
-6.12568 0.0478395 0 
0.0478395 -6.15883 0 
0 0 0 
-6.09903 -0.0070649 0 
-0.0070649 -6.18548 0 
0 0 0 
-6.1257 -0.016849 0 
-0.016849 -6.15881 0 
0 0 0 
-8.89652 -0.0113263 0 
-0.0113263 -8.80003 0 
0 0 0 
-8.88122 0.0596589 0 
0.0596589 -8.81533 0 
0 0 0 
-8.86203 -0.0308857 0 
-0.0308857 -8.83452 0 
0 0 0 
-6.33065 0.0293886 0 
0.0293886 -6.31127 0 
0 0 0 
-6.32413 0.0325209 0 
0.0325209 -6.31779 0 
0 0 0 
-6.30485 0.0475058 0 
0.0475058 -6.33707 0 
0 0 0 
-6.29791 0.0367244 0 
0.0367244 -6.26977 0 
0 0 0 
-6.28288 0.0407188 0 
0.0407188 -6.2848 0 
0 0 0 
-6.31071 0.04286 0 
0.04286 -6.25697 0 
0 0 0 
-9.74537 0.0437986 0 
0.0437986 -9.72069 0 
0 0 0 
-9.72532 0.0269825 0 
0.0269825 -9.74073 0 
0 0 0 
-9.74096 0.035978 0 
0.035978 -9.7251 0 
0 0 0 
-5.27468 0.0269824 0 
0.0269824 -5.25927 0 
0 0 0 
-5.25463 0.0437985 0 
0.0437985 -5.27931 0 
0 0 0 
-5.25904 0.035978 0 
0.035978 -5.2749 0 
0 0 0 
-9.75116 0.0388925 0 
0.0388925 -9.7619 0 
0 0 0 
-9.72499 0.0154399 0 
0.0154399 -9.78807 0 
0 0 0 
-9.7941 0.0311481 0 
0.0311481 -9.71897 0 
0 0 0 
-5.27501 0.0154399 0 
0.0154399 -5.21193 0 
0 0 0 
-5.24884 0.0388925 0 
0.0388925 -5.2381 0 
0 0 0 
-5.2059 0.0311481 0 
0.0311481 -5.28103 0 
0 0 0 
-8.82418 0.117537 0 
0.117537 -8.83173 0 
0 0 0 
-8.79055 0.117895 0 
0.117895 -8.86536 0 
0 0 0 
-8.81327 0.11479 0 
0.11479 -8.84264 0 
0 0 0 
-6.48359 0.0226301 0 
0.0226301 -6.45081 0 
0 0 0 
-6.47155 0.0329578 0 
0.0329578 -6.46285 0 
0 0 0 
-6.42792 0.0307076 0 
0.0307076 -6.50648 0 
0 0 0 
-5.86346 0.0402562 0 
0.0402562 -5.85409 0 
0 0 0 
-5.83599 0.0136537 0 
0.0136537 -5.88156 0 
0 0 0 
-5.87253 0.0132865 0 
0.0132865 -5.84502 0 
0 0 0 
-9.16458 0.0129034 0 
0.0129034 -9.11765 0 
0 0 0 
-9.13664 0.0402789 0 
0.0402789 -9.14559 0 
0 0 0 
-9.12703 0.0121833 0 
0.0121833 -9.1552 0 
0 0 0 
-6.42708 0.0306866 0 
0.0306866 -6.43831 0 
0 0 0 
-6.42072 0.0244795 0 
0.0244795 -6.44466 0 
0 0 0 
-6.45471 0.043164 0 
0.043164 -6.41067 0 
0 0 0 
-9.49838 0.0428498 0 
0.0428498 -9.47796 0 
0 0 0 
-9.48232 0.0249056 0 
0.0249056 -9.49402 0 
0 0 0 
-9.49686 0.0278919 0 
0.0278919 -9.47948 0 
0 0 0 
-5.51768 0.0249029 0 
0.0249029 -5.50598 0 
0 0 0 
-5.50162 0.0428456 0 
0.0428456 -5.52204 0 
0 0 0 
-5.50314 0.0278909 0 
0.0278909 -5.52052 0 
0 0 0 
-5.89586 0.0109858 0 
0.0109858 -5.8993 0 
0 0 0 
-5.86977 -0.00658122 0 
-0.00658122 -5.92538 0 
0 0 0 
-5.93662 0.00705318 0 
0.00705318 -5.85853 0 
0 0 0 
-9.12926 -0.00716573 0 
-0.00716573 -9.07475 0 
0 0 0 
-9.10323 0.0100429 0 
0.0100429 -9.10078 0 
0 0 0 
-9.06337 0.00646601 0 
0.00646601 -9.14064 0 
0 0 0 
-9.52339 0.0335831 0 
0.0335831 -9.51483 0 
0 0 0 
-9.48696 0.0238509 0 
0.0238509 -9.55126 0 
0 0 0 
-9.56658 0.008405 0 
0.008405 -9.47164 0 
0 0 0 
-5.51304 0.0238484 0 
0.0238484 -5.44874 0 
0 0 0 
-5.47661 0.0335816 0 
0.0335816 -5.48517 0 
0 0 0 
-5.43342 0.00840188 0 
0.00840188 -5.52836 0 
0 0 0 
-5.79534 -0.153558 0 
-0.153558 -5.83443 0 
0 0 0 
-5.8516 -0.155896 0 
-0.155896 -5.77817 0 
0 0 0 
-5.80818 -0.0926655 0 
-0.0926655 -5.82159 0 
0 0 0 
-9.14836 -0.155821 0 
-0.155821 -9.22177 0 
0 0 0 
-9.20452 -0.153485 0 
-0.153485 -9.16561 0 
0 0 0 
-9.19169 -0.0927495 0 
-0.0927495 -9.17844 0 
0 0 0 
-9.69133 0.0706647 0 
0.0706647 -9.70852 0 
0 0 0 
-9.70404 0.0811587 0 
0.0811587 -9.69581 0 
0 0 0 
-9.69656 0.0737027 0 
0.0737027 -9.70329 0 
0 0 0 
-5.29596 0.0811586 0 
0.0811586 -5.30419 0 
0 0 0 
-5.30867 0.0706647 0 
0.0706647 -5.29148 0 
0 0 0 
-5.30344 0.0737026 0 
0.0737026 -5.29671 0 
0 0 0 
-5.48267 0.102312 0 
0.102312 -5.47089 0 
0 0 0 
-5.4805 0.127602 0 
0.127602 -5.47306 0 
0 0 0 
-5.49469 0.114224 0 
0.114224 -5.45887 0 
0 0 0 
-9.5195 0.127601 0 
0.127601 -9.52694 0 
0 0 0 
-9.51733 0.102312 0 
0.102312 -9.52911 0 
0 0 0 
-9.50531 0.114225 0 
0.114225 -9.54114 0 
0 0 0 
-9.28165 0.13247 0 
0.13247 -9.28903 0 
0 0 0 
-9.28501 0.109096 0 
0.109096 -9.28568 0 
0 0 0 
-9.27134 0.120327 0 
0.120327 -9.29935 0 
0 0 0 
-5.71503 0.1091 0 
0.1091 -5.71436 0 
0 0 0 
-5.71838 0.132482 0 
0.132482 -5.71101 0 
0 0 0 
-5.7287 0.120329 0 
0.120329 -5.70068 0 
0 0 0 
-9.34601 0.110378 0 
0.110378 -9.34827 0 
0 0 0 
-9.34899 0.133502 0 
0.133502 -9.34529 0 
0 0 0 
-9.35989 0.118573 0 
0.118573 -9.3344 0 
0 0 0 
-5.65101 0.133509 0 
0.133509 -5.65473 0 
0 0 0 
-5.65399 0.110376 0 
0.110376 -5.65174 0 
0 0 0 
-5.64011 0.118584 0 
0.118584 -5.66562 0 
0 0 0 
-5.80252 0.0670346 0 
0.0670346 -5.82387 0 
0 0 0 
-5.814 0.0717976 0 
0.0717976 -5.81238 0 
0 0 0 
-5.80398 0.0671775 0 
0.0671775 -5.8224 0 
0 0 0 
-9.18645 0.0716833 0 
0.0716833 -9.18753 0 
0 0 0 
-9.19804 0.0667897 0 
0.0667897 -9.17594 0 
0 0 0 
-9.19683 0.0671814 0 
0.0671814 -9.17715 0 
0 0 0 
-9.44839 0.0681812 0 
0.0681812 -9.46366 0 
0 0 0 
-9.46343 0.0741735 0 
0.0741735 -9.44862 0 
0 0 0 
-9.45507 0.0654126 0 
0.0654126 -9.45698 0 
0 0 0 
-5.53657 0.0741719 0 
0.0741719 -5.55138 0 
0 0 0 
-5.55161 0.0681804 0 
0.0681804 -5.53634 0 
0 0 0 
-5.54492 0.0654102 0 
0.0654102 -5.54303 0 
0 0 0 
-9.82509 -0.105439 0 
-0.105439 -9.83514 0 
0 0 0 
-9.82786 -0.125758 0 
-0.125758 -9.83236 0 
0 0 0 
-9.81266 -0.106258 0 
-0.106258 -9.84757 0 
0 0 0 
-5.17214 -0.125758 0 
-0.125758 -5.16764 0 
0 0 0 
-5.17491 -0.105439 0 
-0.105439 -5.16486 0 
0 0 0 
-5.18734 -0.106258 0 
-0.106258 -5.15243 0 
0 0 0 
-9.413 -0.152191 0 
-0.152191 -9.45646 0 
0 0 0 
-9.46796 -0.152865 0 
-0.152865 -9.40151 0 
0 0 0 
-9.4293 -0.0882301 0 
-0.0882301 -9.44016 0 
0 0 0 
-5.53204 -0.152861 0 
-0.152861 -5.59848 0 
0 0 0 
-5.58699 -0.152186 0 
-0.152186 -5.54353 0 
0 0 0 
-5.57069 -0.0882312 0 
-0.0882312 -5.55983 0 
0 0 0 
-6.00791 -0.117942 0 
-0.117942 -6.01062 0 
0 0 0 
-6.03105 -0.118676 0 
-0.118676 -5.98748 0 
0 0 0 
-6.01656 -0.102541 0 
-0.102541 -6.00197 0 
0 0 0 
-8.96935 -0.118144 0 
-0.118144 -9.01277 0 
0 0 0 
-8.99224 -0.117445 0 
-0.117445 -8.98988 0 
0 0 0 
-8.98365 -0.102291 0 
-0.102291 -8.99847 0 
0 0 0 
-8.77748 0.108191 0 
0.108191 -8.81382 0 
0 0 0 
-8.7607 0.111317 0 
0.111317 -8.8306 0 
0 0 0 
-8.80439 0.105964 0 
0.105964 -8.78691 0 
0 0 0 
-6.18084 0.115935 0 
0.115935 -6.13487 0 
0 0 0 
-6.14636 0.112996 0 
0.112996 -6.16935 0 
0 0 0 
-6.1709 0.0925728 0 
0.0925728 -6.14481 0 
0 0 0 
-6.04454 -0.00103639 0 
-0.00103639 -6.07955 0 
0 0 0 
-6.08387 -0.0328912 0 
-0.0328912 -6.04022 0 
0 0 0 
-6.04543 -0.0177277 0 
-0.0177277 -6.07866 0 
0 0 0 
-8.89942 -0.0355521 0 
-0.0355521 -8.96077 0 
0 0 0 
-8.94902 -0.00397572 0 
-0.00397572 -8.91117 0 
0 0 0 
-8.94125 -0.0182186 0 
-0.0182186 -8.91893 0 
0 0 0 
-8.85927 0.0435082 0 
0.0435082 -8.99636 0 
0 0 0 
-8.84504 0.0197269 0 
0.0197269 -9.01059 0 
0 0 0 
-8.88245 0.00588054 0 
0.00588054 -8.97318 0 
0 0 0 
-6.16113 0.0200131 0 
0.0200131 -5.99156 0 
0 0 0 
-6.14494 0.0404335 0 
0.0404335 -6.00776 0 
0 0 0 
-6.11379 0.00615451 0 
0.00615451 -6.03891 0 
0 0 0 
-6.06646 -0.00574519 0 
-0.00574519 -6.00248 0 
0 0 0 
-6.093 -0.00118224 0 
-0.00118224 -5.97595 0 
0 0 0 
-6.07303 -0.0282505 0 
-0.0282505 -5.99592 0 
0 0 0 
-8.90447 -0.00151239 0 
-0.00151239 -9.02545 0 
0 0 0 
-8.9392 -0.00146964 0 
-0.00146964 -8.99072 0 
0 0 0 
-8.92083 -0.0225538 0 
-0.0225538 -9.0091 0 
0 0 0 
-8.9049 0.0695891 0 
0.0695891 -8.96698 0 
0 0 0 
-8.87406 0.0532791 0 
0.0532791 -8.99782 0 
0 0 0 
-8.91152 -0.0076349 0 
-0.0076349 -8.96036 0 
0 0 0 
-6.13065 0.0493478 0 
0.0493478 -6.00271 0 
0 0 0 
-6.10208 0.0815753 0 
0.0815753 -6.03128 0 
0 0 0 
-6.08892 0.00225441 0 
0.00225441 -6.04444 0 
0 0 0 
-6.11202 -0.0272659 0 
-0.0272659 -6.07763 0 
0 0 0 
-6.10932 -0.0295274 0 
-0.0295274 -6.08032 0 
0 0 0 
-6.10941 -0.0341098 0 
-0.0341098 -6.08024 0 
0 0 0 
-8.89266 -0.0289175 0 
-0.0289175 -8.92113 0 
0 0 0 
-8.88981 -0.026622 0 
-0.026622 -8.92398 0 
0 0 0 
-8.89252 -0.0336031 0 
-0.0336031 -8.92127 0 
0 0 0 
-9.86234 -0.143194 0 
-0.143194 -9.88837 0 
0 0 0 
-9.88656 -0.14388 0 
-0.14388 -9.86415 0 
0 0 0 
-9.87407 -0.119769 0 
-0.119769 -9.87664 0 
0 0 0 
-5.11344 -0.14388 0 
-0.14388 -5.13585 0 
0 0 0 
-5.13766 -0.143194 0 
-0.143194 -5.11163 0 
0 0 0 
-5.12593 -0.119769 0 
-0.119769 -5.12336 0 
0 0 0 
-6.09317 0.0290404 0 
0.0290404 -6.06 0 
0 0 0 
-6.09322 0.0282072 0 
0.0282072 -6.05996 0 
0 0 0 
-6.09273 0.0318344 0 
0.0318344 -6.06045 0 
0 0 0 
-8.91212 0.0253027 0 
0.0253027 -8.94563 0 
0 0 0 
-8.91604 0.0270357 0 
0.0270357 -8.9417 0 
0 0 0 
-8.91506 0.0330792 0 
0.0330792 -8.94269 0 
0 0 0 
-9.89145 0.144274 0 
0.144274 -9.87285 0 
0 0 0 
-9.86908 0.14375 0 
0.14375 -9.89523 0 
0 0 0 
-9.88098 0.128221 0 
0.128221 -9.88333 0 
0 0 0 
-5.13092 0.14375 0 
0.14375 -5.10477 0 
0 0 0 
-5.10855 0.144274 0 
0.144274 -5.12715 0 
0 0 0 
-5.11902 0.128221 0 
0.128221 -5.11667 0 
0 0 0 
-5.98529 -0.108093 0 
-0.108093 -5.96447 0 
0 0 0 
-6.00517 -0.12255 0 
-0.12255 -5.94459 0 
0 0 0 
-5.97269 -0.0615848 0 
-0.0615848 -5.97708 0 
0 0 0 
-8.99459 -0.122245 0 
-0.122245 -9.05585 0 
0 0 0 
-9.01461 -0.108023 0 
-0.108023 -9.03584 0 
0 0 0 
-9.02716 -0.0609593 0 
-0.0609593 -9.02328 0 
0 0 0 
-5.69388 0.143147 0 
0.143147 -5.67368 0 
0 0 0 
-5.67334 0.143111 0 
0.143111 -5.69422 0 
0 0 0 
-5.68406 0.114381 0 
0.114381 -5.6835 0 
0 0 0 
-9.32668 0.143095 0 
0.143095 -9.30581 0 
0 0 0 
-9.30614 0.143131 0 
0.143131 -9.32634 0 
0 0 0 
-9.31595 0.114379 0 
0.114379 -9.31653 0 
0 0 0 
-9.57905 0.148674 0 
0.148674 -9.54685 0 
0 0 0 
-9.54661 0.150351 0 
0.150351 -9.57929 0 
0 0 0 
-9.56699 0.117661 0 
0.117661 -9.55891 0 
0 0 0 
-5.45339 0.150351 0 
0.150351 -5.42071 0 
0 0 0 
-5.42094 0.148674 0 
0.148674 -5.45315 0 
0 0 0 
-5.43301 0.117661 0 
0.117661 -5.44109 0 
0 0 0 
-6.16102 -0.0435515 0 
-0.0435515 -6.02527 0 
0 0 0 
-6.17303 -0.0217994 0 
-0.0217994 -6.01327 0 
0 0 0 
-6.1323 -0.00804415 0 
-0.00804415 -6.05399 0 
0 0 0 
-8.82758 -0.0210218 0 
-0.0210218 -8.98913 0 
0 0 0 
-8.84034 -0.0436487 0 
-0.0436487 -8.97637 0 
0 0 0 
-8.86991 -0.00699889 0 
-0.00699889 -8.9468 0 
0 0 0 
-8.63469 -0.132744 0 
-0.132744 -8.65455 0 
0 0 0 
-8.64316 -0.13569 0 
-0.13569 -8.64608 0 
0 0 0 
-8.63745 -0.123012 0 
-0.123012 -8.6518 0 
0 0 0 
-8.67519 0.14791 0 
0.14791 -8.65319 0 
0 0 0 
-8.65287 0.148286 0 
0.148286 -8.6755 0 
0 0 0 
-8.66423 0.124586 0 
0.124586 -8.66415 0 
0 0 0 
-9.61201 0.125535 0 
0.125535 -9.58514 0 
0 0 0 
-9.5993 0.138774 0 
0.138774 -9.59786 0 
0 0 0 
-9.58412 0.127708 0 
0.127708 -9.61303 0 
0 0 0 
-5.4007 0.138774 0 
0.138774 -5.40214 0 
0 0 0 
-5.38799 0.125535 0 
0.125535 -5.41486 0 
0 0 0 
-5.41588 0.127708 0 
0.127708 -5.38697 0 
0 0 0 
-9.64996 0.14684 0 
0.14684 -9.62164 0 
0 0 0 
-9.6238 0.146832 0 
0.146832 -9.64779 0 
0 0 0 
-9.63601 0.133808 0 
0.133808 -9.63559 0 
0 0 0 
-5.3762 0.146832 0 
0.146832 -5.35221 0 
0 0 0 
-5.35004 0.14684 0 
0.14684 -5.37836 0 
0 0 0 
-5.36399 0.133808 0 
0.133808 -5.36441 0 
0 0 0 
-6.13479 -0.0709961 0 
-0.0709961 -6.07113 0 
0 0 0 
-6.16302 -0.0537708 0 
-0.0537708 -6.04289 0 
0 0 0 
-6.12449 -0.00322435 0 
-0.00322435 -6.08143 0 
0 0 0 
-8.83826 -0.0530269 0 
-0.0530269 -8.95858 0 
0 0 0 
-8.86671 -0.0707585 0 
-0.0707585 -8.93013 0 
0 0 0 
-8.87674 -0.00247953 0 
-0.00247953 -8.9201 0 
0 0 0 
-6.23217 0.128189 0 
0.128189 -6.12436 0 
0 0 0 
-6.1957 0.120099 0 
0.120099 -6.16084 0 
0 0 0 
-6.17913 0.0819681 0 
0.0819681 -6.17741 0 
0 0 0 
-9.58713 0.0832414 0 
0.0832414 -9.59631 0 
0 0 0 
-9.61364 0.0960837 0 
0.0960837 -9.5698 0 
0 0 0 
-9.57036 0.0990672 0 
0.0990672 -9.61309 0 
0 0 0 
-5.38636 0.0960837 0 
0.0960837 -5.4302 0 
0 0 0 
-5.41287 0.0832409 0 
0.0832409 -5.40369 0 
0 0 0 
-5.42964 0.0990673 0 
0.0990673 -5.38691 0 
0 0 0 
-6.22106 0.0711696 0 
0.0711696 -6.11371 0 
0 0 0 
-6.22822 0.0856267 0 
0.0856267 -6.10656 0 
0 0 0 
-6.19718 0.0553811 0 
0.0553811 -6.13759 0 
0 0 0 
-6.38315 -0.00738119 0 
-0.00738119 -6.3509 0 
0 0 0 
-6.35751 0.00447013 0 
0.00447013 -6.37654 0 
0 0 0 
-6.36427 0.00397599 0 
0.00397599 -6.36978 0 
0 0 0 
-9.85435 0.133777 0 
0.133777 -9.8332 0 
0 0 0 
-9.83869 0.119619 0 
0.119619 -9.84886 0 
0 0 0 
-9.82677 0.104706 0 
0.104706 -9.86078 0 
0 0 0 
-5.16131 0.119619 0 
0.119619 -5.15114 0 
0 0 0 
-5.14565 0.133777 0 
0.133777 -5.1668 0 
0 0 0 
-5.17323 0.104706 0 
0.104706 -5.13922 0 
0 0 0 
-6.33571 -0.0176916 0 
-0.0176916 -6.3246 0 
0 0 0 
-6.29834 -0.00938465 0 
-0.00938465 -6.36197 0 
0 0 0 
-6.33313 -0.0356294 0 
-0.0356294 -6.32718 0 
0 0 0 
-9.89019 0.0424191 0 
0.0424191 -9.90029 0 
0 0 0 
-9.87109 0.0177658 0 
0.0177658 -9.91939 0 
0 0 0 
-9.92932 0.0187442 0 
0.0187442 -9.86117 0 
0 0 0 
-5.12891 0.0177658 0 
0.0177658 -5.08061 0 
0 0 0 
-5.10981 0.0424191 0 
0.0424191 -5.09971 0 
0 0 0 
-5.07068 0.0187442 0 
0.0187442 -5.13883 0 
0 0 0 
-6.3994 0.000622483 0 
0.000622483 -6.38587 0 
0 0 0 
-6.37968 -0.00977312 0 
-0.00977312 -6.40559 0 
0 0 0 
-6.39116 -0.000269699 0 
-0.000269699 -6.39411 0 
0 0 0 
-9.87213 0.0906995 0 
0.0906995 -9.87841 0 
0 0 0 
-9.88796 0.0838289 0 
0.0838289 -9.86258 0 
0 0 0 
-9.87796 0.0805901 0 
0.0805901 -9.87258 0 
0 0 0 
-5.11204 0.0838289 0 
0.0838289 -5.13742 0 
0 0 0 
-5.12787 0.0906995 0 
0.0906995 -5.12159 0 
0 0 0 
-5.12204 0.0805901 0 
0.0805901 -5.12742 0 
0 0 0 
-6.45116 -0.0189762 0 
-0.0189762 -6.41681 0 
0 0 0 
-6.43784 -0.0314331 0 
-0.0314331 -6.43014 0 
0 0 0 
-6.42886 -0.0379703 0 
-0.0379703 -6.43912 0 
0 0 0 
-9.87101 -0.0150867 0 
-0.0150867 -9.90661 0 
0 0 0 
-9.88447 -0.0386431 0 
-0.0386431 -9.89315 0 
0 0 0 
-9.93031 -0.018821 0 
-0.018821 -9.84731 0 
0 0 0 
-5.11553 -0.0386431 0 
-0.0386431 -5.10685 0 
0 0 0 
-5.12899 -0.0150867 0 
-0.0150867 -5.09339 0 
0 0 0 
-5.06969 -0.018821 0 
-0.018821 -5.15269 0 
0 0 0 
-5.12986 -0.0917772 0 
-0.0917772 -5.1073 0 
0 0 0 
-5.12247 -0.0879122 0 
-0.0879122 -5.11469 0 
0 0 0 
-5.10875 -0.0815247 0 
-0.0815247 -5.12841 0 
0 0 0 
-9.87753 -0.0879123 0 
-0.0879123 -9.88531 0 
0 0 0 
-9.87014 -0.0917772 0 
-0.0917772 -9.8927 0 
0 0 0 
-9.89125 -0.0815247 0 
-0.0815247 -9.87159 0 
0 0 0 
-8.86609 -0.00521991 0 
-0.00521991 -8.9787 0 
0 0 0 
-8.86997 -0.0102302 0 
-0.0102302 -8.97482 0 
0 0 0 
-8.87283 -0.0108908 0 
-0.0108908 -8.97196 0 
0 0 0 
-6.1338 -0.0114343 0 
-0.0114343 -6.02627 0 
0 0 0 
-6.13732 -0.00547544 0 
-0.00547544 -6.02275 0 
0 0 0 
-6.12928 -0.0114189 0 
-0.0114189 -6.03079 0 
0 0 0 
-9.88142 -0.13265 0 
-0.13265 -9.93326 0 
0 0 0 
-9.90658 -0.131736 0 
-0.131736 -9.9081 0 
0 0 0 
-9.92118 -0.111129 0 
-0.111129 -9.89351 0 
0 0 0 
-5.09342 -0.131736 0 
-0.131736 -5.0919 0 
0 0 0 
-5.11858 -0.13265 0 
-0.13265 -5.06674 0 
0 0 0 
-5.07882 -0.111129 0 
-0.111129 -5.10649 0 
0 0 0 
-8.86516 -0.00636135 0 
-0.00636135 -8.91745 0 
0 0 0 
-8.86184 -0.00884685 0 
-0.00884685 -8.92077 0 
0 0 0 
-8.8719 -0.018757 0 
-0.018757 -8.91071 0 
0 0 0 
-6.1413 -0.00926111 0 
-0.00926111 -6.08055 0 
0 0 0 
-6.13747 -0.00605576 0 
-0.00605576 -6.08438 0 
0 0 0 
-6.13072 -0.0195134 0 
-0.0195134 -6.09113 0 
0 0 0 
-6.14788 0.00355956 0 
0.00355956 -6.03509 0 
0 0 0 
-6.143 0.00868955 0 
0.00868955 -6.03997 0 
0 0 0 
-6.14232 0.00988233 0 
0.00988233 -6.04065 0 
0 0 0 
-8.85926 0.00861988 0 
0.00861988 -8.96219 0 
0 0 0 
-8.85518 0.0052675 0 
0.0052675 -8.96626 0 
0 0 0 
-8.85946 0.0100786 0 
0.0100786 -8.96198 0 
0 0 0 
-6.08613 0.0061132 0 
0.0061132 -6.03237 0 
0 0 0 
-6.0887 0.00796824 0 
0.00796824 -6.0298 0 
0 0 0 
-6.07905 0.0184841 0 
0.0184841 -6.03946 0 
0 0 0 
-8.91212 0.00884343 0 
0.00884343 -8.97301 0 
0 0 0 
-8.9177 0.00548238 0 
0.00548238 -8.96743 0 
0 0 0 
-8.92491 0.0198677 0 
0.0198677 -8.96022 0 
0 0 0 
-8.66996 -0.0247808 0 
-0.0247808 -8.66854 0 
0 0 0 
-8.69316 -0.00783602 0 
-0.00783602 -8.64533 0 
0 0 0 
-8.64198 -0.00185282 0 
-0.00185282 -8.69651 0 
0 0 0 
-9.87577 0.0924223 0 
0.0924223 -9.90027 0 
0 0 0 
-9.88105 0.0861658 0 
0.0861658 -9.895 0 
0 0 0 
-9.90005 0.0803125 0 
0.0803125 -9.87599 0 
0 0 0 
-5.11895 0.0861657 0 
0.0861657 -5.105 0 
0 0 0 
-5.12423 0.0924222 0 
0.0924222 -5.09973 0 
0 0 0 
-5.09995 0.0803125 0 
0.0803125 -5.12401 0 
0 0 0 
-9.91505 0.13375 0 
0.13375 -9.91298 0 
0 0 0 
-9.8875 0.133426 0 
0.133426 -9.94053 0 
0 0 0 
-9.93168 0.107989 0 
0.107989 -9.89635 0 
0 0 0 
-5.1125 0.133426 0 
0.133426 -5.05947 0 
0 0 0 
-5.08495 0.13375 0 
0.13375 -5.08702 0 
0 0 0 
-5.06832 0.107989 0 
0.107989 -5.10365 0 
0 0 0 
-5.35189 0.127611 0 
0.127611 -5.30508 0 
0 0 0 
-5.32753 0.135063 0 
0.135063 -5.32944 0 
0 0 0 
-5.31148 0.12173 0 
0.12173 -5.34549 0 
0 0 0 
-9.67247 0.135063 0 
0.135063 -9.67056 0 
0 0 0 
-9.64811 0.127611 0 
0.127611 -9.69492 0 
0 0 0 
-9.68852 0.12173 0 
0.12173 -9.65451 0 
0 0 0 
-8.68138 0.02427 0 
0.02427 -8.65077 0 
0 0 0 
-8.66195 0.0431656 0 
0.0431656 -8.6702 0 
0 0 0 
-8.64468 0.0289866 0 
0.0289866 -8.68747 0 
0 0 0 
-6.36684 -0.0602518 0 
-0.0602518 -6.39017 0 
0 0 0 
-6.37009 -0.0617613 0 
-0.0617613 -6.38692 0 
0 0 0 
-6.38791 -0.0726769 0 
-0.0726769 -6.36909 0 
0 0 0 
-6.39619 -0.0648518 0 
-0.0648518 -6.39013 0 
0 0 0 
-6.40496 -0.0649581 0 
-0.0649581 -6.38136 0 
0 0 0 
-6.38441 -0.0771618 0 
-0.0771618 -6.40191 0 
0 0 0 
METADATA
COMPONENT_NAMES
XX
XY
XZ
YX
YY
YZ
ZX
ZY
ZZ

